Ca Co O                                 
   1.00000000000000     
     9.6048491011950006    0.0000000000000000    0.0000000000000000
     0.0000000000000000    9.6048491011950006    0.0000000000000000
     0.0000000000000000    0.0000000000000000   24.6048491011950006
   Ca   Co   O 
    32     1    32
Selective dynamics
Direct
  0.2499342319468743  0.0000709818735189  0.0981753992364041   T   T   T
  0.7500720374351242  0.0000709818735189  0.0981753992364041   T   T   T
  0.0000044024150014  0.2500051345075374  0.0981303639259095   T   T   T
  0.5000044024150014  0.2500053372206685  0.0981486947259711   T   T   T
  0.2499356466023591  0.4999357641480727  0.0981766345575254   T   T   T
  0.7500706227796464  0.4999357641480727  0.0981766345575254   T   T   T
  0.0000044024150014  0.7500009330833473  0.0981489215870759   T   T   T
  0.5000044024150014  0.7499998078854757  0.0982375211557278   T   T   T
  0.0000046357080024  0.0001657832862592  0.1950604250501573   T   T   T
  0.5000046357080024  0.0002866708677151  0.1950133901956562   T   T   T
  0.2498381207471012  0.2500099042773255  0.1950618221989654   T   T   T
  0.7501676820489025  0.2500099042773255  0.1950618221989654   T   T   T
  0.0000046357080024  0.4998392783428873  0.1950633902643903   T   T   T
  0.5000046357080024  0.4997175153258762  0.1950158904212347   T   T   T
  0.2497168106343615  0.7499994774823302  0.1950154866774680   T   T   T
  0.7502889921616350  0.7499994774823302  0.1950154866774680   T   T   T
  0.2501418634271679  0.9998680493679338  0.2931266080305756   T   T   T
  0.7498639393688358  0.9998680493679338  0.2931266080305756   T   T   T
  0.0000046357080024  0.2500170517199495  0.2927053389750313   T   T   T
  0.5000046357080024  0.2500746204218064  0.2925900717066397   T   T   T
  0.2501526642952599  0.5001659657761984  0.2931593557761840   T   T   T
  0.7498531385007366  0.5001659657761984  0.2931593557761840   T   T   T
  0.0000046357080024  0.7499866456858640  0.2925949392088579   T   T   T
  0.5000046357080024  0.7499214103406006  0.2922725708608863   T   T   T
  0.0000044024150014  0.0019478404834149  0.3900533741156637   T   T   T
  0.5000044024150014  0.0092335287881138  0.3913740920781358   T   T   T
  0.2480831706493931  0.2500933236139684  0.3900625070358513   T   T   T
  0.7519230987326125  0.2500933236139684  0.3900625070358513   T   T   T
  0.0000044024150014  0.4981369314946377  0.3900724786848606   T   T   T
  0.5000044024150014  0.4914186507085651  0.3914688614508652   T   T   T
  0.2411395831764268  0.7502066671420073  0.3914303076180957   T   T   T
  0.7588666862055786  0.7502066671420073  0.3914303076180957   T   T   T
  0.5000036907820018  0.7494461806563135  0.4680149786844142   T   T   T
  0.0000036128909997  0.9999239873477745  0.0988523520052208   T   T   T
  0.5000036128909997  0.9998207485940709  0.0989757318699215   T   T   T
  0.2500830669755827  0.2500009377318961  0.0988518473031269   T   T   T
  0.7499247814544193  0.2500009377318961  0.0988518473031269   T   T   T
  0.0000036128909997  0.5000809654151301  0.0988512837525796   T   T   T
  0.5000036128909997  0.5001847060356739  0.0989728288972403   T   T   T
  0.2501865098522770  0.7500045013176194  0.0989739089691996   T   T   T
  0.7498213385777248  0.7500045013176194  0.0989739089691996   T   T   T
  0.2501543611083207  0.9998572909923907  0.1942767438613736   T   T   T
  0.7498537024896746  0.9998572909923907  0.1942767438613736   T   T   T
  0.0000035053069993  0.2499990455024280  0.1943416320978570   T   T   T
  0.5000035053069993  0.2499951499706045  0.1944856996485601   T   T   T
  0.2501509010798017  0.5001519643430195  0.1942758483412748   T   T   T
  0.7498571625182010  0.5001519643430195  0.1942758483412748   T   T   T
  0.0000035053069993  0.7500062463666565  0.1944844537847409   T   T   T
  0.5000035053069993  0.7500086329713604  0.1951573890426879   T   T   T
  0.0000035053069993  0.9997772406177187  0.2933102478213597   T   T   T
  0.5000035053069993  0.9987859557167272  0.2940408219335665   T   T   T
  0.2502328567829754  0.2499979936250687  0.2933067301486692   T   T   T
  0.7497752068150273  0.2499979936250687  0.2933067301486692   T   T   T
  0.0000035053069993  0.5002291206482465  0.2933024379756848   T   T   T
  0.5000035053069993  0.5012516455005290  0.2939864157929549   T   T   T
  0.2512368460959414  0.7500471675205117  0.2940108860592842   T   T   T
  0.7487712175020542  0.7500471675205117  0.2940108860592842   T   T   T
  0.2493052268731696  0.0007653281357552  0.3878654771264321   T   T   T
  0.7507026215568324  0.0007653281357552  0.3878654771264321   T   T   T
  0.0000036128909997  0.2499676333417598  0.3886154300330778   T   T   T
  0.5000036128909997  0.2499674553241188  0.3885676874422473   T   T   T
  0.2492069472309670  0.4992579536107116  0.3878815689253473   T   T   T
  0.7508009011990348  0.4992579536107116  0.3878815689253473   T   T   T
  0.0000036128909997  0.7500496373202575  0.3885666923171353   T   T   T
  0.5000036907820018  0.7491261116762535  0.3934662756101181   T   T   T
 
  0.00000000E+00  0.00000000E+00  0.00000000E+00
  0.00000000E+00  0.00000000E+00  0.00000000E+00
  0.00000000E+00  0.00000000E+00  0.00000000E+00
  0.00000000E+00  0.00000000E+00  0.00000000E+00
  0.00000000E+00  0.00000000E+00  0.00000000E+00
  0.00000000E+00  0.00000000E+00  0.00000000E+00
  0.00000000E+00  0.00000000E+00  0.00000000E+00
  0.00000000E+00  0.00000000E+00  0.00000000E+00
  0.00000000E+00  0.00000000E+00  0.00000000E+00
  0.00000000E+00  0.00000000E+00  0.00000000E+00
  0.00000000E+00  0.00000000E+00  0.00000000E+00
  0.00000000E+00  0.00000000E+00  0.00000000E+00
  0.00000000E+00  0.00000000E+00  0.00000000E+00
  0.00000000E+00  0.00000000E+00  0.00000000E+00
  0.00000000E+00  0.00000000E+00  0.00000000E+00
  0.00000000E+00  0.00000000E+00  0.00000000E+00
  0.00000000E+00  0.00000000E+00  0.00000000E+00
  0.00000000E+00  0.00000000E+00  0.00000000E+00
  0.00000000E+00  0.00000000E+00  0.00000000E+00
  0.00000000E+00  0.00000000E+00  0.00000000E+00
  0.00000000E+00  0.00000000E+00  0.00000000E+00
  0.00000000E+00  0.00000000E+00  0.00000000E+00
  0.00000000E+00  0.00000000E+00  0.00000000E+00
  0.00000000E+00  0.00000000E+00  0.00000000E+00
  0.00000000E+00  0.00000000E+00  0.00000000E+00
  0.00000000E+00  0.00000000E+00  0.00000000E+00
  0.00000000E+00  0.00000000E+00  0.00000000E+00
  0.00000000E+00  0.00000000E+00  0.00000000E+00
  0.00000000E+00  0.00000000E+00  0.00000000E+00
  0.00000000E+00  0.00000000E+00  0.00000000E+00
  0.00000000E+00  0.00000000E+00  0.00000000E+00
  0.00000000E+00  0.00000000E+00  0.00000000E+00
  0.00000000E+00  0.00000000E+00  0.00000000E+00
  0.00000000E+00  0.00000000E+00  0.00000000E+00
  0.00000000E+00  0.00000000E+00  0.00000000E+00
  0.00000000E+00  0.00000000E+00  0.00000000E+00
  0.00000000E+00  0.00000000E+00  0.00000000E+00
  0.00000000E+00  0.00000000E+00  0.00000000E+00
  0.00000000E+00  0.00000000E+00  0.00000000E+00
  0.00000000E+00  0.00000000E+00  0.00000000E+00
  0.00000000E+00  0.00000000E+00  0.00000000E+00
  0.00000000E+00  0.00000000E+00  0.00000000E+00
  0.00000000E+00  0.00000000E+00  0.00000000E+00
  0.00000000E+00  0.00000000E+00  0.00000000E+00
  0.00000000E+00  0.00000000E+00  0.00000000E+00
  0.00000000E+00  0.00000000E+00  0.00000000E+00
  0.00000000E+00  0.00000000E+00  0.00000000E+00
  0.00000000E+00  0.00000000E+00  0.00000000E+00
  0.00000000E+00  0.00000000E+00  0.00000000E+00
  0.00000000E+00  0.00000000E+00  0.00000000E+00
  0.00000000E+00  0.00000000E+00  0.00000000E+00
  0.00000000E+00  0.00000000E+00  0.00000000E+00
  0.00000000E+00  0.00000000E+00  0.00000000E+00
  0.00000000E+00  0.00000000E+00  0.00000000E+00
  0.00000000E+00  0.00000000E+00  0.00000000E+00
  0.00000000E+00  0.00000000E+00  0.00000000E+00
  0.00000000E+00  0.00000000E+00  0.00000000E+00
  0.00000000E+00  0.00000000E+00  0.00000000E+00
  0.00000000E+00  0.00000000E+00  0.00000000E+00
  0.00000000E+00  0.00000000E+00  0.00000000E+00
  0.00000000E+00  0.00000000E+00  0.00000000E+00
  0.00000000E+00  0.00000000E+00  0.00000000E+00
  0.00000000E+00  0.00000000E+00  0.00000000E+00
  0.00000000E+00  0.00000000E+00  0.00000000E+00
  0.00000000E+00  0.00000000E+00  0.00000000E+00
