Ca O Pd                                 
   1.00000000000000     
     9.6048491011950006    0.0000000000000000    0.0000000000000000
     0.0000000000000000    9.6048491011950006    0.0000000000000000
     0.0000000000000000    0.0000000000000000   24.6048491011950006
   Ca   O    Pd
    32    32     1
Selective dynamics
Direct
  0.2499728673960828  0.0000333279842672  0.0981044364270505   T   T   T
  0.7500334019859157  0.0000333279842672  0.0981044364270505   T   T   T
  0.0000044024150014  0.2500044249906157  0.0980761341141946   T   T   T
  0.5000044024150014  0.2500033633696001  0.0980522028474249   T   T   T
  0.2499731474941591  0.4999730641730231  0.0981042564897455   T   T   T
  0.7500331218878394  0.4999730641730231  0.0981042564897455   T   T   T
  0.0000044024150014  0.7500037002579879  0.0980521993548343   T   T   T
  0.5000044024150014  0.7500031935734990  0.0981560800233789   T   T   T
  0.0000046357080024  0.0002342746507126  0.1950510647098134   T   T   T
  0.5000046357080024  0.0001756023368675  0.1949924693169145   T   T   T
  0.2497729763037137  0.2500036383265534  0.1950512502171864   T   T   T
  0.7502328264922830  0.2500036383265534  0.1950512502171864   T   T   T
  0.0000046357080024  0.4997743680709579  0.1950514166547700   T   T   T
  0.5000046357080024  0.4998321214591986  0.1949927011091465   T   T   T
  0.2498312261180644  0.7500034265874280  0.1949925653159715   T   T   T
  0.7501745766779322  0.7500034265874280  0.1949925653159715   T   T   T
  0.2504216756033779 -0.0004146724994542  0.2932130114181617   T   T   T
  0.7495841271926187 -0.0004146724994542  0.2932130114181617   T   T   T
  0.0000046357080024  0.2500044806402898  0.2928143348165343   T   T   T
  0.5000046357080024  0.2500040954228314  0.2927054890187435   T   T   T
  0.2504221353556534  0.5004234520194859  0.2932130175711297   T   T   T
  0.7495836674403432  0.5004234520194859  0.2932130175711297   T   T   T
  0.0000046357080024  0.7500042582081516  0.2927053316554034   T   T   T
  0.5000046357080024  0.7500049707963323  0.2926624851407271   T   T   T
  0.0000044024150014  0.0015589214077363  0.3897789573042211   T   T   T
  0.5000044024150014  0.0063025789669844  0.3912458333749398   T   T   T
  0.2484477771454391  0.2500036460287787  0.3897790461609846   T   T   T
  0.7515584922365595  0.2500036460287787  0.3897790461609846   T   T   T
  0.0000044024150014  0.4984481813530370  0.3897788232262646   T   T   T
  0.5000044024150014  0.4937051985678873  0.3912457827254875   T   T   T
  0.2437044086154158  0.7500039098955997  0.3912457111445736   T   T   T
  0.7563018607665828  0.7500039098955997  0.3912457111445736   T   T   T
  0.0000036128909997 -0.0000607352108145  0.0988015247835186   T   T   T
  0.5000036128909997 -0.0001144442311142  0.0988790423685091   T   T   T
  0.2500674228115869  0.2500028791765757  0.0988015357737915   T   T   T
  0.7499404256184150  0.2500028791765757  0.0988015357737915   T   T   T
  0.0000036128909997  0.5000661883590783  0.0988014454535173   T   T   T
  0.5000036128909997  0.5001198370831531  0.0988790069746568   T   T   T
  0.2501210965420311  0.7500025345768345  0.0988790368504000   T   T   T
  0.7498867518879708  0.7500025345768345  0.0988790368504000   T   T   T
  0.2500511320429220 -0.0000437717527345  0.1942518171620937   T   T   T
  0.7499569315550807 -0.0000437717527345  0.1942518171620937   T   T   T
  0.0000035053069993  0.2500034283326822  0.1943960329655669   T   T   T
  0.5000035053069993  0.2500034724515339  0.1944493602622549   T   T   T
  0.2500514345185703  0.5000504563033809  0.1942519911089877   T   T   T
  0.7499566290794324  0.5000504563033809  0.1942519911089877   T   T   T
  0.0000035053069993  0.7500033589280916  0.1944492418342395   T   T   T
  0.5000035053069993  0.7500034604694582  0.1949887034136571   T   T   T
  0.0000035053069993 -0.0001429200030833  0.2934301621357654   T   T   T
  0.5000035053069993 -0.0007257251913290  0.2938541347643131   T   T   T
  0.2501511441955299  0.2500043410374871  0.2934305219484359   T   T   T
  0.7498569194024729  0.2500043410374871  0.2934305219484359   T   T   T
  0.0000035053069993  0.5001518800731313  0.2934306584968060   T   T   T
  0.5000035053069993  0.5007383989105155  0.2938540797396859   T   T   T
  0.2507362580282401  0.7500044403917611  0.2938541921228738   T   T   T
  0.7492718055697626  0.7500044403917611  0.2938541921228738   T   T   T
  0.2487556781600375  0.0012513306284597  0.3882877386926559   T   T   T
  0.7512521702699644  0.0012513306284597  0.3882877386926559   T   T   T
  0.0000036128909997  0.2500034967229695  0.3891378068849238   T   T   T
  0.5000036128909997  0.2500036678087666  0.3890275772700087   T   T   T
  0.2487558453512776  0.4987549725602551  0.3882877835606984   T   T   T
  0.7512520030787244  0.4987549725602551  0.3882877835606984   T   T   T
  0.0000036128909997  0.7500030733615334  0.3890275877283221   T   T   T
  0.5000036907820018  0.7500055272397281  0.3893183281484211   T   T   T
  0.5000036907820018  0.7500045209066206  0.4716619349555791   T   T   T
 
  0.00000000E+00  0.00000000E+00  0.00000000E+00
  0.00000000E+00  0.00000000E+00  0.00000000E+00
  0.00000000E+00  0.00000000E+00  0.00000000E+00
  0.00000000E+00  0.00000000E+00  0.00000000E+00
  0.00000000E+00  0.00000000E+00  0.00000000E+00
  0.00000000E+00  0.00000000E+00  0.00000000E+00
  0.00000000E+00  0.00000000E+00  0.00000000E+00
  0.00000000E+00  0.00000000E+00  0.00000000E+00
  0.00000000E+00  0.00000000E+00  0.00000000E+00
  0.00000000E+00  0.00000000E+00  0.00000000E+00
  0.00000000E+00  0.00000000E+00  0.00000000E+00
  0.00000000E+00  0.00000000E+00  0.00000000E+00
  0.00000000E+00  0.00000000E+00  0.00000000E+00
  0.00000000E+00  0.00000000E+00  0.00000000E+00
  0.00000000E+00  0.00000000E+00  0.00000000E+00
  0.00000000E+00  0.00000000E+00  0.00000000E+00
  0.00000000E+00  0.00000000E+00  0.00000000E+00
  0.00000000E+00  0.00000000E+00  0.00000000E+00
  0.00000000E+00  0.00000000E+00  0.00000000E+00
  0.00000000E+00  0.00000000E+00  0.00000000E+00
  0.00000000E+00  0.00000000E+00  0.00000000E+00
  0.00000000E+00  0.00000000E+00  0.00000000E+00
  0.00000000E+00  0.00000000E+00  0.00000000E+00
  0.00000000E+00  0.00000000E+00  0.00000000E+00
  0.00000000E+00  0.00000000E+00  0.00000000E+00
  0.00000000E+00  0.00000000E+00  0.00000000E+00
  0.00000000E+00  0.00000000E+00  0.00000000E+00
  0.00000000E+00  0.00000000E+00  0.00000000E+00
  0.00000000E+00  0.00000000E+00  0.00000000E+00
  0.00000000E+00  0.00000000E+00  0.00000000E+00
  0.00000000E+00  0.00000000E+00  0.00000000E+00
  0.00000000E+00  0.00000000E+00  0.00000000E+00
  0.00000000E+00  0.00000000E+00  0.00000000E+00
  0.00000000E+00  0.00000000E+00  0.00000000E+00
  0.00000000E+00  0.00000000E+00  0.00000000E+00
  0.00000000E+00  0.00000000E+00  0.00000000E+00
  0.00000000E+00  0.00000000E+00  0.00000000E+00
  0.00000000E+00  0.00000000E+00  0.00000000E+00
  0.00000000E+00  0.00000000E+00  0.00000000E+00
  0.00000000E+00  0.00000000E+00  0.00000000E+00
  0.00000000E+00  0.00000000E+00  0.00000000E+00
  0.00000000E+00  0.00000000E+00  0.00000000E+00
  0.00000000E+00  0.00000000E+00  0.00000000E+00
  0.00000000E+00  0.00000000E+00  0.00000000E+00
  0.00000000E+00  0.00000000E+00  0.00000000E+00
  0.00000000E+00  0.00000000E+00  0.00000000E+00
  0.00000000E+00  0.00000000E+00  0.00000000E+00
  0.00000000E+00  0.00000000E+00  0.00000000E+00
  0.00000000E+00  0.00000000E+00  0.00000000E+00
  0.00000000E+00  0.00000000E+00  0.00000000E+00
  0.00000000E+00  0.00000000E+00  0.00000000E+00
  0.00000000E+00  0.00000000E+00  0.00000000E+00
  0.00000000E+00  0.00000000E+00  0.00000000E+00
  0.00000000E+00  0.00000000E+00  0.00000000E+00
  0.00000000E+00  0.00000000E+00  0.00000000E+00
  0.00000000E+00  0.00000000E+00  0.00000000E+00
  0.00000000E+00  0.00000000E+00  0.00000000E+00
  0.00000000E+00  0.00000000E+00  0.00000000E+00
  0.00000000E+00  0.00000000E+00  0.00000000E+00
  0.00000000E+00  0.00000000E+00  0.00000000E+00
  0.00000000E+00  0.00000000E+00  0.00000000E+00
  0.00000000E+00  0.00000000E+00  0.00000000E+00
  0.00000000E+00  0.00000000E+00  0.00000000E+00
  0.00000000E+00  0.00000000E+00  0.00000000E+00
  0.00000000E+00  0.00000000E+00  0.00000000E+00
