Ca O Pt                                 
   1.00000000000000     
     9.6048491011950006    0.0000000000000000    0.0000000000000000
     0.0000000000000000    9.6048491011950006    0.0000000000000000
     0.0000000000000000    0.0000000000000000   24.6048491011950006
   Ca   O    Pt
    32    32     1
Selective dynamics
Direct
  0.2499284329773850  0.0000777103623462  0.0983092684548606   T   T   T
  0.7500778364046135  0.0000777103623462  0.0983092684548606   T   T   T
  0.0000044024150014  0.2500029927341604  0.0981960265832599   T   T   T
  0.5000044024150014  0.2500032497771279  0.0982838358011664   T   T   T
  0.2499281850395319  0.4999285170788815  0.0983093954905575   T   T   T
  0.7500780843424667  0.4999285170788815  0.0983093954905575   T   T   T
  0.0000044024150014  0.7500027403337348  0.0982839179285752   T   T   T
  0.5000044024150014  0.7500026161662100  0.0984470854819101   T   T   T
  0.0000046357080024  0.0000011103150129  0.1951433806250519   T   T   T
  0.5000046357080024  0.0003724172277499  0.1951854638988184   T   T   T
  0.2500050316855184  0.2500039680901011  0.1951434270643230   T   T   T
  0.7500007711104784  0.2500039680901011  0.1951434270643230   T   T   T
  0.0000046357080024  0.5000058622153916  0.1951434183203251   T   T   T
  0.5000046357080024  0.4996344697007605  0.1951855048437172   T   T   T
  0.2496334766594257  0.7500034014715403  0.1951854635475757   T   T   T
  0.7503723261365709  0.7500034014715403  0.1951854635475757   T   T   T
  0.2506141143448501 -0.0006075630289430  0.2932849220801140   T   T   T
  0.7493916884511463 -0.0006075630289430  0.2932849220801140   T   T   T
  0.0000046357080024  0.2500041873892740  0.2923311516070758   T   T   T
  0.5000046357080024  0.2500039241793185  0.2928105074438742   T   T   T
  0.2506140385257375  0.5006151510355215  0.2932848246482323   T   T   T
  0.7493917642702591  0.5006151510355215  0.2932848246482323   T   T   T
  0.0000046357080024  0.7500037862064324  0.2928104759930124   T   T   T
  0.5000046357080024  0.7500036893666028  0.2920706060917229   T   T   T
  0.0000044024150014  0.0021282546510548  0.3895904245465397   T   T   T
  0.5000044024150014  0.0082201377193017  0.3920154120796126   T   T   T
  0.2478787149719529  0.2500039533247719  0.3895902663782915   T   T   T
  0.7521275544100453  0.2500039533247719  0.3895902663782915   T   T   T
  0.0000044024150014  0.4978794983258137  0.3895900216532971   T   T   T
  0.5000044024150014  0.4917881855500829  0.3920154197920987   T   T   T
  0.2417872253028444  0.7500049664231677  0.3920154548860218   T   T   T
  0.7582190440791540  0.7500049664231677  0.3920154548860218   T   T   T
  0.0000036128909997 -0.0000968064091462  0.0989323437654706   T   T   T
  0.5000036128909997 -0.0002132710971742  0.0991164178147640   T   T   T
  0.2501035494134263  0.2500045855326016  0.0989323826602788   T   T   T
  0.7499042990165758  0.2500045855326016  0.0989323826602788   T   T   T
  0.0000036128909997  0.5001045946668483  0.0989328716931198   T   T   T
  0.5000036128909997  0.5002189691327089  0.0991164670740893   T   T   T
  0.2502209069344363  0.7500031867270411  0.0991162992302724   T   T   T
  0.7497869414955656  0.7500031867270411  0.0991162992302724   T   T   T
  0.2502257149475450 -0.0002186434775503  0.1943863159296857   T   T   T
  0.7497823486504579 -0.0002186434775503  0.1943863159296857   T   T   T
  0.0000035053069993  0.2500028084700755  0.1943425040205839   T   T   T
  0.5000035053069993  0.2500030730651550  0.1945907704024386   T   T   T
  0.2502252919619826  0.5002251254394254  0.1943865174985488   T   T   T
  0.7497827716360200  0.5002251254394254  0.1943865174985488   T   T   T
  0.0000035053069993  0.7500038052146847  0.1945907730971121   T   T   T
  0.5000035053069993  0.7500031962126547  0.1953908953097552   T   T   T
  0.0000035053069993 -0.0001649082156717  0.2932177112025602   T   T   T
  0.5000035053069993 -0.0006619048412140  0.2941318611492169   T   T   T
  0.2501730673167538  0.2500057496682759  0.2932174926056981   T   T   T
  0.7498349962812491  0.2500057496682759  0.2932174926056981   T   T   T
  0.0000035053069993  0.5001748441537232  0.2932172554033198   T   T   T
  0.5000035053069993  0.5006691583199770  0.2941318087287413   T   T   T
  0.2506697074731949  0.7500039764313686  0.2941318821126949   T   T   T
  0.7493383561248075  0.7500039764313686  0.2941318821126949   T   T   T
  0.2487491474927856  0.0012585048795768  0.3882001714166564   T   T   T
  0.7512587009372165  0.0012585048795768  0.3882001714166564   T   T   T
  0.0000036128909997  0.2500036309969496  0.3884312834429255   T   T   T
  0.5000036128909997  0.2500037006645032  0.3890861166053924   T   T   T
  0.2487489304096384  0.4987487132752998  0.3882003053508757   T   T   T
  0.7512589180203635  0.4987487132752998  0.3882003053508757   T   T   T
  0.0000036128909997  0.7500034246890936  0.3890861594907135   T   T   T
  0.5000036907820018  0.7500054880261349  0.3875960052798108   T   T   T
  0.5000036907820018  0.7500046395848309  0.4668410816225786   T   T   T
 
  0.00000000E+00  0.00000000E+00  0.00000000E+00
  0.00000000E+00  0.00000000E+00  0.00000000E+00
  0.00000000E+00  0.00000000E+00  0.00000000E+00
  0.00000000E+00  0.00000000E+00  0.00000000E+00
  0.00000000E+00  0.00000000E+00  0.00000000E+00
  0.00000000E+00  0.00000000E+00  0.00000000E+00
  0.00000000E+00  0.00000000E+00  0.00000000E+00
  0.00000000E+00  0.00000000E+00  0.00000000E+00
  0.00000000E+00  0.00000000E+00  0.00000000E+00
  0.00000000E+00  0.00000000E+00  0.00000000E+00
  0.00000000E+00  0.00000000E+00  0.00000000E+00
  0.00000000E+00  0.00000000E+00  0.00000000E+00
  0.00000000E+00  0.00000000E+00  0.00000000E+00
  0.00000000E+00  0.00000000E+00  0.00000000E+00
  0.00000000E+00  0.00000000E+00  0.00000000E+00
  0.00000000E+00  0.00000000E+00  0.00000000E+00
  0.00000000E+00  0.00000000E+00  0.00000000E+00
  0.00000000E+00  0.00000000E+00  0.00000000E+00
  0.00000000E+00  0.00000000E+00  0.00000000E+00
  0.00000000E+00  0.00000000E+00  0.00000000E+00
  0.00000000E+00  0.00000000E+00  0.00000000E+00
  0.00000000E+00  0.00000000E+00  0.00000000E+00
  0.00000000E+00  0.00000000E+00  0.00000000E+00
  0.00000000E+00  0.00000000E+00  0.00000000E+00
  0.00000000E+00  0.00000000E+00  0.00000000E+00
  0.00000000E+00  0.00000000E+00  0.00000000E+00
  0.00000000E+00  0.00000000E+00  0.00000000E+00
  0.00000000E+00  0.00000000E+00  0.00000000E+00
  0.00000000E+00  0.00000000E+00  0.00000000E+00
  0.00000000E+00  0.00000000E+00  0.00000000E+00
  0.00000000E+00  0.00000000E+00  0.00000000E+00
  0.00000000E+00  0.00000000E+00  0.00000000E+00
  0.00000000E+00  0.00000000E+00  0.00000000E+00
  0.00000000E+00  0.00000000E+00  0.00000000E+00
  0.00000000E+00  0.00000000E+00  0.00000000E+00
  0.00000000E+00  0.00000000E+00  0.00000000E+00
  0.00000000E+00  0.00000000E+00  0.00000000E+00
  0.00000000E+00  0.00000000E+00  0.00000000E+00
  0.00000000E+00  0.00000000E+00  0.00000000E+00
  0.00000000E+00  0.00000000E+00  0.00000000E+00
  0.00000000E+00  0.00000000E+00  0.00000000E+00
  0.00000000E+00  0.00000000E+00  0.00000000E+00
  0.00000000E+00  0.00000000E+00  0.00000000E+00
  0.00000000E+00  0.00000000E+00  0.00000000E+00
  0.00000000E+00  0.00000000E+00  0.00000000E+00
  0.00000000E+00  0.00000000E+00  0.00000000E+00
  0.00000000E+00  0.00000000E+00  0.00000000E+00
  0.00000000E+00  0.00000000E+00  0.00000000E+00
  0.00000000E+00  0.00000000E+00  0.00000000E+00
  0.00000000E+00  0.00000000E+00  0.00000000E+00
  0.00000000E+00  0.00000000E+00  0.00000000E+00
  0.00000000E+00  0.00000000E+00  0.00000000E+00
  0.00000000E+00  0.00000000E+00  0.00000000E+00
  0.00000000E+00  0.00000000E+00  0.00000000E+00
  0.00000000E+00  0.00000000E+00  0.00000000E+00
  0.00000000E+00  0.00000000E+00  0.00000000E+00
  0.00000000E+00  0.00000000E+00  0.00000000E+00
  0.00000000E+00  0.00000000E+00  0.00000000E+00
  0.00000000E+00  0.00000000E+00  0.00000000E+00
  0.00000000E+00  0.00000000E+00  0.00000000E+00
  0.00000000E+00  0.00000000E+00  0.00000000E+00
  0.00000000E+00  0.00000000E+00  0.00000000E+00
  0.00000000E+00  0.00000000E+00  0.00000000E+00
  0.00000000E+00  0.00000000E+00  0.00000000E+00
  0.00000000E+00  0.00000000E+00  0.00000000E+00
