Ca O                                    
   1.00000000000000     
     9.6048491011950006    0.0000000000000000    0.0000000000000000
     0.0000000000000000    9.6048491011950006    0.0000000000000000
     0.0000000000000000    0.0000000000000000   24.6048491011950006
   Ca   O 
    32    32
Selective dynamics
Direct
  0.2500030969954970  0.0000044401105036  0.0977854457744925   T   T   T
  0.7500030969954971  0.0000044401105036  0.0977854457744925   T   T   T
  0.0000044401105036  0.2500030969954970  0.0977854457744925   T   T   T
  0.5000044401105036  0.2500030969954970  0.0977854457744925   T   T   T
  0.2500030969954970  0.5000044401105036  0.0977854457744925   T   T   T
  0.7500030969954971  0.5000044401105036  0.0977854457744925   T   T   T
  0.0000044401105036  0.7500030969954971  0.0977854457744925   T   T   T
  0.5000044401105036  0.7500030969954971  0.0977854457744925   T   T   T
  0.0000047322365307  0.0000047322365307  0.1948451517544905   T   T   T
  0.5000047322365307  0.0000047322365307  0.1948451517544905   T   T   T
  0.2500028048694699  0.2500028048694699  0.1948451517544905   T   T   T
  0.7500028048694699  0.2500028048694699  0.1948451517544905   T   T   T
  0.0000047322365307  0.5000047322365307  0.1948451517544905   T   T   T
  0.5000047322365307  0.5000047322365307  0.1948451517544905   T   T   T
  0.2500028048694699  0.7500028048694699  0.1948451517544905   T   T   T
  0.7500028048694699  0.7500028048694699  0.1948451517544905   T   T   T
  0.2500028048694699  0.0000047322365307  0.2931069967975139   T   T   T
  0.7500028048694699  0.0000047322365307  0.2931069967975139   T   T   T
  0.0000047322365307  0.2500028048694699  0.2931069967975139   T   T   T
  0.5000047322365307  0.2500028048694699  0.2931069967975139   T   T   T
  0.2500028048694699  0.5000047322365307  0.2931069967975139   T   T   T
  0.7500028048694699  0.5000047322365307  0.2931069967975139   T   T   T
  0.0000047322365307  0.7500028048694699  0.2931069967975139   T   T   T
  0.5000047322365307  0.7500028048694699  0.2931069967975139   T   T   T
  0.0000044401105036  0.0000044401105036  0.3901667027775049   T   T   T
  0.5000044401105036  0.0000044401105036  0.3901667027775049   T   T   T
  0.2500030969954970  0.2500030969954970  0.3901667027775049   T   T   T
  0.7500030969954971  0.2500030969954970  0.3901667027775049   T   T   T
  0.0000044401105036  0.5000044401105036  0.3901667027775049   T   T   T
  0.5000044401105036  0.5000044401105036  0.3901667027775049   T   T   T
  0.2500030969954970  0.7500030969954971  0.3901667027775049   T   T   T
  0.7500030969954971  0.7500030969954971  0.3901667027775049   T   T   T
  0.0000039666311844  0.0000039666311844  0.0985404605830301   T   T   T
  0.5000039666311843  0.0000039666311844  0.0985404605830301   T   T   T
  0.2500035704748163  0.2500035704748163  0.0985404605830301   T   T   T
  0.7500035704748164  0.2500035704748163  0.0985404605830301   T   T   T
  0.0000039666311844  0.5000039666311843  0.0985404605830301   T   T   T
  0.5000039666311843  0.5000039666311843  0.0985404605830301   T   T   T
  0.2500035704748163  0.7500035704748164  0.0985404605830301   T   T   T
  0.7500035704748164  0.7500035704748164  0.0985404605830301   T   T   T
  0.2500040527491983  0.0000034843568023  0.1942186418766467   T   T   T
  0.7500040527491983  0.0000034843568023  0.1942186418766467   T   T   T
  0.0000034843568023  0.2500040527491983  0.1942186418766467   T   T   T
  0.5000034843568023  0.2500040527491983  0.1942186418766467   T   T   T
  0.2500040527491983  0.5000034843568023  0.1942186418766467   T   T   T
  0.7500040527491983  0.5000034843568023  0.1942186418766467   T   T   T
  0.0000034843568023  0.7500040527491983  0.1942186418766467   T   T   T
  0.5000034843568023  0.7500040527491983  0.1942186418766467   T   T   T
  0.0000034843568023  0.0000034843568023  0.2937335066753506   T   T   T
  0.5000034843568023  0.0000034843568023  0.2937335066753506   T   T   T
  0.2500040527491983  0.2500040527491983  0.2937335066753506   T   T   T
  0.7500040527491983  0.2500040527491983  0.2937335066753506   T   T   T
  0.0000034843568023  0.5000034843568023  0.2937335066753506   T   T   T
  0.5000034843568023  0.5000034843568023  0.2937335066753506   T   T   T
  0.2500040527491983  0.7500040527491983  0.2937335066753506   T   T   T
  0.7500040527491983  0.7500040527491983  0.2937335066753506   T   T   T
  0.2500035704748163  0.0000039666311844  0.3894116879689742   T   T   T
  0.7500035704748164  0.0000039666311844  0.3894116879689742   T   T   T
  0.0000039666311844  0.2500035704748163  0.3894116879689742   T   T   T
  0.5000039666311843  0.2500035704748163  0.3894116879689742   T   T   T
  0.2500035704748163  0.5000039666311843  0.3894116879689742   T   T   T
  0.7500035704748164  0.5000039666311843  0.3894116879689742   T   T   T
  0.0000039666311844  0.7500035704748164  0.3894116879689742   T   T   T
  0.5000039666311843  0.7500035704748164  0.3894116879689742   T   T   T
 
  0.00000000E+00  0.00000000E+00  0.00000000E+00
  0.00000000E+00  0.00000000E+00  0.00000000E+00
  0.00000000E+00  0.00000000E+00  0.00000000E+00
  0.00000000E+00  0.00000000E+00  0.00000000E+00
  0.00000000E+00  0.00000000E+00  0.00000000E+00
  0.00000000E+00  0.00000000E+00  0.00000000E+00
  0.00000000E+00  0.00000000E+00  0.00000000E+00
  0.00000000E+00  0.00000000E+00  0.00000000E+00
  0.00000000E+00  0.00000000E+00  0.00000000E+00
  0.00000000E+00  0.00000000E+00  0.00000000E+00
  0.00000000E+00  0.00000000E+00  0.00000000E+00
  0.00000000E+00  0.00000000E+00  0.00000000E+00
  0.00000000E+00  0.00000000E+00  0.00000000E+00
  0.00000000E+00  0.00000000E+00  0.00000000E+00
  0.00000000E+00  0.00000000E+00  0.00000000E+00
  0.00000000E+00  0.00000000E+00  0.00000000E+00
  0.00000000E+00  0.00000000E+00  0.00000000E+00
  0.00000000E+00  0.00000000E+00  0.00000000E+00
  0.00000000E+00  0.00000000E+00  0.00000000E+00
  0.00000000E+00  0.00000000E+00  0.00000000E+00
  0.00000000E+00  0.00000000E+00  0.00000000E+00
  0.00000000E+00  0.00000000E+00  0.00000000E+00
  0.00000000E+00  0.00000000E+00  0.00000000E+00
  0.00000000E+00  0.00000000E+00  0.00000000E+00
  0.00000000E+00  0.00000000E+00  0.00000000E+00
  0.00000000E+00  0.00000000E+00  0.00000000E+00
  0.00000000E+00  0.00000000E+00  0.00000000E+00
  0.00000000E+00  0.00000000E+00  0.00000000E+00
  0.00000000E+00  0.00000000E+00  0.00000000E+00
  0.00000000E+00  0.00000000E+00  0.00000000E+00
  0.00000000E+00  0.00000000E+00  0.00000000E+00
  0.00000000E+00  0.00000000E+00  0.00000000E+00
  0.00000000E+00  0.00000000E+00  0.00000000E+00
  0.00000000E+00  0.00000000E+00  0.00000000E+00
  0.00000000E+00  0.00000000E+00  0.00000000E+00
  0.00000000E+00  0.00000000E+00  0.00000000E+00
  0.00000000E+00  0.00000000E+00  0.00000000E+00
  0.00000000E+00  0.00000000E+00  0.00000000E+00
  0.00000000E+00  0.00000000E+00  0.00000000E+00
  0.00000000E+00  0.00000000E+00  0.00000000E+00
  0.00000000E+00  0.00000000E+00  0.00000000E+00
  0.00000000E+00  0.00000000E+00  0.00000000E+00
  0.00000000E+00  0.00000000E+00  0.00000000E+00
  0.00000000E+00  0.00000000E+00  0.00000000E+00
  0.00000000E+00  0.00000000E+00  0.00000000E+00
  0.00000000E+00  0.00000000E+00  0.00000000E+00
  0.00000000E+00  0.00000000E+00  0.00000000E+00
  0.00000000E+00  0.00000000E+00  0.00000000E+00
  0.00000000E+00  0.00000000E+00  0.00000000E+00
  0.00000000E+00  0.00000000E+00  0.00000000E+00
  0.00000000E+00  0.00000000E+00  0.00000000E+00
  0.00000000E+00  0.00000000E+00  0.00000000E+00
  0.00000000E+00  0.00000000E+00  0.00000000E+00
  0.00000000E+00  0.00000000E+00  0.00000000E+00
  0.00000000E+00  0.00000000E+00  0.00000000E+00
  0.00000000E+00  0.00000000E+00  0.00000000E+00
  0.00000000E+00  0.00000000E+00  0.00000000E+00
  0.00000000E+00  0.00000000E+00  0.00000000E+00
  0.00000000E+00  0.00000000E+00  0.00000000E+00
  0.00000000E+00  0.00000000E+00  0.00000000E+00
  0.00000000E+00  0.00000000E+00  0.00000000E+00
  0.00000000E+00  0.00000000E+00  0.00000000E+00
  0.00000000E+00  0.00000000E+00  0.00000000E+00
  0.00000000E+00  0.00000000E+00  0.00000000E+00
