Ca O V                                  
   1.00000000000000     
     9.6048491011950006    0.0000000000000000    0.0000000000000000
     0.0000000000000000    9.6048491011950006    0.0000000000000000
     0.0000000000000000    0.0000000000000000   24.6048491011950006
   Ca   O    V 
    32    32     1
Selective dynamics
Direct
  0.2499615788567568  0.0000231067063130  0.0981908070050250   T   T   T
  0.7500446905252415  0.0000231067063130  0.0981908070050250   T   T   T
  0.0000044024150014  0.2500035026352947  0.0980787774335885   T   T   T
  0.5000044024150014  0.2500042482858262  0.0981964110769229   T   T   T
  0.2499612944121681  0.4999835445734131  0.0981907002804687   T   T   T
  0.7500449749698302  0.4999835445734131  0.0981907002804687   T   T   T
  0.0000044024150014  0.7500043706883019  0.0982031675280062   T   T   T
  0.5000044024150014  0.7500031026571250  0.0983434139537452   T   T   T
  0.0000046357080024  0.0002048685367696  0.1949642872031203   T   T   T
  0.5000046357080024  0.0001039358139580  0.1950714355965849   T   T   T
  0.2497548145939182  0.2500035687504933  0.1949604309750357   T   T   T
  0.7502509882020785  0.2500035687504933  0.1949604309750357   T   T   T
  0.0000046357080024  0.4998041845972807  0.1949645285043003   T   T   T
  0.5000046357080024  0.4999039223519360  0.1950715805344351   T   T   T
  0.2498534632369162  0.7500033731546978  0.1951022503698706   T   T   T
  0.7501523395590803  0.7500033731546978  0.1951022503698706   T   T   T
  0.2500797690049448 -0.0002519261017884  0.2929589056479692   T   T   T
  0.7499260337910516 -0.0002519261017884  0.2929589056479692   T   T   T
  0.0000046357080024  0.2500048375207911  0.2924524992491305   T   T   T
  0.5000046357080024  0.2500042368510123  0.2921067303303281   T   T   T
  0.2500797125945733  0.5002615596053051  0.2929590668780029   T   T   T
  0.7499260902014231  0.5002615596053051  0.2929590668780029   T   T   T
  0.0000046357080024  0.7500044598982640  0.2922356924357691   T   T   T
  0.5000046357080024  0.7500042849220847  0.2922883146170738   T   T   T
  0.0000044024150014  0.0023263168739234  0.3898009625193861   T   T   T
  0.5000044024150014  0.0116945092544372  0.3912184505075330   T   T   T
  0.2473174949438297  0.2500041487115610  0.3897875298531127   T   T   T
  0.7526887744381686  0.2500041487115610  0.3897875298531127   T   T   T
  0.0000044024150014  0.4976812319195957  0.3898009559903865   T   T   T
  0.5000044024150014  0.4883127758862312  0.3912184850606649   T   T   T
  0.2393545533062636  0.7500041639249702  0.3915858757161206   T   T   T
  0.7606517160757348  0.7500041639249702  0.3915858757161206   T   T   T
  0.0000036128909997  0.9998882918956060  0.0988227247020315   T   T   T
  0.5000036128909997  0.9997033732632422  0.0990668437941604   T   T   T
  0.2501386104038414  0.2500032534525047  0.0988236399038812   T   T   T
  0.7498692380261607  0.2500032534525047  0.0988236399038812   T   T   T
  0.0000036128909997  0.5001169780592700  0.0988227092280805   T   T   T
  0.5000036128909997  0.5003026188844283  0.0990670565419105   T   T   T
  0.2503216184917221  0.7500026671706550  0.0990550901883252   T   T   T
  0.7496862299382797  0.7500026671706550  0.0990550901883252   T   T   T
  0.2501896926167813  0.9998588455919238  0.1941315551586520   T   T   T
  0.7498183709812212  0.9998588455919238  0.1941315551586520   T   T   T
  0.0000035053069993  0.2500034616521631  0.1941991453564595   T   T   T
  0.5000035053069993  0.2500035326670087  0.1944714913767458   T   T   T
  0.2501908175480050  0.5001484130543966  0.1941319877527299   T   T   T
  0.7498172460499974  0.5001484130543966  0.1941319877527299   T   T   T
  0.0000035053069993  0.7500036312700189  0.1944259563394209   T   T   T
  0.5000035053069993  0.7500038977086305  0.1955156806733674   T   T   T
  0.0000035053069993  0.9998038836227592  0.2930051983167423   T   T   T
  0.5000035053069993  0.9981242683353002  0.2940630919515506   T   T   T
  0.2503135743758963  0.2500029921424414  0.2930158276483965   T   T   T
  0.7496944892220992  0.2500029921424414  0.2930158276483965   T   T   T
  0.0000035053069993  0.5002017629585838  0.2930050027273416   T   T   T
  0.5000035053069993  0.5018817837128922  0.2940632363490686   T   T   T
  0.2517536290285671  0.7500033201971164  0.2939681474073214   T   T   T
  0.7482544345694355  0.7500033201971164  0.2939681474073214   T   T   T
  0.2487048813393901  0.0014620985109641  0.3871724139504460   T   T   T
  0.7513029670906118  0.0014620985109641  0.3871724139504460   T   T   T
  0.0000036128909997  0.2500069820794764  0.3884108491405237   T   T   T
  0.5000036128909997  0.2500036931342677  0.3880645607455739   T   T   T
  0.2487034327345203  0.4985466866412043  0.3871723788037694   T   T   T
  0.7513044156954817  0.4985466866412043  0.3871723788037694   T   T   T
  0.0000036128909997  0.7500039654191397  0.3879901478535012   T   T   T
  0.5000036907820018  0.7500034475815198  0.3976224086231317   T   T   T
  0.5000036907820018  0.7500041778495259  0.4721987461632572   T   T   T
 
  0.00000000E+00  0.00000000E+00  0.00000000E+00
  0.00000000E+00  0.00000000E+00  0.00000000E+00
  0.00000000E+00  0.00000000E+00  0.00000000E+00
  0.00000000E+00  0.00000000E+00  0.00000000E+00
  0.00000000E+00  0.00000000E+00  0.00000000E+00
  0.00000000E+00  0.00000000E+00  0.00000000E+00
  0.00000000E+00  0.00000000E+00  0.00000000E+00
  0.00000000E+00  0.00000000E+00  0.00000000E+00
  0.00000000E+00  0.00000000E+00  0.00000000E+00
  0.00000000E+00  0.00000000E+00  0.00000000E+00
  0.00000000E+00  0.00000000E+00  0.00000000E+00
  0.00000000E+00  0.00000000E+00  0.00000000E+00
  0.00000000E+00  0.00000000E+00  0.00000000E+00
  0.00000000E+00  0.00000000E+00  0.00000000E+00
  0.00000000E+00  0.00000000E+00  0.00000000E+00
  0.00000000E+00  0.00000000E+00  0.00000000E+00
  0.00000000E+00  0.00000000E+00  0.00000000E+00
  0.00000000E+00  0.00000000E+00  0.00000000E+00
  0.00000000E+00  0.00000000E+00  0.00000000E+00
  0.00000000E+00  0.00000000E+00  0.00000000E+00
  0.00000000E+00  0.00000000E+00  0.00000000E+00
  0.00000000E+00  0.00000000E+00  0.00000000E+00
  0.00000000E+00  0.00000000E+00  0.00000000E+00
  0.00000000E+00  0.00000000E+00  0.00000000E+00
  0.00000000E+00  0.00000000E+00  0.00000000E+00
  0.00000000E+00  0.00000000E+00  0.00000000E+00
  0.00000000E+00  0.00000000E+00  0.00000000E+00
  0.00000000E+00  0.00000000E+00  0.00000000E+00
  0.00000000E+00  0.00000000E+00  0.00000000E+00
  0.00000000E+00  0.00000000E+00  0.00000000E+00
  0.00000000E+00  0.00000000E+00  0.00000000E+00
  0.00000000E+00  0.00000000E+00  0.00000000E+00
  0.00000000E+00  0.00000000E+00  0.00000000E+00
  0.00000000E+00  0.00000000E+00  0.00000000E+00
  0.00000000E+00  0.00000000E+00  0.00000000E+00
  0.00000000E+00  0.00000000E+00  0.00000000E+00
  0.00000000E+00  0.00000000E+00  0.00000000E+00
  0.00000000E+00  0.00000000E+00  0.00000000E+00
  0.00000000E+00  0.00000000E+00  0.00000000E+00
  0.00000000E+00  0.00000000E+00  0.00000000E+00
  0.00000000E+00  0.00000000E+00  0.00000000E+00
  0.00000000E+00  0.00000000E+00  0.00000000E+00
  0.00000000E+00  0.00000000E+00  0.00000000E+00
  0.00000000E+00  0.00000000E+00  0.00000000E+00
  0.00000000E+00  0.00000000E+00  0.00000000E+00
  0.00000000E+00  0.00000000E+00  0.00000000E+00
  0.00000000E+00  0.00000000E+00  0.00000000E+00
  0.00000000E+00  0.00000000E+00  0.00000000E+00
  0.00000000E+00  0.00000000E+00  0.00000000E+00
  0.00000000E+00  0.00000000E+00  0.00000000E+00
  0.00000000E+00  0.00000000E+00  0.00000000E+00
  0.00000000E+00  0.00000000E+00  0.00000000E+00
  0.00000000E+00  0.00000000E+00  0.00000000E+00
  0.00000000E+00  0.00000000E+00  0.00000000E+00
  0.00000000E+00  0.00000000E+00  0.00000000E+00
  0.00000000E+00  0.00000000E+00  0.00000000E+00
  0.00000000E+00  0.00000000E+00  0.00000000E+00
  0.00000000E+00  0.00000000E+00  0.00000000E+00
  0.00000000E+00  0.00000000E+00  0.00000000E+00
  0.00000000E+00  0.00000000E+00  0.00000000E+00
  0.00000000E+00  0.00000000E+00  0.00000000E+00
  0.00000000E+00  0.00000000E+00  0.00000000E+00
  0.00000000E+00  0.00000000E+00  0.00000000E+00
  0.00000000E+00  0.00000000E+00  0.00000000E+00
  0.00000000E+00  0.00000000E+00  0.00000000E+00
