Ca O Ru                                 
   1.00000000000000     
     9.6048491011950006    0.0000000000000000    0.0000000000000000
     0.0000000000000000    9.6048491011950006    0.0000000000000000
     0.0000000000000000    0.0000000000000000   24.6048491011950006
   Ca   O    Ru
    32    32     1
Selective dynamics
Direct
  0.2499207139989566 -0.0000085642930600  0.0981527671262944   T   T   T
  0.7500855553830418 -0.0000085642930600  0.0981527671262944   T   T   T
  0.0000044024150014  0.2499121753942207  0.0980987292842792   T   T   T
  0.5000044024150014  0.2499119253509317  0.0981083645375678   T   T   T
  0.2499169818555804  0.4998403898968167  0.0981530774715300   T   T   T
  0.7500892875264251  0.4998403898968167  0.0981530774715300   T   T   T
  0.0000044024150014  0.7499203606687069  0.0981116918512418   T   T   T
  0.5000044024150014  0.7499246964409537  0.0982123996720784   T   T   T
  0.0000046357080024  0.0000950116793455  0.1951221177029611   T   T   T
  0.5000046357080024  0.0003248101179610  0.1950910907192978   T   T   T
  0.2497956474304662  0.2498982914190497  0.1951246622069664   T   T   T
  0.7502101553655375  0.2498982914190497  0.1951246622069664   T   T   T
  0.0000046357080024  0.4997386594206254  0.1951171110458449   T   T   T
  0.5000046357080024  0.4995511372843655  0.1950999248355476   T   T   T
  0.2495844536012762  0.7499141272234768  0.1951005256356960   T   T   T
  0.7504213491947205  0.7499141272234768  0.1951005256356960   T   T   T
  0.2504427343705715  0.9993971337413021  0.2933262789705304   T   T   T
  0.7495630684254322  0.9993971337413021  0.2933262789705304   T   T   T
  0.0000046357080024  0.2498563351984685  0.2926875437588246   T   T   T
  0.5000046357080024  0.2499728174701140  0.2924374272111607   T   T   T
  0.2504687686972104  0.5003738502743335  0.2932716272013297   T   T   T
  0.7495370340987864  0.5003738502743335  0.2932716272013297   T   T   T
  0.0000046357080024  0.7499522035373465  0.2925321341567960   T   T   T
  0.5000046357080024  0.7502077546356261  0.2917033106868820   T   T   T
  0.0000044024150014  0.0023558066823643  0.3898635736040282   T   T   T
  0.5000044024150014  0.0108016961864503  0.3920321921455325   T   T   T
  0.2472147669352493  0.2498831033159628  0.3898209980953185   T   T   T
  0.7527915024467563  0.2498831033159628  0.3898209980953185   T   T   T
  0.0000044024150014  0.4973381634780747  0.3898069502495444   T   T   T
  0.5000044024150014  0.4891440020755821  0.3921117209206904   T   T   T
  0.2393354842664659  0.7497010080699561  0.3921733930291547   T   T   T
  0.7606707851155395  0.7497010080699561  0.3921733930291547   T   T   T
  0.0000036128909997  0.9998203355778302  0.0989026396597054   T   T   T
  0.5000036128909997  0.9997086169152867  0.0990390529984353   T   T   T
  0.2501112870716254  0.2499205739365846  0.0989053268531752   T   T   T
  0.7498965613583765  0.2499205739365846  0.0989053268531752   T   T   T
  0.0000036128909997  0.5000102014547989  0.0989081167009240   T   T   T
  0.5000036128909997  0.5001319682215593  0.0990470712909349   T   T   T
  0.2502213705185397  0.7499087071313788  0.0990424178733418   T   T   T
  0.7497864779114621  0.7499087071313788  0.0990424178733418   T   T   T
  0.2501438552665409  0.9997807440240430  0.1942356007635132   T   T   T
  0.7498642083314546  0.9997807440240430  0.1942356007635132   T   T   T
  0.0000035053069993  0.2499258575698677  0.1943729733139150   T   T   T
  0.5000035053069993  0.2499494128077770  0.1945544011324481   T   T   T
  0.2501369110199457  0.5000437223272597  0.1942430928011854   T   T   T
  0.7498711525780567  0.5000437223272597  0.1942430928011854   T   T   T
  0.0000035053069993  0.7499135542444184  0.1945521104984366   T   T   T
  0.5000035053069993  0.7499182353747962  0.1952164771373182   T   T   T
  0.0000035053069993  0.9995711600148315  0.2932955165172659   T   T   T
  0.5000035053069993  0.9986770442857040  0.2939823910547995   T   T   T
  0.2503298576588764  0.2499314271588395  0.2933042797996476   T   T   T
  0.7496782059391262  0.2499314271588395  0.2933042797996476   T   T   T
  0.0000035053069993  0.5002381725890643  0.2933051557695237   T   T   T
  0.5000035053069993  0.5013917253809378  0.2941528680669280   T   T   T
  0.2514000723163530  0.7498230145094795  0.2940692169729925   T   T   T
  0.7486079912816423  0.7498230145094795  0.2940692169729925   T   T   T
  0.2480361810941724  0.0019299487721763  0.3875925247745876   T   T   T
  0.7519716673358297  0.0019299487721763  0.3875925247745876   T   T   T
  0.0000036128909997  0.2499952561280332  0.3888477649330208   T   T   T
  0.5000036128909997  0.2505449766838218  0.3888960505130085   T   T   T
  0.2483646347220397  0.4982053177717571  0.3876335071310981   T   T   T
  0.7516432137079622  0.4982053177717571  0.3876335071310981   T   T   T
  0.0000036128909997  0.7498172824696924  0.3889362381731147   T   T   T
  0.5000036907820018  0.7523639056255413  0.3914970398259384   T   T   T
  0.5000036907820018  0.7521732935611878  0.4673042034672660   T   T   T
 
  0.00000000E+00  0.00000000E+00  0.00000000E+00
  0.00000000E+00  0.00000000E+00  0.00000000E+00
  0.00000000E+00  0.00000000E+00  0.00000000E+00
  0.00000000E+00  0.00000000E+00  0.00000000E+00
  0.00000000E+00  0.00000000E+00  0.00000000E+00
  0.00000000E+00  0.00000000E+00  0.00000000E+00
  0.00000000E+00  0.00000000E+00  0.00000000E+00
  0.00000000E+00  0.00000000E+00  0.00000000E+00
  0.00000000E+00  0.00000000E+00  0.00000000E+00
  0.00000000E+00  0.00000000E+00  0.00000000E+00
  0.00000000E+00  0.00000000E+00  0.00000000E+00
  0.00000000E+00  0.00000000E+00  0.00000000E+00
  0.00000000E+00  0.00000000E+00  0.00000000E+00
  0.00000000E+00  0.00000000E+00  0.00000000E+00
  0.00000000E+00  0.00000000E+00  0.00000000E+00
  0.00000000E+00  0.00000000E+00  0.00000000E+00
  0.00000000E+00  0.00000000E+00  0.00000000E+00
  0.00000000E+00  0.00000000E+00  0.00000000E+00
  0.00000000E+00  0.00000000E+00  0.00000000E+00
  0.00000000E+00  0.00000000E+00  0.00000000E+00
  0.00000000E+00  0.00000000E+00  0.00000000E+00
  0.00000000E+00  0.00000000E+00  0.00000000E+00
  0.00000000E+00  0.00000000E+00  0.00000000E+00
  0.00000000E+00  0.00000000E+00  0.00000000E+00
  0.00000000E+00  0.00000000E+00  0.00000000E+00
  0.00000000E+00  0.00000000E+00  0.00000000E+00
  0.00000000E+00  0.00000000E+00  0.00000000E+00
  0.00000000E+00  0.00000000E+00  0.00000000E+00
  0.00000000E+00  0.00000000E+00  0.00000000E+00
  0.00000000E+00  0.00000000E+00  0.00000000E+00
  0.00000000E+00  0.00000000E+00  0.00000000E+00
  0.00000000E+00  0.00000000E+00  0.00000000E+00
  0.00000000E+00  0.00000000E+00  0.00000000E+00
  0.00000000E+00  0.00000000E+00  0.00000000E+00
  0.00000000E+00  0.00000000E+00  0.00000000E+00
  0.00000000E+00  0.00000000E+00  0.00000000E+00
  0.00000000E+00  0.00000000E+00  0.00000000E+00
  0.00000000E+00  0.00000000E+00  0.00000000E+00
  0.00000000E+00  0.00000000E+00  0.00000000E+00
  0.00000000E+00  0.00000000E+00  0.00000000E+00
  0.00000000E+00  0.00000000E+00  0.00000000E+00
  0.00000000E+00  0.00000000E+00  0.00000000E+00
  0.00000000E+00  0.00000000E+00  0.00000000E+00
  0.00000000E+00  0.00000000E+00  0.00000000E+00
  0.00000000E+00  0.00000000E+00  0.00000000E+00
  0.00000000E+00  0.00000000E+00  0.00000000E+00
  0.00000000E+00  0.00000000E+00  0.00000000E+00
  0.00000000E+00  0.00000000E+00  0.00000000E+00
  0.00000000E+00  0.00000000E+00  0.00000000E+00
  0.00000000E+00  0.00000000E+00  0.00000000E+00
  0.00000000E+00  0.00000000E+00  0.00000000E+00
  0.00000000E+00  0.00000000E+00  0.00000000E+00
  0.00000000E+00  0.00000000E+00  0.00000000E+00
  0.00000000E+00  0.00000000E+00  0.00000000E+00
  0.00000000E+00  0.00000000E+00  0.00000000E+00
  0.00000000E+00  0.00000000E+00  0.00000000E+00
  0.00000000E+00  0.00000000E+00  0.00000000E+00
  0.00000000E+00  0.00000000E+00  0.00000000E+00
  0.00000000E+00  0.00000000E+00  0.00000000E+00
  0.00000000E+00  0.00000000E+00  0.00000000E+00
  0.00000000E+00  0.00000000E+00  0.00000000E+00
  0.00000000E+00  0.00000000E+00  0.00000000E+00
  0.00000000E+00  0.00000000E+00  0.00000000E+00
  0.00000000E+00  0.00000000E+00  0.00000000E+00
  0.00000000E+00  0.00000000E+00  0.00000000E+00
