Ca Ir O                                 
   1.00000000000000     
     9.6048491011950006    0.0000000000000000    0.0000000000000000
     0.0000000000000000    9.6048491011950006    0.0000000000000000
     0.0000000000000000    0.0000000000000000   24.6048491011950006
   Ca   Ir   O 
    32     1    32
Selective dynamics
Direct
  0.2499960754044668  0.0000611738734608  0.0982908836061001   T   T   T
  0.7500101939775317  0.0000611738734608  0.0982908836061001   T   T   T
  0.0000044024150014  0.2500046381091724  0.0981449948810817   T   T   T
  0.5000044024150014  0.2500043092413499  0.0982374799233950   T   T   T
  0.2499962153722429  0.4999504745986377  0.0982910589511776   T   T   T
  0.7500100540097627  0.4999504745986377  0.0982910589511776   T   T   T
  0.0000044024150014  0.7500045399234624  0.0982394980392240   T   T   T
  0.5000044024150014  0.7500039852286207  0.0984277534141240   T   T   T
  0.0000046357080024  0.0002399919883149  0.1951364159742434   T   T   T
  0.5000046357080024  0.0006689118750504  0.1951400645567372   T   T   T
  0.2499517225893086  0.2500077183147835  0.1951317192670975   T   T   T
  0.7500540802066954  0.2500077183147835  0.1951317192670975   T   T   T
  0.0000046357080024  0.4997740848853332  0.1951374088685716   T   T   T
  0.5000046357080024  0.4993386756007481  0.1951425484054271   T   T   T
  0.2495473994652313  0.7500061909092567  0.1950570662195834   T   T   T
  0.7504584033307656  0.7500061909092567  0.1950570662195834   T   T   T
  0.2511990853241146  0.9994019419612064  0.2933774924234107   T   T   T
  0.7488067174718891  0.9994019419612064  0.2933774924234107   T   T   T
  0.0000046357080024  0.2500107309897880  0.2922197842155064   T   T   T
  0.5000046357080024  0.2500001932295899  0.2930347476924789   T   T   T
  0.2511973227544486  0.5006066323494779  0.2933760331928121   T   T   T
  0.7488084800415480  0.5006066323494779  0.2933760331928121   T   T   T
  0.0000046357080024  0.7500087334690694  0.2924709100114588   T   T   T
  0.5000046357080024  0.7500031290443772  0.2915150129132366   T   T   T
  0.0000044024150014  0.0035497586741736  0.3893264613079981   T   T   T
  0.5000044024150014  0.0089444431213680  0.3935640546146643   T   T   T
  0.2479224340350915  0.2500049183394648  0.3894037313595620   T   T   T
  0.7520838353469140  0.2500049183394648  0.3894037313595620   T   T   T
  0.0000044024150014  0.4964606249321952  0.3893280355006219   T   T   T
  0.5000044024150014  0.4910400625874131  0.3935612051217911   T   T   T
  0.2376573919359759  0.7500014430812280  0.3921731938379198   T   T   T
  0.7623488774460297  0.7500014430812280  0.3921731938379198   T   T   T
  0.5000036907820018  0.7499705577351512  0.4652442689043146   T   T   T
  0.0000036128909997  0.9998362738290802  0.0989118661100251   T   T   T
  0.5000036128909997  0.9997768570409812  0.0991101709272987   T   T   T
  0.2501116703733091  0.2500053858475032  0.0989225966179919   T   T   T
  0.7498961780566928  0.2500053858475032  0.0989225966179919   T   T   T
  0.0000036128909997  0.5001720712003753  0.0989122722334555   T   T   T
  0.5000036128909997  0.5002308052713275  0.0991105792299092   T   T   T
  0.2501802398848700  0.7500046044222487  0.0991844219504529   T   T   T
  0.7498276085451320  0.7500046044222487  0.0991844219504529   T   T   T
  0.2501805485435022  0.9997177787328820  0.1942965630449231   T   T   T
  0.7498275150544932  0.9997177787328820  0.1942965630449231   T   T   T
  0.0000035053069993  0.2500063938384000  0.1943102094692244   T   T   T
  0.5000035053069993  0.2500047698881154  0.1945614438015751   T   T   T
  0.2501787588883523  0.5002970462961557  0.1942974615373798   T   T   T
  0.7498293047096504  0.5002970462961557  0.1942974615373798   T   T   T
  0.0000035053069993  0.7500052646021197  0.1946833965024193   T   T   T
  0.5000035053069993  0.7500034630302780  0.1953076849418190   T   T   T
  0.0000035053069993  0.9996925591291261  0.2930924770837143   T   T   T
  0.5000035053069993  0.9988722359490807  0.2940582834149442   T   T   T
  0.2501994273540414  0.2500047855066078  0.2931573943702996   T   T   T
  0.7498086362439613  0.2500047855066078  0.2931573943702996   T   T   T
  0.0000035053069993  0.5003268626062460  0.2930927659817425   T   T   T
  0.5000035053069993  0.5011261561336497  0.2940577063679148   T   T   T
  0.2511930494782799  0.7500059990330059  0.2944508053553429   T   T   T
  0.7488150141197157  0.7500059990330059  0.2944508053553429   T   T   T
  0.2478705827462490  0.0014716312671220  0.3878853560946350   T   T   T
  0.7521372656837532  0.0014716312671220  0.3878853560946350   T   T   T
  0.0000036128909997  0.2500110511724552  0.3884334954309811   T   T   T
  0.5000036128909997  0.2500018047079997  0.3892815427157935   T   T   T
  0.2478651089921174  0.4985326739298938  0.3878833925764393   T   T   T
  0.7521427394378845  0.4985326739298938  0.3878833925764393   T   T   T
  0.0000036128909997  0.7500079082385427  0.3891148662304278   T   T   T
  0.5000036907820018  0.7499815008861741  0.3889772012516090   T   T   T
 
  0.00000000E+00  0.00000000E+00  0.00000000E+00
  0.00000000E+00  0.00000000E+00  0.00000000E+00
  0.00000000E+00  0.00000000E+00  0.00000000E+00
  0.00000000E+00  0.00000000E+00  0.00000000E+00
  0.00000000E+00  0.00000000E+00  0.00000000E+00
  0.00000000E+00  0.00000000E+00  0.00000000E+00
  0.00000000E+00  0.00000000E+00  0.00000000E+00
  0.00000000E+00  0.00000000E+00  0.00000000E+00
  0.00000000E+00  0.00000000E+00  0.00000000E+00
  0.00000000E+00  0.00000000E+00  0.00000000E+00
  0.00000000E+00  0.00000000E+00  0.00000000E+00
  0.00000000E+00  0.00000000E+00  0.00000000E+00
  0.00000000E+00  0.00000000E+00  0.00000000E+00
  0.00000000E+00  0.00000000E+00  0.00000000E+00
  0.00000000E+00  0.00000000E+00  0.00000000E+00
  0.00000000E+00  0.00000000E+00  0.00000000E+00
  0.00000000E+00  0.00000000E+00  0.00000000E+00
  0.00000000E+00  0.00000000E+00  0.00000000E+00
  0.00000000E+00  0.00000000E+00  0.00000000E+00
  0.00000000E+00  0.00000000E+00  0.00000000E+00
  0.00000000E+00  0.00000000E+00  0.00000000E+00
  0.00000000E+00  0.00000000E+00  0.00000000E+00
  0.00000000E+00  0.00000000E+00  0.00000000E+00
  0.00000000E+00  0.00000000E+00  0.00000000E+00
  0.00000000E+00  0.00000000E+00  0.00000000E+00
  0.00000000E+00  0.00000000E+00  0.00000000E+00
  0.00000000E+00  0.00000000E+00  0.00000000E+00
  0.00000000E+00  0.00000000E+00  0.00000000E+00
  0.00000000E+00  0.00000000E+00  0.00000000E+00
  0.00000000E+00  0.00000000E+00  0.00000000E+00
  0.00000000E+00  0.00000000E+00  0.00000000E+00
  0.00000000E+00  0.00000000E+00  0.00000000E+00
  0.00000000E+00  0.00000000E+00  0.00000000E+00
  0.00000000E+00  0.00000000E+00  0.00000000E+00
  0.00000000E+00  0.00000000E+00  0.00000000E+00
  0.00000000E+00  0.00000000E+00  0.00000000E+00
  0.00000000E+00  0.00000000E+00  0.00000000E+00
  0.00000000E+00  0.00000000E+00  0.00000000E+00
  0.00000000E+00  0.00000000E+00  0.00000000E+00
  0.00000000E+00  0.00000000E+00  0.00000000E+00
  0.00000000E+00  0.00000000E+00  0.00000000E+00
  0.00000000E+00  0.00000000E+00  0.00000000E+00
  0.00000000E+00  0.00000000E+00  0.00000000E+00
  0.00000000E+00  0.00000000E+00  0.00000000E+00
  0.00000000E+00  0.00000000E+00  0.00000000E+00
  0.00000000E+00  0.00000000E+00  0.00000000E+00
  0.00000000E+00  0.00000000E+00  0.00000000E+00
  0.00000000E+00  0.00000000E+00  0.00000000E+00
  0.00000000E+00  0.00000000E+00  0.00000000E+00
  0.00000000E+00  0.00000000E+00  0.00000000E+00
  0.00000000E+00  0.00000000E+00  0.00000000E+00
  0.00000000E+00  0.00000000E+00  0.00000000E+00
  0.00000000E+00  0.00000000E+00  0.00000000E+00
  0.00000000E+00  0.00000000E+00  0.00000000E+00
  0.00000000E+00  0.00000000E+00  0.00000000E+00
  0.00000000E+00  0.00000000E+00  0.00000000E+00
  0.00000000E+00  0.00000000E+00  0.00000000E+00
  0.00000000E+00  0.00000000E+00  0.00000000E+00
  0.00000000E+00  0.00000000E+00  0.00000000E+00
  0.00000000E+00  0.00000000E+00  0.00000000E+00
  0.00000000E+00  0.00000000E+00  0.00000000E+00
  0.00000000E+00  0.00000000E+00  0.00000000E+00
  0.00000000E+00  0.00000000E+00  0.00000000E+00
  0.00000000E+00  0.00000000E+00  0.00000000E+00
  0.00000000E+00  0.00000000E+00  0.00000000E+00
