Ca Fe O                                 
   1.00000000000000     
     9.6048491011950006    0.0000000000000000    0.0000000000000000
     0.0000000000000000    9.6048491011950006    0.0000000000000000
     0.0000000000000000    0.0000000000000000   24.6048491011950006
   Ca   Fe   O 
    32     1    32
Selective dynamics
Direct
  0.2499610418040892  0.0000455520225000  0.0982246581277480   T   T   T
  0.7500452275779093  0.0000455520225000  0.0982246581277480   T   T   T
  0.0000044024150014  0.2500037799920936  0.0981537304386827   T   T   T
  0.5000044024150014  0.2500035216432364  0.0981870184608501   T   T   T
  0.2499610391739090  0.4999613745401596  0.0982249090289488   T   T   T
  0.7500452302080967  0.4999613745401596  0.0982249090289488   T   T   T
  0.0000044024150014  0.7500036092896266  0.0981869882493500   T   T   T
  0.5000044024150014  0.7500032839554674  0.0983396299861605   T   T   T
  0.0000046357080024  0.0001878773895982  0.1950563873003053   T   T   T
  0.5000046357080024  0.0000921210545750  0.1950780413521144   T   T   T
  0.2498184623071640  0.2500038492108846  0.1950564124010860   T   T   T
  0.7501873404888397  0.2500038492108846  0.1950564124010860   T   T   T
  0.0000046357080024  0.4998189980416605  0.1950563791503513   T   T   T
  0.5000046357080024  0.4999149889660514  0.1950780208070084   T   T   T
  0.2499144377892103  0.7500038734081981  0.1950780273384887   T   T   T
  0.7500913650067863  0.7500038734081981  0.1950780273384887   T   T   T
  0.2502303948527371  0.9997766859876180  0.2930765381202222   T   T   T
  0.7497754079432666  0.9997766859876180  0.2930765381202222   T   T   T
  0.0000046357080024  0.2500036466380008  0.2925362882409857   T   T   T
  0.5000046357080024  0.2500036023763993  0.2923102160668939   T   T   T
  0.2502303547434648  0.5002312576678042  0.2930764611426830   T   T   T
  0.7497754480525317  0.5002312576678042  0.2930764611426830   T   T   T
  0.0000046357080024  0.7500037776893536  0.2923101532809064   T   T   T
  0.5000046357080024  0.7500037982264501  0.2926454772164051   T   T   T
  0.0000044024150014  0.0022941468277540  0.3899915614471865   T   T   T
  0.5000044024150014  0.0098130334201674  0.3911853061576705   T   T   T
  0.2477133552837062  0.2500044476004052  0.3899917199498404   T   T   T
  0.7522929140982993  0.2500044476004052  0.3899917199498404   T   T   T
  0.0000044024150014  0.4977144336317470  0.3899917014577982   T   T   T
  0.5000044024150014  0.4901951857095704  0.3911851935664627   T   T   T
  0.2401944624219660  0.7500038859968140  0.3911852808002939   T   T   T
  0.7598118069600395  0.7500038859968140  0.3911852808002939   T   T   T
  0.5000036907820018  0.7500058209780606  0.4698026225266893   T   T   T
  0.0000036128909997  0.9999120676874897  0.0988950321574250   T   T   T
  0.5000036128909997  0.9998343574573897  0.0990343604626425   T   T   T
  0.2500949018912302  0.2500030836738449  0.0988950804260578   T   T   T
  0.7499129465387716  0.2500030836738449  0.0988950804260578   T   T   T
  0.0000036128909997  0.5000940749893094  0.0988951203960896   T   T   T
  0.5000036128909997  0.5001716353313524  0.0990343683979643   T   T   T
  0.2501725508121609  0.7500029401271138  0.0990343625147528   T   T   T
  0.7498352976178410  0.7500029401271138  0.0990343625147528   T   T   T
  0.2501110686080898  0.9998963671383128  0.1942509393091748   T   T   T
  0.7498969949899058  0.9998963671383128  0.1942509393091748   T   T   T
  0.0000035053069993  0.2500036440096498  0.1943126510628590   T   T   T
  0.5000035053069993  0.2500034192910142  0.1944777308833051   T   T   T
  0.2501109217363638  0.5001103793945106  0.1942509703918257   T   T   T
  0.7498971418616390  0.5001103793945106  0.1942509703918257   T   T   T
  0.0000035053069993  0.7500032478573376  0.1944777353985224   T   T   T
  0.5000035053069993  0.7500032456590138  0.1952145529142628   T   T   T
  0.0000035053069993  0.9997977173328035  0.2933008402753638   T   T   T
  0.5000035053069993  0.9988469382093599  0.2939668524965319   T   T   T
  0.2502102310501792  0.2500043657231864  0.2933010540668427   T   T   T
  0.7497978325478235  0.2500043657231864  0.2933010540668427   T   T   T
  0.0000035053069993  0.5002102321680375  0.2933013978122048   T   T   T
  0.5000035053069993  0.5011616479347566  0.2939660848259038   T   T   T
  0.2511613183338282  0.7500052735680963  0.2939665412654447   T   T   T
  0.7488467452641673  0.7500052735680963  0.2939665412654447   T   T   T
  0.2489781213367764  0.0010304224001431  0.3877391749545432   T   T   T
  0.7510297270932257  0.0010304224001431  0.3877391749545432   T   T   T
  0.0000036128909997  0.2500031772031782  0.3885076135524509   T   T   T
  0.5000036128909997  0.2500039644608549  0.3883099633551885   T   T   T
  0.2489779143243779  0.4989775836738213  0.3877388136725698   T   T   T
  0.7510299341056239  0.4989775836738213  0.3877388136725698   T   T   T
  0.0000036128909997  0.7500034932944067  0.3883099837647572   T   T   T
  0.5000036907820018  0.7500029721024065  0.3939640563656461   T   T   T
 
  0.00000000E+00  0.00000000E+00  0.00000000E+00
  0.00000000E+00  0.00000000E+00  0.00000000E+00
  0.00000000E+00  0.00000000E+00  0.00000000E+00
  0.00000000E+00  0.00000000E+00  0.00000000E+00
  0.00000000E+00  0.00000000E+00  0.00000000E+00
  0.00000000E+00  0.00000000E+00  0.00000000E+00
  0.00000000E+00  0.00000000E+00  0.00000000E+00
  0.00000000E+00  0.00000000E+00  0.00000000E+00
  0.00000000E+00  0.00000000E+00  0.00000000E+00
  0.00000000E+00  0.00000000E+00  0.00000000E+00
  0.00000000E+00  0.00000000E+00  0.00000000E+00
  0.00000000E+00  0.00000000E+00  0.00000000E+00
  0.00000000E+00  0.00000000E+00  0.00000000E+00
  0.00000000E+00  0.00000000E+00  0.00000000E+00
  0.00000000E+00  0.00000000E+00  0.00000000E+00
  0.00000000E+00  0.00000000E+00  0.00000000E+00
  0.00000000E+00  0.00000000E+00  0.00000000E+00
  0.00000000E+00  0.00000000E+00  0.00000000E+00
  0.00000000E+00  0.00000000E+00  0.00000000E+00
  0.00000000E+00  0.00000000E+00  0.00000000E+00
  0.00000000E+00  0.00000000E+00  0.00000000E+00
  0.00000000E+00  0.00000000E+00  0.00000000E+00
  0.00000000E+00  0.00000000E+00  0.00000000E+00
  0.00000000E+00  0.00000000E+00  0.00000000E+00
  0.00000000E+00  0.00000000E+00  0.00000000E+00
  0.00000000E+00  0.00000000E+00  0.00000000E+00
  0.00000000E+00  0.00000000E+00  0.00000000E+00
  0.00000000E+00  0.00000000E+00  0.00000000E+00
  0.00000000E+00  0.00000000E+00  0.00000000E+00
  0.00000000E+00  0.00000000E+00  0.00000000E+00
  0.00000000E+00  0.00000000E+00  0.00000000E+00
  0.00000000E+00  0.00000000E+00  0.00000000E+00
  0.00000000E+00  0.00000000E+00  0.00000000E+00
  0.00000000E+00  0.00000000E+00  0.00000000E+00
  0.00000000E+00  0.00000000E+00  0.00000000E+00
  0.00000000E+00  0.00000000E+00  0.00000000E+00
  0.00000000E+00  0.00000000E+00  0.00000000E+00
  0.00000000E+00  0.00000000E+00  0.00000000E+00
  0.00000000E+00  0.00000000E+00  0.00000000E+00
  0.00000000E+00  0.00000000E+00  0.00000000E+00
  0.00000000E+00  0.00000000E+00  0.00000000E+00
  0.00000000E+00  0.00000000E+00  0.00000000E+00
  0.00000000E+00  0.00000000E+00  0.00000000E+00
  0.00000000E+00  0.00000000E+00  0.00000000E+00
  0.00000000E+00  0.00000000E+00  0.00000000E+00
  0.00000000E+00  0.00000000E+00  0.00000000E+00
  0.00000000E+00  0.00000000E+00  0.00000000E+00
  0.00000000E+00  0.00000000E+00  0.00000000E+00
  0.00000000E+00  0.00000000E+00  0.00000000E+00
  0.00000000E+00  0.00000000E+00  0.00000000E+00
  0.00000000E+00  0.00000000E+00  0.00000000E+00
  0.00000000E+00  0.00000000E+00  0.00000000E+00
  0.00000000E+00  0.00000000E+00  0.00000000E+00
  0.00000000E+00  0.00000000E+00  0.00000000E+00
  0.00000000E+00  0.00000000E+00  0.00000000E+00
  0.00000000E+00  0.00000000E+00  0.00000000E+00
  0.00000000E+00  0.00000000E+00  0.00000000E+00
  0.00000000E+00  0.00000000E+00  0.00000000E+00
  0.00000000E+00  0.00000000E+00  0.00000000E+00
  0.00000000E+00  0.00000000E+00  0.00000000E+00
  0.00000000E+00  0.00000000E+00  0.00000000E+00
  0.00000000E+00  0.00000000E+00  0.00000000E+00
  0.00000000E+00  0.00000000E+00  0.00000000E+00
  0.00000000E+00  0.00000000E+00  0.00000000E+00
  0.00000000E+00  0.00000000E+00  0.00000000E+00
