Au Ca O                                 
   1.00000000000000     
     9.6048491011950006    0.0000000000000000    0.0000000000000000
     0.0000000000000000    9.6048491011950006    0.0000000000000000
     0.0000000000000000    0.0000000000000000   24.6048491011950006
   Au   Ca   O 
     1    32    32
Selective dynamics
Direct
  0.5000036907820018  0.7500033880459881  0.4778073649145255   T   T   T
  0.2499676805448944  0.0000389723673307  0.0982143789999030   T   T   T
  0.7500385888371041  0.0000389723673307  0.0982143789999030   T   T   T
  0.0000044024150014  0.2500031425126714  0.0981650913245095   T   T   T
  0.5000044024150014  0.2500031458598617  0.0982160711584931   T   T   T
  0.2499679761473965  0.4999682477644611  0.0982146524483010   T   T   T
  0.7500382932346091  0.4999682477644611  0.0982146524483010   T   T   T
  0.0000044024150014  0.7500029938805707  0.0982160527767468   T   T   T
  0.5000044024150014  0.7500032167306840  0.0982282373595847   T   T   T
  0.0000046357080024  0.0001112171141256  0.1951074753784250   T   T   T
  0.5000046357080024  0.0005414460829670  0.1950269342750680   T   T   T
  0.2498949234440791  0.2500039113273446  0.1951074501690963   T   T   T
  0.7501108793519247  0.2500039113273446  0.1951074501690963   T   T   T
  0.0000046357080024  0.4998956584285625  0.1951072672342462   T   T   T
  0.5000046357080024  0.4994658880697526  0.1950268450489279   T   T   T
  0.2494650702121974  0.7500036748916503  0.1950268978692781   T   T   T
  0.7505407325837994  0.7500036748916503  0.1950268978692781   T   T   T
  0.2501801292374878  0.9998264931907844  0.2931958908184418   T   T   T
  0.7498256735585161  0.9998264931907844  0.2931958908184418   T   T   T
  0.0000046357080024  0.2500041156929991  0.2926118508777813   T   T   T
  0.5000046357080024  0.2500039904710468  0.2926479346202599   T   T   T
  0.2501803374113178  0.5001816343373974  0.2931957262064450   T   T   T
  0.7498254653846786  0.5001816343373974  0.2931957262064450   T   T   T
  0.0000046357080024  0.7500038310208804  0.2926478580824880   T   T   T
  0.5000046357080024  0.7500037273134906  0.2917139803032992   T   T   T
  0.0000044024150014  0.0015818612578220  0.3899387831233932   T   T   T
  0.5000044024150014  0.0064144752557530  0.3906017852761856   T   T   T
  0.2484250859002461  0.2500035433625902  0.3899386256445059   T   T   T
  0.7515811834817594  0.2500035433625902  0.3899386256445059   T   T   T
  0.0000044024150014  0.4984259045472098  0.3899383877602288   T   T   T
  0.5000044024150014  0.4935931994847210  0.3906018711449868   T   T   T
  0.2435925877980723  0.7500034786882269  0.3906019347169425   T   T   T
  0.7564136815839332  0.7500034786882269  0.3906019347169425   T   T   T
  0.0000036128909997  0.9999429405703008  0.0988855623244322   T   T   T
  0.5000036128909997  0.9998320362190799  0.0990361534067824   T   T   T
  0.2500639706724542  0.2500027941481049  0.0988855342655595   T   T   T
  0.7499438777575477  0.2500027941481049  0.0988855342655595   T   T   T
  0.0000036128909997  0.5000655144569582  0.0988852594106386   T   T   T
  0.5000036128909997  0.5001737615498995  0.0990360883376631   T   T   T
  0.2501748122177411  0.7500029155546142  0.0990361148912165   T   T   T
  0.7498330362122608  0.7500029155546142  0.0990361148912165   T   T   T
  0.2502351722395800  0.9997720511715864  0.1943265129551209   T   T   T
  0.7497728913584155  0.9997720511715864  0.1943265129551209   T   T   T
  0.0000035053069993  0.2500031138343177  0.1942984347226941   T   T   T
  0.5000035053069993  0.2500032438606687  0.1944044286074195   T   T   T
  0.2502355231213862  0.5002345989963616  0.1943263778763153   T   T   T
  0.7497725404766163  0.5002345989963616  0.1943263778763153   T   T   T
  0.0000035053069993  0.7500039996260671  0.1944043624935890   T   T   T
  0.5000035053069993  0.7500083459046032  0.1948365275750168   T   T   T
  0.0000035053069993  0.9999524049639023  0.2932939514652896   T   T   T
  0.5000035053069993  0.0000330544260902  0.2936056267563617   T   T   T
  0.2500576895621758  0.2500046386819421  0.2932933157295706   T   T   T
  0.7499503740358269  0.2500046386819421  0.2932933157295706   T   T   T
  0.0000035053069993  0.5000607610513642  0.2932921112043030   T   T   T
  0.5000035053069993  0.4999734648955472  0.2936057175965215   T   T   T
  0.2499746843401801  0.7500049811437848  0.2936054712158425   T   T   T
  0.7500333792578154  0.7500049811437848  0.2936054712158425   T   T   T
  0.2494612867459317  0.0005459815733286  0.3882695847288390   T   T   T
  0.7505465616840703  0.0005459815733286  0.3882695847288390   T   T   T
  0.0000036128909997  0.2500038027492999  0.3885522912121769   T   T   T
  0.5000036128909997  0.2500034011751964  0.3885654989455202   T   T   T
  0.2494609219443531  0.4994605785904745  0.3882696397334623   T   T   T
  0.7505469264856489  0.4994605785904745  0.3882696397334623   T   T   T
  0.0000036128909997  0.7500029217912974  0.3885654684544622   T   T   T
  0.5000036907820018  0.7500031846613345  0.3873574571382836   T   T   T
 
  0.00000000E+00  0.00000000E+00  0.00000000E+00
  0.00000000E+00  0.00000000E+00  0.00000000E+00
  0.00000000E+00  0.00000000E+00  0.00000000E+00
  0.00000000E+00  0.00000000E+00  0.00000000E+00
  0.00000000E+00  0.00000000E+00  0.00000000E+00
  0.00000000E+00  0.00000000E+00  0.00000000E+00
  0.00000000E+00  0.00000000E+00  0.00000000E+00
  0.00000000E+00  0.00000000E+00  0.00000000E+00
  0.00000000E+00  0.00000000E+00  0.00000000E+00
  0.00000000E+00  0.00000000E+00  0.00000000E+00
  0.00000000E+00  0.00000000E+00  0.00000000E+00
  0.00000000E+00  0.00000000E+00  0.00000000E+00
  0.00000000E+00  0.00000000E+00  0.00000000E+00
  0.00000000E+00  0.00000000E+00  0.00000000E+00
  0.00000000E+00  0.00000000E+00  0.00000000E+00
  0.00000000E+00  0.00000000E+00  0.00000000E+00
  0.00000000E+00  0.00000000E+00  0.00000000E+00
  0.00000000E+00  0.00000000E+00  0.00000000E+00
  0.00000000E+00  0.00000000E+00  0.00000000E+00
  0.00000000E+00  0.00000000E+00  0.00000000E+00
  0.00000000E+00  0.00000000E+00  0.00000000E+00
  0.00000000E+00  0.00000000E+00  0.00000000E+00
  0.00000000E+00  0.00000000E+00  0.00000000E+00
  0.00000000E+00  0.00000000E+00  0.00000000E+00
  0.00000000E+00  0.00000000E+00  0.00000000E+00
  0.00000000E+00  0.00000000E+00  0.00000000E+00
  0.00000000E+00  0.00000000E+00  0.00000000E+00
  0.00000000E+00  0.00000000E+00  0.00000000E+00
  0.00000000E+00  0.00000000E+00  0.00000000E+00
  0.00000000E+00  0.00000000E+00  0.00000000E+00
  0.00000000E+00  0.00000000E+00  0.00000000E+00
  0.00000000E+00  0.00000000E+00  0.00000000E+00
  0.00000000E+00  0.00000000E+00  0.00000000E+00
  0.00000000E+00  0.00000000E+00  0.00000000E+00
  0.00000000E+00  0.00000000E+00  0.00000000E+00
  0.00000000E+00  0.00000000E+00  0.00000000E+00
  0.00000000E+00  0.00000000E+00  0.00000000E+00
  0.00000000E+00  0.00000000E+00  0.00000000E+00
  0.00000000E+00  0.00000000E+00  0.00000000E+00
  0.00000000E+00  0.00000000E+00  0.00000000E+00
  0.00000000E+00  0.00000000E+00  0.00000000E+00
  0.00000000E+00  0.00000000E+00  0.00000000E+00
  0.00000000E+00  0.00000000E+00  0.00000000E+00
  0.00000000E+00  0.00000000E+00  0.00000000E+00
  0.00000000E+00  0.00000000E+00  0.00000000E+00
  0.00000000E+00  0.00000000E+00  0.00000000E+00
  0.00000000E+00  0.00000000E+00  0.00000000E+00
  0.00000000E+00  0.00000000E+00  0.00000000E+00
  0.00000000E+00  0.00000000E+00  0.00000000E+00
  0.00000000E+00  0.00000000E+00  0.00000000E+00
  0.00000000E+00  0.00000000E+00  0.00000000E+00
  0.00000000E+00  0.00000000E+00  0.00000000E+00
  0.00000000E+00  0.00000000E+00  0.00000000E+00
  0.00000000E+00  0.00000000E+00  0.00000000E+00
  0.00000000E+00  0.00000000E+00  0.00000000E+00
  0.00000000E+00  0.00000000E+00  0.00000000E+00
  0.00000000E+00  0.00000000E+00  0.00000000E+00
  0.00000000E+00  0.00000000E+00  0.00000000E+00
  0.00000000E+00  0.00000000E+00  0.00000000E+00
  0.00000000E+00  0.00000000E+00  0.00000000E+00
  0.00000000E+00  0.00000000E+00  0.00000000E+00
  0.00000000E+00  0.00000000E+00  0.00000000E+00
  0.00000000E+00  0.00000000E+00  0.00000000E+00
  0.00000000E+00  0.00000000E+00  0.00000000E+00
  0.00000000E+00  0.00000000E+00  0.00000000E+00
