Ca O Rh                                 
   1.00000000000000     
     9.6048491011950006    0.0000000000000000    0.0000000000000000
     0.0000000000000000    9.6048491011950006    0.0000000000000000
     0.0000000000000000    0.0000000000000000   24.6048491011950006
   Ca   O    Rh
    32    32     1
Selective dynamics
Direct
  0.2499697812239719  0.0001371059476987  0.0982877889347668   T   T   T
  0.7500364881580266  0.0001371059476987  0.0982877889347668   T   T   T
  0.0000044024150014  0.2501464357624124  0.0981610175654959   T   T   T
  0.5000044024150014  0.2501371998257721  0.0982589463694421   T   T   T
  0.2499678998114424  0.5001511709320062  0.0982734557939269   T   T   T
  0.7500383695705631  0.5001511709320062  0.0982734557939269   T   T   T
  0.0000044024150014  0.7501507908708888  0.0982596760310622   T   T   T
  0.5000044024150014  0.7501410711831354  0.0984181363802180   T   T   T
  0.0000046357080024  0.0001864224976909  0.1950944322335725   T   T   T
  0.5000046357080024  0.0003608373846035  0.1950995245216807   T   T   T
  0.2498123773966261  0.2501229762981367  0.1950825484780924   T   T   T
  0.7501934253993775  0.2501229762981367  0.1950825484780924   T   T   T
  0.0000046357080024  0.5001270929963481  0.1950635254890416   T   T   T
  0.5000046357080024  0.4998705007600330  0.1950850418009850   T   T   T
  0.2495940330137659  0.7501628720417033  0.1951778067647825   T   T   T
  0.7504117697822307  0.7501628720417033  0.1951778067647825   T   T   T
  0.2504326149260127  0.9990674648668334  0.2932684926481058   T   T   T
  0.7495731878699909  0.9990674648668334  0.2932684926481058   T   T   T
  0.0000046357080024  0.2501061993590426  0.2923218963279109   T   T   T
  0.5000046357080024  0.2499038582388207  0.2924219057924589   T   T   T
  0.2503831507335416  0.5010665979149465  0.2931788474791453   T   T   T
  0.7496226520624548  0.5010665979149465  0.2931788474791453   T   T   T
  0.0000046357080024  0.7501429815925369  0.2929828272682696   T   T   T
  0.5000046357080024  0.7500512739753578  0.2923232780520862   T   T   T
  0.0000044024150014  0.0017171393621664  0.3894439911251393   T   T   T
  0.5000044024150014  0.0100464874368392  0.3914671076739343   T   T   T
  0.2469864388651178  0.2499022188260863  0.3893543811572828   T   T   T
  0.7530198305168876  0.2499022188260863  0.3893543811572828   T   T   T
  0.0000044024150014  0.4982322450719669  0.3893815296123380   T   T   T
  0.5000044024150014  0.4892174582617319  0.3912294432222508   T   T   T
  0.2425623558362913  0.7498486882423260  0.3926955245344310   T   T   T
  0.7574439135457143  0.7498486882423260  0.3926955245344310   T   T   T
  0.0000036128909997  0.0000684044112221  0.0989384812590703   T   T   T
  0.5000036128909997  0.9999502066284253  0.0992001066567439   T   T   T
  0.2501377278166055  0.2501412899327892  0.0989224252578383   T   T   T
  0.7498701206133963  0.2501412899327892  0.0989224252578383   T   T   T
  0.0000036128909997  0.5002396958060569  0.0989309425740308   T   T   T
  0.5000036128909997  0.5003098331400713  0.0991813849470144   T   T   T
  0.2502265439130130  0.7501441554546604  0.0991361477805263   T   T   T
  0.7497813045169889  0.7501441554546604  0.0991361477805263   T   T   T
  0.2502793427974981 -0.0000570150124456  0.1943421387653785   T   T   T
  0.7497287208004972 -0.0000570150124456  0.1943421387653785   T   T   T
  0.0000035053069993  0.2501345576152389  0.1943328994320683   T   T   T
  0.5000035053069993  0.2501018195540721  0.1946847664476633   T   T   T
  0.2502647094670504  0.5003250385871236  0.1943030470471692   T   T   T
  0.7497433541309525  0.5003250385871236  0.1943030470471692   T   T   T
  0.0000035053069993  0.7501604281491761  0.1945998464241049   T   T   T
  0.5000035053069993  0.7501512407473601  0.1953182029717026   T   T   T
  0.0000035053069993 -0.0001030051534556  0.2931902161096709   T   T   T
  0.5000035053069993  0.9990600666169027  0.2943245603791137   T   T   T
  0.2503276911363200  0.2500232572160616  0.2930882155929381   T   T   T
  0.7496803724616824  0.2500232572160616  0.2930882155929381   T   T   T
  0.0000035053069993  0.5003688716319695  0.2931182808304424   T   T   T
  0.5000035053069993  0.5009614217649327  0.2942383995202899   T   T   T
  0.2509707238960311  0.7501163659252147  0.2940482653261234   T   T   T
  0.7490373397019644  0.7501163659252147  0.2940482653261234   T   T   T
  0.2487468343515913  0.0017516061696472  0.3879600365126590   T   T   T
  0.7512610140784105  0.0017516061696472  0.3879600365126590   T   T   T
  0.0000036128909997  0.2499416457974200  0.3885388652855903   T   T   T
  0.5000036128909997  0.2496539817859140  0.3889548945530546   T   T   T
  0.2486225831160286  0.4979482022176351  0.3877794991544994   T   T   T
  0.7513852653139733  0.4979482022176351  0.3877794991544994   T   T   T
  0.0000036128909997  0.7500347460017596  0.3891835847757439   T   T   T
  0.5000036907820018  0.7501892764465826  0.3899781921990672   T   T   T
  0.5000036907820018  0.7467789684411585  0.4677218005613951   T   T   T
 
  0.00000000E+00  0.00000000E+00  0.00000000E+00
  0.00000000E+00  0.00000000E+00  0.00000000E+00
  0.00000000E+00  0.00000000E+00  0.00000000E+00
  0.00000000E+00  0.00000000E+00  0.00000000E+00
  0.00000000E+00  0.00000000E+00  0.00000000E+00
  0.00000000E+00  0.00000000E+00  0.00000000E+00
  0.00000000E+00  0.00000000E+00  0.00000000E+00
  0.00000000E+00  0.00000000E+00  0.00000000E+00
  0.00000000E+00  0.00000000E+00  0.00000000E+00
  0.00000000E+00  0.00000000E+00  0.00000000E+00
  0.00000000E+00  0.00000000E+00  0.00000000E+00
  0.00000000E+00  0.00000000E+00  0.00000000E+00
  0.00000000E+00  0.00000000E+00  0.00000000E+00
  0.00000000E+00  0.00000000E+00  0.00000000E+00
  0.00000000E+00  0.00000000E+00  0.00000000E+00
  0.00000000E+00  0.00000000E+00  0.00000000E+00
  0.00000000E+00  0.00000000E+00  0.00000000E+00
  0.00000000E+00  0.00000000E+00  0.00000000E+00
  0.00000000E+00  0.00000000E+00  0.00000000E+00
  0.00000000E+00  0.00000000E+00  0.00000000E+00
  0.00000000E+00  0.00000000E+00  0.00000000E+00
  0.00000000E+00  0.00000000E+00  0.00000000E+00
  0.00000000E+00  0.00000000E+00  0.00000000E+00
  0.00000000E+00  0.00000000E+00  0.00000000E+00
  0.00000000E+00  0.00000000E+00  0.00000000E+00
  0.00000000E+00  0.00000000E+00  0.00000000E+00
  0.00000000E+00  0.00000000E+00  0.00000000E+00
  0.00000000E+00  0.00000000E+00  0.00000000E+00
  0.00000000E+00  0.00000000E+00  0.00000000E+00
  0.00000000E+00  0.00000000E+00  0.00000000E+00
  0.00000000E+00  0.00000000E+00  0.00000000E+00
  0.00000000E+00  0.00000000E+00  0.00000000E+00
  0.00000000E+00  0.00000000E+00  0.00000000E+00
  0.00000000E+00  0.00000000E+00  0.00000000E+00
  0.00000000E+00  0.00000000E+00  0.00000000E+00
  0.00000000E+00  0.00000000E+00  0.00000000E+00
  0.00000000E+00  0.00000000E+00  0.00000000E+00
  0.00000000E+00  0.00000000E+00  0.00000000E+00
  0.00000000E+00  0.00000000E+00  0.00000000E+00
  0.00000000E+00  0.00000000E+00  0.00000000E+00
  0.00000000E+00  0.00000000E+00  0.00000000E+00
  0.00000000E+00  0.00000000E+00  0.00000000E+00
  0.00000000E+00  0.00000000E+00  0.00000000E+00
  0.00000000E+00  0.00000000E+00  0.00000000E+00
  0.00000000E+00  0.00000000E+00  0.00000000E+00
  0.00000000E+00  0.00000000E+00  0.00000000E+00
  0.00000000E+00  0.00000000E+00  0.00000000E+00
  0.00000000E+00  0.00000000E+00  0.00000000E+00
  0.00000000E+00  0.00000000E+00  0.00000000E+00
  0.00000000E+00  0.00000000E+00  0.00000000E+00
  0.00000000E+00  0.00000000E+00  0.00000000E+00
  0.00000000E+00  0.00000000E+00  0.00000000E+00
  0.00000000E+00  0.00000000E+00  0.00000000E+00
  0.00000000E+00  0.00000000E+00  0.00000000E+00
  0.00000000E+00  0.00000000E+00  0.00000000E+00
  0.00000000E+00  0.00000000E+00  0.00000000E+00
  0.00000000E+00  0.00000000E+00  0.00000000E+00
  0.00000000E+00  0.00000000E+00  0.00000000E+00
  0.00000000E+00  0.00000000E+00  0.00000000E+00
  0.00000000E+00  0.00000000E+00  0.00000000E+00
  0.00000000E+00  0.00000000E+00  0.00000000E+00
  0.00000000E+00  0.00000000E+00  0.00000000E+00
  0.00000000E+00  0.00000000E+00  0.00000000E+00
  0.00000000E+00  0.00000000E+00  0.00000000E+00
  0.00000000E+00  0.00000000E+00  0.00000000E+00
