Ca Mn O                                 
   1.00000000000000     
     9.6048491011950006    0.0000000000000000    0.0000000000000000
     0.0000000000000000    9.6048491011950006    0.0000000000000000
     0.0000000000000000    0.0000000000000000   24.6048491011950006
   Ca   Mn   O 
    32     1    32
Selective dynamics
Direct
  0.2499704893839639  0.0000356893930898  0.0982478945171768   T   T   T
  0.7500357799980346  0.0000356893930898  0.0982478945171768   T   T   T
  0.0000044024150014  0.2500027265569822  0.0981627431810130   T   T   T
  0.5000044024150014  0.2500031599809480  0.0982080714223616   T   T   T
  0.2499705505329791  0.4999703223602222  0.0982480202526106   T   T   T
  0.7500357188490265  0.4999703223602222  0.0982480202526106   T   T   T
  0.0000044024150014  0.7500030343969071  0.0982080219216701   T   T   T
  0.5000044024150014  0.7500031378368284  0.0983870248043548   T   T   T
  0.0000046357080024  0.0001973121245524  0.1950256937457565   T   T   T
  0.5000046357080024 -0.0001705344590508  0.1950654348867639   T   T   T
  0.2498093344341700  0.2500035316180851  0.1950256941748840   T   T   T
  0.7501964683618337  0.2500035316180851  0.1950256941748840   T   T   T
  0.0000046357080024  0.4998102255631586  0.1950255830671075   T   T   T
  0.5000046357080024  0.5001780540962538  0.1950653740843766   T   T   T
  0.2501768981464678  0.7500038981085543  0.1950653784338197   T   T   T
  0.7498289046495288  0.7500038981085543  0.1950653784338197   T   T   T
  0.2497907678420940  0.0002160153032680  0.2928833210595213   T   T   T
  0.7502150349539097  0.0002160153032680  0.2928833210595213   T   T   T
  0.0000046357080024  0.2500040820184558  0.2925188097296616   T   T   T
  0.5000046357080024  0.2500034102738272  0.2920770201261057   T   T   T
  0.2497907072072164  0.4997916476033853  0.2928832046613241   T   T   T
  0.7502150955887803  0.4997916476033853  0.2928832046613241   T   T   T
  0.0000046357080024  0.7500039084944434  0.2920770519087205   T   T   T
  0.5000046357080024  0.7500036527385683  0.2930948772649992   T   T   T
  0.0000044024150014  0.0021164392043035  0.3900158288640250   T   T   T
  0.5000044024150014  0.0092794867066395  0.3903446743153934   T   T   T
  0.2478912105009119  0.2500039331464566  0.3900157135191609   T   T   T
  0.7521150588810936  0.2500039331464566  0.3900157135191609   T   T   T
  0.0000044024150014  0.4978922045179899  0.3900157606959400   T   T   T
  0.5000044024150014  0.4907284612723727  0.3903447481411204   T   T   T
  0.2407274621620610  0.7500039704445942  0.3903447251000937   T   T   T
  0.7592788072199446  0.7500039704445942  0.3903447251000937   T   T   T
  0.5000036907820018  0.7500041114974121  0.4753271556006356   T   T   T
  0.0000036128909997  0.9999183833344741  0.0989262233174814   T   T   T
  0.5000036128909997  0.9998536604552098  0.0990449081687311   T   T   T
  0.2500885900648854  0.2500034573332572  0.0989264446454999   T   T   T
  0.7499192583651163  0.2500034573332572  0.0989264446454999   T   T   T
  0.0000036128909997  0.5000876336436538  0.0989261254386676   T   T   T
  0.5000036128909997  0.5001555168130790  0.0990447130151158   T   T   T
  0.2501548066703337  0.7500030028818824  0.0990448016175508   T   T   T
  0.7498530417596682  0.7500030028818824  0.0990448016175508   T   T   T
  0.2500642346021615  0.9999430962176619  0.1942322979726186   T   T   T
  0.7499438289958338  0.9999430962176619  0.1942322979726186   T   T   T
  0.0000035053069993  0.2500046943241884  0.1942844662800407   T   T   T
  0.5000035053069993  0.2500033924901693  0.1943917552834357   T   T   T
  0.2500644360235740  0.5000638802827714  0.1942329088641924   T   T   T
  0.7499436275744287  0.5000638802827714  0.1942329088641924   T   T   T
  0.0000035053069993  0.7500038739416357  0.1943918326557368   T   T   T
  0.5000035053069993  0.7500033002150198  0.1952951381418651   T   T   T
  0.0000035053069993  0.9999018261256376  0.2932174954701874   T   T   T
  0.5000035053069993  0.9988585845343844  0.2937388473775912   T   T   T
  0.2501068621212181  0.2500047513728307  0.2932166084513611   T   T   T
  0.7499012014767846  0.2500047513728307  0.2932166084513611   T   T   T
  0.0000035053069993  0.5001078116650742  0.2932158564156849   T   T   T
  0.5000035053069993  0.5011471547242301  0.2937390414415148   T   T   T
  0.2511481309694434  0.7500035206559380  0.2937390283100303   T   T   T
  0.7488599326285522  0.7500035206559380  0.2937390283100303   T   T   T
  0.2488627743457711  0.0011455197921253  0.3874738320174710   T   T   T
  0.7511450740842308  0.0011455197921253  0.3874738320174710   T   T   T
  0.0000036128909997  0.2500040954155864  0.3884740025381827   T   T   T
  0.5000036128909997  0.2500039231534594  0.3878718183182244   T   T   T
  0.2488622945452994  0.4988628674098363  0.3874739848562768   T   T   T
  0.7511455538847025  0.4988628674098363  0.3874739848562768   T   T   T
  0.0000036128909997  0.7500035040433315  0.3878720851454107   T   T   T
  0.5000036907820018  0.7500057095373560  0.3957390471729242   T   T   T
 
  0.00000000E+00  0.00000000E+00  0.00000000E+00
  0.00000000E+00  0.00000000E+00  0.00000000E+00
  0.00000000E+00  0.00000000E+00  0.00000000E+00
  0.00000000E+00  0.00000000E+00  0.00000000E+00
  0.00000000E+00  0.00000000E+00  0.00000000E+00
  0.00000000E+00  0.00000000E+00  0.00000000E+00
  0.00000000E+00  0.00000000E+00  0.00000000E+00
  0.00000000E+00  0.00000000E+00  0.00000000E+00
  0.00000000E+00  0.00000000E+00  0.00000000E+00
  0.00000000E+00  0.00000000E+00  0.00000000E+00
  0.00000000E+00  0.00000000E+00  0.00000000E+00
  0.00000000E+00  0.00000000E+00  0.00000000E+00
  0.00000000E+00  0.00000000E+00  0.00000000E+00
  0.00000000E+00  0.00000000E+00  0.00000000E+00
  0.00000000E+00  0.00000000E+00  0.00000000E+00
  0.00000000E+00  0.00000000E+00  0.00000000E+00
  0.00000000E+00  0.00000000E+00  0.00000000E+00
  0.00000000E+00  0.00000000E+00  0.00000000E+00
  0.00000000E+00  0.00000000E+00  0.00000000E+00
  0.00000000E+00  0.00000000E+00  0.00000000E+00
  0.00000000E+00  0.00000000E+00  0.00000000E+00
  0.00000000E+00  0.00000000E+00  0.00000000E+00
  0.00000000E+00  0.00000000E+00  0.00000000E+00
  0.00000000E+00  0.00000000E+00  0.00000000E+00
  0.00000000E+00  0.00000000E+00  0.00000000E+00
  0.00000000E+00  0.00000000E+00  0.00000000E+00
  0.00000000E+00  0.00000000E+00  0.00000000E+00
  0.00000000E+00  0.00000000E+00  0.00000000E+00
  0.00000000E+00  0.00000000E+00  0.00000000E+00
  0.00000000E+00  0.00000000E+00  0.00000000E+00
  0.00000000E+00  0.00000000E+00  0.00000000E+00
  0.00000000E+00  0.00000000E+00  0.00000000E+00
  0.00000000E+00  0.00000000E+00  0.00000000E+00
  0.00000000E+00  0.00000000E+00  0.00000000E+00
  0.00000000E+00  0.00000000E+00  0.00000000E+00
  0.00000000E+00  0.00000000E+00  0.00000000E+00
  0.00000000E+00  0.00000000E+00  0.00000000E+00
  0.00000000E+00  0.00000000E+00  0.00000000E+00
  0.00000000E+00  0.00000000E+00  0.00000000E+00
  0.00000000E+00  0.00000000E+00  0.00000000E+00
  0.00000000E+00  0.00000000E+00  0.00000000E+00
  0.00000000E+00  0.00000000E+00  0.00000000E+00
  0.00000000E+00  0.00000000E+00  0.00000000E+00
  0.00000000E+00  0.00000000E+00  0.00000000E+00
  0.00000000E+00  0.00000000E+00  0.00000000E+00
  0.00000000E+00  0.00000000E+00  0.00000000E+00
  0.00000000E+00  0.00000000E+00  0.00000000E+00
  0.00000000E+00  0.00000000E+00  0.00000000E+00
  0.00000000E+00  0.00000000E+00  0.00000000E+00
  0.00000000E+00  0.00000000E+00  0.00000000E+00
  0.00000000E+00  0.00000000E+00  0.00000000E+00
  0.00000000E+00  0.00000000E+00  0.00000000E+00
  0.00000000E+00  0.00000000E+00  0.00000000E+00
  0.00000000E+00  0.00000000E+00  0.00000000E+00
  0.00000000E+00  0.00000000E+00  0.00000000E+00
  0.00000000E+00  0.00000000E+00  0.00000000E+00
  0.00000000E+00  0.00000000E+00  0.00000000E+00
  0.00000000E+00  0.00000000E+00  0.00000000E+00
  0.00000000E+00  0.00000000E+00  0.00000000E+00
  0.00000000E+00  0.00000000E+00  0.00000000E+00
  0.00000000E+00  0.00000000E+00  0.00000000E+00
  0.00000000E+00  0.00000000E+00  0.00000000E+00
  0.00000000E+00  0.00000000E+00  0.00000000E+00
  0.00000000E+00  0.00000000E+00  0.00000000E+00
  0.00000000E+00  0.00000000E+00  0.00000000E+00
