Ca Ni O                                 
   1.00000000000000     
     9.6048491011950006    0.0000000000000000    0.0000000000000000
     0.0000000000000000    9.6048491011950006    0.0000000000000000
     0.0000000000000000    0.0000000000000000   24.6048491011950006
   Ca   Ni   O 
    32     1    32
Selective dynamics
Direct
  0.2500003587604835  0.0000076377837132  0.0982847494770818   T   T   T
  0.7500059106215149  0.0000076377837132  0.0982847494770818   T   T   T
  0.0000044024150014  0.2500035006696337  0.0981875943817564   T   T   T
  0.5000044024150014  0.2500039766989048  0.0982851592554249   T   T   T
  0.2500004638407902  0.4999999799880767  0.0982848667931866   T   T   T
  0.7500058055412153  0.4999999799880767  0.0982848667931866   T   T   T
  0.0000044024150014  0.7500038779787308  0.0982851008840771   T   T   T
  0.5000044024150014  0.7500040461053644  0.0984940584587218   T   T   T
  0.0000046357080024  0.0000652075507745  0.1950885054382500   T   T   T
  0.5000046357080024  0.0000385391163770  0.1952819634973055   T   T   T
  0.2499389283528857  0.2500040977447600  0.1950889250743252   T   T   T
  0.7500668744431180  0.2500040977447600  0.1950889250743252   T   T   T
  0.0000046357080024  0.4999428271891409  0.1950885335029286   T   T   T
  0.5000046357080024  0.4999698050381948  0.1952818114087643   T   T   T
  0.2499659023223373  0.7500041330778519  0.1952819042224949   T   T   T
  0.7500399004736592  0.7500041330778519  0.1952819042224949   T   T   T
  0.2506916365350073  0.9993126763808680  0.2932304276134776   T   T   T
  0.7493141662609965  0.9993126763808680  0.2932304276134776   T   T   T
  0.0000046357080024  0.2500044972135494  0.2924330557663786   T   T   T
  0.5000046357080024  0.2500041643781280  0.2927925064598100   T   T   T
  0.2506918354480355  0.5006964867535393  0.2932305598961822   T   T   T
  0.7493139673479610  0.5006964867535393  0.2932305598961822   T   T   T
  0.0000046357080024  0.7500039567591202  0.2928006249687120   T   T   T
  0.5000046357080024  0.7500038574434050  0.2930886526186669   T   T   T
  0.0000044024150014  0.0020459632706185  0.3894718481478863   T   T   T
  0.5000044024150014  0.0076433702931266  0.3919349341668872   T   T   T
  0.2479557039133095  0.2500045623485422  0.3894697166994359   T   T   T
  0.7520505654686960  0.2500045623485422  0.3894697166994359   T   T   T
  0.0000044024150014  0.4979633898856299  0.3894718323404212   T   T   T
  0.5000044024150014  0.4923608736117516  0.3919339327464029   T   T   T
  0.2423513011521091  0.7500039717540571  0.3919356521517120   T   T   T
  0.7576549682298965  0.7500039717540571  0.3919356521517120   T   T   T
  0.5000036907820018  0.7499938178531353  0.4628249291147029   T   T   T
  0.0000036128909997  0.9998900673190271  0.0989162290189355   T   T   T
  0.5000036128909997  0.9997644780698177  0.0991475196521657   T   T   T
  0.2501166611586046  0.2500033595572592  0.0989159834759812   T   T   T
  0.7498911872713973  0.2500033595572592  0.0989159834759812   T   T   T
  0.0000036128909997  0.5001169894514611  0.0989162729012595   T   T   T
  0.5000036128909997  0.5002425838847152  0.0991475500889276   T   T   T
  0.2502422953684010  0.7500035728798495  0.0991477145272709   T   T   T
  0.7497655530616006  0.7500035728798495  0.0991477145272709   T   T   T
  0.2501644555863667  0.9998396609451620  0.1943156424381362   T   T   T
  0.7498436080116290  0.9998396609451620  0.1943156424381362   T   T   T
  0.0000035053069993  0.2500039687483431  0.1943184477589140   T   T   T
  0.5000035053069993  0.2500042816192699  0.1946293816457930   T   T   T
  0.2501646619188087  0.5001677996417051  0.1943157070110049   T   T   T
  0.7498434016791941  0.5001677996417051  0.1943157070110049   T   T   T
  0.0000035053069993  0.7500039264382100  0.1946330520143964   T   T   T
  0.5000035053069993  0.7500037918203402  0.1954832843518789   T   T   T
  0.0000035053069993  0.9997189076378993  0.2932079357080819   T   T   T
  0.5000035053069993  0.9989393743514580  0.2942854256971494   T   T   T
  0.2502842728978081  0.2500040109231679  0.2932069881449719   T   T   T
  0.7497237907001945  0.2500040109231679  0.2932069881449719   T   T   T
  0.0000035053069993  0.5002925828729202  0.2932080138976808   T   T   T
  0.5000035053069993  0.5010693617962911  0.2942855437754600   T   T   T
  0.2510655265848301  0.7500040864640919  0.2942929705460141   T   T   T
  0.7489425370131653  0.7500040864640919  0.2942929705460141   T   T   T
  0.2485999370042508  0.0014002762476127  0.3881530488351522   T   T   T
  0.7514079114257510  0.0014002762476127  0.3881530488351522   T   T   T
  0.0000036128909997  0.2500039200737541  0.3885761752608388   T   T   T
  0.5000036128909997  0.2500029007680044  0.3890684674425975   T   T   T
  0.2485992070595888  0.4986072421361430  0.3881527958033567   T   T   T
  0.7514086413704132  0.4986072421361430  0.3881527958033567   T   T   T
  0.0000036128909997  0.7500042332100910  0.3890824470005824   T   T   T
  0.5000036907820018  0.7499999967150114  0.3909788520566579   T   T   T
 
  0.00000000E+00  0.00000000E+00  0.00000000E+00
  0.00000000E+00  0.00000000E+00  0.00000000E+00
  0.00000000E+00  0.00000000E+00  0.00000000E+00
  0.00000000E+00  0.00000000E+00  0.00000000E+00
  0.00000000E+00  0.00000000E+00  0.00000000E+00
  0.00000000E+00  0.00000000E+00  0.00000000E+00
  0.00000000E+00  0.00000000E+00  0.00000000E+00
  0.00000000E+00  0.00000000E+00  0.00000000E+00
  0.00000000E+00  0.00000000E+00  0.00000000E+00
  0.00000000E+00  0.00000000E+00  0.00000000E+00
  0.00000000E+00  0.00000000E+00  0.00000000E+00
  0.00000000E+00  0.00000000E+00  0.00000000E+00
  0.00000000E+00  0.00000000E+00  0.00000000E+00
  0.00000000E+00  0.00000000E+00  0.00000000E+00
  0.00000000E+00  0.00000000E+00  0.00000000E+00
  0.00000000E+00  0.00000000E+00  0.00000000E+00
  0.00000000E+00  0.00000000E+00  0.00000000E+00
  0.00000000E+00  0.00000000E+00  0.00000000E+00
  0.00000000E+00  0.00000000E+00  0.00000000E+00
  0.00000000E+00  0.00000000E+00  0.00000000E+00
  0.00000000E+00  0.00000000E+00  0.00000000E+00
  0.00000000E+00  0.00000000E+00  0.00000000E+00
  0.00000000E+00  0.00000000E+00  0.00000000E+00
  0.00000000E+00  0.00000000E+00  0.00000000E+00
  0.00000000E+00  0.00000000E+00  0.00000000E+00
  0.00000000E+00  0.00000000E+00  0.00000000E+00
  0.00000000E+00  0.00000000E+00  0.00000000E+00
  0.00000000E+00  0.00000000E+00  0.00000000E+00
  0.00000000E+00  0.00000000E+00  0.00000000E+00
  0.00000000E+00  0.00000000E+00  0.00000000E+00
  0.00000000E+00  0.00000000E+00  0.00000000E+00
  0.00000000E+00  0.00000000E+00  0.00000000E+00
  0.00000000E+00  0.00000000E+00  0.00000000E+00
  0.00000000E+00  0.00000000E+00  0.00000000E+00
  0.00000000E+00  0.00000000E+00  0.00000000E+00
  0.00000000E+00  0.00000000E+00  0.00000000E+00
  0.00000000E+00  0.00000000E+00  0.00000000E+00
  0.00000000E+00  0.00000000E+00  0.00000000E+00
  0.00000000E+00  0.00000000E+00  0.00000000E+00
  0.00000000E+00  0.00000000E+00  0.00000000E+00
  0.00000000E+00  0.00000000E+00  0.00000000E+00
  0.00000000E+00  0.00000000E+00  0.00000000E+00
  0.00000000E+00  0.00000000E+00  0.00000000E+00
  0.00000000E+00  0.00000000E+00  0.00000000E+00
  0.00000000E+00  0.00000000E+00  0.00000000E+00
  0.00000000E+00  0.00000000E+00  0.00000000E+00
  0.00000000E+00  0.00000000E+00  0.00000000E+00
  0.00000000E+00  0.00000000E+00  0.00000000E+00
  0.00000000E+00  0.00000000E+00  0.00000000E+00
  0.00000000E+00  0.00000000E+00  0.00000000E+00
  0.00000000E+00  0.00000000E+00  0.00000000E+00
  0.00000000E+00  0.00000000E+00  0.00000000E+00
  0.00000000E+00  0.00000000E+00  0.00000000E+00
  0.00000000E+00  0.00000000E+00  0.00000000E+00
  0.00000000E+00  0.00000000E+00  0.00000000E+00
  0.00000000E+00  0.00000000E+00  0.00000000E+00
  0.00000000E+00  0.00000000E+00  0.00000000E+00
  0.00000000E+00  0.00000000E+00  0.00000000E+00
  0.00000000E+00  0.00000000E+00  0.00000000E+00
  0.00000000E+00  0.00000000E+00  0.00000000E+00
  0.00000000E+00  0.00000000E+00  0.00000000E+00
  0.00000000E+00  0.00000000E+00  0.00000000E+00
  0.00000000E+00  0.00000000E+00  0.00000000E+00
  0.00000000E+00  0.00000000E+00  0.00000000E+00
  0.00000000E+00  0.00000000E+00  0.00000000E+00
