Ca Cu O                                 
   1.00000000000000     
     9.6048491011950006    0.0000000000000000    0.0000000000000000
     0.0000000000000000    9.6048491011950006    0.0000000000000000
     0.0000000000000000    0.0000000000000000   24.6048491011950006
   Ca   Cu   O 
    32     1    32
Selective dynamics
Direct
  0.2499516626698505  0.0000548039057796  0.0981518706960129   T   T   T
  0.7500546067121479  0.0000548039057796  0.0981518706960129   T   T   T
  0.0000044024150014  0.2500039849282567  0.0981111589137068   T   T   T
  0.5000044024150014  0.2500032438038083  0.0981298415622303   T   T   T
  0.2499522993205190  0.4999523804445561  0.0981517182422468   T   T   T
  0.7500539700614866  0.4999523804445561  0.0981517182422468   T   T   T
  0.0000044024150014  0.7500033216882909  0.0981297992849529   T   T   T
  0.5000044024150014  0.7500032798523375  0.0982149315285119   T   T   T
  0.0000046357080024  0.0001436889649993  0.1950607089918171   T   T   T
  0.5000046357080024  0.0002194244457841  0.1950164521708799   T   T   T
  0.2498631867782529  0.2500037794514848  0.1950608097544044   T   T   T
  0.7501426160177507  0.2500037794514848  0.1950608097544044   T   T   T
  0.0000046357080024  0.4998642389824915  0.1950608570926409   T   T   T
  0.5000046357080024  0.4997888184781898  0.1950164259941697   T   T   T
  0.2497876317024779  0.7500037218743614  0.1950164407647939   T   T   T
  0.7502181710935186  0.7500037218743614  0.1950164407647939   T   T   T
  0.2502366239919683  0.9997705197206604  0.2931465244404793   T   T   T
  0.7497691788040354  0.9997705197206604  0.2931465244404793   T   T   T
  0.0000046357080024  0.2500043664523883  0.2927526168140614   T   T   T
  0.5000046357080024  0.2500041806417849  0.2927298224976471   T   T   T
  0.2502372494985650  0.5002384436617702  0.2931465185094964   T   T   T
  0.7497685532974314  0.5002384436617702  0.2931465185094964   T   T   T
  0.0000046357080024  0.7500041564704399  0.2927297868544863   T   T   T
  0.5000046357080024  0.7500047707728629  0.2926902643073622   T   T   T
  0.0000044024150014  0.0015958455208140  0.3899488362154725   T   T   T
  0.5000044024150014  0.0067735214209608  0.3910395189184459   T   T   T
  0.2484110108609445  0.2500037989055369  0.3899489420428607   T   T   T
  0.7515952585210610  0.2500037989055369  0.3899489420428607   T   T   T
  0.0000044024150014  0.4984116990960275  0.3899488593736946   T   T   T
  0.5000044024150014  0.4932346898583772  0.3910394831734897   T   T   T
  0.2432336082557052  0.7500038764185349  0.3910394784707726   T   T   T
  0.7567726611263004  0.7500038764185349  0.3910394784707726   T   T   T
  0.5000036907820018  0.7500045559912313  0.4695704025075864   T   T   T
  0.0000036128909997  0.9999462286924479  0.0988356778939874   T   T   T
  0.5000036128909997  0.9998486797738930  0.0989375616316425   T   T   T
  0.2500607015442737  0.2500030219894920  0.0988357127603623   T   T   T
  0.7499471468857283  0.2500030219894920  0.0988357127603623   T   T   T
  0.0000036128909997  0.5000597053198230  0.0988356838693332   T   T   T
  0.5000036128909997  0.5001570812935879  0.0989375231459435   T   T   T
  0.2501581792774815  0.7500027485959772  0.0989375522281111   T   T   T
  0.7498496691525205  0.7500027485959772  0.0989375522281111   T   T   T
  0.2501249773166507  0.9998824593156674  0.1942938234770737   T   T   T
  0.7498830862813448  0.9998824593156674  0.1942938234770737   T   T   T
  0.0000035053069993  0.2500037216303391  0.1943638590347913   T   T   T
  0.5000035053069993  0.2500036116645328  0.1944592192248201   T   T   T
  0.2501250565573223  0.5001243620158698  0.1942939003955436   T   T   T
  0.7498830070406804  0.5001243620158698  0.1942939003955436   T   T   T
  0.0000035053069993  0.7500034672611116  0.1944591719477968   T   T   T
  0.5000035053069993  0.7500034851413535  0.1950289645600053   T   T   T
  0.0000035053069993  0.9998586874120843  0.2933370510202359   T   T   T
  0.5000035053069993  0.9992783991121038  0.2939240027414216   T   T   T
  0.2501492811037435  0.2500040475933239  0.2933371698774023   T   T   T
  0.7498587824942592  0.2500040475933239  0.2933371698774023   T   T   T
  0.0000035053069993  0.5001494131613530  0.2933371779241087   T   T   T
  0.5000035053069993  0.5007311649011219  0.2939240509739292   T   T   T
  0.2507304412231489  0.7500042168534620  0.2939240346500108   T   T   T
  0.7492776223748466  0.7500042168534620  0.2939240346500108   T   T   T
  0.2493647474655452  0.0006423709975033  0.3882502848468537   T   T   T
  0.7506431009644566  0.0006423709975033  0.3882502848468537   T   T   T
  0.0000036128909997  0.2500033912419136  0.3887666102727295   T   T   T
  0.5000036128909997  0.2500037958909123  0.3887776349707120   T   T   T
  0.2493650646130272  0.4993643121241240  0.3882502994718022   T   T   T
  0.7506427838169747  0.4993643121241240  0.3882502994718022   T   T   T
  0.0000036128909997  0.7500033435173394  0.3887775812208211   T   T   T
  0.5000036907820018  0.7500044539658288  0.3917832489580969   T   T   T
 
  0.00000000E+00  0.00000000E+00  0.00000000E+00
  0.00000000E+00  0.00000000E+00  0.00000000E+00
  0.00000000E+00  0.00000000E+00  0.00000000E+00
  0.00000000E+00  0.00000000E+00  0.00000000E+00
  0.00000000E+00  0.00000000E+00  0.00000000E+00
  0.00000000E+00  0.00000000E+00  0.00000000E+00
  0.00000000E+00  0.00000000E+00  0.00000000E+00
  0.00000000E+00  0.00000000E+00  0.00000000E+00
  0.00000000E+00  0.00000000E+00  0.00000000E+00
  0.00000000E+00  0.00000000E+00  0.00000000E+00
  0.00000000E+00  0.00000000E+00  0.00000000E+00
  0.00000000E+00  0.00000000E+00  0.00000000E+00
  0.00000000E+00  0.00000000E+00  0.00000000E+00
  0.00000000E+00  0.00000000E+00  0.00000000E+00
  0.00000000E+00  0.00000000E+00  0.00000000E+00
  0.00000000E+00  0.00000000E+00  0.00000000E+00
  0.00000000E+00  0.00000000E+00  0.00000000E+00
  0.00000000E+00  0.00000000E+00  0.00000000E+00
  0.00000000E+00  0.00000000E+00  0.00000000E+00
  0.00000000E+00  0.00000000E+00  0.00000000E+00
  0.00000000E+00  0.00000000E+00  0.00000000E+00
  0.00000000E+00  0.00000000E+00  0.00000000E+00
  0.00000000E+00  0.00000000E+00  0.00000000E+00
  0.00000000E+00  0.00000000E+00  0.00000000E+00
  0.00000000E+00  0.00000000E+00  0.00000000E+00
  0.00000000E+00  0.00000000E+00  0.00000000E+00
  0.00000000E+00  0.00000000E+00  0.00000000E+00
  0.00000000E+00  0.00000000E+00  0.00000000E+00
  0.00000000E+00  0.00000000E+00  0.00000000E+00
  0.00000000E+00  0.00000000E+00  0.00000000E+00
  0.00000000E+00  0.00000000E+00  0.00000000E+00
  0.00000000E+00  0.00000000E+00  0.00000000E+00
  0.00000000E+00  0.00000000E+00  0.00000000E+00
  0.00000000E+00  0.00000000E+00  0.00000000E+00
  0.00000000E+00  0.00000000E+00  0.00000000E+00
  0.00000000E+00  0.00000000E+00  0.00000000E+00
  0.00000000E+00  0.00000000E+00  0.00000000E+00
  0.00000000E+00  0.00000000E+00  0.00000000E+00
  0.00000000E+00  0.00000000E+00  0.00000000E+00
  0.00000000E+00  0.00000000E+00  0.00000000E+00
  0.00000000E+00  0.00000000E+00  0.00000000E+00
  0.00000000E+00  0.00000000E+00  0.00000000E+00
  0.00000000E+00  0.00000000E+00  0.00000000E+00
  0.00000000E+00  0.00000000E+00  0.00000000E+00
  0.00000000E+00  0.00000000E+00  0.00000000E+00
  0.00000000E+00  0.00000000E+00  0.00000000E+00
  0.00000000E+00  0.00000000E+00  0.00000000E+00
  0.00000000E+00  0.00000000E+00  0.00000000E+00
  0.00000000E+00  0.00000000E+00  0.00000000E+00
  0.00000000E+00  0.00000000E+00  0.00000000E+00
  0.00000000E+00  0.00000000E+00  0.00000000E+00
  0.00000000E+00  0.00000000E+00  0.00000000E+00
  0.00000000E+00  0.00000000E+00  0.00000000E+00
  0.00000000E+00  0.00000000E+00  0.00000000E+00
  0.00000000E+00  0.00000000E+00  0.00000000E+00
  0.00000000E+00  0.00000000E+00  0.00000000E+00
  0.00000000E+00  0.00000000E+00  0.00000000E+00
  0.00000000E+00  0.00000000E+00  0.00000000E+00
  0.00000000E+00  0.00000000E+00  0.00000000E+00
  0.00000000E+00  0.00000000E+00  0.00000000E+00
  0.00000000E+00  0.00000000E+00  0.00000000E+00
  0.00000000E+00  0.00000000E+00  0.00000000E+00
  0.00000000E+00  0.00000000E+00  0.00000000E+00
  0.00000000E+00  0.00000000E+00  0.00000000E+00
  0.00000000E+00  0.00000000E+00  0.00000000E+00
