Ag Ca O                                 
   1.00000000000000     
     9.6048491011950006    0.0000000000000000    0.0000000000000000
     0.0000000000000000    9.6048491011950006    0.0000000000000000
     0.0000000000000000    0.0000000000000000   24.6048491011950006
   Ag   Ca   O 
     1    32    32
Selective dynamics
Direct
  0.5000036907820018  0.7500060408907798  0.4836013228809176   T   T   T
  0.2499912473221313  0.0000146606783992  0.0982496877664271   T   T   T
  0.7500150220598673  0.0000146606783992  0.0982496877664271   T   T   T
  0.0000044024150014  0.2500024732060179  0.0981802498142651   T   T   T
  0.5000044024150014  0.2500029074142296  0.0982254761405693   T   T   T
  0.2499912705134943  0.4999909022339459  0.0982496841742249   T   T   T
  0.7500149988685112  0.4999909022339459  0.0982496841742249   T   T   T
  0.0000044024150014  0.7500026156505892  0.0982254574570659   T   T   T
  0.5000044024150014  0.7500029217306492  0.0982628454558517   T   T   T
  0.0000046357080024  0.0000815244146615  0.1950256162546413   T   T   T
  0.5000046357080024  0.0003345243006396  0.1948927894007311   T   T   T
  0.2499249411467447  0.2500036760566763  0.1950256478593218   T   T   T
  0.7500808616492590  0.2500036760566763  0.1950256478593218   T   T   T
  0.0000046357080024  0.4999252484895479  0.1950255866567088   T   T   T
  0.5000046357080024  0.4996744384662768  0.1948925982081872   T   T   T
  0.2496725621023509  0.7500037195349656  0.1948926347945932   T   T   T
  0.7503332406936456  0.7500037195349656  0.1948926347945932   T   T   T
  0.2495138904927648  0.0004928050732033  0.2928835385265763   T   T   T
  0.7504919123032388  0.0004928050732033  0.2928835385265763   T   T   T
  0.0000046357080024  0.2500033641994330  0.2926245194666131   T   T   T
  0.5000046357080024  0.2500033525981610  0.2924067505354518   T   T   T
  0.2495135914726032  0.4995143170610143  0.2928836840906819   T   T   T
  0.7504922113233936  0.4995143170610143  0.2928836840906819   T   T   T
  0.0000046357080024  0.7500030693155242  0.2924066387002169   T   T   T
  0.5000046357080024  0.7500034165002816  0.2921341564155069   T   T   T
  0.0000044024150014  0.0009443563675809  0.3900577548023659   T   T   T
  0.5000044024150014  0.0051484332040671  0.3895576295003456   T   T   T
  0.2490632674511487  0.2500044515589920  0.3900578971492523   T   T   T
  0.7509430019308568  0.2500044515589920  0.3900578971492523   T   T   T
  0.0000044024150014  0.4990644585966693  0.3900580298343240   T   T   T
  0.5000044024150014  0.4948601288983375  0.3895576329738674   T   T   T
  0.2448592917189250  0.7500046961262467  0.3895576176663965   T   T   T
  0.7551469776630806  0.7500046961262467  0.3895576176663965   T   T   T
  0.0000036128909997  0.9999515353506180  0.0989550578829043   T   T   T
  0.5000036128909997  0.9999347470241037  0.0990373062716668   T   T   T
  0.2500558481165327  0.2500033752350553  0.0989554586474237   T   T   T
  0.7499520003134692  0.2500033752350553  0.0989554586474237   T   T   T
  0.0000036128909997  0.5000559161030164  0.0989560958272674   T   T   T
  0.5000036128909997  0.5000732333565812  0.0990360780085627   T   T   T
  0.2500731556045833  0.7500027786263745  0.0990366721056416   T   T   T
  0.7499346928254185  0.7500027786263745  0.0990366721056416   T   T   T
  0.2501251181851106  0.9998820404227278  0.1944352315488750   T   T   T
  0.7498829454128848  0.9998820404227278  0.1944352315488750   T   T   T
  0.0000035053069993  0.2500031100534427  0.1943144121830715   T   T   T
  0.5000035053069993  0.2500050264708389  0.1943514650609994   T   T   T
  0.2501252944559533  0.5001243286332726  0.1944352629418118   T   T   T
  0.7498827691420493  0.5001243286332726  0.1944352629418118   T   T   T
  0.0000035053069993  0.7500046294924062  0.1943514722993272   T   T   T
  0.5000035053069993  0.7500031763921594  0.1948137257085553   T   T   T
  0.0000035053069993  0.0000702600738429  0.2932928179502495   T   T   T
  0.5000035053069993 -0.0001740534906931  0.2932480622874544   T   T   T
  0.2499375501770203  0.2500034873740460  0.2932928660554960   T   T   T
  0.7500705134209823  0.2500034873740460  0.2932928660554960   T   T   T
  0.0000035053069993  0.4999358729509707  0.2932924234173117   T   T   T
  0.5000035053069993  0.5001817828041559  0.2932481910238123   T   T   T
  0.2501818042027031  0.7500040852654156  0.2932480733530861   T   T   T
  0.7498262593952923  0.7500040852654156  0.2932480733530861   T   T   T
  0.2496627762682889  0.0003464389984042  0.3881839792493524   T   T   T
  0.7503450721617130  0.0003464389984042  0.3881839792493524   T   T   T
  0.0000036128909997  0.2500047637543810  0.3884720239898028   T   T   T
  0.5000036128909997  0.2500040427914262  0.3880901212427506   T   T   T
  0.2496622634033330  0.4996638656917428  0.3881841103490863   T   T   T
  0.7503455850266689  0.4996638656917428  0.3881841103490863   T   T   T
  0.0000036128909997  0.7500044187349717  0.3880900344205608   T   T   T
  0.5000036907820018  0.7500031518383666  0.3894165122195641   T   T   T
 
  0.00000000E+00  0.00000000E+00  0.00000000E+00
  0.00000000E+00  0.00000000E+00  0.00000000E+00
  0.00000000E+00  0.00000000E+00  0.00000000E+00
  0.00000000E+00  0.00000000E+00  0.00000000E+00
  0.00000000E+00  0.00000000E+00  0.00000000E+00
  0.00000000E+00  0.00000000E+00  0.00000000E+00
  0.00000000E+00  0.00000000E+00  0.00000000E+00
  0.00000000E+00  0.00000000E+00  0.00000000E+00
  0.00000000E+00  0.00000000E+00  0.00000000E+00
  0.00000000E+00  0.00000000E+00  0.00000000E+00
  0.00000000E+00  0.00000000E+00  0.00000000E+00
  0.00000000E+00  0.00000000E+00  0.00000000E+00
  0.00000000E+00  0.00000000E+00  0.00000000E+00
  0.00000000E+00  0.00000000E+00  0.00000000E+00
  0.00000000E+00  0.00000000E+00  0.00000000E+00
  0.00000000E+00  0.00000000E+00  0.00000000E+00
  0.00000000E+00  0.00000000E+00  0.00000000E+00
  0.00000000E+00  0.00000000E+00  0.00000000E+00
  0.00000000E+00  0.00000000E+00  0.00000000E+00
  0.00000000E+00  0.00000000E+00  0.00000000E+00
  0.00000000E+00  0.00000000E+00  0.00000000E+00
  0.00000000E+00  0.00000000E+00  0.00000000E+00
  0.00000000E+00  0.00000000E+00  0.00000000E+00
  0.00000000E+00  0.00000000E+00  0.00000000E+00
  0.00000000E+00  0.00000000E+00  0.00000000E+00
  0.00000000E+00  0.00000000E+00  0.00000000E+00
  0.00000000E+00  0.00000000E+00  0.00000000E+00
  0.00000000E+00  0.00000000E+00  0.00000000E+00
  0.00000000E+00  0.00000000E+00  0.00000000E+00
  0.00000000E+00  0.00000000E+00  0.00000000E+00
  0.00000000E+00  0.00000000E+00  0.00000000E+00
  0.00000000E+00  0.00000000E+00  0.00000000E+00
  0.00000000E+00  0.00000000E+00  0.00000000E+00
  0.00000000E+00  0.00000000E+00  0.00000000E+00
  0.00000000E+00  0.00000000E+00  0.00000000E+00
  0.00000000E+00  0.00000000E+00  0.00000000E+00
  0.00000000E+00  0.00000000E+00  0.00000000E+00
  0.00000000E+00  0.00000000E+00  0.00000000E+00
  0.00000000E+00  0.00000000E+00  0.00000000E+00
  0.00000000E+00  0.00000000E+00  0.00000000E+00
  0.00000000E+00  0.00000000E+00  0.00000000E+00
  0.00000000E+00  0.00000000E+00  0.00000000E+00
  0.00000000E+00  0.00000000E+00  0.00000000E+00
  0.00000000E+00  0.00000000E+00  0.00000000E+00
  0.00000000E+00  0.00000000E+00  0.00000000E+00
  0.00000000E+00  0.00000000E+00  0.00000000E+00
  0.00000000E+00  0.00000000E+00  0.00000000E+00
  0.00000000E+00  0.00000000E+00  0.00000000E+00
  0.00000000E+00  0.00000000E+00  0.00000000E+00
  0.00000000E+00  0.00000000E+00  0.00000000E+00
  0.00000000E+00  0.00000000E+00  0.00000000E+00
  0.00000000E+00  0.00000000E+00  0.00000000E+00
  0.00000000E+00  0.00000000E+00  0.00000000E+00
  0.00000000E+00  0.00000000E+00  0.00000000E+00
  0.00000000E+00  0.00000000E+00  0.00000000E+00
  0.00000000E+00  0.00000000E+00  0.00000000E+00
  0.00000000E+00  0.00000000E+00  0.00000000E+00
  0.00000000E+00  0.00000000E+00  0.00000000E+00
  0.00000000E+00  0.00000000E+00  0.00000000E+00
  0.00000000E+00  0.00000000E+00  0.00000000E+00
  0.00000000E+00  0.00000000E+00  0.00000000E+00
  0.00000000E+00  0.00000000E+00  0.00000000E+00
  0.00000000E+00  0.00000000E+00  0.00000000E+00
  0.00000000E+00  0.00000000E+00  0.00000000E+00
  0.00000000E+00  0.00000000E+00  0.00000000E+00
