Ag H Mg O                               
   1.00000000000000     
     8.4141216974800006    0.0000000000000000    0.0000000000000000
     0.0000000000000000    8.4141216974800006    0.0000000000000000
     0.0000000000000000    0.0000000000000000   23.4141216974799988
   Ag   H    Mg   O 
     1     1    32    33
Selective dynamics
Direct
  0.7585402780056718  0.4932144606904931  0.3726304691194592   T   T   T
  0.0642091141548945  0.1877351318845938  0.3829155382842893   T   T   T
  0.2510413536726201  0.0007727358836496  0.0030254255843460   T   T   T
  0.2507629748183824  0.5009741060827673  0.0025801307044651   T   T   T
  0.7508364615714966  0.0010449846528237  0.0025826432543955   T   T   T
  0.7507653309694713  0.5010377875260236  0.0022248897397099   T   T   T
  0.0007536612982683  0.2510603263159768  0.0026799594225339   T   T   T
  0.0011142648870488  0.7512392411401141  0.0026837229717869   T   T   T
  0.5005714646361772  0.2506892857373227  0.0026807383672471   T   T   T
  0.5007392445090865  0.7510594067193275  0.0027566345357839   T   T   T
  0.0012353375777190  0.0012370448226987  0.0923081773370729   T   T   T
  0.0015872258575630  0.5015904003763940  0.0919540372871963   T   T   T
  0.5010917244171711  0.0012064132449631  0.0926037915575478   T   T   T
  0.4997885760463863  0.5004755454036341  0.0918027105750402   T   T   T
  0.2505845618880798  0.2505831640916952  0.0923180571782182   T   T   T
  0.2506030381468242  0.7507415220841255  0.0926163960936025   T   T   T
  0.7502328267988044  0.2502352020185361  0.0919527357430576   T   T   T
  0.7513422456894425  0.7520100949524154  0.0918043575636797   T   T   T
  0.2484291677494048  0.0033875358996775  0.1833298190554305   T   T   T
  0.2499032218547867  0.4969802645627635  0.1831871671834565   T   T   T
  0.7547674897693858  0.0019088415717016  0.1831818719238258   T   T   T
  0.7509429838800341  0.5008784607688961  0.1790843357861194   T   T   T
  0.0033417508326104  0.2484694121296503  0.1833909289790921   T   T   T
  0.0021073690398462  0.7556910136261050  0.1836226187731685   T   T   T
  0.4960829445982768  0.2497096294153668  0.1836108507373099   T   T   T
  0.5001114651171696  0.7516532539199705  0.1829579186599153   T   T   T
  0.0128031281638561  0.0105048450314903  0.2879591608059796   T   T   T
  0.0093122689284902  0.5018615458426758  0.2703603249345416   T   T   T
  0.4993136038279749  0.0006801288103037  0.2723633874569555   T   T   T
  0.4903734507519021  0.4992604214869652  0.2717447546819908   T   T   T
  0.2413029916128470  0.2389467845232560  0.2879499519124969   T   T   T
  0.2511329819331696  0.7524741198295457  0.2723570227409371   T   T   T
  0.7499236075079916  0.2424866206218257  0.2703573328156151   T   T   T
  0.7525079706035341  0.7614476710214918  0.2717438949895008   T   T   T
  0.0008988065254848  0.0010810810611035  0.0005947886671507   T   T   T
  0.0009365390918003  0.5012121266078823  0.0003555019839756   T   T   T
  0.5009887137844928  0.0007698036871500  0.0006898174199212   T   T   T
  0.5006151442080546  0.5010168503536803  0.0004116990530832   T   T   T
  0.2507071199105941  0.2508979361296493  0.0005750036175564   T   T   T
  0.2510314143789256  0.7508161002380165  0.0006748092002158   T   T   T
  0.7506109490553344  0.2508849010906130  0.0003363867566525   T   T   T
  0.7507841988692715  0.7512080287493366  0.0003953590775621   T   T   T
  0.2515383318455180  0.0002737355939686  0.0925353946488910   T   T   T
  0.2510081178625026  0.5009732045507176  0.0925513134284572   T   T   T
  0.7508334133880710  0.0008070684319441  0.0925490799062693   T   T   T
  0.7503428540866686  0.5014541749386694  0.0917742031742434   T   T   T
  0.9997102123896314  0.2521046636278838  0.0923882307127941   T   T   T
  0.0003206247203084  0.7507688820607775  0.0924051299935966   T   T   T
  0.5010370054134220  0.2514883206666275  0.0923981976840745   T   T   T
  0.5016111516959807  0.7501863758934740  0.0928097477154946   T   T   T
  0.9996889276382425  0.0009023733907845  0.1815725892798567   T   T   T
  0.9975442339680420  0.5042334695782351  0.1825419451902707   T   T   T
  0.5046679009639377  0.0007393615244375  0.1825782246163795   T   T   T
  0.5034793614721017  0.5006148259739897  0.1836181928269674   T   T   T
  0.2508913365653292  0.2520900730326479  0.1815849024830827   T   T   T
  0.2510438542141661  0.7471127250330560  0.1825791531631295   T   T   T
  0.7475338797640508  0.2542654162757746  0.1825454666866171   T   T   T
  0.7511673775755831  0.7482800670113834  0.1836193781841630   T   T   T
  0.2581119459104734  0.9936679785609015  0.2695643072369417   T   T   T
  0.2499348896446418  0.5006899872668426  0.2760305495362034   T   T   T
  0.7510950124035275  0.0018617846038057  0.2760400155948164   T   T   T
  0.7484080118017263  0.5033458862114251  0.2831169316445684   T   T   T
  0.9901896350487811  0.2616069794579276  0.2701460499281262   T   T   T
 -0.0005259252751503  0.7496430919958370  0.2769160444517911   T   T   T
  0.5021036117202635  0.2522645390594453  0.2769156288635740   T   T   T
  0.5039196555383837  0.7478747471749054  0.2752058432738000   T   T   T
  0.1307818028464478  0.1210321735968629  0.3588129501620300   T   T   T
 
  0.00000000E+00  0.00000000E+00  0.00000000E+00
  0.00000000E+00  0.00000000E+00  0.00000000E+00
  0.00000000E+00  0.00000000E+00  0.00000000E+00
  0.00000000E+00  0.00000000E+00  0.00000000E+00
  0.00000000E+00  0.00000000E+00  0.00000000E+00
  0.00000000E+00  0.00000000E+00  0.00000000E+00
  0.00000000E+00  0.00000000E+00  0.00000000E+00
  0.00000000E+00  0.00000000E+00  0.00000000E+00
  0.00000000E+00  0.00000000E+00  0.00000000E+00
  0.00000000E+00  0.00000000E+00  0.00000000E+00
  0.00000000E+00  0.00000000E+00  0.00000000E+00
  0.00000000E+00  0.00000000E+00  0.00000000E+00
  0.00000000E+00  0.00000000E+00  0.00000000E+00
  0.00000000E+00  0.00000000E+00  0.00000000E+00
  0.00000000E+00  0.00000000E+00  0.00000000E+00
  0.00000000E+00  0.00000000E+00  0.00000000E+00
  0.00000000E+00  0.00000000E+00  0.00000000E+00
  0.00000000E+00  0.00000000E+00  0.00000000E+00
  0.00000000E+00  0.00000000E+00  0.00000000E+00
  0.00000000E+00  0.00000000E+00  0.00000000E+00
  0.00000000E+00  0.00000000E+00  0.00000000E+00
  0.00000000E+00  0.00000000E+00  0.00000000E+00
  0.00000000E+00  0.00000000E+00  0.00000000E+00
  0.00000000E+00  0.00000000E+00  0.00000000E+00
  0.00000000E+00  0.00000000E+00  0.00000000E+00
  0.00000000E+00  0.00000000E+00  0.00000000E+00
  0.00000000E+00  0.00000000E+00  0.00000000E+00
  0.00000000E+00  0.00000000E+00  0.00000000E+00
  0.00000000E+00  0.00000000E+00  0.00000000E+00
  0.00000000E+00  0.00000000E+00  0.00000000E+00
  0.00000000E+00  0.00000000E+00  0.00000000E+00
  0.00000000E+00  0.00000000E+00  0.00000000E+00
  0.00000000E+00  0.00000000E+00  0.00000000E+00
  0.00000000E+00  0.00000000E+00  0.00000000E+00
  0.00000000E+00  0.00000000E+00  0.00000000E+00
  0.00000000E+00  0.00000000E+00  0.00000000E+00
  0.00000000E+00  0.00000000E+00  0.00000000E+00
  0.00000000E+00  0.00000000E+00  0.00000000E+00
  0.00000000E+00  0.00000000E+00  0.00000000E+00
  0.00000000E+00  0.00000000E+00  0.00000000E+00
  0.00000000E+00  0.00000000E+00  0.00000000E+00
  0.00000000E+00  0.00000000E+00  0.00000000E+00
  0.00000000E+00  0.00000000E+00  0.00000000E+00
  0.00000000E+00  0.00000000E+00  0.00000000E+00
  0.00000000E+00  0.00000000E+00  0.00000000E+00
  0.00000000E+00  0.00000000E+00  0.00000000E+00
  0.00000000E+00  0.00000000E+00  0.00000000E+00
  0.00000000E+00  0.00000000E+00  0.00000000E+00
  0.00000000E+00  0.00000000E+00  0.00000000E+00
  0.00000000E+00  0.00000000E+00  0.00000000E+00
  0.00000000E+00  0.00000000E+00  0.00000000E+00
  0.00000000E+00  0.00000000E+00  0.00000000E+00
  0.00000000E+00  0.00000000E+00  0.00000000E+00
  0.00000000E+00  0.00000000E+00  0.00000000E+00
  0.00000000E+00  0.00000000E+00  0.00000000E+00
  0.00000000E+00  0.00000000E+00  0.00000000E+00
  0.00000000E+00  0.00000000E+00  0.00000000E+00
  0.00000000E+00  0.00000000E+00  0.00000000E+00
  0.00000000E+00  0.00000000E+00  0.00000000E+00
  0.00000000E+00  0.00000000E+00  0.00000000E+00
  0.00000000E+00  0.00000000E+00  0.00000000E+00
  0.00000000E+00  0.00000000E+00  0.00000000E+00
  0.00000000E+00  0.00000000E+00  0.00000000E+00
  0.00000000E+00  0.00000000E+00  0.00000000E+00
  0.00000000E+00  0.00000000E+00  0.00000000E+00
  0.00000000E+00  0.00000000E+00  0.00000000E+00
  0.00000000E+00  0.00000000E+00  0.00000000E+00
