Zn H Mg O                               
   1.00000000000000     
     8.4141216974800006    0.0000000000000000    0.0000000000000000
     0.0000000000000000    8.4141216974800006    0.0000000000000000
     0.0000000000000000    0.0000000000000000   23.4141216974799988
   Zn   H    Mg   O 
     1     1    32    33
Selective dynamics
Direct
  0.7511699061793947  0.4884336461667691  0.3692948777100282   T   T   T
  0.0622004451577927  0.1899864140870172  0.3827528427668982   T   T   T
  0.2512604735163281  0.0008159086570641  0.0034335701526379   T   T   T
  0.2510150667670084  0.5010109630845997  0.0029923003587361   T   T   T
  0.7510894208901194  0.0010240793936351  0.0029991724440373   T   T   T
  0.7509926735418405  0.5010819308402246  0.0025932526324352   T   T   T
  0.0010983503891719  0.2509790060154096  0.0031542097958442   T   T   T
  0.0014113914292928  0.7513400143728406  0.0031508922783770   T   T   T
  0.5007372921926138  0.2506623190058490  0.0031343469828214   T   T   T
  0.5008985064413751  0.7511765071145611  0.0032422871893356   T   T   T
  0.0014241186141504  0.0011222667464955  0.0928168977143189   T   T   T
  0.0017892732291513  0.5016510329470688  0.0923046805774360   T   T   T
  0.5013552133197481  0.0010277650184844  0.0930794762346784   T   T   T
  0.5000859411074990  0.5005389729050961  0.0921900523550679   T   T   T
  0.2508864655362942  0.2506333763551098  0.0927961817119256   T   T   T
  0.2509694434420645  0.7506959082581516  0.0931132758805456   T   T   T
  0.7504511793195908  0.2502223507414915  0.0922918533130679   T   T   T
  0.7515349693021477  0.7518985291189145  0.0922131130787523   T   T   T
  0.2489194424415117  0.0030390764265424  0.1837458637444426   T   T   T
  0.2500573796628542  0.4972367413951616  0.1836160915868225   T   T   T
  0.7547174431001883  0.0015964693722302  0.1836110727561271   T   T   T
  0.7511612936355762  0.5007847831090574  0.1792518504125003   T   T   T
  0.0032885316521333  0.2487336043204981  0.1836675492289917   T   T   T
  0.0023615626206983  0.7555379216889968  0.1841911656231962   T   T   T
  0.4963828484683494  0.2495926134399283  0.1840570167640777   T   T   T
  0.5006230017674090  0.7513366898075551  0.1834660353656250   T   T   T
  0.0119773315155433  0.0087066305354875  0.2867093050817505   T   T   T
  0.0099549775070830  0.5028448880980330  0.2713456533416648   T   T   T
  0.4995349501748900  0.0000453863798427  0.2726991955914013   T   T   T
  0.4897124734869635  0.4994610370567501  0.2722972846913020   T   T   T
  0.2431046533702362  0.2400357811285938  0.2867013617996239   T   T   T
  0.2517762716266021  0.7524102119111223  0.2727191207395617   T   T   T
  0.7492757205631799  0.2414527498318143  0.2710361271050623   T   T   T
  0.7525968535416432  0.7618578350774603  0.2725765051145616   T   T   T
  0.0011762465963183  0.0010941419070998  0.0010751575308437   T   T   T
  0.0011649561997420  0.5012261559950137  0.0007174455519205   T   T   T
  0.5011780414083479  0.0008192277885775  0.0011639282848616   T   T   T
  0.5008492819664795  0.5010292863655005  0.0007555918392839   T   T   T
  0.2509722853387670  0.2509069992983251  0.0010295494046527   T   T   T
  0.2512620186115716  0.7509120199636828  0.0011495188768492   T   T   T
  0.7508575683337271  0.2508861271949822  0.0006965301581266   T   T   T
  0.7510395408928616  0.7512001608590729  0.0007411217017335   T   T   T
  0.2516773139258501  0.0003791916357717  0.0929878435341418   T   T   T
  0.2511927646023816  0.5009010310601302  0.0929717747050275   T   T   T
  0.7511510612899622  0.0007731085703025  0.0929725805192985   T   T   T
  0.7506457543939348  0.5013793810764156  0.0921536084791245   T   T   T
  0.0000056054713169  0.2520505525094143  0.0928197765337939   T   T   T
  0.0005764372620396  0.7507647940650386  0.0929184083350056   T   T   T
  0.5012523013156347  0.2514518669602020  0.0928844219695600   T   T   T
  0.5019217161138102  0.7501106634445385  0.0932642891604144   T   T   T
 -0.0000295657520558  0.0011280928093483  0.1822257664349182   T   T   T
  0.9973328180512393  0.5037711768518355  0.1832498366343257   T   T   T
  0.5047267564474662  0.0005581187199450  0.1828306168265588   T   T   T
  0.5040924749031820  0.5004647804398047  0.1841071709541089   T   T   T
  0.2508799396695824  0.2519839524622042  0.1822149194751606   T   T   T
  0.2514212422171804  0.7472383188782741  0.1828437784549748   T   T   T
  0.7481224830113871  0.2545112669767887  0.1831570861985185   T   T   T
  0.7514782854695919  0.7477410544553538  0.1841957718310611   T   T   T
  0.2581877110137119  0.9938588220409765  0.2697157335316132   T   T   T
  0.2501686928671821  0.5006011423087089  0.2761435264031257   T   T   T
  0.7512283199193709  0.0015357046934175  0.2761554332731587   T   T   T
  0.7483944406548007  0.5034031216572118  0.2867132855336382   T   T   T
  0.9895317654846313  0.2622980442059042  0.2705597748987559   T   T   T
 -0.0001171737735559  0.7500121618151459  0.2767398358408503   T   T   T
  0.5021539649751490  0.2522187718269186  0.2767536111980687   T   T   T
  0.5040441371777026  0.7477743779550712  0.2752645734297451   T   T   T
  0.1268121385682736  0.1254591089221429  0.3572716195461171   T   T   T
 
  0.00000000E+00  0.00000000E+00  0.00000000E+00
  0.00000000E+00  0.00000000E+00  0.00000000E+00
  0.00000000E+00  0.00000000E+00  0.00000000E+00
  0.00000000E+00  0.00000000E+00  0.00000000E+00
  0.00000000E+00  0.00000000E+00  0.00000000E+00
  0.00000000E+00  0.00000000E+00  0.00000000E+00
  0.00000000E+00  0.00000000E+00  0.00000000E+00
  0.00000000E+00  0.00000000E+00  0.00000000E+00
  0.00000000E+00  0.00000000E+00  0.00000000E+00
  0.00000000E+00  0.00000000E+00  0.00000000E+00
  0.00000000E+00  0.00000000E+00  0.00000000E+00
  0.00000000E+00  0.00000000E+00  0.00000000E+00
  0.00000000E+00  0.00000000E+00  0.00000000E+00
  0.00000000E+00  0.00000000E+00  0.00000000E+00
  0.00000000E+00  0.00000000E+00  0.00000000E+00
  0.00000000E+00  0.00000000E+00  0.00000000E+00
  0.00000000E+00  0.00000000E+00  0.00000000E+00
  0.00000000E+00  0.00000000E+00  0.00000000E+00
  0.00000000E+00  0.00000000E+00  0.00000000E+00
  0.00000000E+00  0.00000000E+00  0.00000000E+00
  0.00000000E+00  0.00000000E+00  0.00000000E+00
  0.00000000E+00  0.00000000E+00  0.00000000E+00
  0.00000000E+00  0.00000000E+00  0.00000000E+00
  0.00000000E+00  0.00000000E+00  0.00000000E+00
  0.00000000E+00  0.00000000E+00  0.00000000E+00
  0.00000000E+00  0.00000000E+00  0.00000000E+00
  0.00000000E+00  0.00000000E+00  0.00000000E+00
  0.00000000E+00  0.00000000E+00  0.00000000E+00
  0.00000000E+00  0.00000000E+00  0.00000000E+00
  0.00000000E+00  0.00000000E+00  0.00000000E+00
  0.00000000E+00  0.00000000E+00  0.00000000E+00
  0.00000000E+00  0.00000000E+00  0.00000000E+00
  0.00000000E+00  0.00000000E+00  0.00000000E+00
  0.00000000E+00  0.00000000E+00  0.00000000E+00
  0.00000000E+00  0.00000000E+00  0.00000000E+00
  0.00000000E+00  0.00000000E+00  0.00000000E+00
  0.00000000E+00  0.00000000E+00  0.00000000E+00
  0.00000000E+00  0.00000000E+00  0.00000000E+00
  0.00000000E+00  0.00000000E+00  0.00000000E+00
  0.00000000E+00  0.00000000E+00  0.00000000E+00
  0.00000000E+00  0.00000000E+00  0.00000000E+00
  0.00000000E+00  0.00000000E+00  0.00000000E+00
  0.00000000E+00  0.00000000E+00  0.00000000E+00
  0.00000000E+00  0.00000000E+00  0.00000000E+00
  0.00000000E+00  0.00000000E+00  0.00000000E+00
  0.00000000E+00  0.00000000E+00  0.00000000E+00
  0.00000000E+00  0.00000000E+00  0.00000000E+00
  0.00000000E+00  0.00000000E+00  0.00000000E+00
  0.00000000E+00  0.00000000E+00  0.00000000E+00
  0.00000000E+00  0.00000000E+00  0.00000000E+00
  0.00000000E+00  0.00000000E+00  0.00000000E+00
  0.00000000E+00  0.00000000E+00  0.00000000E+00
  0.00000000E+00  0.00000000E+00  0.00000000E+00
  0.00000000E+00  0.00000000E+00  0.00000000E+00
  0.00000000E+00  0.00000000E+00  0.00000000E+00
  0.00000000E+00  0.00000000E+00  0.00000000E+00
  0.00000000E+00  0.00000000E+00  0.00000000E+00
  0.00000000E+00  0.00000000E+00  0.00000000E+00
  0.00000000E+00  0.00000000E+00  0.00000000E+00
  0.00000000E+00  0.00000000E+00  0.00000000E+00
  0.00000000E+00  0.00000000E+00  0.00000000E+00
  0.00000000E+00  0.00000000E+00  0.00000000E+00
  0.00000000E+00  0.00000000E+00  0.00000000E+00
  0.00000000E+00  0.00000000E+00  0.00000000E+00
  0.00000000E+00  0.00000000E+00  0.00000000E+00
  0.00000000E+00  0.00000000E+00  0.00000000E+00
  0.00000000E+00  0.00000000E+00  0.00000000E+00
