H Mg Ni O                               
   1.00000000000000     
     8.4141216974800006    0.0000000000000000    0.0000000000000000
     0.0000000000000000    8.4141216974800006    0.0000000000000000
     0.0000000000000000    0.0000000000000000   23.4141216974799988
   H    Mg   Ni   O 
     1    32     1    33
Selective dynamics
Direct
  0.0632053013891687  0.1887280329338201  0.3830148633266989   T   T   T
  0.2509507294595414  0.0008825357698103  0.0030650796753910   T   T   T
  0.2507786959220796  0.5008781075429106  0.0027627237399143   T   T   T
  0.7509390643739869  0.0010658108519704  0.0027616175493060   T   T   T
  0.7508121823768618  0.5010062113120660  0.0024965750597296   T   T   T
  0.0007838881832475  0.2510494623996167  0.0028867498210569   T   T   T
  0.0010631236216503  0.7512519897551161  0.0028808722338907   T   T   T
  0.5005756848665029  0.2507564119557894  0.0028841259349551   T   T   T
  0.5008125800493757  0.7510111939381160  0.0029474842270106   T   T   T
  0.0011531644443376  0.0012213953283100  0.0925435030618606   T   T   T
  0.0015803326317407  0.5015910792933873  0.0921724111564759   T   T   T
  0.5012741323814591  0.0009643713299357  0.0926594866231966   T   T   T
  0.5000517968888601  0.5004414990335539  0.0920642529142115   T   T   T
  0.2506178556973260  0.2506981511709023  0.0925495321478610   T   T   T
  0.2508449711028838  0.7505538994379699  0.0926727599042332   T   T   T
  0.7502455452315150  0.2502686694700550  0.0921816548788113   T   T   T
  0.7514046496532514  0.7517724418979060  0.0920603333932231   T   T   T
  0.2490790553010391  0.0026949218514690  0.1831205366881797   T   T   T
  0.2502038746072933  0.4973416122934547  0.1831995282780859   T   T   T
  0.7544053047343340  0.0016020142381981  0.1831816993495401   T   T   T
  0.7512205815765711  0.5006103052513290  0.1794328585605094   T   T   T
  0.0027035357034904  0.2490983525210382  0.1832688322414128   T   T   T
  0.0021942674741171  0.7551002441786883  0.1837831799841183   T   T   T
  0.4966871322110223  0.2495960480059868  0.1837783452176449   T   T   T
  0.5009931217079757  0.7507770212705173  0.1829878697394565   T   T   T
  0.0116201339937430  0.0076106158823359  0.2851573790026652   T   T   T
  0.0113143026943196  0.5037623222384726  0.2717531577440945   T   T   T
  0.4993636224585979 -0.0003977099653341  0.2719419280079263   T   T   T
  0.4891449773583855  0.4985501232532057  0.2725406115678056   T   T   T
  0.2442500544315228  0.2401228931103419  0.2851564127739639   T   T   T
  0.2521444286330298  0.7523511032232939  0.2719439792329950   T   T   T
  0.7479418182862345  0.2403410620950368  0.2717450238132219   T   T   T
  0.7531691053633460  0.7626774399811600  0.2725240644330067   T   T   T
  0.7558478796959270  0.4959223170896520  0.3572294956145596   T   T   T
  0.0008957550518119  0.0011005245640509  0.0007419655494869   T   T   T
  0.0009137098420865  0.5011794054700242  0.0005753601193668   T   T   T
  0.5010086360647739  0.0008213294729466  0.0008390321710759   T   T   T
  0.5006963060624556  0.5009445347170598  0.0005941036477902   T   T   T
  0.2507126363396491  0.2509174285534928  0.0007215855635386   T   T   T
  0.2509951435844431  0.7508167057890213  0.0008146009887639   T   T   T
  0.7506397578030374  0.2509203112279567  0.0005556579508920   T   T   T
  0.7508663086504985  0.7511224169704634  0.0005633372156513   T   T   T
  0.2513293110464492  0.0004983394135822  0.0926484084173938   T   T   T
  0.2509906204734511  0.5006564120549656  0.0926975293598214   T   T   T
  0.7511437055177329  0.0008461435625202  0.0926848415963416   T   T   T
  0.7506251874211671  0.5012048566167981  0.0920354872559279   T   T   T
  0.9998842422573067  0.2519468803131436  0.0926491947441299   T   T   T
  0.0004902955195821  0.7508780228087027  0.0926228738928185   T   T   T
  0.5009382978356864  0.2513321878743938  0.0926317053811212   T   T   T
  0.5017621483424367  0.7500468635528728  0.0928385893604908   T   T   T
 -0.0000162884681438  0.0012919299562194  0.1822248003878939   T   T   T
  0.9978860266728389  0.5035361475871766  0.1831032235015298   T   T   T
  0.5045416464690666  0.0002913896184627  0.1823414188905205   T   T   T
  0.5037294393532965  0.5001839779934495  0.1838284497396725   T   T   T
  0.2505213927853582  0.2517634557806503  0.1822315005673416   T   T   T
  0.2514826902997606  0.7471824901599374  0.1823478691502360   T   T   T
  0.7482144807562273  0.2539220410311854  0.1831007631945769   T   T   T
  0.7516110530182259  0.7480414333442629  0.1838221309928348   T   T   T
  0.2580553907353075  0.9936606725777808  0.2693646759540313   T   T   T
  0.2503458203799725  0.5004808591905300  0.2758542944368738   T   T   T
  0.7512244025178039  0.0014419419327886  0.2758515150997305   T   T   T
  0.7491210204627771  0.5028477078451510  0.2820351472087141   T   T   T
  0.9892847925911472  0.2623912112139479  0.2705258038896162   T   T   T
  0.0008630466415944  0.7507952926281879  0.2759076954567306   T   T   T
  0.5009964645320327  0.2508890154832914  0.2758961278208850   T   T   T
  0.5041321496210338  0.7475475978511197  0.2745542837128030   T   T   T
  0.1259037054554100  0.1260146590248007  0.3562897720653711   T   T   T
 
  0.00000000E+00  0.00000000E+00  0.00000000E+00
  0.00000000E+00  0.00000000E+00  0.00000000E+00
  0.00000000E+00  0.00000000E+00  0.00000000E+00
  0.00000000E+00  0.00000000E+00  0.00000000E+00
  0.00000000E+00  0.00000000E+00  0.00000000E+00
  0.00000000E+00  0.00000000E+00  0.00000000E+00
  0.00000000E+00  0.00000000E+00  0.00000000E+00
  0.00000000E+00  0.00000000E+00  0.00000000E+00
  0.00000000E+00  0.00000000E+00  0.00000000E+00
  0.00000000E+00  0.00000000E+00  0.00000000E+00
  0.00000000E+00  0.00000000E+00  0.00000000E+00
  0.00000000E+00  0.00000000E+00  0.00000000E+00
  0.00000000E+00  0.00000000E+00  0.00000000E+00
  0.00000000E+00  0.00000000E+00  0.00000000E+00
  0.00000000E+00  0.00000000E+00  0.00000000E+00
  0.00000000E+00  0.00000000E+00  0.00000000E+00
  0.00000000E+00  0.00000000E+00  0.00000000E+00
  0.00000000E+00  0.00000000E+00  0.00000000E+00
  0.00000000E+00  0.00000000E+00  0.00000000E+00
  0.00000000E+00  0.00000000E+00  0.00000000E+00
  0.00000000E+00  0.00000000E+00  0.00000000E+00
  0.00000000E+00  0.00000000E+00  0.00000000E+00
  0.00000000E+00  0.00000000E+00  0.00000000E+00
  0.00000000E+00  0.00000000E+00  0.00000000E+00
  0.00000000E+00  0.00000000E+00  0.00000000E+00
  0.00000000E+00  0.00000000E+00  0.00000000E+00
  0.00000000E+00  0.00000000E+00  0.00000000E+00
  0.00000000E+00  0.00000000E+00  0.00000000E+00
  0.00000000E+00  0.00000000E+00  0.00000000E+00
  0.00000000E+00  0.00000000E+00  0.00000000E+00
  0.00000000E+00  0.00000000E+00  0.00000000E+00
  0.00000000E+00  0.00000000E+00  0.00000000E+00
  0.00000000E+00  0.00000000E+00  0.00000000E+00
  0.00000000E+00  0.00000000E+00  0.00000000E+00
  0.00000000E+00  0.00000000E+00  0.00000000E+00
  0.00000000E+00  0.00000000E+00  0.00000000E+00
  0.00000000E+00  0.00000000E+00  0.00000000E+00
  0.00000000E+00  0.00000000E+00  0.00000000E+00
  0.00000000E+00  0.00000000E+00  0.00000000E+00
  0.00000000E+00  0.00000000E+00  0.00000000E+00
  0.00000000E+00  0.00000000E+00  0.00000000E+00
  0.00000000E+00  0.00000000E+00  0.00000000E+00
  0.00000000E+00  0.00000000E+00  0.00000000E+00
  0.00000000E+00  0.00000000E+00  0.00000000E+00
  0.00000000E+00  0.00000000E+00  0.00000000E+00
  0.00000000E+00  0.00000000E+00  0.00000000E+00
  0.00000000E+00  0.00000000E+00  0.00000000E+00
  0.00000000E+00  0.00000000E+00  0.00000000E+00
  0.00000000E+00  0.00000000E+00  0.00000000E+00
  0.00000000E+00  0.00000000E+00  0.00000000E+00
  0.00000000E+00  0.00000000E+00  0.00000000E+00
  0.00000000E+00  0.00000000E+00  0.00000000E+00
  0.00000000E+00  0.00000000E+00  0.00000000E+00
  0.00000000E+00  0.00000000E+00  0.00000000E+00
  0.00000000E+00  0.00000000E+00  0.00000000E+00
  0.00000000E+00  0.00000000E+00  0.00000000E+00
  0.00000000E+00  0.00000000E+00  0.00000000E+00
  0.00000000E+00  0.00000000E+00  0.00000000E+00
  0.00000000E+00  0.00000000E+00  0.00000000E+00
  0.00000000E+00  0.00000000E+00  0.00000000E+00
  0.00000000E+00  0.00000000E+00  0.00000000E+00
  0.00000000E+00  0.00000000E+00  0.00000000E+00
  0.00000000E+00  0.00000000E+00  0.00000000E+00
  0.00000000E+00  0.00000000E+00  0.00000000E+00
  0.00000000E+00  0.00000000E+00  0.00000000E+00
  0.00000000E+00  0.00000000E+00  0.00000000E+00
  0.00000000E+00  0.00000000E+00  0.00000000E+00
