H Mg O                                  
   1.00000000000000     
     8.4141216974800006    0.0000000000000000    0.0000000000000000
     0.0000000000000000    8.4141216974800006    0.0000000000000000
     0.0000000000000000    0.0000000000000000   23.4141216974799988
   H    Mg   O 
     1    32    33
Selective dynamics
Direct
  0.0324296834577136  0.2248341785748921  0.3723816816652715   T   T   T
  0.2522399352473581  0.9993498234428032  0.0036812300942025   T   T   T
  0.2521170574540813  0.4994469723882793  0.0036103846233437   T   T   T
  0.7521212454319758  0.9994695419987778  0.0036171596699700   T   T   T
  0.7519463407177159  0.4996294177372862  0.0036102287160744   T   T   T
  0.0020819222896421  0.2495380050404583  0.0034354507721748   T   T   T
  0.0021292666454824  0.7495705738388473  0.0035569468760262   T   T   T
  0.5020751181367524  0.2494641573913030  0.0035477825735204   T   T   T
  0.5021314951119218  0.7494806580827902  0.0036902869867333   T   T   T
  0.0021470926932874  0.9992026582300897  0.0929618713531546   T   T   T
  0.0020927680785319  0.5001438716372342  0.0929125453690640   T   T   T
  0.5025906615858375  0.9994696133145579  0.0932166945854896   T   T   T
  0.5018368438413864  0.4994498934256079  0.0931442224091005   T   T   T
  0.2524629519572240  0.2495052050103483  0.0929641184241267   T   T   T
  0.2521539073830431  0.7490564584421068  0.0932228929628131   T   T   T
  0.7515019185045810  0.2495497785168213  0.0929186167562729   T   T   T
  0.7521482914730824  0.7497872258970437  0.0931587586544117   T   T   T
  0.2516449976700004  0.0000325894832441  0.1837840748042772   T   T   T
  0.2516556444389964  0.4977417202477513  0.1841245317940071   T   T   T
  0.7538833559887806  0.0000198314103293  0.1841335798159053   T   T   T
  0.7516381576210306  0.4999791553857376  0.1836760817442057   T   T   T
  0.0036855570331287  0.2480910068934159  0.1815606587080714   T   T   T
  0.0024288968902426  0.7524677726822339  0.1838084456099993   T   T   T
  0.4991871697598882  0.2492397498479981  0.1838167373222679   T   T   T
  0.5020275768192272  0.7496409696160801  0.1834112990348994   T   T   T
  0.0061025583258690  0.9994152129980639  0.2788373394026939   T   T   T
  0.0014694130864994  0.5077587633603521  0.2725481615682530   T   T   T
  0.5015824179183861  0.9981931988203980  0.2724747237849610   T   T   T
  0.5004174758320704  0.5005162859900464  0.2731410902426863   T   T   T
  0.2527741985839123  0.2458321380200949  0.2789349340493221   T   T   T
  0.2533774578539371  0.7501062056007641  0.2724444173787508   T   T   T
  0.7438291082824350  0.2501510115968719  0.2726035292223665   T   T   T
  0.7512771172533674  0.7513452582368315  0.2731584008746965   T   T   T
  0.0022069075342100  0.9994632466070705  0.0013782181478242   T   T   T
  0.0020267319088007  0.4996523106151649  0.0013779516835311   T   T   T
  0.5021904040719216  0.9994806160884475  0.0015120934663743   T   T   T
  0.5020835017148421  0.4994653591837138  0.0014596621195720   T   T   T
  0.2521696079854411  0.2494110739656329  0.0013478534749731   T   T   T
  0.2521213192652638  0.7494082302830740  0.0014998776291821   T   T   T
  0.7520072295573712  0.2495911740087128  0.0013565277025609   T   T   T
  0.7521443279257474  0.7495233657259549  0.0014569375569100   T   T   T
  0.2521110112490429  0.9995390507335719  0.0933814182246722   T   T   T
  0.2518259848429883  0.4990038675185190  0.0932968247634688   T   T   T
  0.7526189165664272  0.9998111732616281  0.0933057551304206   T   T   T
  0.7521014860606151  0.4995355000258778  0.0934359818971397   T   T   T
  0.0019064415247035  0.2497394354380612  0.0929719889813096   T   T   T
  0.0019642053351497  0.7495915912994969  0.0934183941165274   T   T   T
  0.5020583670733829  0.2496382011646167  0.0934166851566220   T   T   T
  0.5023309595215393  0.7492740142749835  0.0933544567479846   T   T   T
  0.0017790883682836  0.0008523280580633  0.1837277142304546   T   T   T
  0.0014297739350969  0.4994105971979746  0.1835119557581163   T   T   T
  0.5040466879948875  0.9997482619191307  0.1828592984787354   T   T   T
  0.5018748892749958  0.4991364573004098  0.1834630497359056   T   T   T
  0.2508832769981720  0.2499045900328250  0.1837322558761711   T   T   T
  0.2518930781579243  0.7476147144285389  0.1828465838188600   T   T   T
  0.7523030644929904  0.2502200241223605  0.1835226549200459   T   T   T
  0.7525163819514303  0.7498047079886145  0.1834536016462516   T   T   T
  0.2566277636400484  0.9949583460990223  0.2713297332369887   T   T   T
  0.2502623178003643  0.4995533705130529  0.2759073560350850   T   T   T
  0.7522238565744154  0.0013744967084430  0.2759366917729518   T   T   T
  0.7511672706210532  0.5005696176668644  0.2755242448401467   T   T   T
  0.9914642954277001  0.2599274440369220  0.2721419628322004   T   T   T
  0.0017635707930366  0.7511621892567928  0.2757013102573015   T   T   T
  0.5006499748479758  0.2499147393631493  0.2757091480110688   T   T   T
  0.5028560182010230  0.7488188245881318  0.2749577792560015   T   T   T
  0.0992034836747649  0.1562698940037335  0.3488519975645382   T   T   T
 
  0.00000000E+00  0.00000000E+00  0.00000000E+00
  0.00000000E+00  0.00000000E+00  0.00000000E+00
  0.00000000E+00  0.00000000E+00  0.00000000E+00
  0.00000000E+00  0.00000000E+00  0.00000000E+00
  0.00000000E+00  0.00000000E+00  0.00000000E+00
  0.00000000E+00  0.00000000E+00  0.00000000E+00
  0.00000000E+00  0.00000000E+00  0.00000000E+00
  0.00000000E+00  0.00000000E+00  0.00000000E+00
  0.00000000E+00  0.00000000E+00  0.00000000E+00
  0.00000000E+00  0.00000000E+00  0.00000000E+00
  0.00000000E+00  0.00000000E+00  0.00000000E+00
  0.00000000E+00  0.00000000E+00  0.00000000E+00
  0.00000000E+00  0.00000000E+00  0.00000000E+00
  0.00000000E+00  0.00000000E+00  0.00000000E+00
  0.00000000E+00  0.00000000E+00  0.00000000E+00
  0.00000000E+00  0.00000000E+00  0.00000000E+00
  0.00000000E+00  0.00000000E+00  0.00000000E+00
  0.00000000E+00  0.00000000E+00  0.00000000E+00
  0.00000000E+00  0.00000000E+00  0.00000000E+00
  0.00000000E+00  0.00000000E+00  0.00000000E+00
  0.00000000E+00  0.00000000E+00  0.00000000E+00
  0.00000000E+00  0.00000000E+00  0.00000000E+00
  0.00000000E+00  0.00000000E+00  0.00000000E+00
  0.00000000E+00  0.00000000E+00  0.00000000E+00
  0.00000000E+00  0.00000000E+00  0.00000000E+00
  0.00000000E+00  0.00000000E+00  0.00000000E+00
  0.00000000E+00  0.00000000E+00  0.00000000E+00
  0.00000000E+00  0.00000000E+00  0.00000000E+00
  0.00000000E+00  0.00000000E+00  0.00000000E+00
  0.00000000E+00  0.00000000E+00  0.00000000E+00
  0.00000000E+00  0.00000000E+00  0.00000000E+00
  0.00000000E+00  0.00000000E+00  0.00000000E+00
  0.00000000E+00  0.00000000E+00  0.00000000E+00
  0.00000000E+00  0.00000000E+00  0.00000000E+00
  0.00000000E+00  0.00000000E+00  0.00000000E+00
  0.00000000E+00  0.00000000E+00  0.00000000E+00
  0.00000000E+00  0.00000000E+00  0.00000000E+00
  0.00000000E+00  0.00000000E+00  0.00000000E+00
  0.00000000E+00  0.00000000E+00  0.00000000E+00
  0.00000000E+00  0.00000000E+00  0.00000000E+00
  0.00000000E+00  0.00000000E+00  0.00000000E+00
  0.00000000E+00  0.00000000E+00  0.00000000E+00
  0.00000000E+00  0.00000000E+00  0.00000000E+00
  0.00000000E+00  0.00000000E+00  0.00000000E+00
  0.00000000E+00  0.00000000E+00  0.00000000E+00
  0.00000000E+00  0.00000000E+00  0.00000000E+00
  0.00000000E+00  0.00000000E+00  0.00000000E+00
  0.00000000E+00  0.00000000E+00  0.00000000E+00
  0.00000000E+00  0.00000000E+00  0.00000000E+00
  0.00000000E+00  0.00000000E+00  0.00000000E+00
  0.00000000E+00  0.00000000E+00  0.00000000E+00
  0.00000000E+00  0.00000000E+00  0.00000000E+00
  0.00000000E+00  0.00000000E+00  0.00000000E+00
  0.00000000E+00  0.00000000E+00  0.00000000E+00
  0.00000000E+00  0.00000000E+00  0.00000000E+00
  0.00000000E+00  0.00000000E+00  0.00000000E+00
  0.00000000E+00  0.00000000E+00  0.00000000E+00
  0.00000000E+00  0.00000000E+00  0.00000000E+00
  0.00000000E+00  0.00000000E+00  0.00000000E+00
  0.00000000E+00  0.00000000E+00  0.00000000E+00
  0.00000000E+00  0.00000000E+00  0.00000000E+00
  0.00000000E+00  0.00000000E+00  0.00000000E+00
  0.00000000E+00  0.00000000E+00  0.00000000E+00
  0.00000000E+00  0.00000000E+00  0.00000000E+00
  0.00000000E+00  0.00000000E+00  0.00000000E+00
  0.00000000E+00  0.00000000E+00  0.00000000E+00
