H Mg O Pt                               
   1.00000000000000     
     8.4141216974800006    0.0000000000000000    0.0000000000000000
     0.0000000000000000    8.4141216974800006    0.0000000000000000
     0.0000000000000000    0.0000000000000000   23.4141216974799988
   H    Mg   O    Pt
     1    32    33     1
Selective dynamics
Direct
  0.0216043849939402  0.2297808182777411  0.3686690315254850   T   T   T
  0.2522351637899316 -0.0004306560172811  0.0039614408583650   T   T   T
  0.2521840449359318  0.4996584731586568  0.0037799600364214   T   T   T
  0.7521041314257725 -0.0003291639451586  0.0037883609096714   T   T   T
  0.7520476208308137  0.4997635675853663  0.0037050793089130   T   T   T
  0.0021755457068954  0.2496603285973149  0.0037560191094240   T   T   T
  0.0022497355626721  0.7497899094872553  0.0037946557351619   T   T   T
  0.5020606969202352  0.2495832342517864  0.0037982545345355   T   T   T
  0.5021317305428986  0.7497119202086823  0.0039816466561052   T   T   T
  0.0024904381931419 -0.0006642051335982  0.0933332618944430   T   T   T
  0.0026637004523916  0.5002987017242809  0.0931212052055123   T   T   T
  0.5023959267308922 -0.0004226862112982  0.0935953165459051   T   T   T
  0.5016155166405057  0.4994970880673982  0.0933139182661622   T   T   T
  0.2525273842785745  0.2493684135259114  0.0933387532152077   T   T   T
  0.2522839565342003  0.7494477462817553  0.0935825348640149   T   T   T
  0.7514896507080798  0.2491996698825731  0.0931290075027412   T   T   T
  0.7522684210125877  0.7501990289809487  0.0933177359535491   T   T   T
  0.2515009559418249  0.0003206680389350  0.1838043222265529   T   T   T
  0.2515733987729327  0.4975436563066496  0.1843630576988577   T   T   T
  0.7541399455071548  0.0001923068120990  0.1843655816378373   T   T   T
  0.7523622582527627  0.4994245954034394  0.1818062490297756   T   T   T
  0.0034063370181642  0.2484370310246106  0.1820481893519773   T   T   T
  0.0023550706098774  0.7520626795478974  0.1845314195182376   T   T   T
  0.4997112158419644  0.2494063951282074  0.1845313578348110   T   T   T
  0.5026451958408940  0.7491435195061499  0.1840387420469818   T   T   T
  0.0077580974973180  0.0001277216147308  0.2795655074623667   T   T   T
  0.0101042051310173  0.5076471329015663  0.2751483254331696   T   T   T
  0.5001447938539295 -0.0019323822124391  0.2726358458690329   T   T   T
  0.4925550669480302  0.4996876033582167  0.2750604646262351   T   T   T
  0.2516074154761804  0.2439783499568314  0.2795677107453600   T   T   T
  0.2536662160784691  0.7516286651494900  0.2726220004719569   T   T   T
  0.7440731023396937  0.2416992740810539  0.2751191121820410   T   T   T
  0.7520026404116441  0.7592327185928471  0.2750794435070699   T   T   T
  0.0021069241831371 -0.0004676672384772  0.0016935169374521   T   T   T
  0.0021555398595979  0.4998933604046257  0.0015523007575101   T   T   T
  0.5022845066169424 -0.0003783336287834  0.0018097517814453   T   T   T
  0.5021198631266999  0.4996428227610882  0.0016190642808556   T   T   T
  0.2523018300049971  0.2497070928759075  0.0016623604640448   T   T   T
  0.2522088003757710  0.7495174824009029  0.0018064596939280   T   T   T
  0.7519537959892291  0.2496883146365671  0.0015399222908279   T   T   T
  0.7522002469930860  0.7497206537420913  0.0016250336232924   T   T   T
  0.2522247082408922 -0.0003954485431866  0.0935313319068364   T   T   T
  0.2520010509117199  0.4992133557176350  0.0936536413091058   T   T   T
  0.7526041640200182 -0.0002124980001442  0.0936475456754641   T   T   T
  0.7522452642294642  0.4996079767990592  0.0933068758101037   T   T   T
  0.0015863518208359  0.2502382543768562  0.0932675188274017   T   T   T
  0.0017575649340551  0.7493638831264473  0.0936710907342068   T   T   T
  0.5024586462381845  0.2500638187783507  0.0936718037832039   T   T   T
  0.5028231769582782  0.7489981994131552  0.0936443815131097   T   T   T
  0.0015821542668598  0.0006965381451472  0.1836275277785099   T   T   T
  0.0003180168080110  0.4999595172631827  0.1843387415099347   T   T   T
  0.5045120217967755 -0.0005391755262528  0.1829948467798383   T   T   T
  0.5036810413252679  0.4991771240786193  0.1843410495668441   T   T   T
  0.2511011186476724  0.2502243379692731  0.1836319936997095   T   T   T
  0.2522853816922602  0.7472997314859008  0.1829945045961404   T   T   T
  0.7518323627382701  0.2514684953167534  0.1843299388836228   T   T   T
  0.7526289261507974  0.7481303306358553  0.1843398105216029   T   T   T
  0.2566748824381153  0.9950791048336628  0.2714608503393492   T   T   T
  0.2510256556697026  0.4995834001293907  0.2760429340046942   T   T   T
  0.7521078842779637  0.0007153054788885  0.2760288650063603   T   T   T
  0.7497890841384409  0.5016965030124264  0.2748152686834010   T   T   T
  0.9916743529158489  0.2600340245479085  0.2706120386171126   T   T   T
  0.0029382076771719  0.7520711818423239  0.2750862164285091   T   T   T
  0.4997327768142945  0.2488343969150398  0.2751223915085040   T   T   T
  0.5027155771735058  0.7490017667411369  0.2746761552293025   T   T   T
  0.0938370754185515  0.1576407051994814  0.3485505654869898   T   T   T
  0.7615632709042828  0.4914294564975308  0.3585089532068988   T   T   T
 
  0.00000000E+00  0.00000000E+00  0.00000000E+00
  0.00000000E+00  0.00000000E+00  0.00000000E+00
  0.00000000E+00  0.00000000E+00  0.00000000E+00
  0.00000000E+00  0.00000000E+00  0.00000000E+00
  0.00000000E+00  0.00000000E+00  0.00000000E+00
  0.00000000E+00  0.00000000E+00  0.00000000E+00
  0.00000000E+00  0.00000000E+00  0.00000000E+00
  0.00000000E+00  0.00000000E+00  0.00000000E+00
  0.00000000E+00  0.00000000E+00  0.00000000E+00
  0.00000000E+00  0.00000000E+00  0.00000000E+00
  0.00000000E+00  0.00000000E+00  0.00000000E+00
  0.00000000E+00  0.00000000E+00  0.00000000E+00
  0.00000000E+00  0.00000000E+00  0.00000000E+00
  0.00000000E+00  0.00000000E+00  0.00000000E+00
  0.00000000E+00  0.00000000E+00  0.00000000E+00
  0.00000000E+00  0.00000000E+00  0.00000000E+00
  0.00000000E+00  0.00000000E+00  0.00000000E+00
  0.00000000E+00  0.00000000E+00  0.00000000E+00
  0.00000000E+00  0.00000000E+00  0.00000000E+00
  0.00000000E+00  0.00000000E+00  0.00000000E+00
  0.00000000E+00  0.00000000E+00  0.00000000E+00
  0.00000000E+00  0.00000000E+00  0.00000000E+00
  0.00000000E+00  0.00000000E+00  0.00000000E+00
  0.00000000E+00  0.00000000E+00  0.00000000E+00
  0.00000000E+00  0.00000000E+00  0.00000000E+00
  0.00000000E+00  0.00000000E+00  0.00000000E+00
  0.00000000E+00  0.00000000E+00  0.00000000E+00
  0.00000000E+00  0.00000000E+00  0.00000000E+00
  0.00000000E+00  0.00000000E+00  0.00000000E+00
  0.00000000E+00  0.00000000E+00  0.00000000E+00
  0.00000000E+00  0.00000000E+00  0.00000000E+00
  0.00000000E+00  0.00000000E+00  0.00000000E+00
  0.00000000E+00  0.00000000E+00  0.00000000E+00
  0.00000000E+00  0.00000000E+00  0.00000000E+00
  0.00000000E+00  0.00000000E+00  0.00000000E+00
  0.00000000E+00  0.00000000E+00  0.00000000E+00
  0.00000000E+00  0.00000000E+00  0.00000000E+00
  0.00000000E+00  0.00000000E+00  0.00000000E+00
  0.00000000E+00  0.00000000E+00  0.00000000E+00
  0.00000000E+00  0.00000000E+00  0.00000000E+00
  0.00000000E+00  0.00000000E+00  0.00000000E+00
  0.00000000E+00  0.00000000E+00  0.00000000E+00
  0.00000000E+00  0.00000000E+00  0.00000000E+00
  0.00000000E+00  0.00000000E+00  0.00000000E+00
  0.00000000E+00  0.00000000E+00  0.00000000E+00
  0.00000000E+00  0.00000000E+00  0.00000000E+00
  0.00000000E+00  0.00000000E+00  0.00000000E+00
  0.00000000E+00  0.00000000E+00  0.00000000E+00
  0.00000000E+00  0.00000000E+00  0.00000000E+00
  0.00000000E+00  0.00000000E+00  0.00000000E+00
  0.00000000E+00  0.00000000E+00  0.00000000E+00
  0.00000000E+00  0.00000000E+00  0.00000000E+00
  0.00000000E+00  0.00000000E+00  0.00000000E+00
  0.00000000E+00  0.00000000E+00  0.00000000E+00
  0.00000000E+00  0.00000000E+00  0.00000000E+00
  0.00000000E+00  0.00000000E+00  0.00000000E+00
  0.00000000E+00  0.00000000E+00  0.00000000E+00
  0.00000000E+00  0.00000000E+00  0.00000000E+00
  0.00000000E+00  0.00000000E+00  0.00000000E+00
  0.00000000E+00  0.00000000E+00  0.00000000E+00
  0.00000000E+00  0.00000000E+00  0.00000000E+00
  0.00000000E+00  0.00000000E+00  0.00000000E+00
  0.00000000E+00  0.00000000E+00  0.00000000E+00
  0.00000000E+00  0.00000000E+00  0.00000000E+00
  0.00000000E+00  0.00000000E+00  0.00000000E+00
  0.00000000E+00  0.00000000E+00  0.00000000E+00
  0.00000000E+00  0.00000000E+00  0.00000000E+00
