Cr H Mg O                               
   1.00000000000000     
     8.4141216974800006    0.0000000000000000    0.0000000000000000
     0.0000000000000000    8.4141216974800006    0.0000000000000000
     0.0000000000000000    0.0000000000000000   23.4141216974799988
   Cr   H    Mg   O 
     1     1    32    33
Selective dynamics
Direct
  0.7517992902400419  0.4892173992040927  0.3685383911295628   T   T   T
  0.0630334538542645  0.1892053524698334  0.3822656101223967   T   T   T
  0.2512391724667181  0.0008252235667805  0.0034259290391726   T   T   T
  0.2510099328250257  0.5009716620804602  0.0030345358180554   T   T   T
  0.7511073884877482  0.0010171998245702  0.0030390690108703   T   T   T
  0.7509938039995727  0.5010658969947928  0.0026448525612912   T   T   T
  0.0010747767675920  0.2509889923823035  0.0031928745674270   T   T   T
  0.0013819870808905  0.7513411960870124  0.0031831710018951   T   T   T
  0.5007182150388313  0.2506802769874643  0.0031657643287210   T   T   T
  0.5009120646837933  0.7511491620616466  0.0032532748548186   T   T   T
  0.0014594429651050  0.0011986837979556  0.0928181670988408   T   T   T
  0.0018529540563748  0.5017593347532536  0.0923000984310649   T   T   T
  0.5012753094698389  0.0011143922032599  0.0930350448921036   T   T   T
  0.5000177765842653  0.5005064162603143  0.0921630101004333   T   T   T
  0.2508227035069060  0.2505917536362207  0.0928020709904974   T   T   T
  0.2509001341280879  0.7507689086044138  0.0930656630606696   T   T   T
  0.7503342379762615  0.2501599508699355  0.0922855061881006   T   T   T
  0.7515519083743235  0.7519595078896294  0.0921783430198236   T   T   T
  0.2485236901597490  0.0034273329517029  0.1837072689140119   T   T   T
  0.2500536829045322  0.4971237225145276  0.1832289663716956   T   T   T
  0.7548431318913345  0.0014067982501594  0.1832155813910636   T   T   T
  0.7511565768095892  0.5008265494455582  0.1787657484903916   T   T   T
  0.0033052881213575  0.2487481534853307  0.1836327133561036   T   T   T
  0.0023619998678155  0.7559165122967552  0.1841589731264240   T   T   T
  0.4959910856210366  0.2495647145414791  0.1840290356697087   T   T   T
  0.5005480849965029  0.7514371243723009  0.1834553772625968   T   T   T
  0.0131447382529608  0.0108893988668871  0.2882591182339738   T   T   T
  0.0112312032051036  0.5024996672325691  0.2706058868692275   T   T   T
  0.4990991027883810  0.0003665800927573  0.2726388933150332   T   T   T
  0.4882830581186947  0.4990150759441919  0.2718797297054383   T   T   T
  0.2408466244823307  0.2388815091474347  0.2882458919652072   T   T   T
  0.2514256995591327  0.7528477742432705  0.2726260434736633   T   T   T
  0.7496486100407086  0.2398737231615352  0.2702044719583632   T   T   T
  0.7530303665784411  0.7629804208945515  0.2722242673408559   T   T   T
  0.0011529495235354  0.0011394460050099  0.0010774090392432   T   T   T
  0.0011440701097854  0.5011995986536815  0.0007827509735033   T   T   T
  0.5011940828341518  0.0008056804611635  0.0011568282555531   T   T   T
  0.5008655663715470  0.5010446763200671  0.0007991652493925   T   T   T
  0.2509144609703461  0.2509161336691298  0.0010318275279672   T   T   T
  0.2512682749692126  0.7508783562675017  0.0011468122986204   T   T   T
  0.7508660638336405  0.2508983436391221  0.0007555785302551   T   T   T
  0.7510152905434685  0.7511703715497474  0.0007839415879656   T   T   T
  0.2517097269470118  0.0003486296796490  0.0929664501441440   T   T   T
  0.2512579915742396  0.5009689702561767  0.0929475922509099   T   T   T
  0.7510641884180277  0.0006932561758461  0.0929457503326071   T   T   T
  0.7505530117920107  0.5014710586093456  0.0919290078411294   T   T   T
  0.9999169001741059  0.2521473541742851  0.0928311205685716   T   T   T
  0.0005478460793363  0.7508941526528079  0.0928349177699392   T   T   T
  0.5011131336276547  0.2514717741748649  0.0928029412883256   T   T   T
  0.5019059149559152  0.7501327661129764  0.0932508667195892   T   T   T
  0.9997302613782417  0.0010893947189903  0.1819799666476215   T   T   T
  0.9971275807940131  0.5045662890369264  0.1829418990238971   T   T   T
  0.5048643990424996  0.0005504863972146  0.1828607434727245   T   T   T
  0.5043418370520552  0.5005214437637531  0.1841267422303710   T   T   T
  0.2509235828085428  0.2522200490434817  0.1819962397881668   T   T   T
  0.2514641072134390  0.7470982859861822  0.1828609891508027   T   T   T
  0.7473385481867757  0.2546924305631239  0.1828312480624796   T   T   T
  0.7513674826068413  0.7474517659346767  0.1842193958981673   T   T   T
  0.2582437613274272  0.9937815752932510  0.2696980384045615   T   T   T
  0.2500538347915491  0.5007354967726151  0.2761437221693676   T   T   T
  0.7511144472520257  0.0014526608858092  0.2761525585881677   T   T   T
  0.7477788219086327  0.5041189692541823  0.2889062093141128   T   T   T
  0.9888289635085524  0.2629507420324688  0.2701124226740730   T   T   T
 -0.0002302375509328  0.7494661512261194  0.2768498647793015   T   T   T
  0.5026660762181302  0.2522973736820510  0.2769313822969662   T   T   T
  0.5041401676338568  0.7476534481205543  0.2752994987945075   T   T   T
  0.1299455873390786  0.1222626378932508  0.3584651438404849   T   T   T
 
  0.00000000E+00  0.00000000E+00  0.00000000E+00
  0.00000000E+00  0.00000000E+00  0.00000000E+00
  0.00000000E+00  0.00000000E+00  0.00000000E+00
  0.00000000E+00  0.00000000E+00  0.00000000E+00
  0.00000000E+00  0.00000000E+00  0.00000000E+00
  0.00000000E+00  0.00000000E+00  0.00000000E+00
  0.00000000E+00  0.00000000E+00  0.00000000E+00
  0.00000000E+00  0.00000000E+00  0.00000000E+00
  0.00000000E+00  0.00000000E+00  0.00000000E+00
  0.00000000E+00  0.00000000E+00  0.00000000E+00
  0.00000000E+00  0.00000000E+00  0.00000000E+00
  0.00000000E+00  0.00000000E+00  0.00000000E+00
  0.00000000E+00  0.00000000E+00  0.00000000E+00
  0.00000000E+00  0.00000000E+00  0.00000000E+00
  0.00000000E+00  0.00000000E+00  0.00000000E+00
  0.00000000E+00  0.00000000E+00  0.00000000E+00
  0.00000000E+00  0.00000000E+00  0.00000000E+00
  0.00000000E+00  0.00000000E+00  0.00000000E+00
  0.00000000E+00  0.00000000E+00  0.00000000E+00
  0.00000000E+00  0.00000000E+00  0.00000000E+00
  0.00000000E+00  0.00000000E+00  0.00000000E+00
  0.00000000E+00  0.00000000E+00  0.00000000E+00
  0.00000000E+00  0.00000000E+00  0.00000000E+00
  0.00000000E+00  0.00000000E+00  0.00000000E+00
  0.00000000E+00  0.00000000E+00  0.00000000E+00
  0.00000000E+00  0.00000000E+00  0.00000000E+00
  0.00000000E+00  0.00000000E+00  0.00000000E+00
  0.00000000E+00  0.00000000E+00  0.00000000E+00
  0.00000000E+00  0.00000000E+00  0.00000000E+00
  0.00000000E+00  0.00000000E+00  0.00000000E+00
  0.00000000E+00  0.00000000E+00  0.00000000E+00
  0.00000000E+00  0.00000000E+00  0.00000000E+00
  0.00000000E+00  0.00000000E+00  0.00000000E+00
  0.00000000E+00  0.00000000E+00  0.00000000E+00
  0.00000000E+00  0.00000000E+00  0.00000000E+00
  0.00000000E+00  0.00000000E+00  0.00000000E+00
  0.00000000E+00  0.00000000E+00  0.00000000E+00
  0.00000000E+00  0.00000000E+00  0.00000000E+00
  0.00000000E+00  0.00000000E+00  0.00000000E+00
  0.00000000E+00  0.00000000E+00  0.00000000E+00
  0.00000000E+00  0.00000000E+00  0.00000000E+00
  0.00000000E+00  0.00000000E+00  0.00000000E+00
  0.00000000E+00  0.00000000E+00  0.00000000E+00
  0.00000000E+00  0.00000000E+00  0.00000000E+00
  0.00000000E+00  0.00000000E+00  0.00000000E+00
  0.00000000E+00  0.00000000E+00  0.00000000E+00
  0.00000000E+00  0.00000000E+00  0.00000000E+00
  0.00000000E+00  0.00000000E+00  0.00000000E+00
  0.00000000E+00  0.00000000E+00  0.00000000E+00
  0.00000000E+00  0.00000000E+00  0.00000000E+00
  0.00000000E+00  0.00000000E+00  0.00000000E+00
  0.00000000E+00  0.00000000E+00  0.00000000E+00
  0.00000000E+00  0.00000000E+00  0.00000000E+00
  0.00000000E+00  0.00000000E+00  0.00000000E+00
  0.00000000E+00  0.00000000E+00  0.00000000E+00
  0.00000000E+00  0.00000000E+00  0.00000000E+00
  0.00000000E+00  0.00000000E+00  0.00000000E+00
  0.00000000E+00  0.00000000E+00  0.00000000E+00
  0.00000000E+00  0.00000000E+00  0.00000000E+00
  0.00000000E+00  0.00000000E+00  0.00000000E+00
  0.00000000E+00  0.00000000E+00  0.00000000E+00
  0.00000000E+00  0.00000000E+00  0.00000000E+00
  0.00000000E+00  0.00000000E+00  0.00000000E+00
  0.00000000E+00  0.00000000E+00  0.00000000E+00
  0.00000000E+00  0.00000000E+00  0.00000000E+00
  0.00000000E+00  0.00000000E+00  0.00000000E+00
  0.00000000E+00  0.00000000E+00  0.00000000E+00
