H Mg O V                                
   1.00000000000000     
     8.4141216974800006    0.0000000000000000    0.0000000000000000
     0.0000000000000000    8.4141216974800006    0.0000000000000000
     0.0000000000000000    0.0000000000000000   23.4141216974799988
   H    Mg   O    V 
     1    32    33     1
Selective dynamics
Direct
  0.0632504810339950  0.1888478736838921  0.3822848874909326   T   T   T
  0.2507786105723855  0.0010013725150507  0.0028010759125005   T   T   T
  0.2505956783102031  0.5009998197798748  0.0024478572321597   T   T   T
  0.7507577187420025  0.0011861837522507  0.0024348854352773   T   T   T
  0.7507040881292961  0.5010546498192556  0.0020844116728516   T   T   T
  0.0007527461306305  0.2510254022786904  0.0027467426045701   T   T   T
  0.0010038807554300  0.7514096171730116  0.0025893978535127   T   T   T
  0.5003488212124408  0.2507832787012231  0.0026073002592497   T   T   T
  0.5004651034353857  0.7512895420310237  0.0026218758575211   T   T   T
  0.0013346614485461  0.0012334360310245  0.0923662224772370   T   T   T
  0.0019307748035710  0.5017727267728681  0.0918454625415328   T   T   T
  0.5008972814793159  0.0011761475019729  0.0925125876313409   T   T   T
  0.4996321130398885  0.5003468603341937  0.0916063677014584   T   T   T
  0.2505739180835030  0.2504885959422909  0.0923828466067633   T   T   T
  0.2506499262673395  0.7509211482453798  0.0925250534746509   T   T   T
  0.7500568444827113  0.2498975048765422  0.0918417182806013   T   T   T
  0.7514724966512917  0.7521513923432531  0.0915886685272543   T   T   T
  0.2484457116635242  0.0033575093697462  0.1833304511224915   T   T   T
  0.2502772151048646  0.4968467741014372  0.1830152329468832   T   T   T
  0.7549097607909274  0.0015054502480991  0.1829963943855600   T   T   T
  0.7512913550343855  0.5005058252806752  0.1776401426864258   T   T   T
  0.0028366693035211  0.2489666573598850  0.1836227465573069   T   T   T
  0.0024581107487389  0.7556742666332039  0.1838422462760112   T   T   T
  0.4961160528836702  0.2493613035790006  0.1838431274276463   T   T   T
  0.5009858906400300  0.7508145778732209  0.1830107255031352   T   T   T
  0.0134205103458267  0.0102252610074273  0.2881650621910360   T   T   T
  0.0128108450729654  0.5030600559224521  0.2710790073152637   T   T   T
  0.4991487710155453 -0.0002267325529573  0.2721134751924935   T   T   T
  0.4880987544398444  0.4977030438585538  0.2724075495947216   T   T   T
  0.2414262305965410  0.2384139027138200  0.2881295599301282   T   T   T
  0.2520794085846469  0.7525991544285108  0.2720893600639839   T   T   T
  0.7488357976245626  0.2389035687234095  0.2710542350624935   T   T   T
  0.7540422244092858  0.7637526212615240  0.2723767427935108   T   T   T
  0.0007284854017308  0.0012495416460332  0.0004675535766880   T   T   T
  0.0008394682090168  0.5012169757065690  0.0002428368356728   T   T   T
  0.5008493205179760  0.0009150801811754  0.0005138953339158   T   T   T
  0.5004869266212151  0.5011311976906325  0.0002052011794534   T   T   T
  0.2505248811317588  0.2510576288183454  0.0004693057311138   T   T   T
  0.2508466713712637  0.7509139409744796  0.0004954109777371   T   T   T
  0.7505475795020500  0.2509475833052484  0.0002364760447264   T   T   T
  0.7506483173517173  0.7512716448647139  0.0001739354433667   T   T   T
  0.2514690246989743  0.0003425526531095  0.0923747303012649   T   T   T
  0.2511187457962465  0.5009754836514643  0.0924827735579229   T   T   T
  0.7508157490693576  0.0006829260808556  0.0924679888107293   T   T   T
  0.7503578291613756  0.5014358303601684  0.0912566028695756   T   T   T
 -0.0004108958429516  0.2522218919394040  0.0923846386436133   T   T   T
  0.0003092362849087  0.7508210901062023  0.0923180195444702   T   T   T
  0.5009678741416970  0.2515044925999438  0.0923371105355626   T   T   T
  0.5018393665802442  0.7499583156000161  0.0927195862718879   T   T   T
 -0.0003011720778028  0.0011934514318375  0.1815496299454520   T   T   T
 -0.0030555870926180  0.5043786263122352  0.1828675731768689   T   T   T
  0.5048899048924361  0.0000998710842723  0.1823495190571844   T   T   T
  0.5048725461608482  0.5001919832894602  0.1840169939270869   T   T   T
  0.2505997728298155  0.2520875150958687  0.1815745557455174   T   T   T
  0.2517152550195321  0.7468809645034946  0.1823406773084846   T   T   T
  0.7474145193864914  0.2548409692154046  0.1828556747946111   T   T   T
  0.7516075869616776  0.7469394068550981  0.1840037657857484   T   T   T
  0.2583639328325933  0.9934012261869297  0.2692854663560386   T   T   T
  0.2507187424046525  0.5003300916689261  0.2758890494500617   T   T   T
  0.7514879049411919  0.0010746081916336  0.2758961914172106   T   T   T
  0.7471887133357472  0.5046843047527843  0.2914855890342558   T   T   T
  0.9876651145400980  0.2641537536736822  0.2700677491715129   T   T   T
  0.0004225864189589  0.7494143549139136  0.2762911632718602   T   T   T
  0.5024384446502085  0.2513848278530580  0.2762820122940778   T   T   T
  0.5050730641971305  0.7467062593946452  0.2746341445311623   T   T   T
  0.1294770444312596  0.1224818451477187  0.3580116144507477   T   T   T
  0.7562607834763901  0.4954771087818783  0.3696037369319320   T   T   T
 
  0.00000000E+00  0.00000000E+00  0.00000000E+00
  0.00000000E+00  0.00000000E+00  0.00000000E+00
  0.00000000E+00  0.00000000E+00  0.00000000E+00
  0.00000000E+00  0.00000000E+00  0.00000000E+00
  0.00000000E+00  0.00000000E+00  0.00000000E+00
  0.00000000E+00  0.00000000E+00  0.00000000E+00
  0.00000000E+00  0.00000000E+00  0.00000000E+00
  0.00000000E+00  0.00000000E+00  0.00000000E+00
  0.00000000E+00  0.00000000E+00  0.00000000E+00
  0.00000000E+00  0.00000000E+00  0.00000000E+00
  0.00000000E+00  0.00000000E+00  0.00000000E+00
  0.00000000E+00  0.00000000E+00  0.00000000E+00
  0.00000000E+00  0.00000000E+00  0.00000000E+00
  0.00000000E+00  0.00000000E+00  0.00000000E+00
  0.00000000E+00  0.00000000E+00  0.00000000E+00
  0.00000000E+00  0.00000000E+00  0.00000000E+00
  0.00000000E+00  0.00000000E+00  0.00000000E+00
  0.00000000E+00  0.00000000E+00  0.00000000E+00
  0.00000000E+00  0.00000000E+00  0.00000000E+00
  0.00000000E+00  0.00000000E+00  0.00000000E+00
  0.00000000E+00  0.00000000E+00  0.00000000E+00
  0.00000000E+00  0.00000000E+00  0.00000000E+00
  0.00000000E+00  0.00000000E+00  0.00000000E+00
  0.00000000E+00  0.00000000E+00  0.00000000E+00
  0.00000000E+00  0.00000000E+00  0.00000000E+00
  0.00000000E+00  0.00000000E+00  0.00000000E+00
  0.00000000E+00  0.00000000E+00  0.00000000E+00
  0.00000000E+00  0.00000000E+00  0.00000000E+00
  0.00000000E+00  0.00000000E+00  0.00000000E+00
  0.00000000E+00  0.00000000E+00  0.00000000E+00
  0.00000000E+00  0.00000000E+00  0.00000000E+00
  0.00000000E+00  0.00000000E+00  0.00000000E+00
  0.00000000E+00  0.00000000E+00  0.00000000E+00
  0.00000000E+00  0.00000000E+00  0.00000000E+00
  0.00000000E+00  0.00000000E+00  0.00000000E+00
  0.00000000E+00  0.00000000E+00  0.00000000E+00
  0.00000000E+00  0.00000000E+00  0.00000000E+00
  0.00000000E+00  0.00000000E+00  0.00000000E+00
  0.00000000E+00  0.00000000E+00  0.00000000E+00
  0.00000000E+00  0.00000000E+00  0.00000000E+00
  0.00000000E+00  0.00000000E+00  0.00000000E+00
  0.00000000E+00  0.00000000E+00  0.00000000E+00
  0.00000000E+00  0.00000000E+00  0.00000000E+00
  0.00000000E+00  0.00000000E+00  0.00000000E+00
  0.00000000E+00  0.00000000E+00  0.00000000E+00
  0.00000000E+00  0.00000000E+00  0.00000000E+00
  0.00000000E+00  0.00000000E+00  0.00000000E+00
  0.00000000E+00  0.00000000E+00  0.00000000E+00
  0.00000000E+00  0.00000000E+00  0.00000000E+00
  0.00000000E+00  0.00000000E+00  0.00000000E+00
  0.00000000E+00  0.00000000E+00  0.00000000E+00
  0.00000000E+00  0.00000000E+00  0.00000000E+00
  0.00000000E+00  0.00000000E+00  0.00000000E+00
  0.00000000E+00  0.00000000E+00  0.00000000E+00
  0.00000000E+00  0.00000000E+00  0.00000000E+00
  0.00000000E+00  0.00000000E+00  0.00000000E+00
  0.00000000E+00  0.00000000E+00  0.00000000E+00
  0.00000000E+00  0.00000000E+00  0.00000000E+00
  0.00000000E+00  0.00000000E+00  0.00000000E+00
  0.00000000E+00  0.00000000E+00  0.00000000E+00
  0.00000000E+00  0.00000000E+00  0.00000000E+00
  0.00000000E+00  0.00000000E+00  0.00000000E+00
  0.00000000E+00  0.00000000E+00  0.00000000E+00
  0.00000000E+00  0.00000000E+00  0.00000000E+00
  0.00000000E+00  0.00000000E+00  0.00000000E+00
  0.00000000E+00  0.00000000E+00  0.00000000E+00
  0.00000000E+00  0.00000000E+00  0.00000000E+00
