Co H Mg O                               
   1.00000000000000     
     8.4141216974800006    0.0000000000000000    0.0000000000000000
     0.0000000000000000    8.4141216974800006    0.0000000000000000
     0.0000000000000000    0.0000000000000000   23.4141216974799988
   Co   H    Mg   O 
     1     1    32    33
Selective dynamics
Direct
  0.7539426354952018  0.4940712086270314  0.3614404939039551   T   T   T
  0.0638830928306336  0.1870122873198655  0.3825429796512629   T   T   T
  0.2510328811826088  0.0008856015106557  0.0029463566027093   T   T   T
  0.2507535086730596  0.5011120988458997  0.0025288351569667   T   T   T
  0.7508093844461547  0.0011367644973355  0.0025267476739841   T   T   T
  0.7507126228617059  0.5011873769340608  0.0021431473953267   T   T   T
  0.0007814155801471  0.2511413647129305  0.0027214253580061   T   T   T
  0.0011573438490344  0.7515429748983976  0.0027364821675374   T   T   T
  0.5003668203968220  0.2507431434410368  0.0027333006817105   T   T   T
  0.5005723720381802  0.7513177069201575  0.0027565898395771   T   T   T
  0.0013977104392103  0.0012712435942771  0.0923295894001284   T   T   T
  0.0018283351429945  0.5018096952349526  0.0918193032572347   T   T   T
  0.5010111006890146  0.0011345501683637  0.0926535440372456   T   T   T
  0.4997411021042771  0.5005764725083882  0.0916786403647979   T   T   T
  0.2506526894947756  0.2505407934657447  0.0923318210239838   T   T   T
  0.2507545665673440  0.7509055147043560  0.0926757934534655   T   T   T
  0.7501171462273756  0.2500630938103972  0.0918204722126112   T   T   T
  0.7513361334321033  0.7521258322803965  0.0916783530717279   T   T   T
  0.2484570019699689  0.0034920791316086  0.1832439601875379   T   T   T
  0.2500085932765005  0.4968807353127890  0.1829802529574952   T   T   T
  0.7549924355508980  0.0018032083307847  0.1829724106000414   T   T   T
  0.7512038162003046  0.5005814652227644  0.1778603837235293   T   T   T
  0.0031325061268450  0.2488188277264304  0.1833826123849524   T   T   T
  0.0022133267234786  0.7556341216631527  0.1837788146360735   T   T   T
  0.4962806755756659  0.2497178485454781  0.1837415160615348   T   T   T
  0.5008061584968949  0.7510655682668258  0.1830897510126933   T   T   T
  0.0136128317384606  0.0101253094568147  0.2877691923833634   T   T   T
  0.0126786716221884  0.5021031225318831  0.2711852720886881   T   T   T
  0.4990977080702322  0.0001330265729815  0.2719566342048893   T   T   T
  0.4871691584215300  0.4986192663414060  0.2723811663903096   T   T   T
  0.2413095213226681  0.2382224393121647  0.2878212913727929   T   T   T
  0.2516234643677239  0.7528486642359683  0.2719510429393490   T   T   T
  0.7500742239265765  0.2390000815597960  0.2711125377080378   T   T   T
  0.7533382599274587  0.7644348535035883  0.2724110814702228   T   T   T
  0.0007973239384140  0.0013077505475100  0.0006370973628499   T   T   T
  0.0008822384954798  0.5013442148408834  0.0002833391248171   T   T   T
  0.5010267582029473  0.0009344708889721  0.0007002373190155   T   T   T
  0.5006092175589175  0.5011502568130631  0.0003153204985532   T   T   T
  0.2505741789006506  0.2510782521412854  0.0006120800450654   T   T   T
  0.2509707576380784  0.7508984001301424  0.0006805719309322   T   T   T
  0.7505940010004725  0.2510422013943366  0.0002672760604512   T   T   T
  0.7507440004851357  0.7512607967252209  0.0002977949073919   T   T   T
  0.2516323039592634  0.0003042994511437  0.0924831630232569   T   T   T
  0.2511052307693420  0.5010588987194995  0.0925042447462385   T   T   T
  0.7508767233088696  0.0007490057941111  0.0924968752837288   T   T   T
  0.7503927941995314  0.5014981594202559  0.0914082663226262   T   T   T
 -0.0004140519865943  0.2523478280870652  0.0923897268024525   T   T   T
  0.0002525483513877  0.7508284516382440  0.0923888980896722   T   T   T
  0.5010737055055637  0.2516495428468940  0.0923715145526228   T   T   T
  0.5018069481905545  0.7500902069078739  0.0927893248469777   T   T   T
 -0.0002031786556604  0.0010417017912084  0.1814286939884203   T   T   T
 -0.0030029087415940  0.5043509360513455  0.1829011876450235   T   T   T
  0.5049214777202784  0.0004143163791458  0.1823532093778426   T   T   T
  0.5044061505204976  0.5004702482874887  0.1839739112400038   T   T   T
  0.2509155096223363  0.2521273295235961  0.1814338316693933   T   T   T
  0.2515290796206797  0.7469663674050223  0.1823458200536278   T   T   T
  0.7475160390895033  0.2548008185479524  0.1828838879571971   T   T   T
  0.7513629066928479  0.7473716282099713  0.1839913309249394   T   T   T
  0.2585017093402321  0.9935230176015938  0.2691689313774548   T   T   T
  0.2501802566298026  0.5006719103243757  0.2760423035061002   T   T   T
  0.7512657409988142  0.0015554358364906  0.2760155523899901   T   T   T
  0.7474979218445844  0.5036079966952300  0.2868949019489752   T   T   T
  0.9893570832427131  0.2627308720984329  0.2697565001445764   T   T   T
 -0.0000709016505221  0.7496307415077761  0.2761592211801071   T   T   T
  0.5023544378392151  0.2520235940536095  0.2762640191201856   T   T   T
  0.5045880498388459  0.7473736495655671  0.2746695080443414   T   T   T
  0.1302731069983826  0.1211548179070182  0.3581526993904464   T   T   T
 
  0.00000000E+00  0.00000000E+00  0.00000000E+00
  0.00000000E+00  0.00000000E+00  0.00000000E+00
  0.00000000E+00  0.00000000E+00  0.00000000E+00
  0.00000000E+00  0.00000000E+00  0.00000000E+00
  0.00000000E+00  0.00000000E+00  0.00000000E+00
  0.00000000E+00  0.00000000E+00  0.00000000E+00
  0.00000000E+00  0.00000000E+00  0.00000000E+00
  0.00000000E+00  0.00000000E+00  0.00000000E+00
  0.00000000E+00  0.00000000E+00  0.00000000E+00
  0.00000000E+00  0.00000000E+00  0.00000000E+00
  0.00000000E+00  0.00000000E+00  0.00000000E+00
  0.00000000E+00  0.00000000E+00  0.00000000E+00
  0.00000000E+00  0.00000000E+00  0.00000000E+00
  0.00000000E+00  0.00000000E+00  0.00000000E+00
  0.00000000E+00  0.00000000E+00  0.00000000E+00
  0.00000000E+00  0.00000000E+00  0.00000000E+00
  0.00000000E+00  0.00000000E+00  0.00000000E+00
  0.00000000E+00  0.00000000E+00  0.00000000E+00
  0.00000000E+00  0.00000000E+00  0.00000000E+00
  0.00000000E+00  0.00000000E+00  0.00000000E+00
  0.00000000E+00  0.00000000E+00  0.00000000E+00
  0.00000000E+00  0.00000000E+00  0.00000000E+00
  0.00000000E+00  0.00000000E+00  0.00000000E+00
  0.00000000E+00  0.00000000E+00  0.00000000E+00
  0.00000000E+00  0.00000000E+00  0.00000000E+00
  0.00000000E+00  0.00000000E+00  0.00000000E+00
  0.00000000E+00  0.00000000E+00  0.00000000E+00
  0.00000000E+00  0.00000000E+00  0.00000000E+00
  0.00000000E+00  0.00000000E+00  0.00000000E+00
  0.00000000E+00  0.00000000E+00  0.00000000E+00
  0.00000000E+00  0.00000000E+00  0.00000000E+00
  0.00000000E+00  0.00000000E+00  0.00000000E+00
  0.00000000E+00  0.00000000E+00  0.00000000E+00
  0.00000000E+00  0.00000000E+00  0.00000000E+00
  0.00000000E+00  0.00000000E+00  0.00000000E+00
  0.00000000E+00  0.00000000E+00  0.00000000E+00
  0.00000000E+00  0.00000000E+00  0.00000000E+00
  0.00000000E+00  0.00000000E+00  0.00000000E+00
  0.00000000E+00  0.00000000E+00  0.00000000E+00
  0.00000000E+00  0.00000000E+00  0.00000000E+00
  0.00000000E+00  0.00000000E+00  0.00000000E+00
  0.00000000E+00  0.00000000E+00  0.00000000E+00
  0.00000000E+00  0.00000000E+00  0.00000000E+00
  0.00000000E+00  0.00000000E+00  0.00000000E+00
  0.00000000E+00  0.00000000E+00  0.00000000E+00
  0.00000000E+00  0.00000000E+00  0.00000000E+00
  0.00000000E+00  0.00000000E+00  0.00000000E+00
  0.00000000E+00  0.00000000E+00  0.00000000E+00
  0.00000000E+00  0.00000000E+00  0.00000000E+00
  0.00000000E+00  0.00000000E+00  0.00000000E+00
  0.00000000E+00  0.00000000E+00  0.00000000E+00
  0.00000000E+00  0.00000000E+00  0.00000000E+00
  0.00000000E+00  0.00000000E+00  0.00000000E+00
  0.00000000E+00  0.00000000E+00  0.00000000E+00
  0.00000000E+00  0.00000000E+00  0.00000000E+00
  0.00000000E+00  0.00000000E+00  0.00000000E+00
  0.00000000E+00  0.00000000E+00  0.00000000E+00
  0.00000000E+00  0.00000000E+00  0.00000000E+00
  0.00000000E+00  0.00000000E+00  0.00000000E+00
  0.00000000E+00  0.00000000E+00  0.00000000E+00
  0.00000000E+00  0.00000000E+00  0.00000000E+00
  0.00000000E+00  0.00000000E+00  0.00000000E+00
  0.00000000E+00  0.00000000E+00  0.00000000E+00
  0.00000000E+00  0.00000000E+00  0.00000000E+00
  0.00000000E+00  0.00000000E+00  0.00000000E+00
  0.00000000E+00  0.00000000E+00  0.00000000E+00
  0.00000000E+00  0.00000000E+00  0.00000000E+00
