Au H Mg O                               
   1.00000000000000     
     8.4141216974800006    0.0000000000000000    0.0000000000000000
     0.0000000000000000    8.4141216974800006    0.0000000000000000
     0.0000000000000000    0.0000000000000000   23.4141216974799988
   Au   H    Mg   O 
     1     1    32    33
Selective dynamics
Direct
  0.7507277353591998  0.4879809765994515  0.3711081738161728   T   T   T
  0.0620042859471963  0.1901873016417826  0.3824028210546110   T   T   T
  0.2512313006182778  0.0008520040910619  0.0034726807669263   T   T   T
  0.2509906634585442  0.5010161367816651  0.0029216340278503   T   T   T
  0.7511219729987900  0.0010576464830146  0.0029280233338898   T   T   T
  0.7510165728886996  0.5010751599604494  0.0024261770747788   T   T   T
  0.0011575701026000  0.2509350048344465  0.0031556917239163   T   T   T
  0.0014841158525828  0.7514456876328003  0.0031150145623467   T   T   T
  0.5006556660202220  0.2506072321464199  0.0031044032051510   T   T   T
  0.5008403878464871  0.7512582462843301  0.0032090911962203   T   T   T
  0.0014684864218172  0.0011078842680437  0.0928188684328765   T   T   T
  0.0019903395544544  0.5017106234742340  0.0922113041137406   T   T   T
  0.5013301032474183  0.0009721049855078  0.0931047836515537   T   T   T
  0.4999275536635517  0.5005367052714864  0.0921322995406539   T   T   T
  0.2508997407003871  0.2506049970718233  0.0927847263130803   T   T   T
  0.2510273234918843  0.7507449271580643  0.0931452401040285   T   T   T
  0.7504095768407278  0.2500153975947781  0.0922011179565661   T   T   T
  0.7515595627525794  0.7520520551356682  0.0921524245414493   T   T   T
  0.2488784265514032  0.0030652856658801  0.1837568110528666   T   T   T
  0.2501038914321024  0.4972329817304509  0.1836627363937115   T   T   T
  0.7547207999995447  0.0015616668062984  0.1836687617287072   T   T   T
  0.7511847116798032  0.5006684337743641  0.1786550975222521   T   T   T
  0.0031675577959103  0.2488548106278124  0.1836530294252124   T   T   T
  0.0022793777591833  0.7553779318064657  0.1844059010305603   T   T   T
  0.4965318066947157  0.2496695179156016  0.1842488039236441   T   T   T
  0.5008771868549236  0.7510754023104018  0.1836446008321532   T   T   T
  0.0121224088094379  0.0089153502157392  0.2868856388639401   T   T   T
  0.0105882934011560  0.5029042445832317  0.2718502819235851   T   T   T
  0.4993135194678088  0.0001049971915242  0.2727066266602708   T   T   T
  0.4889781060477231  0.4992719112221537  0.2729031622389667   T   T   T
  0.2429673975188051  0.2398854278474910  0.2868734709614737   T   T   T
  0.2517469859631325  0.7526131569837929  0.2727633698951517   T   T   T
  0.7491833366254123  0.2408415334228943  0.2715802554733693   T   T   T
  0.7527532964013587  0.7625981055343041  0.2731949591038802   T   T   T
  0.0012042126653861  0.0011113983678986  0.0010567000623639   T   T   T
  0.0011917544743658  0.5012613743907325  0.0006764446571211   T   T   T
  0.5011563170501412  0.0008355641492792  0.0011631792830064   T   T   T
  0.5008346077416000  0.5010387452781819  0.0007064296800231   T   T   T
  0.2509703546691777  0.2508959725843482  0.0010095942180119   T   T   T
  0.2512614217934003  0.7509659229281564  0.0011418045999345   T   T   T
  0.7508458958538073  0.2508782628000858  0.0006585405923735   T   T   T
  0.7510541208052600  0.7512373408573548  0.0006874649605611   T   T   T
  0.2517116586330206  0.0003389536422135  0.0930120192940202   T   T   T
  0.2512487554105391  0.5009613029696651  0.0929679718816904   T   T   T
  0.7511262438763507  0.0006894214871387  0.0929751954319984   T   T   T
  0.7506325246501085  0.5014189612044868  0.0918463562254100   T   T   T
 -0.0000607317607320  0.2521359175899248  0.0927844965010097   T   T   T
  0.0005394161096647  0.7507189538986427  0.0928953425210520   T   T   T
  0.5013167536664920  0.2514954443241286  0.0928522959155122   T   T   T
  0.5020321434616284  0.7500148525143501  0.0932644752257618   T   T   T
 -0.0001247684939168  0.0011920707200351  0.1821293010650830   T   T   T
  0.9973316145983474  0.5038452586413065  0.1833357865098451   T   T   T
  0.5048670996744417  0.0004222181143041  0.1828236598748430   T   T   T
  0.5042495849393049  0.5004231478359302  0.1842790731757644   T   T   T
  0.2507761499011237  0.2520803834272768  0.1820930819622699   T   T   T
  0.2515098453538958  0.7470905415273497  0.1828544496302813   T   T   T
  0.7480868746791435  0.2544704354206132  0.1832280842812131   T   T   T
  0.7515325990762830  0.7475191340698065  0.1844019457760254   T   T   T
  0.2581570606059637  0.9938802115818086  0.2697571076353991   T   T   T
  0.2500038037596179  0.5005168806259259  0.2761868600653863   T   T   T
  0.7512986921623770  0.0016914768360703  0.2762023926525837   T   T   T
  0.7482071663995259  0.5043171560904625  0.2838771050259095   T   T   T
  0.9898456209891450  0.2620098142535760  0.2703454613815388   T   T   T
  0.0002818753137580  0.7503791659976703  0.2765953655548067   T   T   T
  0.5017058732649430  0.2517737078991250  0.2764422676153216   T   T   T
  0.5037702490250909  0.7480535614507026  0.2751591543720767   T   T   T
  0.1273613390209282  0.1249517335889988  0.3574309790992374   T   T   T
 
  0.00000000E+00  0.00000000E+00  0.00000000E+00
  0.00000000E+00  0.00000000E+00  0.00000000E+00
  0.00000000E+00  0.00000000E+00  0.00000000E+00
  0.00000000E+00  0.00000000E+00  0.00000000E+00
  0.00000000E+00  0.00000000E+00  0.00000000E+00
  0.00000000E+00  0.00000000E+00  0.00000000E+00
  0.00000000E+00  0.00000000E+00  0.00000000E+00
  0.00000000E+00  0.00000000E+00  0.00000000E+00
  0.00000000E+00  0.00000000E+00  0.00000000E+00
  0.00000000E+00  0.00000000E+00  0.00000000E+00
  0.00000000E+00  0.00000000E+00  0.00000000E+00
  0.00000000E+00  0.00000000E+00  0.00000000E+00
  0.00000000E+00  0.00000000E+00  0.00000000E+00
  0.00000000E+00  0.00000000E+00  0.00000000E+00
  0.00000000E+00  0.00000000E+00  0.00000000E+00
  0.00000000E+00  0.00000000E+00  0.00000000E+00
  0.00000000E+00  0.00000000E+00  0.00000000E+00
  0.00000000E+00  0.00000000E+00  0.00000000E+00
  0.00000000E+00  0.00000000E+00  0.00000000E+00
  0.00000000E+00  0.00000000E+00  0.00000000E+00
  0.00000000E+00  0.00000000E+00  0.00000000E+00
  0.00000000E+00  0.00000000E+00  0.00000000E+00
  0.00000000E+00  0.00000000E+00  0.00000000E+00
  0.00000000E+00  0.00000000E+00  0.00000000E+00
  0.00000000E+00  0.00000000E+00  0.00000000E+00
  0.00000000E+00  0.00000000E+00  0.00000000E+00
  0.00000000E+00  0.00000000E+00  0.00000000E+00
  0.00000000E+00  0.00000000E+00  0.00000000E+00
  0.00000000E+00  0.00000000E+00  0.00000000E+00
  0.00000000E+00  0.00000000E+00  0.00000000E+00
  0.00000000E+00  0.00000000E+00  0.00000000E+00
  0.00000000E+00  0.00000000E+00  0.00000000E+00
  0.00000000E+00  0.00000000E+00  0.00000000E+00
  0.00000000E+00  0.00000000E+00  0.00000000E+00
  0.00000000E+00  0.00000000E+00  0.00000000E+00
  0.00000000E+00  0.00000000E+00  0.00000000E+00
  0.00000000E+00  0.00000000E+00  0.00000000E+00
  0.00000000E+00  0.00000000E+00  0.00000000E+00
  0.00000000E+00  0.00000000E+00  0.00000000E+00
  0.00000000E+00  0.00000000E+00  0.00000000E+00
  0.00000000E+00  0.00000000E+00  0.00000000E+00
  0.00000000E+00  0.00000000E+00  0.00000000E+00
  0.00000000E+00  0.00000000E+00  0.00000000E+00
  0.00000000E+00  0.00000000E+00  0.00000000E+00
  0.00000000E+00  0.00000000E+00  0.00000000E+00
  0.00000000E+00  0.00000000E+00  0.00000000E+00
  0.00000000E+00  0.00000000E+00  0.00000000E+00
  0.00000000E+00  0.00000000E+00  0.00000000E+00
  0.00000000E+00  0.00000000E+00  0.00000000E+00
  0.00000000E+00  0.00000000E+00  0.00000000E+00
  0.00000000E+00  0.00000000E+00  0.00000000E+00
  0.00000000E+00  0.00000000E+00  0.00000000E+00
  0.00000000E+00  0.00000000E+00  0.00000000E+00
  0.00000000E+00  0.00000000E+00  0.00000000E+00
  0.00000000E+00  0.00000000E+00  0.00000000E+00
  0.00000000E+00  0.00000000E+00  0.00000000E+00
  0.00000000E+00  0.00000000E+00  0.00000000E+00
  0.00000000E+00  0.00000000E+00  0.00000000E+00
  0.00000000E+00  0.00000000E+00  0.00000000E+00
  0.00000000E+00  0.00000000E+00  0.00000000E+00
  0.00000000E+00  0.00000000E+00  0.00000000E+00
  0.00000000E+00  0.00000000E+00  0.00000000E+00
  0.00000000E+00  0.00000000E+00  0.00000000E+00
  0.00000000E+00  0.00000000E+00  0.00000000E+00
  0.00000000E+00  0.00000000E+00  0.00000000E+00
  0.00000000E+00  0.00000000E+00  0.00000000E+00
  0.00000000E+00  0.00000000E+00  0.00000000E+00
