H Mg O Rh                               
   1.00000000000000     
     8.4141216974800006    0.0000000000000000    0.0000000000000000
     0.0000000000000000    8.4141216974800006    0.0000000000000000
     0.0000000000000000    0.0000000000000000   23.4141216974799988
   H    Mg   O    Rh
     1    32    33     1
Selective dynamics
Direct
  0.0601602821290541  0.1926737586074986  0.3805235432192705   T   T   T
  0.2511919918821275  0.0009036547224364  0.0034471580249534   T   T   T
  0.2509922145038432  0.5009457496207969  0.0031109130692544   T   T   T
  0.7512060620098708  0.0010893548621792  0.0031114322396762   T   T   T
  0.7510607499962735  0.5010847146345758  0.0028129443555067   T   T   T
  0.0010415252718632  0.2511007248451024  0.0032287440744681   T   T   T
  0.0013466104223553  0.7513140292387385  0.0032238525729488   T   T   T
  0.5008019451178132  0.2507827856015632  0.0032179352617713   T   T   T
  0.5010478565939152  0.7510653474227544  0.0032724095454067   T   T   T
  0.0014217356976587  0.0013061168546650  0.0928671300468376   T   T   T
  0.0016123083753712  0.5016841343711200  0.0925898820693657   T   T   T
  0.5013938966388012  0.0010182568484414  0.0929977430021114   T   T   T
  0.5003106408280444  0.5004929834375766  0.0924405402415182   T   T   T
  0.2507738450389104  0.2506954484370993  0.0928581513245151   T   T   T
  0.2510407340297403  0.7506569732979405  0.0930278139593737   T   T   T
  0.7504509341632817  0.2505050153476300  0.0925554996469510   T   T   T
  0.7516297412901490  0.7517137064698131  0.0924605600329977   T   T   T
  0.2492121714660411  0.0028284512715469  0.1835010048361780   T   T   T
  0.2504563507345987  0.4974596163100090  0.1834998976465956   T   T   T
  0.7544869848270725  0.0017167779278079  0.1833786883996581   T   T   T
  0.7509785553843802  0.5007272454674282  0.1805113130241768   T   T   T
  0.0027549917962642  0.2492821500058025  0.1834564971109267   T   T   T
  0.0023830887757397  0.7553334881344795  0.1841691867285747   T   T   T
  0.4967175350190960  0.2498271343561753  0.1840512924419486   T   T   T
  0.5010162376207419  0.7508364604594422  0.1832752933928718   T   T   T
  0.0124230061520763  0.0074887186429671  0.2860150926656146   T   T   T
  0.0116745538676429  0.5041886580272604  0.2717346847623394   T   T   T
  0.4995717633740045 -0.0001370621833615  0.2724028240393641   T   T   T
  0.4894678696492988  0.4992457232516747  0.2728326638284299   T   T   T
  0.2444532907388706  0.2399751947212692  0.2859166589512536   T   T   T
  0.2520608897010344  0.7524345714287710  0.2725033381220522   T   T   T
  0.7481326798517637  0.2398452294106044  0.2716338738382174   T   T   T
  0.7530692018925190  0.7633695117253767  0.2725855403209062   T   T   T
  0.0012035974660129  0.0011658624246862  0.0010894506304308   T   T   T
  0.0010888320802501  0.5012424303496533  0.0009428984686672   T   T   T
  0.5011996975495701  0.0008766888087479  0.0011914169998684   T   T   T
  0.5009700844541760  0.5010021326765121  0.0009521660455143   T   T   T
  0.2509580463866870  0.2509149347417834  0.0010448003815237   T   T   T
  0.2512575209853227  0.7509311036813029  0.0011684375854941   T   T   T
  0.7508855978538155  0.2510153725858810  0.0009077054774964   T   T   T
  0.7511276490158560  0.7511446253385958  0.0009455992396425   T   T   T
  0.2515266169195946  0.0005475297711160  0.0930284594077937   T   T   T
  0.2511422140675248  0.5007630394982739  0.0929973170482490   T   T   T
  0.7513391587827407  0.0008819302693551  0.0929786066162339   T   T   T
  0.7507770850808387  0.5013204133469291  0.0925590341835840   T   T   T
  0.0001008795868063  0.2520256508682668  0.0929565299433619   T   T   T
  0.0007228728587862  0.7509869915771327  0.0930163009916419   T   T   T
  0.5010934332767660  0.2513939287277098  0.0929688138682863   T   T   T
  0.5019333686098286  0.7501243803134076  0.0931858747776803   T   T   T
  0.0000354078449625  0.0017353426366674  0.1826214958581817   T   T   T
  0.9984071906376255  0.5035212383778003  0.1833899820263508   T   T   T
  0.5047405195974546  0.0003023374338651  0.1827068019808644   T   T   T
  0.5030929599146282  0.5004165920187638  0.1840455233770104   T   T   T
  0.2502929473226067  0.2519618428579308  0.1826237180961896   T   T   T
  0.2516625301199096  0.7472909270840300  0.1827536958747325   T   T   T
  0.7484669906614694  0.2534982652128637  0.1832960279319981   T   T   T
  0.7516643374533775  0.7487535191944781  0.1840764162526892   T   T   T
  0.2586942024496297  0.9935886897832361  0.2696640047043019   T   T   T
  0.2504891588247042  0.5006756860296145  0.2761404543570024   T   T   T
  0.7512429547385969  0.0015539450961768  0.2760951588636618   T   T   T
  0.7502861578883916  0.5048408839468311  0.2801660803647315   T   T   T
  0.9893546048250148  0.2626020719883149  0.2712743723546725   T   T   T
  0.0007583037376636  0.7509383895608953  0.2763174255570653   T   T   T
  0.5013077060322838  0.2512306859893262  0.2759850369827265   T   T   T
  0.5041994362610926  0.7480085456322326  0.2751414506388878   T   T   T
  0.1270825433763076  0.1257318568644978  0.3567154495052390   T   T   T
  0.7457193386375086  0.4829736778569193  0.3635690806181860   T   T   T
 
  0.00000000E+00  0.00000000E+00  0.00000000E+00
  0.00000000E+00  0.00000000E+00  0.00000000E+00
  0.00000000E+00  0.00000000E+00  0.00000000E+00
  0.00000000E+00  0.00000000E+00  0.00000000E+00
  0.00000000E+00  0.00000000E+00  0.00000000E+00
  0.00000000E+00  0.00000000E+00  0.00000000E+00
  0.00000000E+00  0.00000000E+00  0.00000000E+00
  0.00000000E+00  0.00000000E+00  0.00000000E+00
  0.00000000E+00  0.00000000E+00  0.00000000E+00
  0.00000000E+00  0.00000000E+00  0.00000000E+00
  0.00000000E+00  0.00000000E+00  0.00000000E+00
  0.00000000E+00  0.00000000E+00  0.00000000E+00
  0.00000000E+00  0.00000000E+00  0.00000000E+00
  0.00000000E+00  0.00000000E+00  0.00000000E+00
  0.00000000E+00  0.00000000E+00  0.00000000E+00
  0.00000000E+00  0.00000000E+00  0.00000000E+00
  0.00000000E+00  0.00000000E+00  0.00000000E+00
  0.00000000E+00  0.00000000E+00  0.00000000E+00
  0.00000000E+00  0.00000000E+00  0.00000000E+00
  0.00000000E+00  0.00000000E+00  0.00000000E+00
  0.00000000E+00  0.00000000E+00  0.00000000E+00
  0.00000000E+00  0.00000000E+00  0.00000000E+00
  0.00000000E+00  0.00000000E+00  0.00000000E+00
  0.00000000E+00  0.00000000E+00  0.00000000E+00
  0.00000000E+00  0.00000000E+00  0.00000000E+00
  0.00000000E+00  0.00000000E+00  0.00000000E+00
  0.00000000E+00  0.00000000E+00  0.00000000E+00
  0.00000000E+00  0.00000000E+00  0.00000000E+00
  0.00000000E+00  0.00000000E+00  0.00000000E+00
  0.00000000E+00  0.00000000E+00  0.00000000E+00
  0.00000000E+00  0.00000000E+00  0.00000000E+00
  0.00000000E+00  0.00000000E+00  0.00000000E+00
  0.00000000E+00  0.00000000E+00  0.00000000E+00
  0.00000000E+00  0.00000000E+00  0.00000000E+00
  0.00000000E+00  0.00000000E+00  0.00000000E+00
  0.00000000E+00  0.00000000E+00  0.00000000E+00
  0.00000000E+00  0.00000000E+00  0.00000000E+00
  0.00000000E+00  0.00000000E+00  0.00000000E+00
  0.00000000E+00  0.00000000E+00  0.00000000E+00
  0.00000000E+00  0.00000000E+00  0.00000000E+00
  0.00000000E+00  0.00000000E+00  0.00000000E+00
  0.00000000E+00  0.00000000E+00  0.00000000E+00
  0.00000000E+00  0.00000000E+00  0.00000000E+00
  0.00000000E+00  0.00000000E+00  0.00000000E+00
  0.00000000E+00  0.00000000E+00  0.00000000E+00
  0.00000000E+00  0.00000000E+00  0.00000000E+00
  0.00000000E+00  0.00000000E+00  0.00000000E+00
  0.00000000E+00  0.00000000E+00  0.00000000E+00
  0.00000000E+00  0.00000000E+00  0.00000000E+00
  0.00000000E+00  0.00000000E+00  0.00000000E+00
  0.00000000E+00  0.00000000E+00  0.00000000E+00
  0.00000000E+00  0.00000000E+00  0.00000000E+00
  0.00000000E+00  0.00000000E+00  0.00000000E+00
  0.00000000E+00  0.00000000E+00  0.00000000E+00
  0.00000000E+00  0.00000000E+00  0.00000000E+00
  0.00000000E+00  0.00000000E+00  0.00000000E+00
  0.00000000E+00  0.00000000E+00  0.00000000E+00
  0.00000000E+00  0.00000000E+00  0.00000000E+00
  0.00000000E+00  0.00000000E+00  0.00000000E+00
  0.00000000E+00  0.00000000E+00  0.00000000E+00
  0.00000000E+00  0.00000000E+00  0.00000000E+00
  0.00000000E+00  0.00000000E+00  0.00000000E+00
  0.00000000E+00  0.00000000E+00  0.00000000E+00
  0.00000000E+00  0.00000000E+00  0.00000000E+00
  0.00000000E+00  0.00000000E+00  0.00000000E+00
  0.00000000E+00  0.00000000E+00  0.00000000E+00
  0.00000000E+00  0.00000000E+00  0.00000000E+00
