W H Mg O                                
   1.00000000000000     
     8.4141216974800006    0.0000000000000000    0.0000000000000000
     0.0000000000000000    8.4141216974800006    0.0000000000000000
     0.0000000000000000    0.0000000000000000   23.4141216974799988
   W    H    Mg   O 
     1     1    32    33
Selective dynamics
Direct
  0.7538956225135717  0.4873244160848542  0.3707245297665170   T   T   T
  0.0640576577305587  0.1879600112944591  0.3829388726619222   T   T   T
  0.2512479373090770  0.0007970605462640  0.0033807622145481   T   T   T
  0.2509675110573617  0.5010093895509358  0.0029961879152615   T   T   T
  0.7510422079427728  0.0010357332039426  0.0029947654494847   T   T   T
  0.7509928062125205  0.5010379879139304  0.0025611064446295   T   T   T
  0.0010489732815675  0.2509986693296681  0.0031817354458394   T   T   T
  0.0014364348506730  0.7513626397206448  0.0031393804880847   T   T   T
  0.5006753656088317  0.2506125456747100  0.0031181757499445   T   T   T
  0.5008332270165404  0.7512074748974725  0.0032252636087909   T   T   T
  0.0015674214664135  0.0013742906374057  0.0926364491186440   T   T   T
  0.0019692850426719  0.5017049241711008  0.0922012115934133   T   T   T
  0.5010341758612101  0.0010830421564930  0.0930012124751515   T   T   T
  0.4997882994496817  0.5005646708661590  0.0920819487844856   T   T   T
  0.2506418066253649  0.2504997971241883  0.0926405920173698   T   T   T
  0.2509186215884685  0.7509891492253664  0.0930204506715459   T   T   T
  0.7503627478194084  0.2500132391293950  0.0921838595666711   T   T   T
  0.7514852140386623  0.7521580717139896  0.0920845823451876   T   T   T
  0.2482684539030676  0.0037171746733966  0.1838692368675962   T   T   T
  0.2499974548776537  0.4971090951213933  0.1831681574370720   T   T   T
  0.7548343686544607  0.0015744520790392  0.1831380676995137   T   T   T
  0.7510249145665558  0.5008516978182140  0.1783362674943277   T   T   T
  0.0033067768887414  0.2487051934593517  0.1837299080703043   T   T   T
  0.0023089293358984  0.7560581741955446  0.1840291542284726   T   T   T
  0.4959171455668289  0.2496546129092705  0.1839353424989469   T   T   T
  0.5005085504049295  0.7514424424381317  0.1833333539632624   T   T   T
  0.0133157950342211  0.0104007912330911  0.2891165718039862   T   T   T
  0.0126887706241153  0.5027883358936114  0.2707016764030916   T   T   T
  0.4990326507502723  0.0002781159326653  0.2727410273950772   T   T   T
  0.4870069028418779  0.4991211912645437  0.2719920389582731   T   T   T
  0.2412173466285135  0.2387224089798714  0.2891112482167069   T   T   T
  0.2514479827393936  0.7529157476192242  0.2727024273624235   T   T   T
  0.7493904847856143  0.2384151752536985  0.2704034166054258   T   T   T
  0.7529871596560749  0.7643769225514536  0.2721865372153081   T   T   T
  0.0011266113300426  0.0011100033501033  0.0010335615628380   T   T   T
  0.0010973438313754  0.5012583638887023  0.0007697436629346   T   T   T
  0.5011567925000981  0.0007876806761072  0.0011127146110309   T   T   T
  0.5008555968447822  0.5010507073471313  0.0007978448069332   T   T   T
  0.2509301746693751  0.2509230884808524  0.0009888320484455   T   T   T
  0.2512628711104173  0.7508925104713973  0.0011036042208564   T   T   T
  0.7507923384100125  0.2509312198096743  0.0007414384488540   T   T   T
  0.7509978695222319  0.7511450457312293  0.0007732200942776   T   T   T
  0.2517644041601929  0.0003048858141764  0.0928980936551335   T   T   T
  0.2512406842712822  0.5011590255838543  0.0928817436807935   T   T   T
  0.7508558227015578  0.0007204655980990  0.0928678799820842   T   T   T
  0.7504503621059062  0.5015118755090455  0.0917742339594653   T   T   T
  0.9997778153892064  0.2522737944403985  0.0927523347051486   T   T   T
  0.0005370377981777  0.7508567413003256  0.0927792718196675   T   T   T
  0.5011571641970805  0.2514891007642796  0.0927558212002104   T   T   T
  0.5018581428503933  0.7501602480722140  0.0932540577598854   T   T   T
  0.9997678032650077  0.0013781659218008  0.1817256851304116   T   T   T
  0.9970757236557685  0.5044639471124802  0.1829848983492172   T   T   T
  0.5046968110467227  0.0006849202505652  0.1828687058841922   T   T   T
  0.5042662072837863  0.5005093065840742  0.1841127988580855   T   T   T
  0.2506364440905379  0.2522138085257989  0.1817739279242919   T   T   T
  0.2513272231479326  0.7472866348203129  0.1828492938885390   T   T   T
  0.7474149364183019  0.2547328965309886  0.1829106349504578   T   T   T
  0.7513772617722755  0.7475204777901273  0.1841558314921249   T   T   T
  0.2582822557914582  0.9937985732875297  0.2696855176082450   T   T   T
  0.2498638899142203  0.5006142424564104  0.2759004707070020   T   T   T
  0.7512114820212946  0.0015755905547518  0.2758760122814934   T   T   T
  0.7473164325095163  0.5049965577094753  0.2871601956086135   T   T   T
  0.9880761035485829  0.2637355970703491  0.2704041610428069   T   T   T
 -0.0006363634170677  0.7493218991897340  0.2768467803831954   T   T   T
  0.5029339536441948  0.2527804356642418  0.2769909742488853   T   T   T
  0.5044583858964410  0.7473339032926237  0.2751474612024325   T   T   T
  0.1300176051833491  0.1220297778586399  0.3584051048571602   T   T   T
 
  0.00000000E+00  0.00000000E+00  0.00000000E+00
  0.00000000E+00  0.00000000E+00  0.00000000E+00
  0.00000000E+00  0.00000000E+00  0.00000000E+00
  0.00000000E+00  0.00000000E+00  0.00000000E+00
  0.00000000E+00  0.00000000E+00  0.00000000E+00
  0.00000000E+00  0.00000000E+00  0.00000000E+00
  0.00000000E+00  0.00000000E+00  0.00000000E+00
  0.00000000E+00  0.00000000E+00  0.00000000E+00
  0.00000000E+00  0.00000000E+00  0.00000000E+00
  0.00000000E+00  0.00000000E+00  0.00000000E+00
  0.00000000E+00  0.00000000E+00  0.00000000E+00
  0.00000000E+00  0.00000000E+00  0.00000000E+00
  0.00000000E+00  0.00000000E+00  0.00000000E+00
  0.00000000E+00  0.00000000E+00  0.00000000E+00
  0.00000000E+00  0.00000000E+00  0.00000000E+00
  0.00000000E+00  0.00000000E+00  0.00000000E+00
  0.00000000E+00  0.00000000E+00  0.00000000E+00
  0.00000000E+00  0.00000000E+00  0.00000000E+00
  0.00000000E+00  0.00000000E+00  0.00000000E+00
  0.00000000E+00  0.00000000E+00  0.00000000E+00
  0.00000000E+00  0.00000000E+00  0.00000000E+00
  0.00000000E+00  0.00000000E+00  0.00000000E+00
  0.00000000E+00  0.00000000E+00  0.00000000E+00
  0.00000000E+00  0.00000000E+00  0.00000000E+00
  0.00000000E+00  0.00000000E+00  0.00000000E+00
  0.00000000E+00  0.00000000E+00  0.00000000E+00
  0.00000000E+00  0.00000000E+00  0.00000000E+00
  0.00000000E+00  0.00000000E+00  0.00000000E+00
  0.00000000E+00  0.00000000E+00  0.00000000E+00
  0.00000000E+00  0.00000000E+00  0.00000000E+00
  0.00000000E+00  0.00000000E+00  0.00000000E+00
  0.00000000E+00  0.00000000E+00  0.00000000E+00
  0.00000000E+00  0.00000000E+00  0.00000000E+00
  0.00000000E+00  0.00000000E+00  0.00000000E+00
  0.00000000E+00  0.00000000E+00  0.00000000E+00
  0.00000000E+00  0.00000000E+00  0.00000000E+00
  0.00000000E+00  0.00000000E+00  0.00000000E+00
  0.00000000E+00  0.00000000E+00  0.00000000E+00
  0.00000000E+00  0.00000000E+00  0.00000000E+00
  0.00000000E+00  0.00000000E+00  0.00000000E+00
  0.00000000E+00  0.00000000E+00  0.00000000E+00
  0.00000000E+00  0.00000000E+00  0.00000000E+00
  0.00000000E+00  0.00000000E+00  0.00000000E+00
  0.00000000E+00  0.00000000E+00  0.00000000E+00
  0.00000000E+00  0.00000000E+00  0.00000000E+00
  0.00000000E+00  0.00000000E+00  0.00000000E+00
  0.00000000E+00  0.00000000E+00  0.00000000E+00
  0.00000000E+00  0.00000000E+00  0.00000000E+00
  0.00000000E+00  0.00000000E+00  0.00000000E+00
  0.00000000E+00  0.00000000E+00  0.00000000E+00
  0.00000000E+00  0.00000000E+00  0.00000000E+00
  0.00000000E+00  0.00000000E+00  0.00000000E+00
  0.00000000E+00  0.00000000E+00  0.00000000E+00
  0.00000000E+00  0.00000000E+00  0.00000000E+00
  0.00000000E+00  0.00000000E+00  0.00000000E+00
  0.00000000E+00  0.00000000E+00  0.00000000E+00
  0.00000000E+00  0.00000000E+00  0.00000000E+00
  0.00000000E+00  0.00000000E+00  0.00000000E+00
  0.00000000E+00  0.00000000E+00  0.00000000E+00
  0.00000000E+00  0.00000000E+00  0.00000000E+00
  0.00000000E+00  0.00000000E+00  0.00000000E+00
  0.00000000E+00  0.00000000E+00  0.00000000E+00
  0.00000000E+00  0.00000000E+00  0.00000000E+00
  0.00000000E+00  0.00000000E+00  0.00000000E+00
  0.00000000E+00  0.00000000E+00  0.00000000E+00
  0.00000000E+00  0.00000000E+00  0.00000000E+00
  0.00000000E+00  0.00000000E+00  0.00000000E+00
