Cd H Mg O                               
   1.00000000000000     
     8.4141216974800006    0.0000000000000000    0.0000000000000000
     0.0000000000000000    8.4141216974800006    0.0000000000000000
     0.0000000000000000    0.0000000000000000   23.4141216974799988
   Cd   H    Mg   O 
     1     1    32    33
Selective dynamics
Direct
  0.7692691875802579  0.4747677559593733  0.4044954783996559   T   T   T
  0.0263944039170146  0.2248560437561763  0.3720912141007326   T   T   T
  0.2520667325114581 -0.0001337883435066  0.0033702968689207   T   T   T
  0.2518813420133097  0.4999683305841816  0.0032955799556130   T   T   T
  0.7519695025000938  0.0000818882623826  0.0032987172803008   T   T   T
  0.7518084142019700  0.5001742141498360  0.0032370205955406   T   T   T
  0.0018787251559800  0.2500744806195959  0.0031032611554349   T   T   T
  0.0019853473650371  0.7500777783453934  0.0031966451432746   T   T   T
  0.5018783236594394  0.2499741376672301  0.0031961070052941   T   T   T
  0.5019661773018571  0.7500077522868650  0.0032810221071813   T   T   T
  0.0019522147309060 -0.0002736042340031  0.0926620097424522   T   T   T
  0.0018779715248090  0.5004732125749822  0.0926630868002517   T   T   T
  0.5023707904635722  0.0000602939029971  0.0928631631812931   T   T   T
  0.5017180230860198  0.4999585271396336  0.0928360344923783   T   T   T
  0.2522043382248382  0.2499788544010385  0.0926593829385895   T   T   T
  0.2518956940629417  0.7495791843332857  0.0928745251940189   T   T   T
  0.7514506765285134  0.2500741402628005  0.0926864365225599   T   T   T
  0.7519843165722851  0.7502307723323506  0.0928473360983587   T   T   T
  0.2513486218506555  0.0005832570300717  0.1836518526358892   T   T   T
  0.2514745568324522  0.4980379594822876  0.1838592974185701   T   T   T
  0.7538540820551456  0.0004115966038816  0.1838735145764870   T   T   T
  0.7517240364801883  0.5001631224036683  0.1834135959890010   T   T   T
  0.0035600508730873  0.2483620647033871  0.1816219123368419   T   T   T
  0.0023158961662070  0.7527733265499245  0.1836575011796596   T   T   T
  0.4991206484297624  0.2496289633113453  0.1836453313048967   T   T   T
  0.5018144867545345  0.7501240282765153  0.1831085816742569   T   T   T
  0.0060075536171210 -0.0005040912061786  0.2791344489071884   T   T   T
  0.0028244393925688  0.5078993386999986  0.2726021251284346   T   T   T
  0.5012387016224720 -0.0015196126502727  0.2723977865394721   T   T   T
  0.4992813599899294  0.5007455664641018  0.2726562115232979   T   T   T
  0.2523553873761197  0.2459402062693058  0.2791454007588650   T   T   T
  0.2533947824894927  0.7506796829911204  0.2723877635752111   T   T   T
  0.7439840358947997  0.2490373684506015  0.2726018051540892   T   T   T
  0.7511784636128078  0.7525310981887776  0.2726766700466410   T   T   T
  0.0019426905174399  0.0000361977786287  0.0010604050611020   T   T   T
  0.0017469053377292  0.5001157284461846  0.0009932442477311   T   T   T
  0.5021323440144662  0.0000637792109013  0.0011776541438002   T   T   T
  0.5020232054701455  0.4999798424892199  0.0010902050312362   T   T   T
  0.2519629355299163  0.2499976878658494  0.0010318306470819   T   T   T
  0.2519346689665673  0.7498179566097614  0.0011564883699063   T   T   T
  0.7518302828094601  0.2502226928523511  0.0009658935591283   T   T   T
  0.7519921506553572  0.7499447459694828  0.0010733757391307   T   T   T
  0.2518943376070740  0.0000760574875206  0.0931786688472266   T   T   T
  0.2516160694867138  0.4994545560403793  0.0930355018024231   T   T   T
  0.7524763076592780  0.0003348902472467  0.0930404979577000   T   T   T
  0.7520295330158211  0.4999501616704647  0.0933021245025628   T   T   T
  0.0016673836272828  0.2502661810200602  0.0928391456660521   T   T   T
  0.0017251195326773  0.7500105233972409  0.0932061538304818   T   T   T
  0.5018913739032748  0.2502239255212483  0.0931999551837422   T   T   T
  0.5021475108417406  0.7497816820405397  0.0930484400591449   T   T   T
  0.0016672785618595  0.0010397706811465  0.1836146668674598   T   T   T
  0.0014480259193796  0.4997210843339561  0.1834755524723203   T   T   T
  0.5037816589798121  0.0001720845978792  0.1826662625101168   T   T   T
  0.5016048758199977  0.4994484794391464  0.1832426252263338   T   T   T
  0.2508782056516957  0.2502955333998849  0.1835847786739622   T   T   T
  0.2517300059856895  0.7481429460830379  0.1826721462865148   T   T   T
  0.7521793123844821  0.2505307149699788  0.1834644262966158   T   T   T
  0.7524712603967344  0.7503242372548076  0.1832362479120299   T   T   T
  0.2564895172592059  0.9954524355253108  0.2713937682482684   T   T   T
  0.2505722904205018  0.4997247700207602  0.2757589064338322   T   T   T
  0.7521719713423419  0.0013605128165554  0.2757363719663221   T   T   T
  0.7506723218654967  0.5012488065229010  0.2749801247872273   T   T   T
  0.9916679180791151  0.2602554509150627  0.2720596129891717   T   T   T
  0.0016571147525556  0.7512234999595687  0.2756441493712974   T   T   T
  0.5007304449968339  0.2502866106949905  0.2756488224943268   T   T   T
  0.5028151773205892  0.7490719833382578  0.2747451448002052   T   T   T
  0.0955867065891461  0.1560167573515042  0.3492740608578850   T   T   T
 
  0.00000000E+00  0.00000000E+00  0.00000000E+00
  0.00000000E+00  0.00000000E+00  0.00000000E+00
  0.00000000E+00  0.00000000E+00  0.00000000E+00
  0.00000000E+00  0.00000000E+00  0.00000000E+00
  0.00000000E+00  0.00000000E+00  0.00000000E+00
  0.00000000E+00  0.00000000E+00  0.00000000E+00
  0.00000000E+00  0.00000000E+00  0.00000000E+00
  0.00000000E+00  0.00000000E+00  0.00000000E+00
  0.00000000E+00  0.00000000E+00  0.00000000E+00
  0.00000000E+00  0.00000000E+00  0.00000000E+00
  0.00000000E+00  0.00000000E+00  0.00000000E+00
  0.00000000E+00  0.00000000E+00  0.00000000E+00
  0.00000000E+00  0.00000000E+00  0.00000000E+00
  0.00000000E+00  0.00000000E+00  0.00000000E+00
  0.00000000E+00  0.00000000E+00  0.00000000E+00
  0.00000000E+00  0.00000000E+00  0.00000000E+00
  0.00000000E+00  0.00000000E+00  0.00000000E+00
  0.00000000E+00  0.00000000E+00  0.00000000E+00
  0.00000000E+00  0.00000000E+00  0.00000000E+00
  0.00000000E+00  0.00000000E+00  0.00000000E+00
  0.00000000E+00  0.00000000E+00  0.00000000E+00
  0.00000000E+00  0.00000000E+00  0.00000000E+00
  0.00000000E+00  0.00000000E+00  0.00000000E+00
  0.00000000E+00  0.00000000E+00  0.00000000E+00
  0.00000000E+00  0.00000000E+00  0.00000000E+00
  0.00000000E+00  0.00000000E+00  0.00000000E+00
  0.00000000E+00  0.00000000E+00  0.00000000E+00
  0.00000000E+00  0.00000000E+00  0.00000000E+00
  0.00000000E+00  0.00000000E+00  0.00000000E+00
  0.00000000E+00  0.00000000E+00  0.00000000E+00
  0.00000000E+00  0.00000000E+00  0.00000000E+00
  0.00000000E+00  0.00000000E+00  0.00000000E+00
  0.00000000E+00  0.00000000E+00  0.00000000E+00
  0.00000000E+00  0.00000000E+00  0.00000000E+00
  0.00000000E+00  0.00000000E+00  0.00000000E+00
  0.00000000E+00  0.00000000E+00  0.00000000E+00
  0.00000000E+00  0.00000000E+00  0.00000000E+00
  0.00000000E+00  0.00000000E+00  0.00000000E+00
  0.00000000E+00  0.00000000E+00  0.00000000E+00
  0.00000000E+00  0.00000000E+00  0.00000000E+00
  0.00000000E+00  0.00000000E+00  0.00000000E+00
  0.00000000E+00  0.00000000E+00  0.00000000E+00
  0.00000000E+00  0.00000000E+00  0.00000000E+00
  0.00000000E+00  0.00000000E+00  0.00000000E+00
  0.00000000E+00  0.00000000E+00  0.00000000E+00
  0.00000000E+00  0.00000000E+00  0.00000000E+00
  0.00000000E+00  0.00000000E+00  0.00000000E+00
  0.00000000E+00  0.00000000E+00  0.00000000E+00
  0.00000000E+00  0.00000000E+00  0.00000000E+00
  0.00000000E+00  0.00000000E+00  0.00000000E+00
  0.00000000E+00  0.00000000E+00  0.00000000E+00
  0.00000000E+00  0.00000000E+00  0.00000000E+00
  0.00000000E+00  0.00000000E+00  0.00000000E+00
  0.00000000E+00  0.00000000E+00  0.00000000E+00
  0.00000000E+00  0.00000000E+00  0.00000000E+00
  0.00000000E+00  0.00000000E+00  0.00000000E+00
  0.00000000E+00  0.00000000E+00  0.00000000E+00
  0.00000000E+00  0.00000000E+00  0.00000000E+00
  0.00000000E+00  0.00000000E+00  0.00000000E+00
  0.00000000E+00  0.00000000E+00  0.00000000E+00
  0.00000000E+00  0.00000000E+00  0.00000000E+00
  0.00000000E+00  0.00000000E+00  0.00000000E+00
  0.00000000E+00  0.00000000E+00  0.00000000E+00
  0.00000000E+00  0.00000000E+00  0.00000000E+00
  0.00000000E+00  0.00000000E+00  0.00000000E+00
  0.00000000E+00  0.00000000E+00  0.00000000E+00
  0.00000000E+00  0.00000000E+00  0.00000000E+00
