H Ir Mg O                               
   1.00000000000000     
     8.4141216974800006    0.0000000000000000    0.0000000000000000
     0.0000000000000000    8.4141216974800006    0.0000000000000000
     0.0000000000000000    0.0000000000000000   23.4141216974799988
   H    Ir   Mg   O 
     1     1    32    33
Selective dynamics
Direct
  0.0493298258655060  0.2033002151431555  0.3753109514173880   T   T   T
  0.7570891823261896  0.4896361778146227  0.3615646740082331   T   T   T
  0.2515147227460907  0.0003550931189029  0.0032810134515677   T   T   T
  0.2512827281793782  0.5003873442989272  0.0029076005673909   T   T   T
  0.7514801171204637  0.0006079600840314  0.0029104189452279   T   T   T
  0.7512557918984324  0.5005993108950274  0.0024522749084157   T   T   T
  0.0014128971933956  0.2504314440997700  0.0030731370724391   T   T   T
  0.0014950227889869  0.7507706565735284  0.0030402634483579   T   T   T
  0.5010580118434534  0.2503620193877317  0.0030706583514298   T   T   T
  0.5011118394408338  0.7507073605829718  0.0031017890235323   T   T   T
  0.0014695121518528  0.0007026577300864  0.0928825412747716   T   T   T
  0.0021881799359805  0.5012817038913143  0.0922736061562854   T   T   T
  0.5016877869110262  0.0008688113399559  0.0929136966751861   T   T   T
  0.5001675979805666  0.5002034987440478  0.0922165041101150   T   T   T
  0.2511879770509156  0.2503560163089423  0.0928977597560437   T   T   T
  0.2510137894141474  0.7500751659643928  0.0929092325501518   T   T   T
  0.7505561538867330  0.2497701770767052  0.0922776923903472   T   T   T
  0.7516679727925435  0.7517405962983035  0.0922215048940025   T   T   T
  0.2493825311772006  0.0023564498275970  0.1832084942354666   T   T   T
  0.2500990140572920  0.4972753249505572  0.1833883894205558   T   T   T
  0.7544642444476339  0.0017179560367189  0.1833365300657556   T   T   T
  0.7516595048164407  0.5002935494585911  0.1787302485483398   T   T   T
  0.0025077004329567  0.2494526172013162  0.1834335049944602   T   T   T
  0.0019508410882215  0.7543139633891427  0.1842523206812852   T   T   T
  0.4975549948547134  0.2500609580305407  0.1843166579792162   T   T   T
  0.5014456849645629  0.7503896985820013  0.1833033676030821   T   T   T
  0.0124818123788557  0.0071170949068079  0.2848200089031645   T   T   T
  0.0146306092116899  0.5036128459157729  0.2733279415003348   T   T   T
  0.4990396689314446  0.9994880527913901  0.2720751229971168   T   T   T
  0.4855312413702338  0.4991577205132987  0.2737675359477851   T   T   T
  0.2448332999174868  0.2393918571116431  0.2847943402085525   T   T   T
  0.2522972669633518  0.7526580800465942  0.2720341246845969   T   T   T
  0.7483916181462744  0.2363559478795449  0.2733045243326520   T   T   T
  0.7529845759504397  0.7662007812486201  0.2736159364748143   T   T   T
  0.0015639800390022  0.0006833487504444  0.0008993569606891   T   T   T
  0.0014823949810363  0.5005495535598314  0.0006830196787680   T   T   T
  0.5014123056337081  0.0005119585586914  0.0010908244804743   T   T   T
  0.5010332705447632  0.5005508491639620  0.0007284776093920   T   T   T
  0.2511723791072815  0.2502929026964475  0.0008847158508883   T   T   T
  0.2513693057332678  0.7504420138161804  0.0010328098388850   T   T   T
  0.7512501371091389  0.2503659824745899  0.0006497393542607   T   T   T
  0.7512660158515587  0.7508342614426488  0.0007146222537343   T   T   T
  0.2516414338938842  0.0001580044645575  0.0928697689358154   T   T   T
  0.2513101506701389  0.5002488878318632  0.0928780864624922   T   T   T
  0.7515576024434527  0.0006281304769073  0.0928757525008141   T   T   T
  0.7509918206726337  0.5008741601403703  0.0920114938501138   T   T   T
  0.0002306475630740  0.2516189685056883  0.0928034754856564   T   T   T
  0.0006186517927157  0.7504568439881212  0.0927807504604675   T   T   T
  0.5014154344395793  0.2512732276354550  0.0927999028454664   T   T   T
  0.5020837063226614  0.7497663043652075  0.0930181936344060   T   T   T
  0.0001086855880654  0.0011436157762526  0.1825054562317827   T   T   T
 -0.0024245196743433  0.5033611572915713  0.1835381664287329   T   T   T
  0.5049109635150464  0.0003220776269995  0.1823782472721644   T   T   T
  0.5046006476923917  0.5000915415873542  0.1843741490240780   T   T   T
  0.2507565971713708  0.2516321915052431  0.1825377739681842   T   T   T
  0.2515914077980362  0.7468368967865044  0.1823516701051551   T   T   T
  0.7484679391653392  0.2543743899808453  0.1836087344653298   T   T   T
  0.7517874090968594  0.7472689749960516  0.1843017520299104   T   T   T
  0.2584989606944368  0.9932006551157178  0.2695144743115430   T   T   T
  0.2504298791561341  0.5007284936898909  0.2758251084103756   T   T   T
  0.7511364008984257  0.0010161848005952  0.2758027948266077   T   T   T
  0.7492410992897753  0.5040899963805164  0.2823495218236738   T   T   T
  0.9885091822822002  0.2631840631846021  0.2699622974745627   T   T   T
  0.0006228501612339  0.7505918017456155  0.2755330436040402   T   T   T
  0.5014721564211759  0.2512825643527684  0.2757348421307039   T   T   T
  0.5043247380332494  0.7475323622812448  0.2740331908872516   T   T   T
  0.1205090219144220  0.1315049871057171  0.3549473822805364   T   T   T
 
  0.00000000E+00  0.00000000E+00  0.00000000E+00
  0.00000000E+00  0.00000000E+00  0.00000000E+00
  0.00000000E+00  0.00000000E+00  0.00000000E+00
  0.00000000E+00  0.00000000E+00  0.00000000E+00
  0.00000000E+00  0.00000000E+00  0.00000000E+00
  0.00000000E+00  0.00000000E+00  0.00000000E+00
  0.00000000E+00  0.00000000E+00  0.00000000E+00
  0.00000000E+00  0.00000000E+00  0.00000000E+00
  0.00000000E+00  0.00000000E+00  0.00000000E+00
  0.00000000E+00  0.00000000E+00  0.00000000E+00
  0.00000000E+00  0.00000000E+00  0.00000000E+00
  0.00000000E+00  0.00000000E+00  0.00000000E+00
  0.00000000E+00  0.00000000E+00  0.00000000E+00
  0.00000000E+00  0.00000000E+00  0.00000000E+00
  0.00000000E+00  0.00000000E+00  0.00000000E+00
  0.00000000E+00  0.00000000E+00  0.00000000E+00
  0.00000000E+00  0.00000000E+00  0.00000000E+00
  0.00000000E+00  0.00000000E+00  0.00000000E+00
  0.00000000E+00  0.00000000E+00  0.00000000E+00
  0.00000000E+00  0.00000000E+00  0.00000000E+00
  0.00000000E+00  0.00000000E+00  0.00000000E+00
  0.00000000E+00  0.00000000E+00  0.00000000E+00
  0.00000000E+00  0.00000000E+00  0.00000000E+00
  0.00000000E+00  0.00000000E+00  0.00000000E+00
  0.00000000E+00  0.00000000E+00  0.00000000E+00
  0.00000000E+00  0.00000000E+00  0.00000000E+00
  0.00000000E+00  0.00000000E+00  0.00000000E+00
  0.00000000E+00  0.00000000E+00  0.00000000E+00
  0.00000000E+00  0.00000000E+00  0.00000000E+00
  0.00000000E+00  0.00000000E+00  0.00000000E+00
  0.00000000E+00  0.00000000E+00  0.00000000E+00
  0.00000000E+00  0.00000000E+00  0.00000000E+00
  0.00000000E+00  0.00000000E+00  0.00000000E+00
  0.00000000E+00  0.00000000E+00  0.00000000E+00
  0.00000000E+00  0.00000000E+00  0.00000000E+00
  0.00000000E+00  0.00000000E+00  0.00000000E+00
  0.00000000E+00  0.00000000E+00  0.00000000E+00
  0.00000000E+00  0.00000000E+00  0.00000000E+00
  0.00000000E+00  0.00000000E+00  0.00000000E+00
  0.00000000E+00  0.00000000E+00  0.00000000E+00
  0.00000000E+00  0.00000000E+00  0.00000000E+00
  0.00000000E+00  0.00000000E+00  0.00000000E+00
  0.00000000E+00  0.00000000E+00  0.00000000E+00
  0.00000000E+00  0.00000000E+00  0.00000000E+00
  0.00000000E+00  0.00000000E+00  0.00000000E+00
  0.00000000E+00  0.00000000E+00  0.00000000E+00
  0.00000000E+00  0.00000000E+00  0.00000000E+00
  0.00000000E+00  0.00000000E+00  0.00000000E+00
  0.00000000E+00  0.00000000E+00  0.00000000E+00
  0.00000000E+00  0.00000000E+00  0.00000000E+00
  0.00000000E+00  0.00000000E+00  0.00000000E+00
  0.00000000E+00  0.00000000E+00  0.00000000E+00
  0.00000000E+00  0.00000000E+00  0.00000000E+00
  0.00000000E+00  0.00000000E+00  0.00000000E+00
  0.00000000E+00  0.00000000E+00  0.00000000E+00
  0.00000000E+00  0.00000000E+00  0.00000000E+00
  0.00000000E+00  0.00000000E+00  0.00000000E+00
  0.00000000E+00  0.00000000E+00  0.00000000E+00
  0.00000000E+00  0.00000000E+00  0.00000000E+00
  0.00000000E+00  0.00000000E+00  0.00000000E+00
  0.00000000E+00  0.00000000E+00  0.00000000E+00
  0.00000000E+00  0.00000000E+00  0.00000000E+00
  0.00000000E+00  0.00000000E+00  0.00000000E+00
  0.00000000E+00  0.00000000E+00  0.00000000E+00
  0.00000000E+00  0.00000000E+00  0.00000000E+00
  0.00000000E+00  0.00000000E+00  0.00000000E+00
  0.00000000E+00  0.00000000E+00  0.00000000E+00
