Fe H Mg O                               
   1.00000000000000     
     8.4141216974800006    0.0000000000000000    0.0000000000000000
     0.0000000000000000    8.4141216974800006    0.0000000000000000
     0.0000000000000000    0.0000000000000000   23.4141216974799988
   Fe   H    Mg   O 
     1     1    32    33
Selective dynamics
Direct
  0.7588965798649807  0.4989988430997575  0.3612705180391249   T   T   T
  0.0603195079905493  0.1912902060631065  0.3809686142204000   T   T   T
  0.2511367043700757  0.0007869377430789  0.0029357196777305   T   T   T
  0.2508545611173940  0.5009173147465118  0.0025165331689930   T   T   T
  0.7509899905292019  0.0010558642617501  0.0025257517704033   T   T   T
  0.7508844833367204  0.5010216198500774  0.0021388156694058   T   T   T
  0.0009413531585744  0.2509677093002100  0.0025821610442123   T   T   T
  0.0012613136018304  0.7512693903194727  0.0026918200746511   T   T   T
  0.5006328758951035  0.2506537359152273  0.0026963610780927   T   T   T
  0.5007759740508599  0.7511297230607668  0.0028097014307098   T   T   T
  0.0013166256368579  0.0013558437471643  0.0923558298015897   T   T   T
  0.0017272117862580  0.5016084025128310  0.0918756446377607   T   T   T
  0.5011446413324588  0.0012424772812040  0.0926450090971821   T   T   T
  0.4998008542539195  0.5005822067966242  0.0917219474604785   T   T   T
  0.2506089088738914  0.2506469640299702  0.0923661852126564   T   T   T
  0.2506915613379326  0.7508117081633695  0.0926482813293480   T   T   T
  0.7503210269282667  0.2502224684071779  0.0918871428569206   T   T   T
  0.7513544128206139  0.7521112795009317  0.0917180363110906   T   T   T
  0.2483095918331131  0.0036563368381379  0.1833790711299887   T   T   T
  0.2499023911682830  0.4969748953313421  0.1829851892046644   T   T   T
  0.7548837067035813  0.0021686016838598  0.1829921896896718   T   T   T
  0.7511702133568405  0.5007306061800560  0.1782273795590236   T   T   T
  0.0030002461465078  0.2489237919895190  0.1836479840890777   T   T   T
  0.0019874830289439  0.7557418893573902  0.1838362029877980   T   T   T
  0.4961554425635646  0.2499673237969152  0.1838680221683468   T   T   T
  0.5005559273095268  0.7513263576434074  0.1830737127678969   T   T   T
  0.0137290173078168  0.0102363359145748  0.2881328073853296   T   T   T
  0.0134489642760507  0.5020607403044169  0.2712698612836557   T   T   T
  0.4989700988691340  0.0003010465525872  0.2720275809261284   T   T   T
  0.4868396527368391  0.4988691958911421  0.2723842772050453   T   T   T
  0.2417086333785731  0.2380971618576053  0.2881758100830510   T   T   T
  0.2516850554968667  0.7529224231506731  0.2720214694899493   T   T   T
  0.7497913949006246  0.2387631950516655  0.2713711074598315   T   T   T
  0.7529315771646057  0.7653193510890467  0.2722838400534651   T   T   T
  0.0009711407870577  0.0010682224698816  0.0005656637345236   T   T   T
  0.0009806463960786  0.5012103209088568  0.0001760496156561   T   T   T
  0.5011388164146402  0.0007717532720155  0.0006648933414915   T   T   T
  0.5007793909942824  0.5010449916135387  0.0002903546057935   T   T   T
  0.2508475931947751  0.2509431970758309  0.0005447939753894   T   T   T
  0.2511264687027244  0.7507642373941577  0.0006451630050118   T   T   T
  0.7507164909179503  0.2509423049366036  0.0001701612058821   T   T   T
  0.7508634949932171  0.7511350097983276  0.0002719720373898   T   T   T
  0.2515296040762408  0.0004145777850258  0.0924520351455277   T   T   T
  0.2510105292274742  0.5009980006329997  0.0925174949807167   T   T   T
  0.7509454119880367  0.0009172520394030  0.0925219713630198   T   T   T
  0.7504911398326719  0.5014281580153435  0.0915066483120995   T   T   T
 -0.0003483070850062  0.2523151380093566  0.0924002077347963   T   T   T
  0.0002644234131180  0.7507269568378129  0.0924027537177939   T   T   T
  0.5012036339880085  0.2516680783155951  0.0924075753568869   T   T   T
  0.5018143203964301  0.7501024072214545  0.0928302959920344   T   T   T
 -0.0002984750362151  0.0010928147664498  0.1815519690111715   T   T   T
  0.9970539024768867  0.5043444486859447  0.1830549007238989   T   T   T
  0.5046347555175964  0.0006818876874893  0.1824217510186156   T   T   T
  0.5042588833275398  0.5006585132496421  0.1839659148269339   T   T   T
  0.2508172286198452  0.2522192655414178  0.1815527754074028   T   T   T
  0.2512198831485258  0.7472542026015891  0.1824257127617267   T   T   T
  0.7475935236877840  0.2549233709111508  0.1830709090956472   T   T   T
  0.7512631247111728  0.7476533868395835  0.1839584960855703   T   T   T
  0.2583384205700455  0.9935743042714527  0.2694103012017136   T   T   T
  0.2503288763844888  0.5010568701269520  0.2761100639827574   T   T   T
  0.7508668951253628  0.0017464410683885  0.2760939665509083   T   T   T
  0.7475349540547558  0.5039827871132387  0.2862091399555007   T   T   T
  0.9891501417362032  0.2627618086533196  0.2701292885081175   T   T   T
 -0.0002769742143594  0.7497748288675622  0.2763937591956764   T   T   T
  0.5021156025914538  0.2521763153626813  0.2763923485182419   T   T   T
  0.5042926383937466  0.7476218692605161  0.2746951590328300   T   T   T
  0.1292096648091076  0.1224869662108569  0.3585480682315952   T   T   T
 
  0.00000000E+00  0.00000000E+00  0.00000000E+00
  0.00000000E+00  0.00000000E+00  0.00000000E+00
  0.00000000E+00  0.00000000E+00  0.00000000E+00
  0.00000000E+00  0.00000000E+00  0.00000000E+00
  0.00000000E+00  0.00000000E+00  0.00000000E+00
  0.00000000E+00  0.00000000E+00  0.00000000E+00
  0.00000000E+00  0.00000000E+00  0.00000000E+00
  0.00000000E+00  0.00000000E+00  0.00000000E+00
  0.00000000E+00  0.00000000E+00  0.00000000E+00
  0.00000000E+00  0.00000000E+00  0.00000000E+00
  0.00000000E+00  0.00000000E+00  0.00000000E+00
  0.00000000E+00  0.00000000E+00  0.00000000E+00
  0.00000000E+00  0.00000000E+00  0.00000000E+00
  0.00000000E+00  0.00000000E+00  0.00000000E+00
  0.00000000E+00  0.00000000E+00  0.00000000E+00
  0.00000000E+00  0.00000000E+00  0.00000000E+00
  0.00000000E+00  0.00000000E+00  0.00000000E+00
  0.00000000E+00  0.00000000E+00  0.00000000E+00
  0.00000000E+00  0.00000000E+00  0.00000000E+00
  0.00000000E+00  0.00000000E+00  0.00000000E+00
  0.00000000E+00  0.00000000E+00  0.00000000E+00
  0.00000000E+00  0.00000000E+00  0.00000000E+00
  0.00000000E+00  0.00000000E+00  0.00000000E+00
  0.00000000E+00  0.00000000E+00  0.00000000E+00
  0.00000000E+00  0.00000000E+00  0.00000000E+00
  0.00000000E+00  0.00000000E+00  0.00000000E+00
  0.00000000E+00  0.00000000E+00  0.00000000E+00
  0.00000000E+00  0.00000000E+00  0.00000000E+00
  0.00000000E+00  0.00000000E+00  0.00000000E+00
  0.00000000E+00  0.00000000E+00  0.00000000E+00
  0.00000000E+00  0.00000000E+00  0.00000000E+00
  0.00000000E+00  0.00000000E+00  0.00000000E+00
  0.00000000E+00  0.00000000E+00  0.00000000E+00
  0.00000000E+00  0.00000000E+00  0.00000000E+00
  0.00000000E+00  0.00000000E+00  0.00000000E+00
  0.00000000E+00  0.00000000E+00  0.00000000E+00
  0.00000000E+00  0.00000000E+00  0.00000000E+00
  0.00000000E+00  0.00000000E+00  0.00000000E+00
  0.00000000E+00  0.00000000E+00  0.00000000E+00
  0.00000000E+00  0.00000000E+00  0.00000000E+00
  0.00000000E+00  0.00000000E+00  0.00000000E+00
  0.00000000E+00  0.00000000E+00  0.00000000E+00
  0.00000000E+00  0.00000000E+00  0.00000000E+00
  0.00000000E+00  0.00000000E+00  0.00000000E+00
  0.00000000E+00  0.00000000E+00  0.00000000E+00
  0.00000000E+00  0.00000000E+00  0.00000000E+00
  0.00000000E+00  0.00000000E+00  0.00000000E+00
  0.00000000E+00  0.00000000E+00  0.00000000E+00
  0.00000000E+00  0.00000000E+00  0.00000000E+00
  0.00000000E+00  0.00000000E+00  0.00000000E+00
  0.00000000E+00  0.00000000E+00  0.00000000E+00
  0.00000000E+00  0.00000000E+00  0.00000000E+00
  0.00000000E+00  0.00000000E+00  0.00000000E+00
  0.00000000E+00  0.00000000E+00  0.00000000E+00
  0.00000000E+00  0.00000000E+00  0.00000000E+00
  0.00000000E+00  0.00000000E+00  0.00000000E+00
  0.00000000E+00  0.00000000E+00  0.00000000E+00
  0.00000000E+00  0.00000000E+00  0.00000000E+00
  0.00000000E+00  0.00000000E+00  0.00000000E+00
  0.00000000E+00  0.00000000E+00  0.00000000E+00
  0.00000000E+00  0.00000000E+00  0.00000000E+00
  0.00000000E+00  0.00000000E+00  0.00000000E+00
  0.00000000E+00  0.00000000E+00  0.00000000E+00
  0.00000000E+00  0.00000000E+00  0.00000000E+00
  0.00000000E+00  0.00000000E+00  0.00000000E+00
  0.00000000E+00  0.00000000E+00  0.00000000E+00
  0.00000000E+00  0.00000000E+00  0.00000000E+00
