Cu H Mg O                               
   1.00000000000000     
     8.4141216974800006    0.0000000000000000    0.0000000000000000
     0.0000000000000000    8.4141216974800006    0.0000000000000000
     0.0000000000000000    0.0000000000000000   23.4141216974799988
   Cu   H    Mg   O 
     1     1    32    33
Selective dynamics
Direct
  0.7499421219507648  0.4837238930041750  0.3613378114597391   T   T   T
  0.0651953089325996  0.1871134816911709  0.3833642224410930   T   T   T
  0.2512251400225726  0.0009063982338464  0.0032745163412093   T   T   T
  0.2509475439681979  0.5011158531082464  0.0028685980319215   T   T   T
  0.7510459898101431  0.0011442094790208  0.0028706141141733   T   T   T
  0.7509684221812597  0.5011809487726263  0.0024365692766259   T   T   T
  0.0010132936586575  0.2511433202177314  0.0030139801283320   T   T   T
  0.0013562980767871  0.7514187270113376  0.0030023535022160   T   T   T
  0.5007184924031307  0.2507815517938539  0.0029856919746668   T   T   T
  0.5008832534645518  0.7512607785758391  0.0030934850106642   T   T   T
  0.0013668487143196  0.0013749108533288  0.0926001375618003   T   T   T
  0.0018719880451432  0.5017920229284339  0.0921624268196343   T   T   T
  0.5012375158678318  0.0012471366070171  0.0928890594325742   T   T   T
  0.4998479741475226  0.5006574671466757  0.0920070687204944   T   T   T
  0.2507338051950144  0.2507795542009684  0.0925886673908638   T   T   T
  0.2508359773983880  0.7508822125787291  0.0929229903924908   T   T   T
  0.7503691658516741  0.2502007371529985  0.0921327050335291   T   T   T
  0.7514843227638798  0.7521690498931399  0.0920262318995853   T   T   T
  0.2483907629082928  0.0036737386914441  0.1836491907471182   T   T   T
  0.2498728396524722  0.4971940283578323  0.1833386813649005   T   T   T
  0.7548800701709216  0.0017323215617749  0.1832942088991667   T   T   T
  0.7511066500623677  0.5008979258606483  0.1786203899355029   T   T   T
  0.0032885032153505  0.2488642125384996  0.1836830322406715   T   T   T
  0.0021741974223449  0.7559549109278956  0.1840675416419368   T   T   T
  0.4960880392582043  0.2498798478593000  0.1839034758690617   T   T   T
  0.5005335857509775  0.7515269464306658  0.1833139208698043   T   T   T
  0.0132842603951910  0.0104294565255614  0.2883093214472051   T   T   T
  0.0104338541154175  0.5025340377148015  0.2710516764266098   T   T   T
  0.4992463376017541  0.0003957481497195  0.2724700865812412   T   T   T
  0.4888140650500944  0.4994152894384278  0.2721012480675331   T   T   T
  0.2412134228671121  0.2388748242837453  0.2883207306089783   T   T   T
  0.2513936845422236  0.7528425344403092  0.2724583684212475   T   T   T
  0.7498984614635582  0.2407329069790732  0.2706060595389516   T   T   T
  0.7529287111378994  0.7626988761217665  0.2724300208261758   T   T   T
  0.0011145464730486  0.0012341132876877  0.0008985684100198   T   T   T
  0.0011212698971907  0.5013309118812922  0.0005933853021785   T   T   T
  0.5011534877578081  0.0009049024459549  0.0009859726434241   T   T   T
  0.5008173237576378  0.5011518309824248  0.0006330174825989   T   T   T
  0.2508948213958189  0.2510228844404429  0.0008566289618226   T   T   T
  0.2512275629772774  0.7509955833707058  0.0009679898553704   T   T   T
  0.7508219541243464  0.2510023189518135  0.0005699439741363   T   T   T
  0.7509894091348731  0.7513025384539547  0.0006141286932864   T   T   T
  0.2517078953577006  0.0004600294705344  0.0928043744194644   T   T   T
  0.2511774844140169  0.5011599028877929  0.0928047371679921   T   T   T
  0.7509318900354035  0.0008451821216841  0.0927942518118378   T   T   T
  0.7505001238377856  0.5015590178984015  0.0918069542351465   T   T   T
  0.9998390936844178  0.2523107337301799  0.0926751732000315   T   T   T
  0.0004805910517232  0.7509263682992093  0.0926877148582707   T   T   T
  0.5011608727078335  0.2516223136236746  0.0926598176559697   T   T   T
  0.5018341614080243  0.7502600245650511  0.0931358614771200   T   T   T
 -0.0001919733441778  0.0012732840809468  0.1817442641511874   T   T   T
  0.9972448132489014  0.5044505307050653  0.1830222382664463   T   T   T
  0.5047092391478233  0.0008261631481793  0.1827605454443838   T   T   T
  0.5039999450378349  0.5006308874464610  0.1840549099908859   T   T   T
  0.2509085461909888  0.2522645329733884  0.1817899256023165   T   T   T
  0.2513337823161413  0.7473691171475090  0.1827489885434893   T   T   T
  0.7474785117127655  0.2546282087910446  0.1829185306219787   T   T   T
  0.7513068897380355  0.7478544160380801  0.1841308184053738   T   T   T
  0.2582991626413451  0.9939426254042860  0.2695973423162229   T   T   T
  0.2499852039315136  0.5007926442944542  0.2763379291395939   T   T   T
  0.7511025499208391  0.0016700439176917  0.2763138553949741   T   T   T
  0.7480684760606409  0.5048667296299548  0.2847757509306347   T   T   T
  0.9894222704801420  0.2624718615283734  0.2703609034779076   T   T   T
 -0.0000483645171708  0.7501063242790661  0.2768636079736111   T   T   T
  0.5023644380611167  0.2523819869226183  0.2770593928004962   T   T   T
  0.5038659534687587  0.7480147684674449  0.2752220609262452   T   T   T
  0.1309533499609975  0.1212434958050096  0.3587824665708590   T   T   T
 
  0.00000000E+00  0.00000000E+00  0.00000000E+00
  0.00000000E+00  0.00000000E+00  0.00000000E+00
  0.00000000E+00  0.00000000E+00  0.00000000E+00
  0.00000000E+00  0.00000000E+00  0.00000000E+00
  0.00000000E+00  0.00000000E+00  0.00000000E+00
  0.00000000E+00  0.00000000E+00  0.00000000E+00
  0.00000000E+00  0.00000000E+00  0.00000000E+00
  0.00000000E+00  0.00000000E+00  0.00000000E+00
  0.00000000E+00  0.00000000E+00  0.00000000E+00
  0.00000000E+00  0.00000000E+00  0.00000000E+00
  0.00000000E+00  0.00000000E+00  0.00000000E+00
  0.00000000E+00  0.00000000E+00  0.00000000E+00
  0.00000000E+00  0.00000000E+00  0.00000000E+00
  0.00000000E+00  0.00000000E+00  0.00000000E+00
  0.00000000E+00  0.00000000E+00  0.00000000E+00
  0.00000000E+00  0.00000000E+00  0.00000000E+00
  0.00000000E+00  0.00000000E+00  0.00000000E+00
  0.00000000E+00  0.00000000E+00  0.00000000E+00
  0.00000000E+00  0.00000000E+00  0.00000000E+00
  0.00000000E+00  0.00000000E+00  0.00000000E+00
  0.00000000E+00  0.00000000E+00  0.00000000E+00
  0.00000000E+00  0.00000000E+00  0.00000000E+00
  0.00000000E+00  0.00000000E+00  0.00000000E+00
  0.00000000E+00  0.00000000E+00  0.00000000E+00
  0.00000000E+00  0.00000000E+00  0.00000000E+00
  0.00000000E+00  0.00000000E+00  0.00000000E+00
  0.00000000E+00  0.00000000E+00  0.00000000E+00
  0.00000000E+00  0.00000000E+00  0.00000000E+00
  0.00000000E+00  0.00000000E+00  0.00000000E+00
  0.00000000E+00  0.00000000E+00  0.00000000E+00
  0.00000000E+00  0.00000000E+00  0.00000000E+00
  0.00000000E+00  0.00000000E+00  0.00000000E+00
  0.00000000E+00  0.00000000E+00  0.00000000E+00
  0.00000000E+00  0.00000000E+00  0.00000000E+00
  0.00000000E+00  0.00000000E+00  0.00000000E+00
  0.00000000E+00  0.00000000E+00  0.00000000E+00
  0.00000000E+00  0.00000000E+00  0.00000000E+00
  0.00000000E+00  0.00000000E+00  0.00000000E+00
  0.00000000E+00  0.00000000E+00  0.00000000E+00
  0.00000000E+00  0.00000000E+00  0.00000000E+00
  0.00000000E+00  0.00000000E+00  0.00000000E+00
  0.00000000E+00  0.00000000E+00  0.00000000E+00
  0.00000000E+00  0.00000000E+00  0.00000000E+00
  0.00000000E+00  0.00000000E+00  0.00000000E+00
  0.00000000E+00  0.00000000E+00  0.00000000E+00
  0.00000000E+00  0.00000000E+00  0.00000000E+00
  0.00000000E+00  0.00000000E+00  0.00000000E+00
  0.00000000E+00  0.00000000E+00  0.00000000E+00
  0.00000000E+00  0.00000000E+00  0.00000000E+00
  0.00000000E+00  0.00000000E+00  0.00000000E+00
  0.00000000E+00  0.00000000E+00  0.00000000E+00
  0.00000000E+00  0.00000000E+00  0.00000000E+00
  0.00000000E+00  0.00000000E+00  0.00000000E+00
  0.00000000E+00  0.00000000E+00  0.00000000E+00
  0.00000000E+00  0.00000000E+00  0.00000000E+00
  0.00000000E+00  0.00000000E+00  0.00000000E+00
  0.00000000E+00  0.00000000E+00  0.00000000E+00
  0.00000000E+00  0.00000000E+00  0.00000000E+00
  0.00000000E+00  0.00000000E+00  0.00000000E+00
  0.00000000E+00  0.00000000E+00  0.00000000E+00
  0.00000000E+00  0.00000000E+00  0.00000000E+00
  0.00000000E+00  0.00000000E+00  0.00000000E+00
  0.00000000E+00  0.00000000E+00  0.00000000E+00
  0.00000000E+00  0.00000000E+00  0.00000000E+00
  0.00000000E+00  0.00000000E+00  0.00000000E+00
  0.00000000E+00  0.00000000E+00  0.00000000E+00
  0.00000000E+00  0.00000000E+00  0.00000000E+00
