Nb H Mg O                               
   1.00000000000000     
     8.4141216974800006    0.0000000000000000    0.0000000000000000
     0.0000000000000000    8.4141216974800006    0.0000000000000000
     0.0000000000000000    0.0000000000000000   23.4141216974799988
   Nb   H    Mg   O 
     1     1    32    33
Selective dynamics
Direct
  0.7531176441645403  0.4897240117340138  0.3732967555879653   T   T   T
  0.0642218435724918  0.1880661013696330  0.3826608457375413   T   T   T
  0.2512387275539906  0.0008091555276739  0.0033497272021824   T   T   T
  0.2509775390372236  0.5009829825989959  0.0029946191247726   T   T   T
  0.7510675345133118  0.0010343135247988  0.0029948770302333   T   T   T
  0.7509894032753166  0.5010384342336144  0.0025481743712873   T   T   T
  0.0010442668739469  0.2510047535895865  0.0031918141159400   T   T   T
  0.0014481002873058  0.7514009194967122  0.0031585612104524   T   T   T
  0.5006413785003447  0.2506023025627290  0.0031392037981026   T   T   T
  0.5008545373332910  0.7511884583357626  0.0032358609373217   T   T   T
  0.0016330816828617  0.0014561739556791  0.0925954287537514   T   T   T
  0.0018799485696456  0.5018113012173994  0.0920980102459635   T   T   T
  0.5009465573634593  0.0009639574142683  0.0929463065623074   T   T   T
  0.4998709844543880  0.5005268871270225  0.0919872464504919   T   T   T
  0.2505708228565672  0.2504272446133276  0.0925922882078427   T   T   T
  0.2510367731502043  0.7510723516077081  0.0929639687547850   T   T   T
  0.7502517217607830  0.2500928674034683  0.0920933390037632   T   T   T
  0.7515152764514555  0.7520777416679999  0.0919825975143313   T   T   T
  0.2481154027086504  0.0038593145010406  0.1838352317982019   T   T   T
  0.2500019559352638  0.4970975829803475  0.1828673189405443   T   T   T
  0.7548297850724884  0.0015360932914855  0.1828521833810015   T   T   T
  0.7510353943844826  0.5008125330445479  0.1778091988223260   T   T   T
  0.0032148403974648  0.2487714438176693  0.1837875220230537   T   T   T
  0.0027374719771794  0.7565763681461357  0.1839402377528512   T   T   T
  0.4953671878444654  0.2491887387635676  0.1838589778526676   T   T   T
  0.5006397657756441  0.7512783166124226  0.1833526750448755   T   T   T
  0.0131774589496106  0.0103935887818752  0.2890208032736697   T   T   T
  0.0139890388996224  0.5034266486664475  0.2706914918750825   T   T   T
  0.4990023424579850 -0.0001787921780921  0.2724401441928114   T   T   T
  0.4858598841667856  0.4977583238961410  0.2719684230662310   T   T   T
  0.2413560880057383  0.2387814075895450  0.2889971718622781   T   T   T
  0.2519270577924306  0.7528793034251995  0.2724142169262788   T   T   T
  0.7486197759675225  0.2371996851519851  0.2704203268755292   T   T   T
  0.7541260423384782  0.7654738490161234  0.2721616972083666   T   T   T
  0.0011392299612680  0.0011546310470598  0.0010421965371254   T   T   T
  0.0010788543119246  0.5012585346337043  0.0007815131341415   T   T   T
  0.5011572832654518  0.0007783552759265  0.0011119341704172   T   T   T
  0.5008879882911312  0.5010272637518145  0.0007969258251505   T   T   T
  0.2508866559980986  0.2509107496671386  0.0009975285334372   T   T   T
  0.2512763944477569  0.7508953191674845  0.0011036274482867   T   T   T
  0.7507938556378064  0.2509501083142637  0.0007517052517095   T   T   T
  0.7510220289106352  0.7511172510714120  0.0007733271197132   T   T   T
  0.2517400922343681  0.0003195229851001  0.0928330958319040   T   T   T
  0.2512404636881617  0.5011743328954683  0.0927969112710333   T   T   T
  0.7508478023896649  0.0006918806313104  0.0927886153290440   T   T   T
  0.7504568729808188  0.5015239887315440  0.0916836836556981   T   T   T
  0.9996669056495945  0.2523864968354405  0.0926904350607180   T   T   T
  0.0005819138714681  0.7509456999216343  0.0927436257056434   T   T   T
  0.5010696480592415  0.2514349806926058  0.0927190468035714   T   T   T
  0.5019617733721164  0.7500551078211831  0.0932078888760658   T   T   T
  0.9996878137987937  0.0016020215154871  0.1814945773807652   T   T   T
  0.9965972812733106  0.5046438368635640  0.1829904931519723   T   T   T
  0.5046364249730035  0.0003246767248573  0.1826712183171917   T   T   T
  0.5047245077153454  0.5003102305986253  0.1841015050838792   T   T   T
  0.2503627282788425  0.2522890701558644  0.1815176985910844   T   T   T
  0.2516090990951105  0.7473187943355343  0.1826674066044275   T   T   T
  0.7472592224865607  0.2551944693468119  0.1829175807149654   T   T   T
  0.7515747008410705  0.7470399976065494  0.1841567549252580   T   T   T
  0.2583498887289306  0.9935981998074872  0.2696666325875716   T   T   T
  0.2501019601663672  0.5006080262954792  0.2757192760820801   T   T   T
  0.7512555751154091  0.0013455952629300  0.2756971439251794   T   T   T
  0.7469329614048696  0.5048640819073671  0.2912931830323888   T   T   T
  0.9872114004561930  0.2645910475737330  0.2703505179283406   T   T   T
  0.0000936530303580  0.7500045217806607  0.2761381604564618   T   T   T
  0.5020049577191817  0.2518411078528824  0.2761386078619342   T   T   T
  0.5052077611043801  0.7465303542445898  0.2747153667705058   T   T   T
  0.1304428568058540  0.1215515173186272  0.3583829397005229   T   T   T
 
  0.00000000E+00  0.00000000E+00  0.00000000E+00
  0.00000000E+00  0.00000000E+00  0.00000000E+00
  0.00000000E+00  0.00000000E+00  0.00000000E+00
  0.00000000E+00  0.00000000E+00  0.00000000E+00
  0.00000000E+00  0.00000000E+00  0.00000000E+00
  0.00000000E+00  0.00000000E+00  0.00000000E+00
  0.00000000E+00  0.00000000E+00  0.00000000E+00
  0.00000000E+00  0.00000000E+00  0.00000000E+00
  0.00000000E+00  0.00000000E+00  0.00000000E+00
  0.00000000E+00  0.00000000E+00  0.00000000E+00
  0.00000000E+00  0.00000000E+00  0.00000000E+00
  0.00000000E+00  0.00000000E+00  0.00000000E+00
  0.00000000E+00  0.00000000E+00  0.00000000E+00
  0.00000000E+00  0.00000000E+00  0.00000000E+00
  0.00000000E+00  0.00000000E+00  0.00000000E+00
  0.00000000E+00  0.00000000E+00  0.00000000E+00
  0.00000000E+00  0.00000000E+00  0.00000000E+00
  0.00000000E+00  0.00000000E+00  0.00000000E+00
  0.00000000E+00  0.00000000E+00  0.00000000E+00
  0.00000000E+00  0.00000000E+00  0.00000000E+00
  0.00000000E+00  0.00000000E+00  0.00000000E+00
  0.00000000E+00  0.00000000E+00  0.00000000E+00
  0.00000000E+00  0.00000000E+00  0.00000000E+00
  0.00000000E+00  0.00000000E+00  0.00000000E+00
  0.00000000E+00  0.00000000E+00  0.00000000E+00
  0.00000000E+00  0.00000000E+00  0.00000000E+00
  0.00000000E+00  0.00000000E+00  0.00000000E+00
  0.00000000E+00  0.00000000E+00  0.00000000E+00
  0.00000000E+00  0.00000000E+00  0.00000000E+00
  0.00000000E+00  0.00000000E+00  0.00000000E+00
  0.00000000E+00  0.00000000E+00  0.00000000E+00
  0.00000000E+00  0.00000000E+00  0.00000000E+00
  0.00000000E+00  0.00000000E+00  0.00000000E+00
  0.00000000E+00  0.00000000E+00  0.00000000E+00
  0.00000000E+00  0.00000000E+00  0.00000000E+00
  0.00000000E+00  0.00000000E+00  0.00000000E+00
  0.00000000E+00  0.00000000E+00  0.00000000E+00
  0.00000000E+00  0.00000000E+00  0.00000000E+00
  0.00000000E+00  0.00000000E+00  0.00000000E+00
  0.00000000E+00  0.00000000E+00  0.00000000E+00
  0.00000000E+00  0.00000000E+00  0.00000000E+00
  0.00000000E+00  0.00000000E+00  0.00000000E+00
  0.00000000E+00  0.00000000E+00  0.00000000E+00
  0.00000000E+00  0.00000000E+00  0.00000000E+00
  0.00000000E+00  0.00000000E+00  0.00000000E+00
  0.00000000E+00  0.00000000E+00  0.00000000E+00
  0.00000000E+00  0.00000000E+00  0.00000000E+00
  0.00000000E+00  0.00000000E+00  0.00000000E+00
  0.00000000E+00  0.00000000E+00  0.00000000E+00
  0.00000000E+00  0.00000000E+00  0.00000000E+00
  0.00000000E+00  0.00000000E+00  0.00000000E+00
  0.00000000E+00  0.00000000E+00  0.00000000E+00
  0.00000000E+00  0.00000000E+00  0.00000000E+00
  0.00000000E+00  0.00000000E+00  0.00000000E+00
  0.00000000E+00  0.00000000E+00  0.00000000E+00
  0.00000000E+00  0.00000000E+00  0.00000000E+00
  0.00000000E+00  0.00000000E+00  0.00000000E+00
  0.00000000E+00  0.00000000E+00  0.00000000E+00
  0.00000000E+00  0.00000000E+00  0.00000000E+00
  0.00000000E+00  0.00000000E+00  0.00000000E+00
  0.00000000E+00  0.00000000E+00  0.00000000E+00
  0.00000000E+00  0.00000000E+00  0.00000000E+00
  0.00000000E+00  0.00000000E+00  0.00000000E+00
  0.00000000E+00  0.00000000E+00  0.00000000E+00
  0.00000000E+00  0.00000000E+00  0.00000000E+00
  0.00000000E+00  0.00000000E+00  0.00000000E+00
  0.00000000E+00  0.00000000E+00  0.00000000E+00
