H Mg Mn O                               
   1.00000000000000     
     8.4141216974800006    0.0000000000000000    0.0000000000000000
     0.0000000000000000    8.4141216974800006    0.0000000000000000
     0.0000000000000000    0.0000000000000000   23.4141216974799988
   H    Mg   Mn   O 
     1    32     1    33
Selective dynamics
Direct
  0.0718421996160086  0.1802809622314982  0.3866142552750357   T   T   T
  0.2508741899673133  0.0009247887764732  0.0029243328780889   T   T   T
  0.2506812445113549  0.5010692218276572  0.0024582139224834   T   T   T
  0.7507483981382892  0.0011500631829814  0.0024666630304366   T   T   T
  0.7506368955427554  0.5011995047926202  0.0019959402820228   T   T   T
  0.0007613510292863  0.2510892160153558  0.0026499605665649   T   T   T
  0.0010508873655744  0.7516234268038721  0.0026373396233507   T   T   T
  0.5002373178540205  0.2507598514444678  0.0026231943682761   T   T   T
  0.5004275341821093  0.7513934198818983  0.0026670844880734   T   T   T
  0.0011490847893219  0.0014030138413302  0.0922115730539786   T   T   T
  0.0016713541358551  0.5018135298696104  0.0917101667982652   T   T   T
  0.5008574034220274  0.0012760400425151  0.0925845155782935   T   T   T
  0.4995346200183804  0.5006302075410877  0.0916382155545338   T   T   T
  0.2504396947740475  0.2506666497592654  0.0922073585126884   T   T   T
  0.2505298761013907  0.7509509148339982  0.0925853624143952   T   T   T
  0.7499977092193676  0.2501695593172618  0.0916902876188810   T   T   T
  0.7512033513098479  0.7522400996474533  0.0916290670339976   T   T   T
  0.2480137446173761  0.0037902679899434  0.1833523021352428   T   T   T
  0.2500083403401197  0.4971122362125688  0.1828421040120021   T   T   T
  0.7545983600464011  0.0018130576943885  0.1828355018871241   T   T   T
  0.7507735660934248  0.5009723877742756  0.1779862066450372   T   T   T
  0.0031328615349136  0.2486422931755619  0.1831903755192665   T   T   T
  0.0020568074193551  0.7561453647908742  0.1835190073058028   T   T   T
  0.4956045209409533  0.2497452868249125  0.1835143718311470   T   T   T
  0.5001957113256410  0.7515385377017771  0.1828990674890157   T   T   T
  0.0124751468078295  0.0110058683821662  0.2885072712145915   T   T   T
  0.0110804810886183  0.5025434988940238  0.2698549428077663   T   T   T
  0.4986555831676528  0.0006012997638987  0.2722472477255001   T   T   T
  0.4889943958530903  0.4992474879408990  0.2716615397550785   T   T   T
  0.2408113182477293  0.2392596078633231  0.2885606257459828   T   T   T
  0.2511204632451222  0.7530548602887300  0.2722375320864032   T   T   T
  0.7491728699614095  0.2406677455180584  0.2698683149773945   T   T   T
  0.7524645576508685  0.7628118851509110  0.2716318515810745   T   T   T
  0.7628100343872031  0.4894094420692553  0.3718176357726788   T   T   T
  0.0007926843915699  0.0011711948820224  0.0005247749947943   T   T   T
  0.0008540709472243  0.5014571162101904  0.0002004000107570   T   T   T
  0.5008583604891431  0.0009305286676902  0.0006354657767345   T   T   T
  0.5004804574188303  0.5012213869400101  0.0003078031193630   T   T   T
  0.2506346746966724  0.2510175838525708  0.0004853982945298   T   T   T
  0.2508849647986157  0.7509773892871583  0.0005993491113586   T   T   T
  0.7504074962551919  0.2509993173746404  0.0001643725991603   T   T   T
  0.7505912921656878  0.7513478381069355  0.0002870114385380   T   T   T
  0.2514411587757829  0.0003839933396111  0.0924335227863790   T   T   T
  0.2509996399527898  0.5011725788625225  0.0923638486502267   T   T   T
  0.7506588590291582  0.0008261881083871  0.0923622045267021   T   T   T
  0.7501192525190247  0.5016682932629537  0.0913203817931416   T   T   T
 -0.0004754625739221  0.2522890274183120  0.0922363501402824   T   T   T
  0.0001866212697429  0.7510408834354813  0.0922918448275839   T   T   T
  0.5007679619680575  0.2516400080740658  0.0922917401409327   T   T   T
  0.5015354479440278  0.7502560439824486  0.0927120248562533   T   T   T
 -0.0005747375177813  0.0013661946588584  0.1812286663666755   T   T   T
 -0.0031024721389359  0.5044967413372659  0.1823907199726902   T   T   T
  0.5044682371781479  0.0007084241730928  0.1823848954993247   T   T   T
  0.5040317877689610  0.5006165687047511  0.1837090205442345   T   T   T
  0.2504345475126696  0.2523316846931230  0.1812271879447538   T   T   T
  0.2510459934186676  0.7472894155871128  0.1823810329745680   T   T   T
  0.7472411462567129  0.2549008842756704  0.1823987246419069   T   T   T
  0.7511321908567664  0.7477241150087668  0.1836971462578792   T   T   T
  0.2576964668066776  0.9940265192074006  0.2691741337806123   T   T   T
  0.2499202415341445  0.5007514392173763  0.2756769405006221   T   T   T
  0.7510025679891854  0.0017995165161474  0.2756662977445898   T   T   T
  0.7476165124866213  0.5040933053768157  0.2899484881095664   T   T   T
  0.9882046538273701  0.2635148633394456  0.2699458587030433   T   T   T
 -0.0011268475377315  0.7489914939856015  0.2766504186540751   T   T   T
  0.5027165539837181  0.2528385545197923  0.2766441995548478   T   T   T
  0.5042187305398785  0.7475078476750441  0.2748240385412081   T   T   T
  0.1308914465196845  0.1210579213948302  0.3580295682362127   T   T   T
 
  0.00000000E+00  0.00000000E+00  0.00000000E+00
  0.00000000E+00  0.00000000E+00  0.00000000E+00
  0.00000000E+00  0.00000000E+00  0.00000000E+00
  0.00000000E+00  0.00000000E+00  0.00000000E+00
  0.00000000E+00  0.00000000E+00  0.00000000E+00
  0.00000000E+00  0.00000000E+00  0.00000000E+00
  0.00000000E+00  0.00000000E+00  0.00000000E+00
  0.00000000E+00  0.00000000E+00  0.00000000E+00
  0.00000000E+00  0.00000000E+00  0.00000000E+00
  0.00000000E+00  0.00000000E+00  0.00000000E+00
  0.00000000E+00  0.00000000E+00  0.00000000E+00
  0.00000000E+00  0.00000000E+00  0.00000000E+00
  0.00000000E+00  0.00000000E+00  0.00000000E+00
  0.00000000E+00  0.00000000E+00  0.00000000E+00
  0.00000000E+00  0.00000000E+00  0.00000000E+00
  0.00000000E+00  0.00000000E+00  0.00000000E+00
  0.00000000E+00  0.00000000E+00  0.00000000E+00
  0.00000000E+00  0.00000000E+00  0.00000000E+00
  0.00000000E+00  0.00000000E+00  0.00000000E+00
  0.00000000E+00  0.00000000E+00  0.00000000E+00
  0.00000000E+00  0.00000000E+00  0.00000000E+00
  0.00000000E+00  0.00000000E+00  0.00000000E+00
  0.00000000E+00  0.00000000E+00  0.00000000E+00
  0.00000000E+00  0.00000000E+00  0.00000000E+00
  0.00000000E+00  0.00000000E+00  0.00000000E+00
  0.00000000E+00  0.00000000E+00  0.00000000E+00
  0.00000000E+00  0.00000000E+00  0.00000000E+00
  0.00000000E+00  0.00000000E+00  0.00000000E+00
  0.00000000E+00  0.00000000E+00  0.00000000E+00
  0.00000000E+00  0.00000000E+00  0.00000000E+00
  0.00000000E+00  0.00000000E+00  0.00000000E+00
  0.00000000E+00  0.00000000E+00  0.00000000E+00
  0.00000000E+00  0.00000000E+00  0.00000000E+00
  0.00000000E+00  0.00000000E+00  0.00000000E+00
  0.00000000E+00  0.00000000E+00  0.00000000E+00
  0.00000000E+00  0.00000000E+00  0.00000000E+00
  0.00000000E+00  0.00000000E+00  0.00000000E+00
  0.00000000E+00  0.00000000E+00  0.00000000E+00
  0.00000000E+00  0.00000000E+00  0.00000000E+00
  0.00000000E+00  0.00000000E+00  0.00000000E+00
  0.00000000E+00  0.00000000E+00  0.00000000E+00
  0.00000000E+00  0.00000000E+00  0.00000000E+00
  0.00000000E+00  0.00000000E+00  0.00000000E+00
  0.00000000E+00  0.00000000E+00  0.00000000E+00
  0.00000000E+00  0.00000000E+00  0.00000000E+00
  0.00000000E+00  0.00000000E+00  0.00000000E+00
  0.00000000E+00  0.00000000E+00  0.00000000E+00
  0.00000000E+00  0.00000000E+00  0.00000000E+00
  0.00000000E+00  0.00000000E+00  0.00000000E+00
  0.00000000E+00  0.00000000E+00  0.00000000E+00
  0.00000000E+00  0.00000000E+00  0.00000000E+00
  0.00000000E+00  0.00000000E+00  0.00000000E+00
  0.00000000E+00  0.00000000E+00  0.00000000E+00
  0.00000000E+00  0.00000000E+00  0.00000000E+00
  0.00000000E+00  0.00000000E+00  0.00000000E+00
  0.00000000E+00  0.00000000E+00  0.00000000E+00
  0.00000000E+00  0.00000000E+00  0.00000000E+00
  0.00000000E+00  0.00000000E+00  0.00000000E+00
  0.00000000E+00  0.00000000E+00  0.00000000E+00
  0.00000000E+00  0.00000000E+00  0.00000000E+00
  0.00000000E+00  0.00000000E+00  0.00000000E+00
  0.00000000E+00  0.00000000E+00  0.00000000E+00
  0.00000000E+00  0.00000000E+00  0.00000000E+00
  0.00000000E+00  0.00000000E+00  0.00000000E+00
  0.00000000E+00  0.00000000E+00  0.00000000E+00
  0.00000000E+00  0.00000000E+00  0.00000000E+00
  0.00000000E+00  0.00000000E+00  0.00000000E+00
