Mo H Mg O                               
   1.00000000000000     
     8.4141216974800006    0.0000000000000000    0.0000000000000000
     0.0000000000000000    8.4141216974800006    0.0000000000000000
     0.0000000000000000    0.0000000000000000   23.4141216974799988
   Mo   H    Mg   O 
     1     1    32    33
Selective dynamics
Direct
  0.7549811171450505  0.4875429409912213  0.3732883208317975   T   T   T
  0.0646838786376096  0.1873410508391061  0.3835567592539123   T   T   T
  0.2511991401853025  0.0008467118328283  0.0031804060601018   T   T   T
  0.2509148774714006  0.5010989498419818  0.0028386065171646   T   T   T
  0.7509421324411313  0.0010875939466587  0.0028348223071851   T   T   T
  0.7509113438705224  0.5011022306891065  0.0024338250153723   T   T   T
  0.0009702298778816  0.2510827355460303  0.0030058463895991   T   T   T
  0.0013399397296919  0.7513684932468967  0.0030084960377774   T   T   T
  0.5006504547365445  0.2506841268282508  0.0030024942295377   T   T   T
  0.5007858725134307  0.7512382304680666  0.0031149504575143   T   T   T
  0.0013993640104740  0.0014436419112400  0.0925466348833510   T   T   T
  0.0019096592218354  0.5016913903323169  0.0920755100581214   T   T   T
  0.5010258008837429  0.0012159594791436  0.0929157058665263   T   T   T
  0.4997050975763021  0.5006083479253894  0.0919233005104371   T   T   T
  0.2505807739801186  0.2506426378539171  0.0925580622090303   T   T   T
  0.2507693243420845  0.7509874042207278  0.0929295826650087   T   T   T
  0.7503389196272459  0.2500648433595962  0.0920656221751523   T   T   T
  0.7514062568551273  0.7522387457680375  0.0919278292538037   T   T   T
  0.2481166866939120  0.0038382415856013  0.1836432545916062   T   T   T
  0.2499162247122602  0.4970048550458835  0.1831607930272935   T   T   T
  0.7549128778524558  0.0017225418298347  0.1831386204749567   T   T   T
  0.7510549527851866  0.5008273610635402  0.1781184732706478   T   T   T
  0.0033045402501844  0.2486772369644595  0.1837660783648903   T   T   T
  0.0021435470239934  0.7560788490328249  0.1840035978632564   T   T   T
  0.4958550568967465  0.2497803220324566  0.1839360494736796   T   T   T
  0.5004639659452748  0.7514633136497656  0.1832473278117538   T   T   T
  0.0133240839728052  0.0104734291403646  0.2889662064653499   T   T   T
  0.0122874796252665  0.5024895390190655  0.2707573452410941   T   T   T
  0.4990368317477838  0.0003246902707086  0.2724262657076756   T   T   T
  0.4875399779998368  0.4991335228899465  0.2719472125570455   T   T   T
  0.2412214743468142  0.2386291542154594  0.2889586490613865   T   T   T
  0.2514256463751596  0.7528797246114228  0.2724087811263541   T   T   T
  0.7496341659829164  0.2389895888590935  0.2704965566466056   T   T   T
  0.7528826253533816  0.7639171145472996  0.2721411951907536   T   T   T
  0.0010290009831213  0.0011378650830711  0.0009256058408235   T   T   T
  0.0011016445870436  0.5013158702594509  0.0006000372354180   T   T   T
  0.5011096933950735  0.0008417884993446  0.0010057715325376   T   T   T
  0.5007336840311970  0.5011044076448076  0.0006561346210476   T   T   T
  0.2508906913882181  0.2510130837691517  0.0008918542914678   T   T   T
  0.2511851123296416  0.7509308847989209  0.0009842902418032   T   T   T
  0.7507065600370117  0.2509076138267203  0.0005730562928752   T   T   T
  0.7509114441542758  0.7512653899803258  0.0006299508860399   T   T   T
  0.2516485773304463  0.0003961251591781  0.0927636841262191   T   T   T
  0.2511191419083590  0.5011828084350649  0.0928295800021016   T   T   T
  0.7508206778791846  0.0008295212399587  0.0928170963760305   T   T   T
  0.7504350909480206  0.5015267736391479  0.0916966848637614   T   T   T
  0.9996777329557472  0.2523477389629258  0.0926659403918299   T   T   T
  0.0003864274356397  0.7508397579707254  0.0927033677192072   T   T   T
  0.5011555854834960  0.2516027680585101  0.0926954435873777   T   T   T
  0.5017926534577051  0.7501929098779085  0.0931495639352386   T   T   T
  0.9996555851098223  0.0013010871366905  0.1816109638518627   T   T   T
  0.9967737078730106  0.5043475579579569  0.1830356321214024   T   T   T
  0.5046979734254134  0.0007634759362217  0.1827370349787376   T   T   T
  0.5045136107285361  0.5005410071542320  0.1840680217240071   T   T   T
  0.2506860062911230  0.2522912396530971  0.1816449863649158   T   T   T
  0.2511916623452332  0.7472455244991759  0.1827288504002641   T   T   T
  0.7475467160653833  0.2550548459234616  0.1829752456108514   T   T   T
  0.7513338532408324  0.7472877915937480  0.1841068165778305   T   T   T
  0.2580358452418209  0.9939422192983799  0.2696660871152755   T   T   T
  0.2500690942681008  0.5007236696497669  0.2760554632915819   T   T   T
  0.7510968288203660  0.0015132390837597  0.2760462567334807   T   T   T
  0.7476472679699286  0.5043409774405746  0.2894383128985453   T   T   T
  0.9887548426954550  0.2630724301320189  0.2704350254287789   T   T   T
 -0.0004972141880622  0.7494481267019778  0.2766740590847103   T   T   T
  0.5026588790028808  0.2525111647127936  0.2767536631500008   T   T   T
  0.5042648185383376  0.7474995222241422  0.2749127736401025   T   T   T
  0.1303986737361921  0.1215814299795214  0.3588879326611238   T   T   T
 
  0.00000000E+00  0.00000000E+00  0.00000000E+00
  0.00000000E+00  0.00000000E+00  0.00000000E+00
  0.00000000E+00  0.00000000E+00  0.00000000E+00
  0.00000000E+00  0.00000000E+00  0.00000000E+00
  0.00000000E+00  0.00000000E+00  0.00000000E+00
  0.00000000E+00  0.00000000E+00  0.00000000E+00
  0.00000000E+00  0.00000000E+00  0.00000000E+00
  0.00000000E+00  0.00000000E+00  0.00000000E+00
  0.00000000E+00  0.00000000E+00  0.00000000E+00
  0.00000000E+00  0.00000000E+00  0.00000000E+00
  0.00000000E+00  0.00000000E+00  0.00000000E+00
  0.00000000E+00  0.00000000E+00  0.00000000E+00
  0.00000000E+00  0.00000000E+00  0.00000000E+00
  0.00000000E+00  0.00000000E+00  0.00000000E+00
  0.00000000E+00  0.00000000E+00  0.00000000E+00
  0.00000000E+00  0.00000000E+00  0.00000000E+00
  0.00000000E+00  0.00000000E+00  0.00000000E+00
  0.00000000E+00  0.00000000E+00  0.00000000E+00
  0.00000000E+00  0.00000000E+00  0.00000000E+00
  0.00000000E+00  0.00000000E+00  0.00000000E+00
  0.00000000E+00  0.00000000E+00  0.00000000E+00
  0.00000000E+00  0.00000000E+00  0.00000000E+00
  0.00000000E+00  0.00000000E+00  0.00000000E+00
  0.00000000E+00  0.00000000E+00  0.00000000E+00
  0.00000000E+00  0.00000000E+00  0.00000000E+00
  0.00000000E+00  0.00000000E+00  0.00000000E+00
  0.00000000E+00  0.00000000E+00  0.00000000E+00
  0.00000000E+00  0.00000000E+00  0.00000000E+00
  0.00000000E+00  0.00000000E+00  0.00000000E+00
  0.00000000E+00  0.00000000E+00  0.00000000E+00
  0.00000000E+00  0.00000000E+00  0.00000000E+00
  0.00000000E+00  0.00000000E+00  0.00000000E+00
  0.00000000E+00  0.00000000E+00  0.00000000E+00
  0.00000000E+00  0.00000000E+00  0.00000000E+00
  0.00000000E+00  0.00000000E+00  0.00000000E+00
  0.00000000E+00  0.00000000E+00  0.00000000E+00
  0.00000000E+00  0.00000000E+00  0.00000000E+00
  0.00000000E+00  0.00000000E+00  0.00000000E+00
  0.00000000E+00  0.00000000E+00  0.00000000E+00
  0.00000000E+00  0.00000000E+00  0.00000000E+00
  0.00000000E+00  0.00000000E+00  0.00000000E+00
  0.00000000E+00  0.00000000E+00  0.00000000E+00
  0.00000000E+00  0.00000000E+00  0.00000000E+00
  0.00000000E+00  0.00000000E+00  0.00000000E+00
  0.00000000E+00  0.00000000E+00  0.00000000E+00
  0.00000000E+00  0.00000000E+00  0.00000000E+00
  0.00000000E+00  0.00000000E+00  0.00000000E+00
  0.00000000E+00  0.00000000E+00  0.00000000E+00
  0.00000000E+00  0.00000000E+00  0.00000000E+00
  0.00000000E+00  0.00000000E+00  0.00000000E+00
  0.00000000E+00  0.00000000E+00  0.00000000E+00
  0.00000000E+00  0.00000000E+00  0.00000000E+00
  0.00000000E+00  0.00000000E+00  0.00000000E+00
  0.00000000E+00  0.00000000E+00  0.00000000E+00
  0.00000000E+00  0.00000000E+00  0.00000000E+00
  0.00000000E+00  0.00000000E+00  0.00000000E+00
  0.00000000E+00  0.00000000E+00  0.00000000E+00
  0.00000000E+00  0.00000000E+00  0.00000000E+00
  0.00000000E+00  0.00000000E+00  0.00000000E+00
  0.00000000E+00  0.00000000E+00  0.00000000E+00
  0.00000000E+00  0.00000000E+00  0.00000000E+00
  0.00000000E+00  0.00000000E+00  0.00000000E+00
  0.00000000E+00  0.00000000E+00  0.00000000E+00
  0.00000000E+00  0.00000000E+00  0.00000000E+00
  0.00000000E+00  0.00000000E+00  0.00000000E+00
  0.00000000E+00  0.00000000E+00  0.00000000E+00
  0.00000000E+00  0.00000000E+00  0.00000000E+00
