H Mg O Pd                               
   1.00000000000000     
     8.4141216974800006    0.0000000000000000    0.0000000000000000
     0.0000000000000000    8.4141216974800006    0.0000000000000000
     0.0000000000000000    0.0000000000000000   23.4141216974799988
   H    Mg   O    Pd
     1    32    33     1
Selective dynamics
Direct
  0.0521347921473585  0.1996449265156399  0.3781919514066732   T   T   T
  0.2515197244136845  0.0003214866782015  0.0033398011738536   T   T   T
  0.2512354886199932  0.5008695653270755  0.0031277636444378   T   T   T
  0.7509709204929573  0.0006079369721905  0.0031461181463553   T   T   T
  0.7509301521750434  0.5009246649354444  0.0029503066950057   T   T   T
  0.0011571681917821  0.2506800798842239  0.0030844182133283   T   T   T
  0.0015010523129844  0.7509305081027953  0.0031733013345693   T   T   T
  0.5009170582208011  0.2503380534208382  0.0031711844738989   T   T   T
  0.5010158839322822  0.7508225248664467  0.0032971210499036   T   T   T
  0.0013635234459926  0.0007595438905562  0.0926109712294609   T   T   T
  0.0013868825959927  0.5012822290828081  0.0924103256638508   T   T   T
  0.5015394316813269  0.0006149666534758  0.0930494622802195   T   T   T
  0.5005799246156042  0.5004508208720332  0.0924236581964329   T   T   T
  0.2510632861177175  0.2504806572883736  0.0926115360981561   T   T   T
  0.2511911562231642  0.7502461024851886  0.0930552693082482   T   T   T
  0.7505630004029018  0.2504078420032634  0.0924358351741542   T   T   T
  0.7513834248742901  0.7512456616424920  0.0924325701777870   T   T   T
  0.2494822252193559  0.0023320770180907  0.1835104549793215   T   T   T
  0.2503025098246058  0.4973681226340546  0.1834071397170087   T   T   T
  0.7544004402326100  0.0014704442068879  0.1834163507517943   T   T   T
  0.7511383211756788  0.5006723744052095  0.1809837031059835   T   T   T
  0.0028112302997170  0.2490037896469227  0.1825995405326254   T   T   T
  0.0018198673279455  0.7547749174659447  0.1836744634230767   T   T   T
  0.4969889349501692  0.2500199065541180  0.1836544159248449   T   T   T
  0.5008935633247118  0.7509056293827411  0.1832494481739022   T   T   T
  0.0104003650377486  0.0058825329338926  0.2840337265516816   T   T   T
  0.0086283866001660  0.5042222098617350  0.2715423493526671   T   T   T
  0.5001766953252512 -0.0004296232017318  0.2722913515228949   T   T   T
  0.4916289812805517  0.4997902558796308  0.2722858829503427   T   T   T
  0.2459104901282107  0.2412740597480907  0.2840827466203539   T   T   T
  0.2521839466567861  0.7515998158594589  0.2722963870513113   T   T   T
  0.7476114325912739  0.2431868480739103  0.2715385117826162   T   T   T
  0.7519865151554518  0.7601284288842257  0.2723073263507659   T   T   T
  0.0011870605004842  0.0006275560560398  0.0011678570391725   T   T   T
  0.0011687731392225  0.5010051603296151  0.0008066816808784   T   T   T
  0.5013358755049108  0.0003517536104495  0.0011673407754278   T   T   T
  0.5010250339908003  0.5007587887297053  0.0008252030386501   T   T   T
  0.2511852516549313  0.2506433307117510  0.0010908266989870   T   T   T
  0.2514825363890566  0.7505132002269873  0.0011315742856513   T   T   T
  0.7508477323594004  0.2506681353416587  0.0007874896655537   T   T   T
  0.7510569487894866  0.7508026258075357  0.0007943611436817   T   T   T
  0.2516001017944577  0.0002370278939237  0.0929555515785834   T   T   T
  0.2511238023666379  0.5004846801420072  0.0928645763826513   T   T   T
  0.7513131257260536  0.0006992841895022  0.0928736918273600   T   T   T
  0.7508262156952197  0.5009912679993852  0.0925201466555969   T   T   T
  0.0003658735216743  0.2514642512959582  0.0927047340384420   T   T   T
  0.0008570272622863  0.7505675985185903  0.0929082827478892   T   T   T
  0.5012294523932873  0.2509508941459385  0.0929110322264823   T   T   T
  0.5017312174834943  0.7500515005346153  0.0931606773918530   T   T   T
  0.0004988019134705  0.0012761125360821  0.1825274018428164   T   T   T
  0.9986595111145518  0.5023931068852352  0.1830399596088438   T   T   T
  0.5039968742515730  0.0005993381685349  0.1827029202148029   T   T   T
  0.5028364213986898  0.5003726495739647  0.1835434535252623   T   T   T
  0.2505489604520041  0.2512920809879064  0.1825205599024685   T   T   T
  0.2512049227528905  0.7477987891445220  0.1826997288111216   T   T   T
  0.7493971621074785  0.2531777847331996  0.1830394491194323   T   T   T
  0.7514107011245442  0.7489355494440240  0.1835407041634944   T   T   T
  0.2580414834323679  0.9937169591135685  0.2699040000750383   T   T   T
  0.2502391965496812  0.5005078648479766  0.2755938109786713   T   T   T
  0.7513076993124225  0.0015074755982367  0.2756013474170989   T   T   T
  0.7491285004630257  0.5027010067569565  0.2773987279404448   T   T   T
  0.9909220008470268  0.2608591176039550  0.2708551549035781   T   T   T
  0.0002997317671519  0.7511744651714906  0.2758642276822940   T   T   T
  0.5006537473917270  0.2514768225674137  0.2758730561340687   T   T   T
  0.5033420280900710  0.7484217129042742  0.2749905276952959   T   T   T
  0.1211321274765009  0.1306337701459528  0.3558152151207429   T   T   T
  0.7623935155303238  0.4889251144298333  0.3645939596151236   T   T   T
 
  0.00000000E+00  0.00000000E+00  0.00000000E+00
  0.00000000E+00  0.00000000E+00  0.00000000E+00
  0.00000000E+00  0.00000000E+00  0.00000000E+00
  0.00000000E+00  0.00000000E+00  0.00000000E+00
  0.00000000E+00  0.00000000E+00  0.00000000E+00
  0.00000000E+00  0.00000000E+00  0.00000000E+00
  0.00000000E+00  0.00000000E+00  0.00000000E+00
  0.00000000E+00  0.00000000E+00  0.00000000E+00
  0.00000000E+00  0.00000000E+00  0.00000000E+00
  0.00000000E+00  0.00000000E+00  0.00000000E+00
  0.00000000E+00  0.00000000E+00  0.00000000E+00
  0.00000000E+00  0.00000000E+00  0.00000000E+00
  0.00000000E+00  0.00000000E+00  0.00000000E+00
  0.00000000E+00  0.00000000E+00  0.00000000E+00
  0.00000000E+00  0.00000000E+00  0.00000000E+00
  0.00000000E+00  0.00000000E+00  0.00000000E+00
  0.00000000E+00  0.00000000E+00  0.00000000E+00
  0.00000000E+00  0.00000000E+00  0.00000000E+00
  0.00000000E+00  0.00000000E+00  0.00000000E+00
  0.00000000E+00  0.00000000E+00  0.00000000E+00
  0.00000000E+00  0.00000000E+00  0.00000000E+00
  0.00000000E+00  0.00000000E+00  0.00000000E+00
  0.00000000E+00  0.00000000E+00  0.00000000E+00
  0.00000000E+00  0.00000000E+00  0.00000000E+00
  0.00000000E+00  0.00000000E+00  0.00000000E+00
  0.00000000E+00  0.00000000E+00  0.00000000E+00
  0.00000000E+00  0.00000000E+00  0.00000000E+00
  0.00000000E+00  0.00000000E+00  0.00000000E+00
  0.00000000E+00  0.00000000E+00  0.00000000E+00
  0.00000000E+00  0.00000000E+00  0.00000000E+00
  0.00000000E+00  0.00000000E+00  0.00000000E+00
  0.00000000E+00  0.00000000E+00  0.00000000E+00
  0.00000000E+00  0.00000000E+00  0.00000000E+00
  0.00000000E+00  0.00000000E+00  0.00000000E+00
  0.00000000E+00  0.00000000E+00  0.00000000E+00
  0.00000000E+00  0.00000000E+00  0.00000000E+00
  0.00000000E+00  0.00000000E+00  0.00000000E+00
  0.00000000E+00  0.00000000E+00  0.00000000E+00
  0.00000000E+00  0.00000000E+00  0.00000000E+00
  0.00000000E+00  0.00000000E+00  0.00000000E+00
  0.00000000E+00  0.00000000E+00  0.00000000E+00
  0.00000000E+00  0.00000000E+00  0.00000000E+00
  0.00000000E+00  0.00000000E+00  0.00000000E+00
  0.00000000E+00  0.00000000E+00  0.00000000E+00
  0.00000000E+00  0.00000000E+00  0.00000000E+00
  0.00000000E+00  0.00000000E+00  0.00000000E+00
  0.00000000E+00  0.00000000E+00  0.00000000E+00
  0.00000000E+00  0.00000000E+00  0.00000000E+00
  0.00000000E+00  0.00000000E+00  0.00000000E+00
  0.00000000E+00  0.00000000E+00  0.00000000E+00
  0.00000000E+00  0.00000000E+00  0.00000000E+00
  0.00000000E+00  0.00000000E+00  0.00000000E+00
  0.00000000E+00  0.00000000E+00  0.00000000E+00
  0.00000000E+00  0.00000000E+00  0.00000000E+00
  0.00000000E+00  0.00000000E+00  0.00000000E+00
  0.00000000E+00  0.00000000E+00  0.00000000E+00
  0.00000000E+00  0.00000000E+00  0.00000000E+00
  0.00000000E+00  0.00000000E+00  0.00000000E+00
  0.00000000E+00  0.00000000E+00  0.00000000E+00
  0.00000000E+00  0.00000000E+00  0.00000000E+00
  0.00000000E+00  0.00000000E+00  0.00000000E+00
  0.00000000E+00  0.00000000E+00  0.00000000E+00
  0.00000000E+00  0.00000000E+00  0.00000000E+00
  0.00000000E+00  0.00000000E+00  0.00000000E+00
  0.00000000E+00  0.00000000E+00  0.00000000E+00
  0.00000000E+00  0.00000000E+00  0.00000000E+00
  0.00000000E+00  0.00000000E+00  0.00000000E+00
