H Mg O Ru                               
   1.00000000000000     
     8.4141216974800006    0.0000000000000000    0.0000000000000000
     0.0000000000000000    8.4141216974800006    0.0000000000000000
     0.0000000000000000    0.0000000000000000   23.4141216974799988
   H    Mg   O    Ru
     1    32    33     1
Selective dynamics
Direct
  0.0606049446208373  0.1917951322456011  0.3812525035157077   T   T   T
  0.2509278647044724  0.0010740481314390  0.0028228537411703   T   T   T
  0.2508116641105229  0.5011199611670388  0.0025314235499541   T   T   T
  0.7507960871004558  0.0012233445503098  0.0025417307155901   T   T   T
  0.7507991006773975  0.5011554301404137  0.0022287378889739   T   T   T
  0.0010116146108674  0.2510399194351194  0.0028835722749040   T   T   T
  0.0011742665766561  0.7515695760190824  0.0026391854894077   T   T   T
  0.5003881629048366  0.2509054949777320  0.0026113251755195   T   T   T
  0.5004301039916385  0.7515605106528968  0.0026995735892452   T   T   T
  0.0013723331079826  0.0014232558002421  0.0924575602549373   T   T   T
  0.0017152147507251  0.5017359868672634  0.0920028892579997   T   T   T
  0.5009975961449894  0.0014271899526032  0.0926276890243928   T   T   T
  0.4999040386407226  0.5004584955827669  0.0917839844370053   T   T   T
  0.2506315634124504  0.2506709725386010  0.0925276923777501   T   T   T
  0.2506751515121988  0.7511112888676198  0.0926458630320999   T   T   T
  0.7503942878714319  0.2502733403318426  0.0920291494334188   T   T   T
  0.7516894156370355  0.7521349395937499  0.0917373687035909   T   T   T
  0.2484093063038249  0.0037099901556551  0.1833255576334136   T   T   T
  0.2500581078201783  0.4970189596089422  0.1830120225813753   T   T   T
  0.7551957360800760  0.0018041962762062  0.1829746007800424   T   T   T
  0.7513891399201181  0.5006546902589764  0.1781894296971747   T   T   T
  0.0034191145884760  0.2487510269147613  0.1835238964955087   T   T   T
  0.0024387594327898  0.7554925047119296  0.1840217670058052   T   T   T
  0.4967568992000609  0.2498005788671717  0.1839776472074240   T   T   T
  0.5010653395117677  0.7510977586439509  0.1830884954191442   T   T   T
  0.0139563362197504  0.0099776990941947  0.2884487619322012   T   T   T
  0.0143536417571497  0.5015554907995059  0.2715267001466330   T   T   T
  0.4993825030444239 -0.0001164407647304  0.2721324422041221   T   T   T
  0.4858831452910014  0.4993423900798690  0.2726986070545430   T   T   T
  0.2414727627556663  0.2383845566464059  0.2883951492267431   T   T   T
  0.2518973124488714  0.7528722608289919  0.2720598161310048   T   T   T
  0.7514246057360723  0.2369810780031858  0.2714411952188002   T   T   T
  0.7535407423512117  0.7657364902663375  0.2727092439524287   T   T   T
  0.0008056092903899  0.0012502054881679  0.0005980425954798   T   T   T
  0.0008943359704813  0.5013775715917247  0.0003646828741696   T   T   T
  0.5009026231121649  0.0010351793464017  0.0006590095182359   T   T   T
  0.5007046469826978  0.5013773160214213  0.0003512201563092   T   T   T
  0.2507695620613343  0.2511558924652405  0.0005956529921734   T   T   T
  0.2510027730711877  0.7510436661976392  0.0006520205807058   T   T   T
  0.7506293678950963  0.2511265153778587  0.0003399733605473   T   T   T
  0.7506347583017193  0.7512862549493515  0.0003175322061040   T   T   T
  0.2515904855747308  0.0005540275706132  0.0924918350263172   T   T   T
  0.2511012397974213  0.5010738638144638  0.0925491465427587   T   T   T
  0.7509661470835278  0.0009272462774423  0.0925315922659565   T   T   T
  0.7504875865495987  0.5015477206144554  0.0915668310775493   T   T   T
 -0.0001817614527027  0.2523102618295714  0.0925131178767604   T   T   T
  0.0004118669930733  0.7508437011397737  0.0924949804321804   T   T   T
  0.5012476999892432  0.2516590240304968  0.0925081979337752   T   T   T
  0.5019198981022469  0.7502408334866346  0.0928668091711777   T   T   T
 -0.0001288445818945  0.0010146797596147  0.1814840135817265   T   T   T
 -0.0029088145280276  0.5041497535725645  0.1831032186281015   T   T   T
  0.5051034473162779  0.0008694540931845  0.1824879659045391   T   T   T
  0.5046461806541054  0.5000922004809248  0.1841766319905650   T   T   T
  0.2512297640989952  0.2522792407040301  0.1816236766792671   T   T   T
  0.2513793881899670  0.7471313468947124  0.1824109236389281   T   T   T
  0.7479597575144304  0.2548912550077190  0.1831045947774923   T   T   T
  0.7520332140882992  0.7473348019047727  0.1841509402220677   T   T   T
  0.2585886801093126  0.9937931903617676  0.2694374237755054   T   T   T
  0.2504943972718238  0.5007020966739817  0.2760443185677496   T   T   T
  0.7516958410803082  0.0011546676444948  0.2760943901322751   T   T   T
  0.7495801779414399  0.5058220564986937  0.2867218457467641   T   T   T
  0.9898147470022195  0.2625982833740506  0.2698380941073739   T   T   T
 -0.0000557184656323  0.7489918371858457  0.2765075365294297   T   T   T
  0.5037471287755111  0.2526988796770872  0.2767439368147706   T   T   T
  0.5047416206477283  0.7474776697293433  0.2740221642559368   T   T   T
  0.1288600926470495  0.1233162414138043  0.3584177265285012   T   T   T
  0.7455314282212209  0.4825470836974843  0.3668361112767931   T   T   T
 
  0.00000000E+00  0.00000000E+00  0.00000000E+00
  0.00000000E+00  0.00000000E+00  0.00000000E+00
  0.00000000E+00  0.00000000E+00  0.00000000E+00
  0.00000000E+00  0.00000000E+00  0.00000000E+00
  0.00000000E+00  0.00000000E+00  0.00000000E+00
  0.00000000E+00  0.00000000E+00  0.00000000E+00
  0.00000000E+00  0.00000000E+00  0.00000000E+00
  0.00000000E+00  0.00000000E+00  0.00000000E+00
  0.00000000E+00  0.00000000E+00  0.00000000E+00
  0.00000000E+00  0.00000000E+00  0.00000000E+00
  0.00000000E+00  0.00000000E+00  0.00000000E+00
  0.00000000E+00  0.00000000E+00  0.00000000E+00
  0.00000000E+00  0.00000000E+00  0.00000000E+00
  0.00000000E+00  0.00000000E+00  0.00000000E+00
  0.00000000E+00  0.00000000E+00  0.00000000E+00
  0.00000000E+00  0.00000000E+00  0.00000000E+00
  0.00000000E+00  0.00000000E+00  0.00000000E+00
  0.00000000E+00  0.00000000E+00  0.00000000E+00
  0.00000000E+00  0.00000000E+00  0.00000000E+00
  0.00000000E+00  0.00000000E+00  0.00000000E+00
  0.00000000E+00  0.00000000E+00  0.00000000E+00
  0.00000000E+00  0.00000000E+00  0.00000000E+00
  0.00000000E+00  0.00000000E+00  0.00000000E+00
  0.00000000E+00  0.00000000E+00  0.00000000E+00
  0.00000000E+00  0.00000000E+00  0.00000000E+00
  0.00000000E+00  0.00000000E+00  0.00000000E+00
  0.00000000E+00  0.00000000E+00  0.00000000E+00
  0.00000000E+00  0.00000000E+00  0.00000000E+00
  0.00000000E+00  0.00000000E+00  0.00000000E+00
  0.00000000E+00  0.00000000E+00  0.00000000E+00
  0.00000000E+00  0.00000000E+00  0.00000000E+00
  0.00000000E+00  0.00000000E+00  0.00000000E+00
  0.00000000E+00  0.00000000E+00  0.00000000E+00
  0.00000000E+00  0.00000000E+00  0.00000000E+00
  0.00000000E+00  0.00000000E+00  0.00000000E+00
  0.00000000E+00  0.00000000E+00  0.00000000E+00
  0.00000000E+00  0.00000000E+00  0.00000000E+00
  0.00000000E+00  0.00000000E+00  0.00000000E+00
  0.00000000E+00  0.00000000E+00  0.00000000E+00
  0.00000000E+00  0.00000000E+00  0.00000000E+00
  0.00000000E+00  0.00000000E+00  0.00000000E+00
  0.00000000E+00  0.00000000E+00  0.00000000E+00
  0.00000000E+00  0.00000000E+00  0.00000000E+00
  0.00000000E+00  0.00000000E+00  0.00000000E+00
  0.00000000E+00  0.00000000E+00  0.00000000E+00
  0.00000000E+00  0.00000000E+00  0.00000000E+00
  0.00000000E+00  0.00000000E+00  0.00000000E+00
  0.00000000E+00  0.00000000E+00  0.00000000E+00
  0.00000000E+00  0.00000000E+00  0.00000000E+00
  0.00000000E+00  0.00000000E+00  0.00000000E+00
  0.00000000E+00  0.00000000E+00  0.00000000E+00
  0.00000000E+00  0.00000000E+00  0.00000000E+00
  0.00000000E+00  0.00000000E+00  0.00000000E+00
  0.00000000E+00  0.00000000E+00  0.00000000E+00
  0.00000000E+00  0.00000000E+00  0.00000000E+00
  0.00000000E+00  0.00000000E+00  0.00000000E+00
  0.00000000E+00  0.00000000E+00  0.00000000E+00
  0.00000000E+00  0.00000000E+00  0.00000000E+00
  0.00000000E+00  0.00000000E+00  0.00000000E+00
  0.00000000E+00  0.00000000E+00  0.00000000E+00
  0.00000000E+00  0.00000000E+00  0.00000000E+00
  0.00000000E+00  0.00000000E+00  0.00000000E+00
  0.00000000E+00  0.00000000E+00  0.00000000E+00
  0.00000000E+00  0.00000000E+00  0.00000000E+00
  0.00000000E+00  0.00000000E+00  0.00000000E+00
  0.00000000E+00  0.00000000E+00  0.00000000E+00
  0.00000000E+00  0.00000000E+00  0.00000000E+00
