F Mg Ni O                               
   1.00000000000000     
     8.4141216974800006    0.0000000000000000    0.0000000000000000
     0.0000000000000000    8.4141216974800006    0.0000000000000000
     0.0000000000000000    0.0000000000000000   23.4141216974799988
   F    Mg   Ni   O 
     1    32     1    32
Selective dynamics
Direct
  0.2594415012941970  0.2499999495650016  0.3738494991346100   T   T   T
  0.2481256199022162 -0.0000530272572838  0.0041833148657795   T   T   T
  0.2481256199022162  0.5000530272572837  0.0041833148657795   T   T   T
  0.7482519599177104  0.0002239464829712  0.0043237449533603   T   T   T
  0.7482519599177104  0.4997760535170288  0.0043237449533603   T   T   T
 -0.0021103990986538  0.2500000000000000  0.0043933237914649   T   T   T
 -0.0016882146716398  0.7500000000000000  0.0041635283558921   T   T   T
  0.4983926143788719  0.2500000000000000  0.0041101301300221   T   T   T
  0.4982501091993230  0.7500000000000000  0.0037723340031133   T   T   T
 -0.0014374798772190  0.0007038383773323  0.0941157572910122   T   T   T
 -0.0014374798772190  0.4992961616226676  0.0941157572910122   T   T   T
  0.4978985928754935  0.0008538549749285  0.0934688058060489   T   T   T
  0.4978985928754935  0.4991461450250717  0.0934688058060489   T   T   T
  0.2479508010094489  0.2500000000000000  0.0937952927233217   T   T   T
  0.2476455655142216  0.7500000000000000  0.0935546036120653   T   T   T
  0.7486375814914719  0.2500000000000000  0.0943664531555135   T   T   T
  0.7487083747542715  0.7500000000000000  0.0932960753735045   T   T   T
  0.2482022400862302  0.0043086014273161  0.1855769919358242   T   T   T
  0.2482022400862302  0.4956913985726839  0.1855769919358242   T   T   T
  0.7482762246173854  0.0008430297344391  0.1848547120092507   T   T   T
  0.7482762246173854  0.4991569702655609  0.1848547120092507   T   T   T
  0.0026612351630370  0.2500000000000000  0.1855612010549259   T   T   T
 -0.0014976375338958  0.7500000000000000  0.1839116727800158   T   T   T
  0.4943455519894089  0.2500000000000000  0.1848820065191707   T   T   T
  0.4973750550206659  0.7500000000000000  0.1803090031451374   T   T   T
 -0.0000474551509702  0.0034158550990048  0.2747596150933364   T   T   T
 -0.0000474551509702  0.4965841449009951  0.2747596150933364   T   T   T
  0.4962895954168540  0.0133935492877504  0.2743546244084819   T   T   T
  0.4962895954168540  0.4866064507122496  0.2743546244084819   T   T   T
  0.2461880149738163  0.2499999495650016  0.2947469719529646   T   T   T
  0.2363665923231479  0.7500000000000000  0.2730699329869496   T   T   T
  0.7496136696112380  0.2499999495650016  0.2742062513282170   T   T   T
  0.7584020239390735  0.7500000000000000  0.2740193501745861   T   T   T
  0.4798269648892751  0.7499998486940029  0.3611812880759828   T   T   T
 -0.0019144743017090 -0.0001806695734944  0.0022288609632238   T   T   T
 -0.0019144743017090  0.5001806695734944  0.0022288609632238   T   T   T
  0.4982878450654646 -0.0000027092958108  0.0018038713820554   T   T   T
  0.4982878450654646  0.5000027092958108  0.0018038713820554   T   T   T
  0.2482056775835118  0.2500000000000000  0.0020810621694561   T   T   T
  0.2481139477795911  0.7500000000000000  0.0016916617470377   T   T   T
  0.7480751455260527  0.2500000000000000  0.0022174247888919   T   T   T
  0.7483797308918894  0.7500000000000000  0.0018473084472430   T   T   T
  0.2485808783277260 -0.0009360705814705  0.0938975753354330   T   T   T
  0.2485808783277260  0.5009360705814706  0.0938975753354330   T   T   T
  0.7477868595392223 -0.0006108201937576  0.0942902263395597   T   T   T
  0.7477868595392223  0.5006108201937575  0.0942902263395597   T   T   T
 -0.0023089295076860  0.2500000000000000  0.0940150397990536   T   T   T
 -0.0020476763811860  0.7500000000000000  0.0942485654727213   T   T   T
  0.4989365737840996  0.2500000000000000  0.0941274398076768   T   T   T
  0.4984850458549269  0.7500000000000000  0.0931099095556857   T   T   T
 -0.0021820605963991 -0.0011785686249127  0.1844832166563465   T   T   T
 -0.0021820605963991  0.5011785686249127  0.1844832166563465   T   T   T
  0.4986267115501928 -0.0041301837610777  0.1850859517647083   T   T   T
  0.4986267115501928  0.5041301837610775  0.1850859517647083   T   T   T
  0.2489468903696948  0.2500000000000000  0.1820999716845441   T   T   T
  0.2512056649150722  0.7500000000000000  0.1844903119768763   T   T   T
  0.7479866966849620  0.2500000000000000  0.1841334635841571   T   T   T
  0.7445652414887128  0.7500000000000000  0.1850710882585730   T   T   T
  0.2499052115191436  0.9942327015662955  0.2753746919476530   T   T   T
  0.2499052115191436  0.5057672984337045  0.2753746919476530   T   T   T
  0.7466439563976542 -0.0025213663122813  0.2762929826587419   T   T   T
  0.7466439563976542  0.5025213663122814  0.2762929826587419   T   T   T
  0.9951793569635314  0.2500000000000000  0.2754655282344903   T   T   T
  0.9970665468872647  0.7500000000000000  0.2757569029676187   T   T   T
  0.5029963149894819  0.2500000000000000  0.2742948539172129   T   T   T
  0.5004628671758213  0.7499998486940029  0.2862295830606497   T   T   T
 
  0.00000000E+00  0.00000000E+00  0.00000000E+00
  0.00000000E+00  0.00000000E+00  0.00000000E+00
  0.00000000E+00  0.00000000E+00  0.00000000E+00
  0.00000000E+00  0.00000000E+00  0.00000000E+00
  0.00000000E+00  0.00000000E+00  0.00000000E+00
  0.00000000E+00  0.00000000E+00  0.00000000E+00
  0.00000000E+00  0.00000000E+00  0.00000000E+00
  0.00000000E+00  0.00000000E+00  0.00000000E+00
  0.00000000E+00  0.00000000E+00  0.00000000E+00
  0.00000000E+00  0.00000000E+00  0.00000000E+00
  0.00000000E+00  0.00000000E+00  0.00000000E+00
  0.00000000E+00  0.00000000E+00  0.00000000E+00
  0.00000000E+00  0.00000000E+00  0.00000000E+00
  0.00000000E+00  0.00000000E+00  0.00000000E+00
  0.00000000E+00  0.00000000E+00  0.00000000E+00
  0.00000000E+00  0.00000000E+00  0.00000000E+00
  0.00000000E+00  0.00000000E+00  0.00000000E+00
  0.00000000E+00  0.00000000E+00  0.00000000E+00
  0.00000000E+00  0.00000000E+00  0.00000000E+00
  0.00000000E+00  0.00000000E+00  0.00000000E+00
  0.00000000E+00  0.00000000E+00  0.00000000E+00
  0.00000000E+00  0.00000000E+00  0.00000000E+00
  0.00000000E+00  0.00000000E+00  0.00000000E+00
  0.00000000E+00  0.00000000E+00  0.00000000E+00
  0.00000000E+00  0.00000000E+00  0.00000000E+00
  0.00000000E+00  0.00000000E+00  0.00000000E+00
  0.00000000E+00  0.00000000E+00  0.00000000E+00
  0.00000000E+00  0.00000000E+00  0.00000000E+00
  0.00000000E+00  0.00000000E+00  0.00000000E+00
  0.00000000E+00  0.00000000E+00  0.00000000E+00
  0.00000000E+00  0.00000000E+00  0.00000000E+00
  0.00000000E+00  0.00000000E+00  0.00000000E+00
  0.00000000E+00  0.00000000E+00  0.00000000E+00
  0.00000000E+00  0.00000000E+00  0.00000000E+00
  0.00000000E+00  0.00000000E+00  0.00000000E+00
  0.00000000E+00  0.00000000E+00  0.00000000E+00
  0.00000000E+00  0.00000000E+00  0.00000000E+00
  0.00000000E+00  0.00000000E+00  0.00000000E+00
  0.00000000E+00  0.00000000E+00  0.00000000E+00
  0.00000000E+00  0.00000000E+00  0.00000000E+00
  0.00000000E+00  0.00000000E+00  0.00000000E+00
  0.00000000E+00  0.00000000E+00  0.00000000E+00
  0.00000000E+00  0.00000000E+00  0.00000000E+00
  0.00000000E+00  0.00000000E+00  0.00000000E+00
  0.00000000E+00  0.00000000E+00  0.00000000E+00
  0.00000000E+00  0.00000000E+00  0.00000000E+00
  0.00000000E+00  0.00000000E+00  0.00000000E+00
  0.00000000E+00  0.00000000E+00  0.00000000E+00
  0.00000000E+00  0.00000000E+00  0.00000000E+00
  0.00000000E+00  0.00000000E+00  0.00000000E+00
  0.00000000E+00  0.00000000E+00  0.00000000E+00
  0.00000000E+00  0.00000000E+00  0.00000000E+00
  0.00000000E+00  0.00000000E+00  0.00000000E+00
  0.00000000E+00  0.00000000E+00  0.00000000E+00
  0.00000000E+00  0.00000000E+00  0.00000000E+00
  0.00000000E+00  0.00000000E+00  0.00000000E+00
  0.00000000E+00  0.00000000E+00  0.00000000E+00
  0.00000000E+00  0.00000000E+00  0.00000000E+00
  0.00000000E+00  0.00000000E+00  0.00000000E+00
  0.00000000E+00  0.00000000E+00  0.00000000E+00
  0.00000000E+00  0.00000000E+00  0.00000000E+00
  0.00000000E+00  0.00000000E+00  0.00000000E+00
  0.00000000E+00  0.00000000E+00  0.00000000E+00
  0.00000000E+00  0.00000000E+00  0.00000000E+00
  0.00000000E+00  0.00000000E+00  0.00000000E+00
  0.00000000E+00  0.00000000E+00  0.00000000E+00
