Co F Mg O                               
   1.00000000000000     
     8.4141216974800006    0.0000000000000000    0.0000000000000000
     0.0000000000000000    8.4141216974800006    0.0000000000000000
     0.0000000000000000    0.0000000000000000   23.4141216974799988
   Co   F    Mg   O 
     1     1    32    32
Selective dynamics
Direct
  0.4806382683917942  0.7499998486940029  0.3627331419891499   T   T   T
  0.2633041817702362  0.2499999495650016  0.3735552107368484   T   T   T
  0.2479651414929236  0.0000021689028976  0.0041588441792509   T   T   T
  0.2479651414929236  0.4999978310971027  0.0041588441792509   T   T   T
  0.7481119670748767  0.0002638652402384  0.0042620397812280   T   T   T
  0.7481119670748767  0.4997361347597615  0.0042620397812280   T   T   T
 -0.0022454566929427  0.2500000000000000  0.0043914991350492   T   T   T
 -0.0018430309845323  0.7500000000000000  0.0040335900069187   T   T   T
  0.4982282032131900  0.2500000000000000  0.0040473163091108   T   T   T
  0.4980904996446818  0.7500000000000000  0.0036193326427690   T   T   T
 -0.0016096256001924  0.0008013127895905  0.0940539715693069   T   T   T
 -0.0016096256001924  0.4991986872104095  0.0940539715693069   T   T   T
  0.4977804015177684  0.0009179167583201  0.0933903880676714   T   T   T
  0.4977804015177684  0.4990820832416799  0.0933903880676714   T   T   T
  0.2476955836331021  0.2500000000000000  0.0937171659020413   T   T   T
  0.2474523261679862  0.7500000000000000  0.0934809826601358   T   T   T
  0.7486021421081094  0.2500000000000000  0.0943352922511278   T   T   T
  0.7486954256929224  0.7500000000000000  0.0932031474302613   T   T   T
  0.2481236068434851  0.0042700058099973  0.1855807511632231   T   T   T
  0.2481236068434851  0.4957299941900027  0.1855807511632231   T   T   T
  0.7481307778970490  0.0008516254597209  0.1848227281283236   T   T   T
  0.7481307778970490  0.4991483745402790  0.1848227281283236   T   T   T
  0.0024439200982683  0.2500000000000000  0.1855186699761865   T   T   T
 -0.0015341451077126  0.7500000000000000  0.1838903728511861   T   T   T
  0.4944777973406598  0.2500000000000000  0.1848982688038464   T   T   T
  0.4974277506822790  0.7500000000000000  0.1799608359471802   T   T   T
 -0.0000572412927682  0.0034335831201807  0.2745993374881752   T   T   T
 -0.0000572412927682  0.4965664168798193  0.2745993374881752   T   T   T
  0.4961707697501266  0.0135653182545362  0.2745448370316747   T   T   T
  0.4961707697501266  0.4864346817454640  0.2745448370316747   T   T   T
  0.2460574266336309  0.2499999495650016  0.2945990353422813   T   T   T
  0.2359256856663413  0.7500000000000000  0.2730523263501323   T   T   T
  0.7499107420702390  0.2499999495650016  0.2740876192233996   T   T   T
  0.7588607490379752  0.7500000000000000  0.2740697342562962   T   T   T
 -0.0021055177072065 -0.0001058580109242  0.0021877325316036   T   T   T
 -0.0021055177072065  0.5001058580109243  0.0021877325316036   T   T   T
  0.4981796350068410  0.0001377079225873  0.0018018029162665   T   T   T
  0.4981796350068410  0.4998622920774128  0.0018018029162665   T   T   T
  0.2480429597134494  0.2500000000000000  0.0020642493486263   T   T   T
  0.2478596836554757  0.7500000000000000  0.0016659572407417   T   T   T
  0.7479837072671958  0.2500000000000000  0.0021814255673456   T   T   T
  0.7483444841663043  0.7500000000000000  0.0017926255368788   T   T   T
  0.2485686004247760 -0.0010724843834935  0.0939037015095278   T   T   T
  0.2485686004247760  0.5010724843834933  0.0939037015095278   T   T   T
  0.7475457817827563 -0.0007489742298658  0.0942619312380888   T   T   T
  0.7475457817827563  0.5007489742298658  0.0942619312380888   T   T   T
 -0.0024398666852931  0.2500000000000000  0.0938934988744576   T   T   T
 -0.0021827911197015  0.7500000000000000  0.0942566732198796   T   T   T
  0.4988589721153394  0.2500000000000000  0.0941824913178298   T   T   T
  0.4983816598418863  0.7500000000000000  0.0930208660204780   T   T   T
 -0.0022264652583397 -0.0012895323333777  0.1843689498305012   T   T   T
 -0.0022264652583397  0.5012895323333778  0.1843689498305012   T   T   T
  0.4985351232528399 -0.0042971310674122  0.1851320086313780   T   T   T
  0.4985351232528399  0.5042971310674124  0.1851320086313780   T   T   T
  0.2489944226667667  0.2500000000000000  0.1820159481566438   T   T   T
  0.2513571659059102  0.7500000000000000  0.1845218209676456   T   T   T
  0.7479072520235677  0.2500000000000000  0.1840555803949561   T   T   T
  0.7444228949537025  0.7500000000000000  0.1851109774149909   T   T   T
  0.2497627998318176  0.9940160680710067  0.2752762328082035   T   T   T
  0.2497627998318176  0.5059839319289933  0.2752762328082035   T   T   T
  0.7465621547387143 -0.0025986315147998  0.2762633769307761   T   T   T
  0.7465621547387143  0.5025986315147998  0.2762633769307761   T   T   T
  0.9952183205270200  0.2500000000000000  0.2755037449452443   T   T   T
  0.9971666201726622  0.7500000000000000  0.2756993662291946   T   T   T
  0.5030606534084573  0.2500000000000000  0.2740731459336409   T   T   T
  0.5013069223411032  0.7499998486940029  0.2878097399981033   T   T   T
 
  0.00000000E+00  0.00000000E+00  0.00000000E+00
  0.00000000E+00  0.00000000E+00  0.00000000E+00
  0.00000000E+00  0.00000000E+00  0.00000000E+00
  0.00000000E+00  0.00000000E+00  0.00000000E+00
  0.00000000E+00  0.00000000E+00  0.00000000E+00
  0.00000000E+00  0.00000000E+00  0.00000000E+00
  0.00000000E+00  0.00000000E+00  0.00000000E+00
  0.00000000E+00  0.00000000E+00  0.00000000E+00
  0.00000000E+00  0.00000000E+00  0.00000000E+00
  0.00000000E+00  0.00000000E+00  0.00000000E+00
  0.00000000E+00  0.00000000E+00  0.00000000E+00
  0.00000000E+00  0.00000000E+00  0.00000000E+00
  0.00000000E+00  0.00000000E+00  0.00000000E+00
  0.00000000E+00  0.00000000E+00  0.00000000E+00
  0.00000000E+00  0.00000000E+00  0.00000000E+00
  0.00000000E+00  0.00000000E+00  0.00000000E+00
  0.00000000E+00  0.00000000E+00  0.00000000E+00
  0.00000000E+00  0.00000000E+00  0.00000000E+00
  0.00000000E+00  0.00000000E+00  0.00000000E+00
  0.00000000E+00  0.00000000E+00  0.00000000E+00
  0.00000000E+00  0.00000000E+00  0.00000000E+00
  0.00000000E+00  0.00000000E+00  0.00000000E+00
  0.00000000E+00  0.00000000E+00  0.00000000E+00
  0.00000000E+00  0.00000000E+00  0.00000000E+00
  0.00000000E+00  0.00000000E+00  0.00000000E+00
  0.00000000E+00  0.00000000E+00  0.00000000E+00
  0.00000000E+00  0.00000000E+00  0.00000000E+00
  0.00000000E+00  0.00000000E+00  0.00000000E+00
  0.00000000E+00  0.00000000E+00  0.00000000E+00
  0.00000000E+00  0.00000000E+00  0.00000000E+00
  0.00000000E+00  0.00000000E+00  0.00000000E+00
  0.00000000E+00  0.00000000E+00  0.00000000E+00
  0.00000000E+00  0.00000000E+00  0.00000000E+00
  0.00000000E+00  0.00000000E+00  0.00000000E+00
  0.00000000E+00  0.00000000E+00  0.00000000E+00
  0.00000000E+00  0.00000000E+00  0.00000000E+00
  0.00000000E+00  0.00000000E+00  0.00000000E+00
  0.00000000E+00  0.00000000E+00  0.00000000E+00
  0.00000000E+00  0.00000000E+00  0.00000000E+00
  0.00000000E+00  0.00000000E+00  0.00000000E+00
  0.00000000E+00  0.00000000E+00  0.00000000E+00
  0.00000000E+00  0.00000000E+00  0.00000000E+00
  0.00000000E+00  0.00000000E+00  0.00000000E+00
  0.00000000E+00  0.00000000E+00  0.00000000E+00
  0.00000000E+00  0.00000000E+00  0.00000000E+00
  0.00000000E+00  0.00000000E+00  0.00000000E+00
  0.00000000E+00  0.00000000E+00  0.00000000E+00
  0.00000000E+00  0.00000000E+00  0.00000000E+00
  0.00000000E+00  0.00000000E+00  0.00000000E+00
  0.00000000E+00  0.00000000E+00  0.00000000E+00
  0.00000000E+00  0.00000000E+00  0.00000000E+00
  0.00000000E+00  0.00000000E+00  0.00000000E+00
  0.00000000E+00  0.00000000E+00  0.00000000E+00
  0.00000000E+00  0.00000000E+00  0.00000000E+00
  0.00000000E+00  0.00000000E+00  0.00000000E+00
  0.00000000E+00  0.00000000E+00  0.00000000E+00
  0.00000000E+00  0.00000000E+00  0.00000000E+00
  0.00000000E+00  0.00000000E+00  0.00000000E+00
  0.00000000E+00  0.00000000E+00  0.00000000E+00
  0.00000000E+00  0.00000000E+00  0.00000000E+00
  0.00000000E+00  0.00000000E+00  0.00000000E+00
  0.00000000E+00  0.00000000E+00  0.00000000E+00
  0.00000000E+00  0.00000000E+00  0.00000000E+00
  0.00000000E+00  0.00000000E+00  0.00000000E+00
  0.00000000E+00  0.00000000E+00  0.00000000E+00
  0.00000000E+00  0.00000000E+00  0.00000000E+00
