Cd F Mg O                               
   1.00000000000000     
     8.4141216974800006    0.0000000000000000    0.0000000000000000
     0.0000000000000000    8.4141216974800006    0.0000000000000000
     0.0000000000000000    0.0000000000000000   23.4141216974799988
   Cd   F    Mg   O 
     1     1    32    32
Selective dynamics
Direct
  0.4750604947208351  0.7499998486940029  0.3810080697614738   T   T   T
  0.2628023054958356  0.2499999495650016  0.3734697673998305   T   T   T
  0.2481167278739471 -0.0000406939716532  0.0044181198477288   T   T   T
  0.2481167278739471  0.5000406939716532  0.0044181198477288   T   T   T
  0.7483096207463195  0.0001488970981577  0.0044172658385824   T   T   T
  0.7483096207463195  0.4998511029018423  0.0044172658385824   T   T   T
  0.9980779752353192  0.2500000000000000  0.0046584555374911   T   T   T
  0.9981859533613094  0.7500000000000000  0.0043808922598907   T   T   T
  0.4983356750422507  0.2500000000000000  0.0043827710351655   T   T   T
  0.4980806016557526  0.7500000000000000  0.0039864179269602   T   T   T
  0.9985130314007853  0.0008249703774298  0.0940543626876636   T   T   T
  0.9985130314007853  0.4991750296225702  0.0940543626876636   T   T   T
  0.4978226734418695  0.0008250387614518  0.0934922734622335   T   T   T
  0.4978226734418695  0.4991749612385482  0.0934922734622335   T   T   T
  0.2476741533020664  0.2500000000000000  0.0938555922585486   T   T   T
  0.2474484163671338  0.7500000000000000  0.0936552399112364   T   T   T
  0.7488109968792771  0.2500000000000000  0.0942007067115825   T   T   T
  0.7486419877739020  0.7500000000000000  0.0933819397501860   T   T   T
  0.2478151458831883  0.0044540210885085  0.1853161859364169   T   T   T
  0.2478151458831883  0.4955459789114915  0.1853161859364169   T   T   T
  0.7487268204002039  0.0011547421669416  0.1845139958180840   T   T   T
  0.7487268204002039  0.4988452578330583  0.1845139958180840   T   T   T
  0.0024713200694300  0.2500000000000000  0.1857249021486149   T   T   T
  0.9984433191270435  0.7500000000000000  0.1838659991290773   T   T   T
  0.4947585383212019  0.2500000000000000  0.1845608365461150   T   T   T
  0.4974334181858188  0.7500000000000000  0.1803746684715543   T   T   T
 -0.0000126579148170  0.0030915545377218  0.2746472323907561   T   T   T
 -0.0000126579148170  0.4969084454622783  0.2746472323907561   T   T   T
  0.4966810517266717  0.0104376479952532  0.2731277533289112   T   T   T
  0.4966810517266717  0.4895623520047468  0.2731277533289112   T   T   T
  0.2479832718731407  0.2499999495650016  0.2942537463798086   T   T   T
  0.2391526494619816  0.7500000000000000  0.2718836426703612   T   T   T
  0.7495881400586705  0.2499999495650016  0.2739898288110033   T   T   T
  0.7556837045251709  0.7500000000000000  0.2730157616047916   T   T   T
  0.9981024969551519  0.9998775287942663  0.0023460974938266   T   T   T
  0.9981024969551519  0.5001224712057337  0.0023460974938266   T   T   T
  0.4982801864090773  0.0001366271782902  0.0021732985287866   T   T   T
  0.4982801864090773  0.4998633728217098  0.0021732985287866   T   T   T
  0.2482412690089381  0.2500000000000000  0.0022583604410168   T   T   T
  0.2479256294258507  0.7500000000000000  0.0021185600145971   T   T   T
  0.7481762400722225  0.2500000000000000  0.0022797330905287   T   T   T
  0.7483670422030062  0.7500000000000000  0.0021768015924389   T   T   T
  0.2484654954449670  0.9990882831768525  0.0940124111479131   T   T   T
  0.2484654954449670  0.5009117168231475  0.0940124111479131   T   T   T
  0.7478704066321041  0.9993997331312603  0.0942359710696139   T   T   T
  0.7478704066321041  0.5006002668687397  0.0942359710696139   T   T   T
  0.9976879206392614  0.2500000000000000  0.0940600836354423   T   T   T
  0.9977443950890931  0.7500000000000000  0.0944091976449225   T   T   T
  0.4988857431710456  0.2500000000000000  0.0941969859991993   T   T   T
  0.4983622035553673  0.7500000000000000  0.0931535034236990   T   T   T
  0.9979116204055494  0.9989373725164969  0.1842854022419967   T   T   T
  0.9979116204055494  0.5010626274835031  0.1842854022419967   T   T   T
  0.4986106055392039  0.9960739331627583  0.1845442853481918   T   T   T
  0.4986106055392039  0.5039260668372417  0.1845442853481918   T   T   T
  0.2489012800065875  0.2500000000000000  0.1820592116725545   T   T   T
  0.2511119518091035  0.7500000000000000  0.1840551666202208   T   T   T
  0.7481681017830453  0.2500000000000000  0.1838528257105723   T   T   T
  0.7447018875661905  0.7500000000000000  0.1846064954402825   T   T   T
  0.2497482579653498  0.9941904990637903  0.2753220082410139   T   T   T
  0.2497482579653498  0.5058095009362097  0.2753220082410139   T   T   T
  0.7468842300353912  0.9977180076300026  0.2760953285060788   T   T   T
  0.7468842300353912  0.5022819923699974  0.2760953285060788   T   T   T
  0.9953248467718335  0.2500000000000000  0.2755867949985548   T   T   T
  0.9972403650509845  0.7500000000000000  0.2753474573400653   T   T   T
  0.5026634083172525  0.2500000000000000  0.2737192575497472   T   T   T
  0.4995203180151874  0.7499998486940029  0.2865380437468599   T   T   T
 
  0.00000000E+00  0.00000000E+00  0.00000000E+00
  0.00000000E+00  0.00000000E+00  0.00000000E+00
  0.00000000E+00  0.00000000E+00  0.00000000E+00
  0.00000000E+00  0.00000000E+00  0.00000000E+00
  0.00000000E+00  0.00000000E+00  0.00000000E+00
  0.00000000E+00  0.00000000E+00  0.00000000E+00
  0.00000000E+00  0.00000000E+00  0.00000000E+00
  0.00000000E+00  0.00000000E+00  0.00000000E+00
  0.00000000E+00  0.00000000E+00  0.00000000E+00
  0.00000000E+00  0.00000000E+00  0.00000000E+00
  0.00000000E+00  0.00000000E+00  0.00000000E+00
  0.00000000E+00  0.00000000E+00  0.00000000E+00
  0.00000000E+00  0.00000000E+00  0.00000000E+00
  0.00000000E+00  0.00000000E+00  0.00000000E+00
  0.00000000E+00  0.00000000E+00  0.00000000E+00
  0.00000000E+00  0.00000000E+00  0.00000000E+00
  0.00000000E+00  0.00000000E+00  0.00000000E+00
  0.00000000E+00  0.00000000E+00  0.00000000E+00
  0.00000000E+00  0.00000000E+00  0.00000000E+00
  0.00000000E+00  0.00000000E+00  0.00000000E+00
  0.00000000E+00  0.00000000E+00  0.00000000E+00
  0.00000000E+00  0.00000000E+00  0.00000000E+00
  0.00000000E+00  0.00000000E+00  0.00000000E+00
  0.00000000E+00  0.00000000E+00  0.00000000E+00
  0.00000000E+00  0.00000000E+00  0.00000000E+00
  0.00000000E+00  0.00000000E+00  0.00000000E+00
  0.00000000E+00  0.00000000E+00  0.00000000E+00
  0.00000000E+00  0.00000000E+00  0.00000000E+00
  0.00000000E+00  0.00000000E+00  0.00000000E+00
  0.00000000E+00  0.00000000E+00  0.00000000E+00
  0.00000000E+00  0.00000000E+00  0.00000000E+00
  0.00000000E+00  0.00000000E+00  0.00000000E+00
  0.00000000E+00  0.00000000E+00  0.00000000E+00
  0.00000000E+00  0.00000000E+00  0.00000000E+00
  0.00000000E+00  0.00000000E+00  0.00000000E+00
  0.00000000E+00  0.00000000E+00  0.00000000E+00
  0.00000000E+00  0.00000000E+00  0.00000000E+00
  0.00000000E+00  0.00000000E+00  0.00000000E+00
  0.00000000E+00  0.00000000E+00  0.00000000E+00
  0.00000000E+00  0.00000000E+00  0.00000000E+00
  0.00000000E+00  0.00000000E+00  0.00000000E+00
  0.00000000E+00  0.00000000E+00  0.00000000E+00
  0.00000000E+00  0.00000000E+00  0.00000000E+00
  0.00000000E+00  0.00000000E+00  0.00000000E+00
  0.00000000E+00  0.00000000E+00  0.00000000E+00
  0.00000000E+00  0.00000000E+00  0.00000000E+00
  0.00000000E+00  0.00000000E+00  0.00000000E+00
  0.00000000E+00  0.00000000E+00  0.00000000E+00
  0.00000000E+00  0.00000000E+00  0.00000000E+00
  0.00000000E+00  0.00000000E+00  0.00000000E+00
  0.00000000E+00  0.00000000E+00  0.00000000E+00
  0.00000000E+00  0.00000000E+00  0.00000000E+00
  0.00000000E+00  0.00000000E+00  0.00000000E+00
  0.00000000E+00  0.00000000E+00  0.00000000E+00
  0.00000000E+00  0.00000000E+00  0.00000000E+00
  0.00000000E+00  0.00000000E+00  0.00000000E+00
  0.00000000E+00  0.00000000E+00  0.00000000E+00
  0.00000000E+00  0.00000000E+00  0.00000000E+00
  0.00000000E+00  0.00000000E+00  0.00000000E+00
  0.00000000E+00  0.00000000E+00  0.00000000E+00
  0.00000000E+00  0.00000000E+00  0.00000000E+00
  0.00000000E+00  0.00000000E+00  0.00000000E+00
  0.00000000E+00  0.00000000E+00  0.00000000E+00
  0.00000000E+00  0.00000000E+00  0.00000000E+00
  0.00000000E+00  0.00000000E+00  0.00000000E+00
  0.00000000E+00  0.00000000E+00  0.00000000E+00
