F Mg O V                                
   1.00000000000000     
     8.4141216974800006    0.0000000000000000    0.0000000000000000
     0.0000000000000000    8.4141216974800006    0.0000000000000000
     0.0000000000000000    0.0000000000000000   23.4141216974799988
   F    Mg   O    V 
     1    32    32     1
Selective dynamics
Direct
  0.2639484520920602  0.2499999495650016  0.3737269548596089   T   T   T
  0.2480151789720525  0.0000085620163468  0.0040727698282478   T   T   T
  0.2480151789720525  0.4999914379836533  0.0040727698282478   T   T   T
  0.7483452036745122  0.0002598822995738  0.0041579345272167   T   T   T
  0.7483452036745122  0.4997401177004262  0.0041579345272167   T   T   T
 -0.0021158210316281  0.2500000000000000  0.0043306118542448   T   T   T
 -0.0017818336952348  0.7500000000000000  0.0039616813876016   T   T   T
  0.4983670379038881  0.2500000000000000  0.0039717160310597   T   T   T
  0.4981894051726671  0.7500000000000000  0.0034856173091549   T   T   T
 -0.0015138296115916  0.0008040326824169  0.0939416368151145   T   T   T
 -0.0015138296115916  0.4991959673175831  0.0939416368151145   T   T   T
  0.4978476620277058  0.0009352052796748  0.0932119007515110   T   T   T
  0.4978476620277058  0.4990647947203251  0.0932119007515110   T   T   T
  0.2476760072727781  0.2500000000000000  0.0935969637157164   T   T   T
  0.2473798989131794  0.7500000000000000  0.0933811293429264   T   T   T
  0.7487851827448927  0.2500000000000000  0.0941958136829746   T   T   T
  0.7487779875336168  0.7500000000000000  0.0931075045002870   T   T   T
  0.2480676063640246  0.0042531557682596  0.1854702511335609   T   T   T
  0.2480676063640246  0.4957468442317404  0.1854702511335609   T   T   T
  0.7483234239849857  0.0007542064216951  0.1847165029916046   T   T   T
  0.7483234239849857  0.4992457935783051  0.1847165029916046   T   T   T
  0.0025510923887056  0.2500000000000000  0.1854878278392046   T   T   T
 -0.0017462084301218  0.7500000000000000  0.1839230991446926   T   T   T
  0.4945406129064309  0.2500000000000000  0.1846559828130253   T   T   T
  0.4974266983861246  0.7500000000000000  0.1796616983942100   T   T   T
 -0.0001910365456803  0.0031972710482627  0.2746022008152216   T   T   T
 -0.0001910365456803  0.4968027289517374  0.2746022008152216   T   T   T
  0.4964400795373242  0.0138133698352431  0.2739256974545878   T   T   T
  0.4964400795373242  0.4861866301647569  0.2739256974545878   T   T   T
  0.2461657904920356  0.2499999495650016  0.2947765824930003   T   T   T
  0.2363217007949089  0.7500000000000000  0.2728745981741756   T   T   T
  0.7501192584011805  0.2499999495650016  0.2739831418765046   T   T   T
  0.7575098092632764  0.7500000000000000  0.2742230538646344   T   T   T
 -0.0019700349050129 -0.0001025707660456  0.0020964140584085   T   T   T
 -0.0019700349050129  0.5001025707660456  0.0020964140584085   T   T   T
  0.4983157143212694  0.0001692923293539  0.0017148442724470   T   T   T
  0.4983157143212694  0.4998307076706459  0.0017148442724470   T   T   T
  0.2481843481726199  0.2500000000000000  0.0019721426026111   T   T   T
  0.2479191530449000  0.7500000000000000  0.0015851628451847   T   T   T
  0.7481268233006998  0.2500000000000000  0.0020707980650154   T   T   T
  0.7484492192203911  0.7500000000000000  0.0017009763789559   T   T   T
  0.2486782827507278 -0.0011029760473577  0.0938204664059448   T   T   T
  0.2486782827507278  0.5011029760473577  0.0938204664059448   T   T   T
  0.7476273768018611 -0.0007624684274739  0.0941647585888215   T   T   T
  0.7476273768018611  0.5007624684274740  0.0941647585888215   T   T   T
 -0.0023569537569027  0.2500000000000000  0.0938228371076819   T   T   T
 -0.0021910406716206  0.7500000000000000  0.0942146578105318   T   T   T
  0.4989406352033228  0.2500000000000000  0.0940651722526575   T   T   T
  0.4983896002130687  0.7500000000000000  0.0928214087134545   T   T   T
 -0.0020910381800656 -0.0012598509910089  0.1842873039510102   T   T   T
 -0.0020910381800656  0.5012598509910086  0.1842873039510102   T   T   T
  0.4985417647783542 -0.0045966859782553  0.1849781484061923   T   T   T
  0.4985417647783542  0.5045966859782555  0.1849781484061923   T   T   T
  0.2491252413078955  0.2500000000000000  0.1818885444282042   T   T   T
  0.2515788976615280  0.7500000000000000  0.1844342108294224   T   T   T
  0.7479634199401397  0.2500000000000000  0.1839291599359063   T   T   T
  0.7440361880355855  0.7500000000000000  0.1850405718882608   T   T   T
  0.2502297815938260  0.9940688639851911  0.2753078113059487   T   T   T
  0.2502297815938260  0.5059311360148089  0.2753078113059487   T   T   T
  0.7464041284084095 -0.0023574884427885  0.2760699855115195   T   T   T
  0.7464041284084095  0.5023574884427884  0.2760699855115195   T   T   T
  0.9955187425855933  0.2500000000000000  0.2754520816071845   T   T   T
  0.9968659676329482  0.7500000000000000  0.2754523178629000   T   T   T
  0.5030059377483878  0.2500000000000000  0.2738521278088575   T   T   T
  0.5005128307496564  0.7499998486940029  0.2915234643285354   T   T   T
  0.4770223403886336  0.7499998486940029  0.3702829820138707   T   T   T
 
  0.00000000E+00  0.00000000E+00  0.00000000E+00
  0.00000000E+00  0.00000000E+00  0.00000000E+00
  0.00000000E+00  0.00000000E+00  0.00000000E+00
  0.00000000E+00  0.00000000E+00  0.00000000E+00
  0.00000000E+00  0.00000000E+00  0.00000000E+00
  0.00000000E+00  0.00000000E+00  0.00000000E+00
  0.00000000E+00  0.00000000E+00  0.00000000E+00
  0.00000000E+00  0.00000000E+00  0.00000000E+00
  0.00000000E+00  0.00000000E+00  0.00000000E+00
  0.00000000E+00  0.00000000E+00  0.00000000E+00
  0.00000000E+00  0.00000000E+00  0.00000000E+00
  0.00000000E+00  0.00000000E+00  0.00000000E+00
  0.00000000E+00  0.00000000E+00  0.00000000E+00
  0.00000000E+00  0.00000000E+00  0.00000000E+00
  0.00000000E+00  0.00000000E+00  0.00000000E+00
  0.00000000E+00  0.00000000E+00  0.00000000E+00
  0.00000000E+00  0.00000000E+00  0.00000000E+00
  0.00000000E+00  0.00000000E+00  0.00000000E+00
  0.00000000E+00  0.00000000E+00  0.00000000E+00
  0.00000000E+00  0.00000000E+00  0.00000000E+00
  0.00000000E+00  0.00000000E+00  0.00000000E+00
  0.00000000E+00  0.00000000E+00  0.00000000E+00
  0.00000000E+00  0.00000000E+00  0.00000000E+00
  0.00000000E+00  0.00000000E+00  0.00000000E+00
  0.00000000E+00  0.00000000E+00  0.00000000E+00
  0.00000000E+00  0.00000000E+00  0.00000000E+00
  0.00000000E+00  0.00000000E+00  0.00000000E+00
  0.00000000E+00  0.00000000E+00  0.00000000E+00
  0.00000000E+00  0.00000000E+00  0.00000000E+00
  0.00000000E+00  0.00000000E+00  0.00000000E+00
  0.00000000E+00  0.00000000E+00  0.00000000E+00
  0.00000000E+00  0.00000000E+00  0.00000000E+00
  0.00000000E+00  0.00000000E+00  0.00000000E+00
  0.00000000E+00  0.00000000E+00  0.00000000E+00
  0.00000000E+00  0.00000000E+00  0.00000000E+00
  0.00000000E+00  0.00000000E+00  0.00000000E+00
  0.00000000E+00  0.00000000E+00  0.00000000E+00
  0.00000000E+00  0.00000000E+00  0.00000000E+00
  0.00000000E+00  0.00000000E+00  0.00000000E+00
  0.00000000E+00  0.00000000E+00  0.00000000E+00
  0.00000000E+00  0.00000000E+00  0.00000000E+00
  0.00000000E+00  0.00000000E+00  0.00000000E+00
  0.00000000E+00  0.00000000E+00  0.00000000E+00
  0.00000000E+00  0.00000000E+00  0.00000000E+00
  0.00000000E+00  0.00000000E+00  0.00000000E+00
  0.00000000E+00  0.00000000E+00  0.00000000E+00
  0.00000000E+00  0.00000000E+00  0.00000000E+00
  0.00000000E+00  0.00000000E+00  0.00000000E+00
  0.00000000E+00  0.00000000E+00  0.00000000E+00
  0.00000000E+00  0.00000000E+00  0.00000000E+00
  0.00000000E+00  0.00000000E+00  0.00000000E+00
  0.00000000E+00  0.00000000E+00  0.00000000E+00
  0.00000000E+00  0.00000000E+00  0.00000000E+00
  0.00000000E+00  0.00000000E+00  0.00000000E+00
  0.00000000E+00  0.00000000E+00  0.00000000E+00
  0.00000000E+00  0.00000000E+00  0.00000000E+00
  0.00000000E+00  0.00000000E+00  0.00000000E+00
  0.00000000E+00  0.00000000E+00  0.00000000E+00
  0.00000000E+00  0.00000000E+00  0.00000000E+00
  0.00000000E+00  0.00000000E+00  0.00000000E+00
  0.00000000E+00  0.00000000E+00  0.00000000E+00
  0.00000000E+00  0.00000000E+00  0.00000000E+00
  0.00000000E+00  0.00000000E+00  0.00000000E+00
  0.00000000E+00  0.00000000E+00  0.00000000E+00
  0.00000000E+00  0.00000000E+00  0.00000000E+00
  0.00000000E+00  0.00000000E+00  0.00000000E+00
