Cr F Mg O                               
   1.00000000000000     
     8.4141216974800006    0.0000000000000000    0.0000000000000000
     0.0000000000000000    8.4141216974800006    0.0000000000000000
     0.0000000000000000    0.0000000000000000   23.4141216974799988
   Cr   F    Mg   O 
     1     1    32    32
Selective dynamics
Direct
  0.4815205522827110  0.7499998486940029  0.3703982572829622   T   T   T
  0.2605919421517091  0.2499999495650016  0.3735902000890008   T   T   T
  0.2478636714475670  0.0001769113517829  0.0044415485976007   T   T   T
  0.2478636714475670  0.4998230886482171  0.0044415485976007   T   T   T
  0.7484306354422319  0.0003586589328982  0.0045007242376194   T   T   T
  0.7484306354422319  0.4996413410671017  0.0045007242376194   T   T   T
  0.9979642070505649  0.2500000000000000  0.0046932110247146   T   T   T
  0.9980805504699266  0.7500000000000000  0.0043590451847745   T   T   T
  0.4982775547980077  0.2500000000000000  0.0043767302350415   T   T   T
  0.4980598418960977  0.7500000000000000  0.0039446363729840   T   T   T
  0.9984342071841352  0.0006402458066201  0.0941815972454418   T   T   T
  0.9984342071841352  0.4993597541933799  0.0941815972454418   T   T   T
  0.4978285290384060  0.0007173212488974  0.0935742530018962   T   T   T
  0.4978285290384060  0.4992826787511026  0.0935742530018962   T   T   T
  0.2478581785750090  0.2500000000000000  0.0939826638107913   T   T   T
  0.2475648030718166  0.7500000000000000  0.0936973400245363   T   T   T
  0.7485686422835847  0.2500000000000000  0.0943972464251706   T   T   T
  0.7484448901363525  0.7500000000000000  0.0934981098405557   T   T   T
  0.2478212561753192  0.0045631323558110  0.1855013462905783   T   T   T
  0.2478212561753192  0.4954368676441890  0.1855013462905783   T   T   T
  0.7486572791446836  0.0011605216621245  0.1847275370816027   T   T   T
  0.7486572791446836  0.4988394783378755  0.1847275370816027   T   T   T
  0.0024592677287114  0.2500000000000000  0.1857351729080150   T   T   T
  0.9981290417580790  0.7500000000000000  0.1838742864055443   T   T   T
  0.4947351462549311  0.2500000000000000  0.1847044697437006   T   T   T
  0.4974872554797276  0.7500000000000000  0.1806043303138119   T   T   T
 -0.0000732564228772  0.0031811729029661  0.2748561399821151   T   T   T
 -0.0000732564228772  0.4968188270970339  0.2748561399821151   T   T   T
  0.4964723267973347  0.0121097482097162  0.2733623249784427   T   T   T
  0.4964723267973347  0.4878902517902838  0.2733623249784427   T   T   T
  0.2469497820786575  0.2499999495650016  0.2943437812163330   T   T   T
  0.2369268570750931  0.7500000000000000  0.2718605281162214   T   T   T
  0.7498393126937750  0.2499999495650016  0.2742750244336274   T   T   T
  0.7569446170897683  0.7500000000000000  0.2734032978540429   T   T   T
  0.9979920783545775  0.9999451633538992  0.0024026848364175   T   T   T
  0.9979920783545775  0.5000548366461008  0.0024026848364175   T   T   T
  0.4982756640248431  0.0001179587849484  0.0020859733480508   T   T   T
  0.4982756640248431  0.4998820412150516  0.0020859733480508   T   T   T
  0.2481185191243098  0.2500000000000000  0.0022819712521004   T   T   T
  0.2478772795742681  0.7500000000000000  0.0019593833659938   T   T   T
  0.7481440607160970  0.2500000000000000  0.0023629834562044   T   T   T
  0.7482824567512654  0.7500000000000000  0.0021200159230551   T   T   T
  0.2484983959590188  0.9990865132975879  0.0940822464192682   T   T   T
  0.2484983959590188  0.5009134867024121  0.0940822464192682   T   T   T
  0.7477817789575445  0.9993494675296816  0.0943870924330412   T   T   T
  0.7477817789575445  0.5006505324703184  0.0943870924330412   T   T   T
  0.9976719348168731  0.2500000000000000  0.0941752868759802   T   T   T
  0.9977096066891903  0.7500000000000000  0.0944652717357854   T   T   T
  0.4988288917581095  0.2500000000000000  0.0942898057198737   T   T   T
  0.4983680384761939  0.7500000000000000  0.0932955587049655   T   T   T
  0.9978760862709898  0.9988483420947113  0.1844298020305896   T   T   T
  0.9978760862709898  0.5011516579052887  0.1844298020305896   T   T   T
  0.4986282572536495  0.9958896534411118  0.1849702207932472   T   T   T
  0.4986282572536495  0.5041103465588882  0.1849702207932472   T   T   T
  0.2489718511166353  0.2500000000000000  0.1822701535928235   T   T   T
  0.2512543085382655  0.7500000000000000  0.1843305873491440   T   T   T
  0.7479924979573626  0.2500000000000000  0.1840554356735159   T   T   T
  0.7444887025000216  0.7500000000000000  0.1850446941579529   T   T   T
  0.2498235601400807  0.9937961226333394  0.2753766737124803   T   T   T
  0.2498235601400807  0.5062038773666606  0.2753766737124803   T   T   T
  0.7467931657171030  0.9976281421494341  0.2762643739325968   T   T   T
  0.7467931657171030  0.5023718578505659  0.2762643739325968   T   T   T
  0.9952121148012989  0.2500000000000000  0.2753997607190825   T   T   T
  0.9968649519340791  0.7500000000000000  0.2755051354774872   T   T   T
  0.5029114390835442  0.2500000000000000  0.2739181104769685   T   T   T
  0.5000405821497836  0.7499998486940029  0.2895701374052507   T   T   T
 
  0.00000000E+00  0.00000000E+00  0.00000000E+00
  0.00000000E+00  0.00000000E+00  0.00000000E+00
  0.00000000E+00  0.00000000E+00  0.00000000E+00
  0.00000000E+00  0.00000000E+00  0.00000000E+00
  0.00000000E+00  0.00000000E+00  0.00000000E+00
  0.00000000E+00  0.00000000E+00  0.00000000E+00
  0.00000000E+00  0.00000000E+00  0.00000000E+00
  0.00000000E+00  0.00000000E+00  0.00000000E+00
  0.00000000E+00  0.00000000E+00  0.00000000E+00
  0.00000000E+00  0.00000000E+00  0.00000000E+00
  0.00000000E+00  0.00000000E+00  0.00000000E+00
  0.00000000E+00  0.00000000E+00  0.00000000E+00
  0.00000000E+00  0.00000000E+00  0.00000000E+00
  0.00000000E+00  0.00000000E+00  0.00000000E+00
  0.00000000E+00  0.00000000E+00  0.00000000E+00
  0.00000000E+00  0.00000000E+00  0.00000000E+00
  0.00000000E+00  0.00000000E+00  0.00000000E+00
  0.00000000E+00  0.00000000E+00  0.00000000E+00
  0.00000000E+00  0.00000000E+00  0.00000000E+00
  0.00000000E+00  0.00000000E+00  0.00000000E+00
  0.00000000E+00  0.00000000E+00  0.00000000E+00
  0.00000000E+00  0.00000000E+00  0.00000000E+00
  0.00000000E+00  0.00000000E+00  0.00000000E+00
  0.00000000E+00  0.00000000E+00  0.00000000E+00
  0.00000000E+00  0.00000000E+00  0.00000000E+00
  0.00000000E+00  0.00000000E+00  0.00000000E+00
  0.00000000E+00  0.00000000E+00  0.00000000E+00
  0.00000000E+00  0.00000000E+00  0.00000000E+00
  0.00000000E+00  0.00000000E+00  0.00000000E+00
  0.00000000E+00  0.00000000E+00  0.00000000E+00
  0.00000000E+00  0.00000000E+00  0.00000000E+00
  0.00000000E+00  0.00000000E+00  0.00000000E+00
  0.00000000E+00  0.00000000E+00  0.00000000E+00
  0.00000000E+00  0.00000000E+00  0.00000000E+00
  0.00000000E+00  0.00000000E+00  0.00000000E+00
  0.00000000E+00  0.00000000E+00  0.00000000E+00
  0.00000000E+00  0.00000000E+00  0.00000000E+00
  0.00000000E+00  0.00000000E+00  0.00000000E+00
  0.00000000E+00  0.00000000E+00  0.00000000E+00
  0.00000000E+00  0.00000000E+00  0.00000000E+00
  0.00000000E+00  0.00000000E+00  0.00000000E+00
  0.00000000E+00  0.00000000E+00  0.00000000E+00
  0.00000000E+00  0.00000000E+00  0.00000000E+00
  0.00000000E+00  0.00000000E+00  0.00000000E+00
  0.00000000E+00  0.00000000E+00  0.00000000E+00
  0.00000000E+00  0.00000000E+00  0.00000000E+00
  0.00000000E+00  0.00000000E+00  0.00000000E+00
  0.00000000E+00  0.00000000E+00  0.00000000E+00
  0.00000000E+00  0.00000000E+00  0.00000000E+00
  0.00000000E+00  0.00000000E+00  0.00000000E+00
  0.00000000E+00  0.00000000E+00  0.00000000E+00
  0.00000000E+00  0.00000000E+00  0.00000000E+00
  0.00000000E+00  0.00000000E+00  0.00000000E+00
  0.00000000E+00  0.00000000E+00  0.00000000E+00
  0.00000000E+00  0.00000000E+00  0.00000000E+00
  0.00000000E+00  0.00000000E+00  0.00000000E+00
  0.00000000E+00  0.00000000E+00  0.00000000E+00
  0.00000000E+00  0.00000000E+00  0.00000000E+00
  0.00000000E+00  0.00000000E+00  0.00000000E+00
  0.00000000E+00  0.00000000E+00  0.00000000E+00
  0.00000000E+00  0.00000000E+00  0.00000000E+00
  0.00000000E+00  0.00000000E+00  0.00000000E+00
  0.00000000E+00  0.00000000E+00  0.00000000E+00
  0.00000000E+00  0.00000000E+00  0.00000000E+00
  0.00000000E+00  0.00000000E+00  0.00000000E+00
  0.00000000E+00  0.00000000E+00  0.00000000E+00
