F Mg Mn O                               
   1.00000000000000     
     8.4141216974800006    0.0000000000000000    0.0000000000000000
     0.0000000000000000    8.4141216974800006    0.0000000000000000
     0.0000000000000000    0.0000000000000000   23.4141216974799988
   F    Mg   Mn   O 
     1    32     1    32
Selective dynamics
Direct
  0.2594907408126160  0.2499999495650016  0.3728293073623437   T   T   T
  0.2479683136258806  0.0000764063159255  0.0037028282100565   T   T   T
  0.2479683136258806  0.4999235936840746  0.0037028282100565   T   T   T
  0.7482197609181511  0.0002841449911862  0.0038331271224843   T   T   T
  0.7482197609181511  0.4997158550088138  0.0038331271224843   T   T   T
 -0.0019848883032033  0.2500000000000000  0.0039802222791936   T   T   T
 -0.0017147681392310  0.7500000000000000  0.0036274157175604   T   T   T
  0.4982386387627583  0.2500000000000000  0.0036316357274423   T   T   T
  0.4980842709317414  0.7500000000000000  0.0030671177527895   T   T   T
 -0.0014721265180742  0.0007915858419358  0.0937726957923873   T   T   T
 -0.0014721265180742  0.4992084141580642  0.0937726957923873   T   T   T
  0.4978519391443940  0.0010964727025581  0.0929854693549187   T   T   T
  0.4978519391443940  0.4989035272974418  0.0929854693549187   T   T   T
  0.2480782876364339  0.2500000000000000  0.0936019251706056   T   T   T
  0.2474519393922624  0.7500000000000000  0.0929735401242475   T   T   T
  0.7486343328375512  0.2500000000000000  0.0940766562898451   T   T   T
  0.7487852209295180  0.7500000000000000  0.0927899140438177   T   T   T
  0.2478427809258667  0.0043333641902089  0.1853001498103740   T   T   T
  0.2478427809258667  0.4956666358097911  0.1853001498103740   T   T   T
  0.7484173499281590  0.0009508614888525  0.1845521639887880   T   T   T
  0.7484173499281590  0.4990491385111476  0.1845521639887880   T   T   T
  0.0023990567172810  0.2500000000000000  0.1854561761259347   T   T   T
 -0.0016429216731196  0.7500000000000000  0.1836801469275965   T   T   T
  0.4945505254327536  0.2500000000000000  0.1848407690678043   T   T   T
  0.4972938089575204  0.7500000000000000  0.1793708617755530   T   T   T
 -0.0001119587030289  0.0029989251710010  0.2748097599979122   T   T   T
 -0.0001119587030289  0.4970010748289992  0.2748097599979122   T   T   T
  0.4961257242148567  0.0114661341801756  0.2738949829638647   T   T   T
  0.4961257242148567  0.4885338658198243  0.2738949829638647   T   T   T
  0.2467066625855136  0.2499999495650016  0.2940113507732399   T   T   T
  0.2379921836043768  0.7500000000000000  0.2722507337107769   T   T   T
  0.7492850127669752  0.2499999495650016  0.2743299129846536   T   T   T
  0.7567201063754267  0.7500000000000000  0.2734641769806618   T   T   T
  0.4867680461155460  0.7499998486940029  0.3773700721379715   T   T   T
 -0.0019310336693947 -0.0001297274824351  0.0018359716870735   T   T   T
 -0.0019310336693947  0.5001297274824351  0.0018359716870735   T   T   T
  0.4980997678030625  0.0001547925917209  0.0012833433895581   T   T   T
  0.4980997678030625  0.4998452074082791  0.0012833433895581   T   T   T
  0.2482116719974125  0.2500000000000000  0.0016329786117032   T   T   T
  0.2480178249270461  0.7500000000000000  0.0011781023454425   T   T   T
  0.7479984773998113  0.2500000000000000  0.0018482556351719   T   T   T
  0.7483190354010266  0.7500000000000000  0.0014065839075912   T   T   T
  0.2486651341788222 -0.0008756132117665  0.0935532832640534   T   T   T
  0.2486651341788222  0.5008756132117667  0.0935532832640534   T   T   T
  0.7476549278661819 -0.0006897358440539  0.0939112524491189   T   T   T
  0.7476549278661819  0.5006897358440539  0.0939112524491189   T   T   T
 -0.0023215518062391  0.2500000000000000  0.0937539395428931   T   T   T
 -0.0021427682171715  0.7500000000000000  0.0938764649311059   T   T   T
  0.4989012396392707  0.2500000000000000  0.0938714603919421   T   T   T
  0.4984738005294646  0.7500000000000000  0.0925399324504112   T   T   T
 -0.0024097168888047 -0.0009659941452633  0.1841652411110805   T   T   T
 -0.0024097168888047  0.5009659941452633  0.1841652411110805   T   T   T
  0.4985520209631737 -0.0046273495861120  0.1848759632270347   T   T   T
  0.4985520209631737  0.5046273495861121  0.1848759632270347   T   T   T
  0.2486907759759580  0.2500000000000000  0.1819984836447483   T   T   T
  0.2515183067398352  0.7500000000000000  0.1838881251745534   T   T   T
  0.7481042918946135  0.2500000000000000  0.1838271660446012   T   T   T
  0.7440359237059749  0.7500000000000000  0.1846897546750014   T   T   T
  0.2500368587009226  0.9931557911677135  0.2752153873162568   T   T   T
  0.2500368587009226  0.5068442088322865  0.2752153873162568   T   T   T
  0.7459512944685832 -0.0030734173151611  0.2764622902938489   T   T   T
  0.7459512944685832  0.5030734173151613  0.2764622902938489   T   T   T
  0.9948593354944392  0.2500000000000000  0.2752459917051873   T   T   T
  0.9969534006216129  0.7500000000000000  0.2751783250580140   T   T   T
  0.5027418059643599  0.2500000000000000  0.2739252701768707   T   T   T
  0.4989270499033715  0.7499998486940029  0.2937383313860806   T   T   T
 
  0.00000000E+00  0.00000000E+00  0.00000000E+00
  0.00000000E+00  0.00000000E+00  0.00000000E+00
  0.00000000E+00  0.00000000E+00  0.00000000E+00
  0.00000000E+00  0.00000000E+00  0.00000000E+00
  0.00000000E+00  0.00000000E+00  0.00000000E+00
  0.00000000E+00  0.00000000E+00  0.00000000E+00
  0.00000000E+00  0.00000000E+00  0.00000000E+00
  0.00000000E+00  0.00000000E+00  0.00000000E+00
  0.00000000E+00  0.00000000E+00  0.00000000E+00
  0.00000000E+00  0.00000000E+00  0.00000000E+00
  0.00000000E+00  0.00000000E+00  0.00000000E+00
  0.00000000E+00  0.00000000E+00  0.00000000E+00
  0.00000000E+00  0.00000000E+00  0.00000000E+00
  0.00000000E+00  0.00000000E+00  0.00000000E+00
  0.00000000E+00  0.00000000E+00  0.00000000E+00
  0.00000000E+00  0.00000000E+00  0.00000000E+00
  0.00000000E+00  0.00000000E+00  0.00000000E+00
  0.00000000E+00  0.00000000E+00  0.00000000E+00
  0.00000000E+00  0.00000000E+00  0.00000000E+00
  0.00000000E+00  0.00000000E+00  0.00000000E+00
  0.00000000E+00  0.00000000E+00  0.00000000E+00
  0.00000000E+00  0.00000000E+00  0.00000000E+00
  0.00000000E+00  0.00000000E+00  0.00000000E+00
  0.00000000E+00  0.00000000E+00  0.00000000E+00
  0.00000000E+00  0.00000000E+00  0.00000000E+00
  0.00000000E+00  0.00000000E+00  0.00000000E+00
  0.00000000E+00  0.00000000E+00  0.00000000E+00
  0.00000000E+00  0.00000000E+00  0.00000000E+00
  0.00000000E+00  0.00000000E+00  0.00000000E+00
  0.00000000E+00  0.00000000E+00  0.00000000E+00
  0.00000000E+00  0.00000000E+00  0.00000000E+00
  0.00000000E+00  0.00000000E+00  0.00000000E+00
  0.00000000E+00  0.00000000E+00  0.00000000E+00
  0.00000000E+00  0.00000000E+00  0.00000000E+00
  0.00000000E+00  0.00000000E+00  0.00000000E+00
  0.00000000E+00  0.00000000E+00  0.00000000E+00
  0.00000000E+00  0.00000000E+00  0.00000000E+00
  0.00000000E+00  0.00000000E+00  0.00000000E+00
  0.00000000E+00  0.00000000E+00  0.00000000E+00
  0.00000000E+00  0.00000000E+00  0.00000000E+00
  0.00000000E+00  0.00000000E+00  0.00000000E+00
  0.00000000E+00  0.00000000E+00  0.00000000E+00
  0.00000000E+00  0.00000000E+00  0.00000000E+00
  0.00000000E+00  0.00000000E+00  0.00000000E+00
  0.00000000E+00  0.00000000E+00  0.00000000E+00
  0.00000000E+00  0.00000000E+00  0.00000000E+00
  0.00000000E+00  0.00000000E+00  0.00000000E+00
  0.00000000E+00  0.00000000E+00  0.00000000E+00
  0.00000000E+00  0.00000000E+00  0.00000000E+00
  0.00000000E+00  0.00000000E+00  0.00000000E+00
  0.00000000E+00  0.00000000E+00  0.00000000E+00
  0.00000000E+00  0.00000000E+00  0.00000000E+00
  0.00000000E+00  0.00000000E+00  0.00000000E+00
  0.00000000E+00  0.00000000E+00  0.00000000E+00
  0.00000000E+00  0.00000000E+00  0.00000000E+00
  0.00000000E+00  0.00000000E+00  0.00000000E+00
  0.00000000E+00  0.00000000E+00  0.00000000E+00
  0.00000000E+00  0.00000000E+00  0.00000000E+00
  0.00000000E+00  0.00000000E+00  0.00000000E+00
  0.00000000E+00  0.00000000E+00  0.00000000E+00
  0.00000000E+00  0.00000000E+00  0.00000000E+00
  0.00000000E+00  0.00000000E+00  0.00000000E+00
  0.00000000E+00  0.00000000E+00  0.00000000E+00
  0.00000000E+00  0.00000000E+00  0.00000000E+00
  0.00000000E+00  0.00000000E+00  0.00000000E+00
  0.00000000E+00  0.00000000E+00  0.00000000E+00
