F Fe Mg O                               
   1.00000000000000     
     8.4141216974800006    0.0000000000000000    0.0000000000000000
     0.0000000000000000    8.4141216974800006    0.0000000000000000
     0.0000000000000000    0.0000000000000000   23.4141216974799988
   F    Fe   Mg   O 
     1     1    32    32
Selective dynamics
Direct
  0.2573784914668190  0.2499999495650016  0.3737017328793504   T   T   T
  0.4813904761327946  0.7499998486940029  0.3626898950941885   T   T   T
  0.2480828684878876  0.0000486682331246  0.0042068055661437   T   T   T
  0.2480828684878876  0.4999513317668756  0.0042068055661437   T   T   T
  0.7483480398296964  0.0002827196977821  0.0042901361653538   T   T   T
  0.7483480398296964  0.4997172803022180  0.0042901361653538   T   T   T
 -0.0019895352651525  0.2500000000000000  0.0044014899336877   T   T   T
 -0.0015782978283875  0.7500000000000000  0.0040361487564937   T   T   T
  0.4983118733379753  0.2500000000000000  0.0040517807150204   T   T   T
  0.4982979736645311  0.7500000000000000  0.0036261673686418   T   T   T
 -0.0014244109811529  0.0007134877673043  0.0940701478837355   T   T   T
 -0.0014244109811529  0.4992865122326958  0.0940701478837355   T   T   T
  0.4979261063549264  0.0009262905420321  0.0934530404773869   T   T   T
  0.4979261063549264  0.4990737094579678  0.0934530404773869   T   T   T
  0.2480563850976838  0.2500000000000000  0.0937755239415377   T   T   T
  0.2476289469318419  0.7500000000000000  0.0934709766709704   T   T   T
  0.7486415928326471  0.2500000000000000  0.0943172334851434   T   T   T
  0.7489136732955587  0.7500000000000000  0.0932472688611263   T   T   T
  0.2481406889634352  0.0043427940011622  0.1855985216531553   T   T   T
  0.2481406889634352  0.4956572059988378  0.1855985216531553   T   T   T
  0.7482663774775729  0.0007524429172748  0.1848395651072434   T   T   T
  0.7482663774775729  0.4992475570827252  0.1848395651072434   T   T   T
  0.0025847713888726  0.2500000000000000  0.1854760455919116   T   T   T
 -0.0015522790000531  0.7500000000000000  0.1838263170850528   T   T   T
  0.4943856023463709  0.2500000000000000  0.1848995407437692   T   T   T
  0.4974522365633318  0.7500000000000000  0.1800664465030589   T   T   T
 -0.0001255078431634  0.0035539505446458  0.2747107440834772   T   T   T
 -0.0001255078431634  0.4964460494553543  0.2747107440834772   T   T   T
  0.4962713387612028  0.0140019834837898  0.2745187458652046   T   T   T
  0.4962713387612028  0.4859980165162101  0.2745187458652046   T   T   T
  0.2454801484638965  0.2499999495650016  0.2946151672794108   T   T   T
  0.2353702254053107  0.7500000000000000  0.2729139981880627   T   T   T
  0.7501310914444960  0.2499999495650016  0.2740727344549372   T   T   T
  0.7592981308754960  0.7500000000000000  0.2741500059340973   T   T   T
 -0.0018222099444500 -0.0000518426680767  0.0021856707796286   T   T   T
 -0.0018222099444500  0.5000518426680767  0.0021856707796286   T   T   T
  0.4982562909492067  0.0001264929496763  0.0017614896673883   T   T   T
  0.4982562909492067  0.4998735070503237  0.0017614896673883   T   T   T
  0.2481536488747950  0.2500000000000000  0.0020012155581248   T   T   T
  0.2481312489831659  0.7500000000000000  0.0016479434524471   T   T   T
  0.7481556025168653  0.2500000000000000  0.0022064217006437   T   T   T
  0.7485161679013679  0.7500000000000000  0.0018155481226594   T   T   T
  0.2487007950304152 -0.0009768171334593  0.0938805439891239   T   T   T
  0.2487007950304152  0.5009768171334591  0.0938805439891239   T   T   T
  0.7477515145930081 -0.0007424036763397  0.0942531189371930   T   T   T
  0.7477515145930081  0.5007424036763396  0.0942531189371930   T   T   T
 -0.0022900461419801  0.2500000000000000  0.0939162994375233   T   T   T
 -0.0019941077358431  0.7500000000000000  0.0942074924473832   T   T   T
  0.4989279894255805  0.2500000000000000  0.0941600099884337   T   T   T
  0.4986069823231074  0.7500000000000000  0.0930240025173252   T   T   T
 -0.0022581222014869 -0.0012108398575939  0.1843576579004102   T   T   T
 -0.0022581222014869  0.5012108398575938  0.1843576579004102   T   T   T
  0.4985877666910241 -0.0042867254969318  0.1852238778344822   T   T   T
  0.4985877666910241  0.5042867254969319  0.1852238778344822   T   T   T
  0.2489217476737882  0.2500000000000000  0.1820229204294767   T   T   T
  0.2512978223257226  0.7500000000000000  0.1844317899003313   T   T   T
  0.7480197864967688  0.2500000000000000  0.1839967167403121   T   T   T
  0.7446189624636210  0.7500000000000000  0.1851286781556205   T   T   T
  0.2497594705102633  0.9938841149907364  0.2753103972619293   T   T   T
  0.2497594705102633  0.5061158850092636  0.2753103972619293   T   T   T
  0.7465942507326562 -0.0025460746234259  0.2762890466765217   T   T   T
  0.7465942507326562  0.5025460746234258  0.2762890466765217   T   T   T
  0.9950335683625777  0.2500000000000000  0.2753162071141058   T   T   T
  0.9970417247228567  0.7500000000000000  0.2756520114480703   T   T   T
  0.5027967274372188  0.2500000000000000  0.2741866680391423   T   T   T
  0.5010971022252828  0.7499998486940029  0.2873075023561623   T   T   T
 
  0.00000000E+00  0.00000000E+00  0.00000000E+00
  0.00000000E+00  0.00000000E+00  0.00000000E+00
  0.00000000E+00  0.00000000E+00  0.00000000E+00
  0.00000000E+00  0.00000000E+00  0.00000000E+00
  0.00000000E+00  0.00000000E+00  0.00000000E+00
  0.00000000E+00  0.00000000E+00  0.00000000E+00
  0.00000000E+00  0.00000000E+00  0.00000000E+00
  0.00000000E+00  0.00000000E+00  0.00000000E+00
  0.00000000E+00  0.00000000E+00  0.00000000E+00
  0.00000000E+00  0.00000000E+00  0.00000000E+00
  0.00000000E+00  0.00000000E+00  0.00000000E+00
  0.00000000E+00  0.00000000E+00  0.00000000E+00
  0.00000000E+00  0.00000000E+00  0.00000000E+00
  0.00000000E+00  0.00000000E+00  0.00000000E+00
  0.00000000E+00  0.00000000E+00  0.00000000E+00
  0.00000000E+00  0.00000000E+00  0.00000000E+00
  0.00000000E+00  0.00000000E+00  0.00000000E+00
  0.00000000E+00  0.00000000E+00  0.00000000E+00
  0.00000000E+00  0.00000000E+00  0.00000000E+00
  0.00000000E+00  0.00000000E+00  0.00000000E+00
  0.00000000E+00  0.00000000E+00  0.00000000E+00
  0.00000000E+00  0.00000000E+00  0.00000000E+00
  0.00000000E+00  0.00000000E+00  0.00000000E+00
  0.00000000E+00  0.00000000E+00  0.00000000E+00
  0.00000000E+00  0.00000000E+00  0.00000000E+00
  0.00000000E+00  0.00000000E+00  0.00000000E+00
  0.00000000E+00  0.00000000E+00  0.00000000E+00
  0.00000000E+00  0.00000000E+00  0.00000000E+00
  0.00000000E+00  0.00000000E+00  0.00000000E+00
  0.00000000E+00  0.00000000E+00  0.00000000E+00
  0.00000000E+00  0.00000000E+00  0.00000000E+00
  0.00000000E+00  0.00000000E+00  0.00000000E+00
  0.00000000E+00  0.00000000E+00  0.00000000E+00
  0.00000000E+00  0.00000000E+00  0.00000000E+00
  0.00000000E+00  0.00000000E+00  0.00000000E+00
  0.00000000E+00  0.00000000E+00  0.00000000E+00
  0.00000000E+00  0.00000000E+00  0.00000000E+00
  0.00000000E+00  0.00000000E+00  0.00000000E+00
  0.00000000E+00  0.00000000E+00  0.00000000E+00
  0.00000000E+00  0.00000000E+00  0.00000000E+00
  0.00000000E+00  0.00000000E+00  0.00000000E+00
  0.00000000E+00  0.00000000E+00  0.00000000E+00
  0.00000000E+00  0.00000000E+00  0.00000000E+00
  0.00000000E+00  0.00000000E+00  0.00000000E+00
  0.00000000E+00  0.00000000E+00  0.00000000E+00
  0.00000000E+00  0.00000000E+00  0.00000000E+00
  0.00000000E+00  0.00000000E+00  0.00000000E+00
  0.00000000E+00  0.00000000E+00  0.00000000E+00
  0.00000000E+00  0.00000000E+00  0.00000000E+00
  0.00000000E+00  0.00000000E+00  0.00000000E+00
  0.00000000E+00  0.00000000E+00  0.00000000E+00
  0.00000000E+00  0.00000000E+00  0.00000000E+00
  0.00000000E+00  0.00000000E+00  0.00000000E+00
  0.00000000E+00  0.00000000E+00  0.00000000E+00
  0.00000000E+00  0.00000000E+00  0.00000000E+00
  0.00000000E+00  0.00000000E+00  0.00000000E+00
  0.00000000E+00  0.00000000E+00  0.00000000E+00
  0.00000000E+00  0.00000000E+00  0.00000000E+00
  0.00000000E+00  0.00000000E+00  0.00000000E+00
  0.00000000E+00  0.00000000E+00  0.00000000E+00
  0.00000000E+00  0.00000000E+00  0.00000000E+00
  0.00000000E+00  0.00000000E+00  0.00000000E+00
  0.00000000E+00  0.00000000E+00  0.00000000E+00
  0.00000000E+00  0.00000000E+00  0.00000000E+00
  0.00000000E+00  0.00000000E+00  0.00000000E+00
  0.00000000E+00  0.00000000E+00  0.00000000E+00
