Ag F Mg O                               
   1.00000000000000     
     8.4141216974800006    0.0000000000000000    0.0000000000000000
     0.0000000000000000    8.4141216974800006    0.0000000000000000
     0.0000000000000000    0.0000000000000000   23.4141216974799988
   Ag   F    Mg   O 
     1     1    32    32
Selective dynamics
Direct
  0.4758025908733142  0.7499998486940029  0.3744502706164398   T   T   T
  0.2650583526257217  0.2499999495650016  0.3751846122362895   T   T   T
  0.2481271359469405 -0.0001101339479890  0.0041733987871345   T   T   T
  0.2481271359469405  0.5001101339479890  0.0041733987871345   T   T   T
  0.7482657029840138  0.0002510331391427  0.0043197693366341   T   T   T
  0.7482657029840138  0.4997489668608573  0.0043197693366341   T   T   T
 -0.0021638950002527  0.2500000000000000  0.0042544393223064   T   T   T
 -0.0017530874948711  0.7500000000000000  0.0041526699268035   T   T   T
  0.4984908799435250  0.2500000000000000  0.0041128567925328   T   T   T
  0.4982027007506138  0.7500000000000000  0.0038715775440361   T   T   T
 -0.0013494177678599  0.0007847779392303  0.0940545108739783   T   T   T
 -0.0013494177678599  0.4992152220607698  0.0940545108739783   T   T   T
  0.4977973663406507  0.0007275530668653  0.0934552615647711   T   T   T
  0.4977973663406507  0.4992724469331347  0.0934552615647711   T   T   T
  0.2478595652666790  0.2500000000000000  0.0937272004392479   T   T   T
  0.2478297877114571  0.7500000000000000  0.0935743168432727   T   T   T
  0.7486499472012434  0.2500000000000000  0.0943090836250020   T   T   T
  0.7485365993020576  0.7500000000000000  0.0932855810110194   T   T   T
  0.2478044860815466  0.0048162526929638  0.1854804287379556   T   T   T
  0.2478044860815466  0.4951837473070361  0.1854804287379556   T   T   T
  0.7484789967388044  0.0011498022263571  0.1846829104266449   T   T   T
  0.7484789967388044  0.4988501977736430  0.1846829104266449   T   T   T
  0.0027691897006771  0.2500000000000000  0.1858711916447290   T   T   T
 -0.0015758697435871  0.7500000000000000  0.1839892278194313   T   T   T
  0.4941932426970566  0.2500000000000000  0.1849477402642184   T   T   T
  0.4973481532258568  0.7500000000000000  0.1810674883828048   T   T   T
 -0.0002700350444964  0.0029974260342497  0.2747499296269055   T   T   T
 -0.0002700350444964  0.4970025739657505  0.2747499296269055   T   T   T
  0.4964643730864168  0.0103500075812942  0.2733454390998659   T   T   T
  0.4964643730864168  0.4896499924187057  0.2733454390998659   T   T   T
  0.2478656214523394  0.2499999495650016  0.2959298975793719   T   T   T
  0.2388312909419577  0.7500000000000000  0.2719496399163662   T   T   T
  0.7492863617351043  0.2499999495650016  0.2743284693637915   T   T   T
  0.7553402116341110  0.7500000000000000  0.2731374165569652   T   T   T
 -0.0019368762296105 -0.0001177614969073  0.0022123085474357   T   T   T
 -0.0019368762296105  0.5001177614969073  0.0022123085474357   T   T   T
  0.4983252023171100  0.0000105829930837  0.0019181544742340   T   T   T
  0.4983252023171100  0.4999894170069162  0.0019181544742340   T   T   T
  0.2481805684001792  0.2500000000000000  0.0020510483634077   T   T   T
  0.2480846261457494  0.7500000000000000  0.0017603315147107   T   T   T
  0.7481448122079559  0.2500000000000000  0.0021853639208637   T   T   T
  0.7483309652150151  0.7500000000000000  0.0019642865113963   T   T   T
  0.2483958476360180 -0.0009007467400867  0.0939143258222749   T   T   T
  0.2483958476360180  0.5009007467400867  0.0939143258222749   T   T   T
  0.7479570456328866 -0.0004193700806700  0.0942921442845129   T   T   T
  0.7479570456328866  0.5004193700806698  0.0942921442845129   T   T   T
 -0.0023884207620596  0.2500000000000000  0.0940131304555634   T   T   T
 -0.0019962012134924  0.7500000000000000  0.0942683085616852   T   T   T
  0.4990315998534770  0.2500000000000000  0.0940636106831563   T   T   T
  0.4983628749728462  0.7500000000000000  0.0933539196157435   T   T   T
 -0.0021191934472674 -0.0009116035203106  0.1845545241487458   T   T   T
 -0.0021191934472674  0.5009116035203105  0.1845545241487458   T   T   T
  0.4985262765351295 -0.0037074486058634  0.1847428304047213   T   T   T
  0.4985262765351295  0.5037074486058635  0.1847428304047213   T   T   T
  0.2487183649116257  0.2500000000000000  0.1820333597896088   T   T   T
  0.2507578056253903  0.7500000000000000  0.1842598789264384   T   T   T
  0.7481584462455676  0.2500000000000000  0.1842815203804684   T   T   T
  0.7448557889376046  0.7500000000000000  0.1847607521241142   T   T   T
  0.2497747826781016  0.9942503668861709  0.2760820209102084   T   T   T
  0.2497747826781016  0.5057496331138291  0.2760820209102084   T   T   T
  0.7467231249928294 -0.0023248982654635  0.2766755061172919   T   T   T
  0.7467231249928294  0.5023248982654636  0.2766755061172919   T   T   T
  0.9955894515992804  0.2500000000000000  0.2760848179872605   T   T   T
  0.9968185165262022  0.7500000000000000  0.2757171891037115   T   T   T
  0.5023093192702512  0.2500000000000000  0.2744296277304754   T   T   T
  0.4998871521099876  0.7499998486940029  0.2843939491301127   T   T   T
 
  0.00000000E+00  0.00000000E+00  0.00000000E+00
  0.00000000E+00  0.00000000E+00  0.00000000E+00
  0.00000000E+00  0.00000000E+00  0.00000000E+00
  0.00000000E+00  0.00000000E+00  0.00000000E+00
  0.00000000E+00  0.00000000E+00  0.00000000E+00
  0.00000000E+00  0.00000000E+00  0.00000000E+00
  0.00000000E+00  0.00000000E+00  0.00000000E+00
  0.00000000E+00  0.00000000E+00  0.00000000E+00
  0.00000000E+00  0.00000000E+00  0.00000000E+00
  0.00000000E+00  0.00000000E+00  0.00000000E+00
  0.00000000E+00  0.00000000E+00  0.00000000E+00
  0.00000000E+00  0.00000000E+00  0.00000000E+00
  0.00000000E+00  0.00000000E+00  0.00000000E+00
  0.00000000E+00  0.00000000E+00  0.00000000E+00
  0.00000000E+00  0.00000000E+00  0.00000000E+00
  0.00000000E+00  0.00000000E+00  0.00000000E+00
  0.00000000E+00  0.00000000E+00  0.00000000E+00
  0.00000000E+00  0.00000000E+00  0.00000000E+00
  0.00000000E+00  0.00000000E+00  0.00000000E+00
  0.00000000E+00  0.00000000E+00  0.00000000E+00
  0.00000000E+00  0.00000000E+00  0.00000000E+00
  0.00000000E+00  0.00000000E+00  0.00000000E+00
  0.00000000E+00  0.00000000E+00  0.00000000E+00
  0.00000000E+00  0.00000000E+00  0.00000000E+00
  0.00000000E+00  0.00000000E+00  0.00000000E+00
  0.00000000E+00  0.00000000E+00  0.00000000E+00
  0.00000000E+00  0.00000000E+00  0.00000000E+00
  0.00000000E+00  0.00000000E+00  0.00000000E+00
  0.00000000E+00  0.00000000E+00  0.00000000E+00
  0.00000000E+00  0.00000000E+00  0.00000000E+00
  0.00000000E+00  0.00000000E+00  0.00000000E+00
  0.00000000E+00  0.00000000E+00  0.00000000E+00
  0.00000000E+00  0.00000000E+00  0.00000000E+00
  0.00000000E+00  0.00000000E+00  0.00000000E+00
  0.00000000E+00  0.00000000E+00  0.00000000E+00
  0.00000000E+00  0.00000000E+00  0.00000000E+00
  0.00000000E+00  0.00000000E+00  0.00000000E+00
  0.00000000E+00  0.00000000E+00  0.00000000E+00
  0.00000000E+00  0.00000000E+00  0.00000000E+00
  0.00000000E+00  0.00000000E+00  0.00000000E+00
  0.00000000E+00  0.00000000E+00  0.00000000E+00
  0.00000000E+00  0.00000000E+00  0.00000000E+00
  0.00000000E+00  0.00000000E+00  0.00000000E+00
  0.00000000E+00  0.00000000E+00  0.00000000E+00
  0.00000000E+00  0.00000000E+00  0.00000000E+00
  0.00000000E+00  0.00000000E+00  0.00000000E+00
  0.00000000E+00  0.00000000E+00  0.00000000E+00
  0.00000000E+00  0.00000000E+00  0.00000000E+00
  0.00000000E+00  0.00000000E+00  0.00000000E+00
  0.00000000E+00  0.00000000E+00  0.00000000E+00
  0.00000000E+00  0.00000000E+00  0.00000000E+00
  0.00000000E+00  0.00000000E+00  0.00000000E+00
  0.00000000E+00  0.00000000E+00  0.00000000E+00
  0.00000000E+00  0.00000000E+00  0.00000000E+00
  0.00000000E+00  0.00000000E+00  0.00000000E+00
  0.00000000E+00  0.00000000E+00  0.00000000E+00
  0.00000000E+00  0.00000000E+00  0.00000000E+00
  0.00000000E+00  0.00000000E+00  0.00000000E+00
  0.00000000E+00  0.00000000E+00  0.00000000E+00
  0.00000000E+00  0.00000000E+00  0.00000000E+00
  0.00000000E+00  0.00000000E+00  0.00000000E+00
  0.00000000E+00  0.00000000E+00  0.00000000E+00
  0.00000000E+00  0.00000000E+00  0.00000000E+00
  0.00000000E+00  0.00000000E+00  0.00000000E+00
  0.00000000E+00  0.00000000E+00  0.00000000E+00
  0.00000000E+00  0.00000000E+00  0.00000000E+00
