F Mg O                                  
   1.00000000000000     
     8.4141216974800006    0.0000000000000000    0.0000000000000000
     0.0000000000000000    8.4141216974800006    0.0000000000000000
     0.0000000000000000    0.0000000000000000   23.4141216974799988
   F    Mg   O 
     1    32    32
Selective dynamics
Direct
  0.1272907597619877  0.2499999495650016  0.3515881194135822   T   T   T
  0.2502545926294363 -0.0001018649655394  0.0055443039024655   T   T   T
  0.2502545926294363  0.5001018649655394  0.0055443039024655   T   T   T
  0.7498742597961943 -0.0001859555158661  0.0054690228411891   T   T   T
  0.7498742597961943  0.5001859555158659  0.0054690228411891   T   T   T
  0.0003143510451199  0.2500000000000000  0.0051481562855129   T   T   T
  0.0000405057887090  0.7500000000000000  0.0052888017409927   T   T   T
  0.5001118741847598  0.2500000000000000  0.0052816791676595   T   T   T
  0.4999645741310592  0.7500000000000000  0.0054941615760522   T   T   T
  0.0000924348347751 -0.0009106557505078  0.0945327036564673   T   T   T
  0.0000924348347751  0.5009106557505079  0.0945327036564673   T   T   T
  0.5004853023919184 -0.0002167706898916  0.0950581691390342   T   T   T
  0.5004853023919184  0.5002167706898916  0.0950581691390342   T   T   T
  0.2512126744839934  0.2500000000000000  0.0945463498725417   T   T   T
  0.2502858661555285  0.7500000000000000  0.0949845270100546   T   T   T
  0.7499546403384812  0.2500000000000000  0.0944556919296206   T   T   T
  0.7499308937738105  0.7500000000000000  0.0950867588152655   T   T   T
  0.2501557782942655  0.0011259810454269  0.1856880580957075   T   T   T
  0.2501557782942655  0.4988740189545732  0.1856880580957075   T   T   T
  0.7509830672947433 -0.0001055854296663  0.1858897562829146   T   T   T
  0.7509830672947433  0.5001055854296663  0.1858897562829146   T   T   T
  0.0037130133453903  0.2500000000000000  0.1823611215809472   T   T   T
  0.0006259737692361  0.7500000000000000  0.1854665349977660   T   T   T
  0.4971252066441474  0.2500000000000000  0.1858402784492491   T   T   T
  0.5003065499162457  0.7500000000000000  0.1852484631852308   T   T   T
  0.0011852094389322 -0.0033396229390252  0.2758936000021043   T   T   T
  0.0011852094389322  0.5033396229390251  0.2758936000021043   T   T   T
  0.4988637306185130 -0.0020747333929156  0.2746939541495244   T   T   T
  0.4988637306185130  0.5020747333929155  0.2746939541495244   T   T   T
  0.2551809309095107  0.2499999495650016  0.2816540225880789   T   T   T
  0.2505861957704025  0.7500000000000000  0.2741923077272302   T   T   T
  0.7406303854854094  0.2499999495650016  0.2759136429023956   T   T   T
  0.7496805917973411  0.7500000000000000  0.2754573681075100   T   T   T
  0.0000068801096318 -0.0001581225947874  0.0031083898989202   T   T   T
  0.0000068801096318  0.5001581225947874  0.0031083898989202   T   T   T
  0.5001581266402544  0.0000299316556930  0.0033277319712926   T   T   T
  0.5001581266402544  0.4999700683443071  0.0033277319712926   T   T   T
  0.2504315898396923  0.2500000000000000  0.0031683521809544   T   T   T
  0.2500252714054201  0.7500000000000000  0.0033048800030040   T   T   T
  0.7500021230056375  0.2500000000000000  0.0030668281313212   T   T   T
  0.7500015090555444  0.7500000000000000  0.0033155388727674   T   T   T
  0.2502341804809469  0.0003127438393673  0.0951036546548620   T   T   T
  0.2502341804809469  0.4996872561606326  0.0951036546548620   T   T   T
  0.7503740285864094  0.0002635411102227  0.0951978525975782   T   T   T
  0.7503740285864094  0.4997364588897772  0.0951978525975782   T   T   T
  0.0002632579824350  0.2500000000000000  0.0943381847042437   T   T   T
 -0.0002018543661773  0.7500000000000000  0.0950577532423471   T   T   T
  0.5008862119837183  0.2500000000000000  0.0953719042348549   T   T   T
  0.5004706875666435  0.7500000000000000  0.0951062227026905   T   T   T
 -0.0002820166656842  0.0006545853474410  0.1849747345065541   T   T   T
 -0.0002820166656842  0.4993454146525590  0.1849747345065541   T   T   T
  0.5014162729862016  0.0003424346620458  0.1848854922871782   T   T   T
  0.5014162729862016  0.4996575653379542  0.1848854922871782   T   T   T
  0.2495631821704825  0.2500000000000000  0.1850605242218931   T   T   T
  0.2503329248177237  0.7500000000000000  0.1843178425776888   T   T   T
  0.7523956282544949  0.2500000000000000  0.1857954112659239   T   T   T
  0.7505550613762015  0.7500000000000000  0.1852082379882165   T   T   T
  0.2498994054685611 -0.0024276817380924  0.2747968809543087   T   T   T
  0.2498994054685611  0.5024276817380922  0.2747968809543087   T   T   T
  0.7496241232272264  0.0001420760464440  0.2773073526538644   T   T   T
  0.7496241232272264  0.4998579239535561  0.2773073526538644   T   T   T
 -0.0129186854388831  0.2500000000000000  0.2725949851105987   T   T   T
 -0.0003511748547324  0.7500000000000000  0.2768609696592865   T   T   T
  0.4995892310013246  0.2500000000000000  0.2768894753939113   T   T   T
  0.5003484250027007  0.7500000000000000  0.2766224049416941   T   T   T
 
  0.00000000E+00  0.00000000E+00  0.00000000E+00
  0.00000000E+00  0.00000000E+00  0.00000000E+00
  0.00000000E+00  0.00000000E+00  0.00000000E+00
  0.00000000E+00  0.00000000E+00  0.00000000E+00
  0.00000000E+00  0.00000000E+00  0.00000000E+00
  0.00000000E+00  0.00000000E+00  0.00000000E+00
  0.00000000E+00  0.00000000E+00  0.00000000E+00
  0.00000000E+00  0.00000000E+00  0.00000000E+00
  0.00000000E+00  0.00000000E+00  0.00000000E+00
  0.00000000E+00  0.00000000E+00  0.00000000E+00
  0.00000000E+00  0.00000000E+00  0.00000000E+00
  0.00000000E+00  0.00000000E+00  0.00000000E+00
  0.00000000E+00  0.00000000E+00  0.00000000E+00
  0.00000000E+00  0.00000000E+00  0.00000000E+00
  0.00000000E+00  0.00000000E+00  0.00000000E+00
  0.00000000E+00  0.00000000E+00  0.00000000E+00
  0.00000000E+00  0.00000000E+00  0.00000000E+00
  0.00000000E+00  0.00000000E+00  0.00000000E+00
  0.00000000E+00  0.00000000E+00  0.00000000E+00
  0.00000000E+00  0.00000000E+00  0.00000000E+00
  0.00000000E+00  0.00000000E+00  0.00000000E+00
  0.00000000E+00  0.00000000E+00  0.00000000E+00
  0.00000000E+00  0.00000000E+00  0.00000000E+00
  0.00000000E+00  0.00000000E+00  0.00000000E+00
  0.00000000E+00  0.00000000E+00  0.00000000E+00
  0.00000000E+00  0.00000000E+00  0.00000000E+00
  0.00000000E+00  0.00000000E+00  0.00000000E+00
  0.00000000E+00  0.00000000E+00  0.00000000E+00
  0.00000000E+00  0.00000000E+00  0.00000000E+00
  0.00000000E+00  0.00000000E+00  0.00000000E+00
  0.00000000E+00  0.00000000E+00  0.00000000E+00
  0.00000000E+00  0.00000000E+00  0.00000000E+00
  0.00000000E+00  0.00000000E+00  0.00000000E+00
  0.00000000E+00  0.00000000E+00  0.00000000E+00
  0.00000000E+00  0.00000000E+00  0.00000000E+00
  0.00000000E+00  0.00000000E+00  0.00000000E+00
  0.00000000E+00  0.00000000E+00  0.00000000E+00
  0.00000000E+00  0.00000000E+00  0.00000000E+00
  0.00000000E+00  0.00000000E+00  0.00000000E+00
  0.00000000E+00  0.00000000E+00  0.00000000E+00
  0.00000000E+00  0.00000000E+00  0.00000000E+00
  0.00000000E+00  0.00000000E+00  0.00000000E+00
  0.00000000E+00  0.00000000E+00  0.00000000E+00
  0.00000000E+00  0.00000000E+00  0.00000000E+00
  0.00000000E+00  0.00000000E+00  0.00000000E+00
  0.00000000E+00  0.00000000E+00  0.00000000E+00
  0.00000000E+00  0.00000000E+00  0.00000000E+00
  0.00000000E+00  0.00000000E+00  0.00000000E+00
  0.00000000E+00  0.00000000E+00  0.00000000E+00
  0.00000000E+00  0.00000000E+00  0.00000000E+00
  0.00000000E+00  0.00000000E+00  0.00000000E+00
  0.00000000E+00  0.00000000E+00  0.00000000E+00
  0.00000000E+00  0.00000000E+00  0.00000000E+00
  0.00000000E+00  0.00000000E+00  0.00000000E+00
  0.00000000E+00  0.00000000E+00  0.00000000E+00
  0.00000000E+00  0.00000000E+00  0.00000000E+00
  0.00000000E+00  0.00000000E+00  0.00000000E+00
  0.00000000E+00  0.00000000E+00  0.00000000E+00
  0.00000000E+00  0.00000000E+00  0.00000000E+00
  0.00000000E+00  0.00000000E+00  0.00000000E+00
  0.00000000E+00  0.00000000E+00  0.00000000E+00
  0.00000000E+00  0.00000000E+00  0.00000000E+00
  0.00000000E+00  0.00000000E+00  0.00000000E+00
  0.00000000E+00  0.00000000E+00  0.00000000E+00
  0.00000000E+00  0.00000000E+00  0.00000000E+00
