Cu F Mg O                               
   1.00000000000000     
     8.4141216974800006    0.0000000000000000    0.0000000000000000
     0.0000000000000000    8.4141216974800006    0.0000000000000000
     0.0000000000000000    0.0000000000000000   23.4141216974799988
   Cu   F    Mg   O 
     1     1    32    32
Selective dynamics
Direct
  0.4771880116110384  0.7499998486940029  0.3634789846010272   T   T   T
  0.2637913354405417  0.2499999495650016  0.3733687805634485   T   T   T
  0.2479878253505921  0.0000330289244145  0.0042860156812388   T   T   T
  0.2479878253505921  0.4999669710755855  0.0042860156812388   T   T   T
  0.7481587166967687  0.0002889602865768  0.0043669141505353   T   T   T
  0.7481587166967687  0.4997110397134231  0.0043669141505353   T   T   T
 -0.0022919331945142  0.2500000000000000  0.0045187276397264   T   T   T
 -0.0018188504196513  0.7500000000000000  0.0042181969947515   T   T   T
  0.4982027487208120  0.2500000000000000  0.0042322835873501   T   T   T
  0.4981345391725542  0.7500000000000000  0.0037404917242874   T   T   T
 -0.0016579750786542  0.0007124289750726  0.0940986791315080   T   T   T
 -0.0016579750786542  0.4992875710249274  0.0940986791315080   T   T   T
  0.4977942722117312  0.0008549063821017  0.0934640960840693   T   T   T
  0.4977942722117312  0.4991450936178983  0.0934640960840693   T   T   T
  0.2476159336639500  0.2500000000000000  0.0937786389319394   T   T   T
  0.2474696070318386  0.7500000000000000  0.0935590692200450   T   T   T
  0.7485123421119128  0.2500000000000000  0.0943651126217595   T   T   T
  0.7486770146532855  0.7500000000000000  0.0932510512506446   T   T   T
  0.2479383307699429  0.0043311279821239  0.1854673191243642   T   T   T
  0.2479383307699429  0.4956688720178761  0.1854673191243642   T   T   T
  0.7483808169202620  0.0009984754529517  0.1848200108483445   T   T   T
  0.7483808169202620  0.4990015245470484  0.1848200108483445   T   T   T
  0.0023340846958988  0.2500000000000000  0.1855982623781189   T   T   T
 -0.0016654547193214  0.7500000000000000  0.1839672104122785   T   T   T
  0.4945518124348144  0.2500000000000000  0.1847839157944206   T   T   T
  0.4974886939125923  0.7500000000000000  0.1802304923885072   T   T   T
 -0.0000070696772686  0.0031930765259693  0.2747296680354698   T   T   T
 -0.0000070696772686  0.4968069234740309  0.2747296680354698   T   T   T
  0.4965259882895258  0.0119761997661213  0.2738981940810130   T   T   T
  0.4965259882895258  0.4880238002338785  0.2738981940810130   T   T   T
  0.2467044920881344  0.2499999495650016  0.2942487826384657   T   T   T
  0.2377250214461982  0.7500000000000000  0.2723212177924140   T   T   T
  0.7498839443374374  0.2499999495650016  0.2740706282034809   T   T   T
  0.7571900612167372  0.7500000000000000  0.2736987593578464   T   T   T
 -0.0020859420992361 -0.0000980636156192  0.0022974793059809   T   T   T
 -0.0020859420992361  0.5000980636156194  0.0022974793059809   T   T   T
  0.4982128528663130  0.0001276338931955  0.0019627808934537   T   T   T
  0.4982128528663130  0.4998723661068044  0.0019627808934537   T   T   T
  0.2480074101927008  0.2500000000000000  0.0022189542112935   T   T   T
  0.2478780449096891  0.7500000000000000  0.0018492531585804   T   T   T
  0.7480157321921491  0.2500000000000000  0.0023095353299435   T   T   T
  0.7483729583832288  0.7500000000000000  0.0018725856862809   T   T   T
  0.2485371284138301 -0.0010298702696758  0.0939828928073981   T   T   T
  0.2485371284138301  0.5010298702696762  0.0939828928073981   T   T   T
  0.7475716284972035 -0.0007546324215032  0.0943090677919309   T   T   T
  0.7475716284972035  0.5007546324215034  0.0943090677919309   T   T   T
 -0.0024068238350845  0.2500000000000000  0.0940018382332804   T   T   T
 -0.0022281062504756  0.7500000000000000  0.0943114948957524   T   T   T
  0.4987836902851280  0.2500000000000000  0.0942179242273201   T   T   T
  0.4983709617101180  0.7500000000000000  0.0931723633036152   T   T   T
 -0.0021374482877844 -0.0013654887035440  0.1844660862612252   T   T   T
 -0.0021374482877844  0.5013654887035440  0.1844660862612252   T   T   T
  0.4986488885483535 -0.0041228948782786  0.1848367152677092   T   T   T
  0.4986488885483535  0.5041228948782788  0.1848367152677092   T   T   T
  0.2489767602009736  0.2500000000000000  0.1821771841186814   T   T   T
  0.2511115887630160  0.7500000000000000  0.1842524104249597   T   T   T
  0.7479602428706257  0.2500000000000000  0.1840781327676459   T   T   T
  0.7445528118450225  0.7500000000000000  0.1849983121589081   T   T   T
  0.2499846821777546  0.9940088196105072  0.2754597367788310   T   T   T
  0.2499846821777546  0.5059911803894928  0.2754597367788310   T   T   T
  0.7470045682278789 -0.0023630039433244  0.2764495908096553   T   T   T
  0.7470045682278789  0.5023630039433243  0.2764495908096553   T   T   T
  0.9953827257602192  0.2500000000000000  0.2754608562531913   T   T   T
  0.9972847890383683  0.7500000000000000  0.2757248138664848   T   T   T
  0.5030307948864167  0.2500000000000000  0.2738737767714010   T   T   T
  0.5008454370202303  0.7499998486940029  0.2865183849776706   T   T   T
 
  0.00000000E+00  0.00000000E+00  0.00000000E+00
  0.00000000E+00  0.00000000E+00  0.00000000E+00
  0.00000000E+00  0.00000000E+00  0.00000000E+00
  0.00000000E+00  0.00000000E+00  0.00000000E+00
  0.00000000E+00  0.00000000E+00  0.00000000E+00
  0.00000000E+00  0.00000000E+00  0.00000000E+00
  0.00000000E+00  0.00000000E+00  0.00000000E+00
  0.00000000E+00  0.00000000E+00  0.00000000E+00
  0.00000000E+00  0.00000000E+00  0.00000000E+00
  0.00000000E+00  0.00000000E+00  0.00000000E+00
  0.00000000E+00  0.00000000E+00  0.00000000E+00
  0.00000000E+00  0.00000000E+00  0.00000000E+00
  0.00000000E+00  0.00000000E+00  0.00000000E+00
  0.00000000E+00  0.00000000E+00  0.00000000E+00
  0.00000000E+00  0.00000000E+00  0.00000000E+00
  0.00000000E+00  0.00000000E+00  0.00000000E+00
  0.00000000E+00  0.00000000E+00  0.00000000E+00
  0.00000000E+00  0.00000000E+00  0.00000000E+00
  0.00000000E+00  0.00000000E+00  0.00000000E+00
  0.00000000E+00  0.00000000E+00  0.00000000E+00
  0.00000000E+00  0.00000000E+00  0.00000000E+00
  0.00000000E+00  0.00000000E+00  0.00000000E+00
  0.00000000E+00  0.00000000E+00  0.00000000E+00
  0.00000000E+00  0.00000000E+00  0.00000000E+00
  0.00000000E+00  0.00000000E+00  0.00000000E+00
  0.00000000E+00  0.00000000E+00  0.00000000E+00
  0.00000000E+00  0.00000000E+00  0.00000000E+00
  0.00000000E+00  0.00000000E+00  0.00000000E+00
  0.00000000E+00  0.00000000E+00  0.00000000E+00
  0.00000000E+00  0.00000000E+00  0.00000000E+00
  0.00000000E+00  0.00000000E+00  0.00000000E+00
  0.00000000E+00  0.00000000E+00  0.00000000E+00
  0.00000000E+00  0.00000000E+00  0.00000000E+00
  0.00000000E+00  0.00000000E+00  0.00000000E+00
  0.00000000E+00  0.00000000E+00  0.00000000E+00
  0.00000000E+00  0.00000000E+00  0.00000000E+00
  0.00000000E+00  0.00000000E+00  0.00000000E+00
  0.00000000E+00  0.00000000E+00  0.00000000E+00
  0.00000000E+00  0.00000000E+00  0.00000000E+00
  0.00000000E+00  0.00000000E+00  0.00000000E+00
  0.00000000E+00  0.00000000E+00  0.00000000E+00
  0.00000000E+00  0.00000000E+00  0.00000000E+00
  0.00000000E+00  0.00000000E+00  0.00000000E+00
  0.00000000E+00  0.00000000E+00  0.00000000E+00
  0.00000000E+00  0.00000000E+00  0.00000000E+00
  0.00000000E+00  0.00000000E+00  0.00000000E+00
  0.00000000E+00  0.00000000E+00  0.00000000E+00
  0.00000000E+00  0.00000000E+00  0.00000000E+00
  0.00000000E+00  0.00000000E+00  0.00000000E+00
  0.00000000E+00  0.00000000E+00  0.00000000E+00
  0.00000000E+00  0.00000000E+00  0.00000000E+00
  0.00000000E+00  0.00000000E+00  0.00000000E+00
  0.00000000E+00  0.00000000E+00  0.00000000E+00
  0.00000000E+00  0.00000000E+00  0.00000000E+00
  0.00000000E+00  0.00000000E+00  0.00000000E+00
  0.00000000E+00  0.00000000E+00  0.00000000E+00
  0.00000000E+00  0.00000000E+00  0.00000000E+00
  0.00000000E+00  0.00000000E+00  0.00000000E+00
  0.00000000E+00  0.00000000E+00  0.00000000E+00
  0.00000000E+00  0.00000000E+00  0.00000000E+00
  0.00000000E+00  0.00000000E+00  0.00000000E+00
  0.00000000E+00  0.00000000E+00  0.00000000E+00
  0.00000000E+00  0.00000000E+00  0.00000000E+00
  0.00000000E+00  0.00000000E+00  0.00000000E+00
  0.00000000E+00  0.00000000E+00  0.00000000E+00
  0.00000000E+00  0.00000000E+00  0.00000000E+00
