Zn F Mg O                               
   1.00000000000000     
     8.4141216974800006    0.0000000000000000    0.0000000000000000
     0.0000000000000000    8.4141216974800006    0.0000000000000000
     0.0000000000000000    0.0000000000000000   23.4141216974799988
   Zn   F    Mg   O 
     1     1    32    32
Selective dynamics
Direct
  0.4811060980721347  0.7499998486940029  0.3720527346466891   T   T   T
  0.2612470562258923  0.2499999495650016  0.3729094815406715   T   T   T
  0.2479422986955594  0.0001069381895404  0.0044755609543252   T   T   T
  0.2479422986955594  0.4998930618104596  0.0044755609543252   T   T   T
  0.7484470446330348  0.0003095739355526  0.0044862541056652   T   T   T
  0.7484470446330348  0.4996904260644474  0.0044862541056652   T   T   T
  0.9980164602831220  0.2500000000000000  0.0047489866442616   T   T   T
  0.9981366573943475  0.7500000000000000  0.0043811764855914   T   T   T
  0.4983390786889921  0.2500000000000000  0.0043928526570553   T   T   T
  0.4980883743247340  0.7500000000000000  0.0039122119441279   T   T   T
  0.9984167968464819  0.0006725339187410  0.0942114796844768   T   T   T
  0.9984167968464819  0.4993274660812591  0.0942114796844768   T   T   T
  0.4978070220578901  0.0008600884302586  0.0935107002536226   T   T   T
  0.4978070220578901  0.4991399115697413  0.0935107002536226   T   T   T
  0.2477725833984196  0.2500000000000000  0.0939706522387146   T   T   T
  0.2473442981288591  0.7500000000000000  0.0936682629726755   T   T   T
  0.7486477320820379  0.2500000000000000  0.0943730708434416   T   T   T
  0.7485972997331458  0.7500000000000000  0.0934202872212127   T   T   T
  0.2477259712912555  0.0044557010926559  0.1855019288587919   T   T   T
  0.2477259712912555  0.4955442989073442  0.1855019288587919   T   T   T
  0.7486604759503186  0.0012258716571469  0.1847428239648763   T   T   T
  0.7486604759503186  0.4987741283428531  0.1847428239648763   T   T   T
  0.0023400568978873  0.2500000000000000  0.1856665540080276   T   T   T
  0.9982788886025966  0.7500000000000000  0.1839965719808809   T   T   T
  0.4947922735971465  0.2500000000000000  0.1847044316240734   T   T   T
  0.4973857872091754  0.7500000000000000  0.1798723371666295   T   T   T
 -0.0000431902943653  0.0030577688349096  0.2749596846895687   T   T   T
 -0.0000431902943653  0.4969422311650904  0.2749596846895687   T   T   T
  0.4963188172332626  0.0118320415296247  0.2736109186629552   T   T   T
  0.4963188172332626  0.4881679584703753  0.2736109186629552   T   T   T
  0.2468215270636965  0.2499999495650016  0.2940775240629177   T   T   T
  0.2377883902610019  0.7500000000000000  0.2722394495470277   T   T   T
  0.7497119528080010  0.2499999495650016  0.2742450904883492   T   T   T
  0.7568229212814906  0.7500000000000000  0.2734271808000258   T   T   T
  0.9980558495788441  0.9999122040817152  0.0024532143223923   T   T   T
  0.9980558495788441  0.5000877959182848  0.0024532143223923   T   T   T
  0.4982996482438463  0.0001671904367299  0.0021208462674860   T   T   T
  0.4982996482438463  0.4998328095632701  0.0021208462674860   T   T   T
  0.2481909857328904  0.2500000000000000  0.0023535946657145   T   T   T
  0.2478604169463352  0.7500000000000000  0.0020255884185022   T   T   T
  0.7481748795624885  0.2500000000000000  0.0023856605844259   T   T   T
  0.7483805317070199  0.7500000000000000  0.0021190650331532   T   T   T
  0.2485012725690507  0.9990169902523377  0.0940787131144845   T   T   T
  0.2485012725690507  0.5009830097476623  0.0940787131144845   T   T   T
  0.7477333928077916  0.9993088075200351  0.0943585983704188   T   T   T
  0.7477333928077916  0.5006911924799649  0.0943585983704188   T   T   T
  0.9976399371664516  0.2500000000000000  0.0941495302658124   T   T   T
  0.9976526888785302  0.7500000000000000  0.0944910174164203   T   T   T
  0.4988491159790919  0.2500000000000000  0.0942818391864219   T   T   T
  0.4983671820627958  0.7500000000000000  0.0930795273911677   T   T   T
  0.9978422874583665  0.9987830360879593  0.1843911615546306   T   T   T
  0.9978422874583665  0.5012169639120407  0.1843911615546306   T   T   T
  0.4985647473170868  0.9955858157296565  0.1848587620734008   T   T   T
  0.4985647473170868  0.5044141842703435  0.1848587620734008   T   T   T
  0.2489772685525980  0.2500000000000000  0.1821921580462139   T   T   T
  0.2515108338017406  0.7500000000000000  0.1842676013359847   T   T   T
  0.7480062198692289  0.2500000000000000  0.1839308359180981   T   T   T
  0.7441393701245907  0.7500000000000000  0.1849317794489478   T   T   T
  0.2500090709818523  0.9934933153919244  0.2752915004454722   T   T   T
  0.2500090709818523  0.5065066846080756  0.2752915004454722   T   T   T
  0.7464714800025327  0.9973279020776349  0.2762089241713060   T   T   T
  0.7464714800025327  0.5026720979223651  0.2762089241713060   T   T   T
  0.9951481487528582  0.2500000000000000  0.2752038176051254   T   T   T
  0.9970137675328063  0.7500000000000000  0.2753586305164595   T   T   T
  0.5029619112612587  0.2500000000000000  0.2736345074553729   T   T   T
  0.4997302851020516  0.7499998486940029  0.2900855478620483   T   T   T
 
  0.00000000E+00  0.00000000E+00  0.00000000E+00
  0.00000000E+00  0.00000000E+00  0.00000000E+00
  0.00000000E+00  0.00000000E+00  0.00000000E+00
  0.00000000E+00  0.00000000E+00  0.00000000E+00
  0.00000000E+00  0.00000000E+00  0.00000000E+00
  0.00000000E+00  0.00000000E+00  0.00000000E+00
  0.00000000E+00  0.00000000E+00  0.00000000E+00
  0.00000000E+00  0.00000000E+00  0.00000000E+00
  0.00000000E+00  0.00000000E+00  0.00000000E+00
  0.00000000E+00  0.00000000E+00  0.00000000E+00
  0.00000000E+00  0.00000000E+00  0.00000000E+00
  0.00000000E+00  0.00000000E+00  0.00000000E+00
  0.00000000E+00  0.00000000E+00  0.00000000E+00
  0.00000000E+00  0.00000000E+00  0.00000000E+00
  0.00000000E+00  0.00000000E+00  0.00000000E+00
  0.00000000E+00  0.00000000E+00  0.00000000E+00
  0.00000000E+00  0.00000000E+00  0.00000000E+00
  0.00000000E+00  0.00000000E+00  0.00000000E+00
  0.00000000E+00  0.00000000E+00  0.00000000E+00
  0.00000000E+00  0.00000000E+00  0.00000000E+00
  0.00000000E+00  0.00000000E+00  0.00000000E+00
  0.00000000E+00  0.00000000E+00  0.00000000E+00
  0.00000000E+00  0.00000000E+00  0.00000000E+00
  0.00000000E+00  0.00000000E+00  0.00000000E+00
  0.00000000E+00  0.00000000E+00  0.00000000E+00
  0.00000000E+00  0.00000000E+00  0.00000000E+00
  0.00000000E+00  0.00000000E+00  0.00000000E+00
  0.00000000E+00  0.00000000E+00  0.00000000E+00
  0.00000000E+00  0.00000000E+00  0.00000000E+00
  0.00000000E+00  0.00000000E+00  0.00000000E+00
  0.00000000E+00  0.00000000E+00  0.00000000E+00
  0.00000000E+00  0.00000000E+00  0.00000000E+00
  0.00000000E+00  0.00000000E+00  0.00000000E+00
  0.00000000E+00  0.00000000E+00  0.00000000E+00
  0.00000000E+00  0.00000000E+00  0.00000000E+00
  0.00000000E+00  0.00000000E+00  0.00000000E+00
  0.00000000E+00  0.00000000E+00  0.00000000E+00
  0.00000000E+00  0.00000000E+00  0.00000000E+00
  0.00000000E+00  0.00000000E+00  0.00000000E+00
  0.00000000E+00  0.00000000E+00  0.00000000E+00
  0.00000000E+00  0.00000000E+00  0.00000000E+00
  0.00000000E+00  0.00000000E+00  0.00000000E+00
  0.00000000E+00  0.00000000E+00  0.00000000E+00
  0.00000000E+00  0.00000000E+00  0.00000000E+00
  0.00000000E+00  0.00000000E+00  0.00000000E+00
  0.00000000E+00  0.00000000E+00  0.00000000E+00
  0.00000000E+00  0.00000000E+00  0.00000000E+00
  0.00000000E+00  0.00000000E+00  0.00000000E+00
  0.00000000E+00  0.00000000E+00  0.00000000E+00
  0.00000000E+00  0.00000000E+00  0.00000000E+00
  0.00000000E+00  0.00000000E+00  0.00000000E+00
  0.00000000E+00  0.00000000E+00  0.00000000E+00
  0.00000000E+00  0.00000000E+00  0.00000000E+00
  0.00000000E+00  0.00000000E+00  0.00000000E+00
  0.00000000E+00  0.00000000E+00  0.00000000E+00
  0.00000000E+00  0.00000000E+00  0.00000000E+00
  0.00000000E+00  0.00000000E+00  0.00000000E+00
  0.00000000E+00  0.00000000E+00  0.00000000E+00
  0.00000000E+00  0.00000000E+00  0.00000000E+00
  0.00000000E+00  0.00000000E+00  0.00000000E+00
  0.00000000E+00  0.00000000E+00  0.00000000E+00
  0.00000000E+00  0.00000000E+00  0.00000000E+00
  0.00000000E+00  0.00000000E+00  0.00000000E+00
  0.00000000E+00  0.00000000E+00  0.00000000E+00
  0.00000000E+00  0.00000000E+00  0.00000000E+00
  0.00000000E+00  0.00000000E+00  0.00000000E+00
