Au F Mg O                               
   1.00000000000000     
     8.4141216974800006    0.0000000000000000    0.0000000000000000
     0.0000000000000000    8.4141216974800006    0.0000000000000000
     0.0000000000000000    0.0000000000000000   23.4141216974799988
   Au   F    Mg   O 
     1     1    32    32
Selective dynamics
Direct
  0.4821448113559305  0.7499998486940029  0.3716318524490861   T   T   T
  0.2591126289661949  0.2499999495650016  0.3730025827580637   T   T   T
  0.2478459582725585  0.0000037430423079  0.0042677040102496   T   T   T
  0.2478459582725585  0.4999962569576923  0.0042677040102496   T   T   T
  0.7480985334097080  0.0002817799032915  0.0044940020124460   T   T   T
  0.7480985334097080  0.4997182200967085  0.0044940020124460   T   T   T
 -0.0022479677973982  0.2500000000000000  0.0043481729508390   T   T   T
 -0.0021171228874332  0.7500000000000000  0.0041553687531378   T   T   T
  0.4982793139223517  0.2500000000000000  0.0041267157840299   T   T   T
  0.4979404125567380  0.7500000000000000  0.0038554367669126   T   T   T
 -0.0013687440561436  0.0008967490405304  0.0942539808759919   T   T   T
 -0.0013687440561436  0.4991032509594696  0.0942539808759919   T   T   T
  0.4978258210669879  0.0011167630110650  0.0934709628020099   T   T   T
  0.4978258210669879  0.4988832369889349  0.0934709628020099   T   T   T
  0.2478257831173433  0.2500000000000000  0.0940389458408176   T   T   T
  0.2474461096693231  0.7500000000000000  0.0934934492752474   T   T   T
  0.7487628581399368  0.2500000000000000  0.0945298898397948   T   T   T
  0.7489155970341134  0.7500000000000000  0.0933361108483635   T   T   T
  0.2481134118645632  0.0042296948859186  0.1856974989614356   T   T   T
  0.2481134118645632  0.4957703051140813  0.1856974989614356   T   T   T
  0.7484852117871833  0.0009898687767499  0.1850607350160908   T   T   T
  0.7484852117871833  0.4990101312232503  0.1850607350160908   T   T   T
  0.0023619699659792  0.2500000000000000  0.1859277132366403   T   T   T
 -0.0011229941375612  0.7500000000000000  0.1840884471021077   T   T   T
  0.4948098133747378  0.2500000000000000  0.1850997204241417   T   T   T
  0.4973559920667610  0.7500000000000000  0.1797472358186827   T   T   T
  0.0001320162907195  0.0036301591109552  0.2751107215312608   T   T   T
  0.0001320162907195  0.4963698408890447  0.2751107215312608   T   T   T
  0.4962822814542260  0.0125043893095795  0.2743688408894622   T   T   T
  0.4962822814542260  0.4874956106904205  0.2743688408894622   T   T   T
  0.2471299075282766  0.2499999495650016  0.2939447201625645   T   T   T
  0.2367697627255682  0.7500000000000000  0.2729134977698076   T   T   T
  0.7495822488340952  0.2499999495650016  0.2746592593472961   T   T   T
  0.7584303966748774  0.7500000000000000  0.2738075988611152   T   T   T
 -0.0021323990401013 -0.0001763768370744  0.0022677205933890   T   T   T
 -0.0021323990401013  0.5001763768370744  0.0022677205933890   T   T   T
  0.4980963084910349  0.0000562820077758  0.0019352907087023   T   T   T
  0.4980963084910349  0.4999437179922243  0.0019352907087023   T   T   T
  0.2481083561373734  0.2500000000000000  0.0020632577327006   T   T   T
  0.2477834548654322  0.7500000000000000  0.0017728801698545   T   T   T
  0.7478925987376430  0.2500000000000000  0.0023258502677224   T   T   T
  0.7480648512994700  0.7500000000000000  0.0021097179126137   T   T   T
  0.2485426763392456 -0.0008119836438689  0.0940309125375597   T   T   T
  0.2485426763392456  0.5008119836438690  0.0940309125375597   T   T   T
  0.7478076263059252 -0.0004939460424203  0.0944158228169541   T   T   T
  0.7478076263059252  0.5004939460424204  0.0944158228169541   T   T   T
 -0.0022290098019740  0.2500000000000000  0.0941578013158423   T   T   T
 -0.0019693866192702  0.7500000000000000  0.0943949506286340   T   T   T
  0.4988875937249377  0.2500000000000000  0.0942828174500848   T   T   T
  0.4983717471875894  0.7500000000000000  0.0930542304960311   T   T   T
  0.9977812856506139 -0.0010624212547641  0.1845623328028922   T   T   T
  0.9977812856506139  0.5010624212547644  0.1845623328028922   T   T   T
  0.4987696958008660 -0.0043819277840110  0.1850380670723805   T   T   T
  0.4987696958008660  0.5043819277840110  0.1850380670723805   T   T   T
  0.2491148030368421  0.2500000000000000  0.1825092664940098   T   T   T
  0.2515688275646382  0.7500000000000000  0.1842915515638651   T   T   T
  0.7478386988411698  0.2500000000000000  0.1843083012704717   T   T   T
  0.7443513504648026  0.7500000000000000  0.1849884640243974   T   T   T
  0.2498080088114674  0.9940329687722346  0.2751751956196177   T   T   T
  0.2498080088114674  0.5059670312277654  0.2751751956196177   T   T   T
  0.7466256166701380 -0.0026142089149234  0.2765312415754769   T   T   T
  0.7466256166701380  0.5026142089149235  0.2765312415754769   T   T   T
  0.9949460437678098  0.2500000000000000  0.2756059387655003   T   T   T
  0.9971562315101247  0.7500000000000000  0.2755359297902127   T   T   T
  0.5027587643462135  0.2500000000000000  0.2743035888907436   T   T   T
  0.4998958854203912  0.7499998486940029  0.2852983765968040   T   T   T
 
  0.00000000E+00  0.00000000E+00  0.00000000E+00
  0.00000000E+00  0.00000000E+00  0.00000000E+00
  0.00000000E+00  0.00000000E+00  0.00000000E+00
  0.00000000E+00  0.00000000E+00  0.00000000E+00
  0.00000000E+00  0.00000000E+00  0.00000000E+00
  0.00000000E+00  0.00000000E+00  0.00000000E+00
  0.00000000E+00  0.00000000E+00  0.00000000E+00
  0.00000000E+00  0.00000000E+00  0.00000000E+00
  0.00000000E+00  0.00000000E+00  0.00000000E+00
  0.00000000E+00  0.00000000E+00  0.00000000E+00
  0.00000000E+00  0.00000000E+00  0.00000000E+00
  0.00000000E+00  0.00000000E+00  0.00000000E+00
  0.00000000E+00  0.00000000E+00  0.00000000E+00
  0.00000000E+00  0.00000000E+00  0.00000000E+00
  0.00000000E+00  0.00000000E+00  0.00000000E+00
  0.00000000E+00  0.00000000E+00  0.00000000E+00
  0.00000000E+00  0.00000000E+00  0.00000000E+00
  0.00000000E+00  0.00000000E+00  0.00000000E+00
  0.00000000E+00  0.00000000E+00  0.00000000E+00
  0.00000000E+00  0.00000000E+00  0.00000000E+00
  0.00000000E+00  0.00000000E+00  0.00000000E+00
  0.00000000E+00  0.00000000E+00  0.00000000E+00
  0.00000000E+00  0.00000000E+00  0.00000000E+00
  0.00000000E+00  0.00000000E+00  0.00000000E+00
  0.00000000E+00  0.00000000E+00  0.00000000E+00
  0.00000000E+00  0.00000000E+00  0.00000000E+00
  0.00000000E+00  0.00000000E+00  0.00000000E+00
  0.00000000E+00  0.00000000E+00  0.00000000E+00
  0.00000000E+00  0.00000000E+00  0.00000000E+00
  0.00000000E+00  0.00000000E+00  0.00000000E+00
  0.00000000E+00  0.00000000E+00  0.00000000E+00
  0.00000000E+00  0.00000000E+00  0.00000000E+00
  0.00000000E+00  0.00000000E+00  0.00000000E+00
  0.00000000E+00  0.00000000E+00  0.00000000E+00
  0.00000000E+00  0.00000000E+00  0.00000000E+00
  0.00000000E+00  0.00000000E+00  0.00000000E+00
  0.00000000E+00  0.00000000E+00  0.00000000E+00
  0.00000000E+00  0.00000000E+00  0.00000000E+00
  0.00000000E+00  0.00000000E+00  0.00000000E+00
  0.00000000E+00  0.00000000E+00  0.00000000E+00
  0.00000000E+00  0.00000000E+00  0.00000000E+00
  0.00000000E+00  0.00000000E+00  0.00000000E+00
  0.00000000E+00  0.00000000E+00  0.00000000E+00
  0.00000000E+00  0.00000000E+00  0.00000000E+00
  0.00000000E+00  0.00000000E+00  0.00000000E+00
  0.00000000E+00  0.00000000E+00  0.00000000E+00
  0.00000000E+00  0.00000000E+00  0.00000000E+00
  0.00000000E+00  0.00000000E+00  0.00000000E+00
  0.00000000E+00  0.00000000E+00  0.00000000E+00
  0.00000000E+00  0.00000000E+00  0.00000000E+00
  0.00000000E+00  0.00000000E+00  0.00000000E+00
  0.00000000E+00  0.00000000E+00  0.00000000E+00
  0.00000000E+00  0.00000000E+00  0.00000000E+00
  0.00000000E+00  0.00000000E+00  0.00000000E+00
  0.00000000E+00  0.00000000E+00  0.00000000E+00
  0.00000000E+00  0.00000000E+00  0.00000000E+00
  0.00000000E+00  0.00000000E+00  0.00000000E+00
  0.00000000E+00  0.00000000E+00  0.00000000E+00
  0.00000000E+00  0.00000000E+00  0.00000000E+00
  0.00000000E+00  0.00000000E+00  0.00000000E+00
  0.00000000E+00  0.00000000E+00  0.00000000E+00
  0.00000000E+00  0.00000000E+00  0.00000000E+00
  0.00000000E+00  0.00000000E+00  0.00000000E+00
  0.00000000E+00  0.00000000E+00  0.00000000E+00
  0.00000000E+00  0.00000000E+00  0.00000000E+00
  0.00000000E+00  0.00000000E+00  0.00000000E+00
