Nb F Mg O                               
   1.00000000000000     
     8.4141216974800006    0.0000000000000000    0.0000000000000000
     0.0000000000000000    8.4141216974800006    0.0000000000000000
     0.0000000000000000    0.0000000000000000   23.4141216974799988
   Nb   F    Mg   O 
     1     1    32    32
Selective dynamics
Direct
  0.4756348278304450  0.7499998486940029  0.3752649901708573   T   T   T
  0.2634501732931391  0.2499999495650016  0.3735058637400141   T   T   T
  0.2480416170172350 -0.0000615501115809  0.0044724515126669   T   T   T
  0.2480416170172350  0.5000615501115809  0.0044724515126669   T   T   T
  0.7484221446019849  0.0001809252190691  0.0044921168920044   T   T   T
  0.7484221446019849  0.4998190747809309  0.0044921168920044   T   T   T
  0.9981004769764886  0.2500000000000000  0.0046077620211396   T   T   T
  0.9981989375249996  0.7500000000000000  0.0043936115843721   T   T   T
  0.4983976382180875  0.2500000000000000  0.0043247350055249   T   T   T
  0.4980482509076984  0.7500000000000000  0.0038578220728906   T   T   T
  0.9984798406155704  0.0006939501571009  0.0941228656771906   T   T   T
  0.9984798406155704  0.4993060498428991  0.0941228656771906   T   T   T
  0.4978608716343660  0.0009502743675993  0.0933802895866925   T   T   T
  0.4978608716343660  0.4990497256324007  0.0933802895866925   T   T   T
  0.2477775170285765  0.2500000000000000  0.0937815585479134   T   T   T
  0.2470833400710330  0.7500000000000000  0.0936962235568823   T   T   T
  0.7489219234835732  0.2500000000000000  0.0942213175612774   T   T   T
  0.7488474949857736  0.7500000000000000  0.0933692876211619   T   T   T
  0.2481113100717569  0.0042954395441698  0.1854468260152299   T   T   T
  0.2481113100717569  0.4957045604558303  0.1854468260152299   T   T   T
  0.7484230081085470  0.0007299094656021  0.1845871662586974   T   T   T
  0.7484230081085470  0.4992700905343979  0.1845871662586974   T   T   T
  0.0028576882417026  0.2500000000000000  0.1854424347197209   T   T   T
  0.9982464763152226  0.7500000000000000  0.1840049222872869   T   T   T
  0.4946472020202602  0.2500000000000000  0.1844170383277329   T   T   T
  0.4972084494964175  0.7500000000000000  0.1794031563178977   T   T   T
 -0.0002337149947865  0.0034028750656294  0.2744579259735803   T   T   T
 -0.0002337149947865  0.4965971249343706  0.2744579259735803   T   T   T
  0.4965107504957438  0.0151199666753109  0.2736191894805612   T   T   T
  0.4965107504957438  0.4848800333246891  0.2736191894805612   T   T   T
  0.2463201451180103  0.2499999495650016  0.2946588375238489   T   T   T
  0.2349825844664759  0.7500000000000000  0.2729974516893751   T   T   T
  0.7503462886975065  0.2499999495650016  0.2736749846434552   T   T   T
  0.7585255308799906  0.7500000000000000  0.2741184767393680   T   T   T
  0.9981026843215722  0.9998004738255085  0.0024046540606739   T   T   T
  0.9981026843215722  0.5001995261744915  0.0024046540606739   T   T   T
  0.4983119880483215  0.0001008720176658  0.0020755522235201   T   T   T
  0.4983119880483215  0.4998991279823342  0.0020755522235201   T   T   T
  0.2483074999769409  0.2500000000000000  0.0022989621725112   T   T   T
  0.2478905965920337  0.7500000000000000  0.0020458554488242   T   T   T
  0.7482156332029776  0.2500000000000000  0.0023142045046605   T   T   T
  0.7483746421928360  0.7500000000000000  0.0021169199178146   T   T   T
  0.2486429089799359  0.9988038471391666  0.0940072043366519   T   T   T
  0.2486429089799359  0.5011961528608334  0.0940072043366519   T   T   T
  0.7476972506003895  0.9991466242960442  0.0942642424860348   T   T   T
  0.7476972506003895  0.5008533757039558  0.0942642424860348   T   T   T
  0.9977664037923040  0.2500000000000000  0.0939294205697031   T   T   T
  0.9977055992952792  0.7500000000000000  0.0945101171843898   T   T   T
  0.4990051470350516  0.2500000000000000  0.0941359644425827   T   T   T
  0.4983061272456016  0.7500000000000000  0.0928835859381343   T   T   T
  0.9979336708054291  0.9987690290593249  0.1841419378644047   T   T   T
  0.9979336708054291  0.5012309709406751  0.1841419378644047   T   T   T
  0.4985773820212768  0.9952769264044452  0.1849235066310167   T   T   T
  0.4985773820212768  0.5047230735955548  0.1849235066310167   T   T   T
  0.2491908270047225  0.2500000000000000  0.1817681416603225   T   T   T
  0.2516643680909191  0.7500000000000000  0.1845871585075511   T   T   T
  0.7481954708673801  0.2500000000000000  0.1836245104379544   T   T   T
  0.7437775756169557  0.7500000000000000  0.1850660579875033   T   T   T
  0.2503966652425385  0.9938972540195962  0.2749889976644511   T   T   T
  0.2503966652425385  0.5061027459804038  0.2749889976644511   T   T   T
  0.7463243304952082  0.9976170439635526  0.2754964860583589   T   T   T
  0.7463243304952082  0.5023829560364474  0.2754964860583589   T   T   T
  0.9954758397009879  0.2500000000000000  0.2751836619300662   T   T   T
  0.9966579657539235  0.7500000000000000  0.2751833500246268   T   T   T
  0.5029554535496625  0.2500000000000000  0.2733210020075558   T   T   T
  0.5010574382278791  0.7499998486940029  0.2925994887015970   T   T   T
 
  0.00000000E+00  0.00000000E+00  0.00000000E+00
  0.00000000E+00  0.00000000E+00  0.00000000E+00
  0.00000000E+00  0.00000000E+00  0.00000000E+00
  0.00000000E+00  0.00000000E+00  0.00000000E+00
  0.00000000E+00  0.00000000E+00  0.00000000E+00
  0.00000000E+00  0.00000000E+00  0.00000000E+00
  0.00000000E+00  0.00000000E+00  0.00000000E+00
  0.00000000E+00  0.00000000E+00  0.00000000E+00
  0.00000000E+00  0.00000000E+00  0.00000000E+00
  0.00000000E+00  0.00000000E+00  0.00000000E+00
  0.00000000E+00  0.00000000E+00  0.00000000E+00
  0.00000000E+00  0.00000000E+00  0.00000000E+00
  0.00000000E+00  0.00000000E+00  0.00000000E+00
  0.00000000E+00  0.00000000E+00  0.00000000E+00
  0.00000000E+00  0.00000000E+00  0.00000000E+00
  0.00000000E+00  0.00000000E+00  0.00000000E+00
  0.00000000E+00  0.00000000E+00  0.00000000E+00
  0.00000000E+00  0.00000000E+00  0.00000000E+00
  0.00000000E+00  0.00000000E+00  0.00000000E+00
  0.00000000E+00  0.00000000E+00  0.00000000E+00
  0.00000000E+00  0.00000000E+00  0.00000000E+00
  0.00000000E+00  0.00000000E+00  0.00000000E+00
  0.00000000E+00  0.00000000E+00  0.00000000E+00
  0.00000000E+00  0.00000000E+00  0.00000000E+00
  0.00000000E+00  0.00000000E+00  0.00000000E+00
  0.00000000E+00  0.00000000E+00  0.00000000E+00
  0.00000000E+00  0.00000000E+00  0.00000000E+00
  0.00000000E+00  0.00000000E+00  0.00000000E+00
  0.00000000E+00  0.00000000E+00  0.00000000E+00
  0.00000000E+00  0.00000000E+00  0.00000000E+00
  0.00000000E+00  0.00000000E+00  0.00000000E+00
  0.00000000E+00  0.00000000E+00  0.00000000E+00
  0.00000000E+00  0.00000000E+00  0.00000000E+00
  0.00000000E+00  0.00000000E+00  0.00000000E+00
  0.00000000E+00  0.00000000E+00  0.00000000E+00
  0.00000000E+00  0.00000000E+00  0.00000000E+00
  0.00000000E+00  0.00000000E+00  0.00000000E+00
  0.00000000E+00  0.00000000E+00  0.00000000E+00
  0.00000000E+00  0.00000000E+00  0.00000000E+00
  0.00000000E+00  0.00000000E+00  0.00000000E+00
  0.00000000E+00  0.00000000E+00  0.00000000E+00
  0.00000000E+00  0.00000000E+00  0.00000000E+00
  0.00000000E+00  0.00000000E+00  0.00000000E+00
  0.00000000E+00  0.00000000E+00  0.00000000E+00
  0.00000000E+00  0.00000000E+00  0.00000000E+00
  0.00000000E+00  0.00000000E+00  0.00000000E+00
  0.00000000E+00  0.00000000E+00  0.00000000E+00
  0.00000000E+00  0.00000000E+00  0.00000000E+00
  0.00000000E+00  0.00000000E+00  0.00000000E+00
  0.00000000E+00  0.00000000E+00  0.00000000E+00
  0.00000000E+00  0.00000000E+00  0.00000000E+00
  0.00000000E+00  0.00000000E+00  0.00000000E+00
  0.00000000E+00  0.00000000E+00  0.00000000E+00
  0.00000000E+00  0.00000000E+00  0.00000000E+00
  0.00000000E+00  0.00000000E+00  0.00000000E+00
  0.00000000E+00  0.00000000E+00  0.00000000E+00
  0.00000000E+00  0.00000000E+00  0.00000000E+00
  0.00000000E+00  0.00000000E+00  0.00000000E+00
  0.00000000E+00  0.00000000E+00  0.00000000E+00
  0.00000000E+00  0.00000000E+00  0.00000000E+00
  0.00000000E+00  0.00000000E+00  0.00000000E+00
  0.00000000E+00  0.00000000E+00  0.00000000E+00
  0.00000000E+00  0.00000000E+00  0.00000000E+00
  0.00000000E+00  0.00000000E+00  0.00000000E+00
  0.00000000E+00  0.00000000E+00  0.00000000E+00
  0.00000000E+00  0.00000000E+00  0.00000000E+00
