F Mg O Pt                               
   1.00000000000000     
     8.4141216974800006    0.0000000000000000    0.0000000000000000
     0.0000000000000000    8.4141216974800006    0.0000000000000000
     0.0000000000000000    0.0000000000000000   23.4141216974799988
   F    Mg   O    Pt
     1    32    32     1
Selective dynamics
Direct
  0.2399269874160635  0.2499999495650016  0.3710573497578243   T   T   T
  0.2483692549012820  0.0001470991549997  0.0047144855059156   T   T   T
  0.2483692549012820  0.4998529008450002  0.0047144855059156   T   T   T
  0.7487853453863877  0.0002506778956963  0.0048557732442017   T   T   T
  0.7487853453863877  0.4997493221043037  0.0048557732442017   T   T   T
 -0.0014395500962099  0.2500000000000000  0.0047296528652566   T   T   T
 -0.0015397138426323  0.7500000000000000  0.0047290266191285   T   T   T
  0.4986177008157553  0.2500000000000000  0.0047123977118725   T   T   T
  0.4983794912998425  0.7500000000000000  0.0045133252287931   T   T   T
 -0.0013096145980271  0.0003528876982634  0.0944845014865911   T   T   T
 -0.0013096145980271  0.4996471123017366  0.0944845014865911   T   T   T
  0.4983362986029657  0.0009142688543045  0.0940254989395347   T   T   T
  0.4983362986029657  0.4990857311456954  0.0940254989395347   T   T   T
  0.2484595081145517  0.2500000000000000  0.0942828929671786   T   T   T
  0.2476839083395713  0.7500000000000000  0.0941691397868829   T   T   T
  0.7486492488322466  0.2500000000000000  0.0946714616625418   T   T   T
  0.7489970523603996  0.7500000000000000  0.0939972203465643   T   T   T
  0.2485700867207949  0.0033649019868504  0.1856678508637498   T   T   T
  0.2485700867207949  0.4966350980131495  0.1856678508637498   T   T   T
  0.7485379103361225  0.0007609965866879  0.1850905252610820   T   T   T
  0.7485379103361225  0.4992390034133122  0.1850905252610820   T   T   T
  0.0018271742760308  0.2500000000000000  0.1853666519515104   T   T   T
 -0.0008231754571989  0.7500000000000000  0.1844478481143318   T   T   T
  0.4953725632139503  0.2500000000000000  0.1851708316494601   T   T   T
  0.4973401239077316  0.7500000000000000  0.1815802422188993   T   T   T
 -0.0006366717438657  0.0036357548192216  0.2749335703024424   T   T   T
 -0.0006366717438657  0.4963642451807785  0.2749335703024424   T   T   T
  0.4972986533141536  0.0134992903224222  0.2753649989220708   T   T   T
  0.4972986533141536  0.4865007096775778  0.2753649989220708   T   T   T
  0.2456257564125723  0.2499999495650016  0.2915587202619894   T   T   T
  0.2359494585034582  0.7500000000000000  0.2748959229458744   T   T   T
  0.7498214434659985  0.2499999495650016  0.2742113252285699   T   T   T
  0.7597881947052012  0.7500000000000000  0.2746221148479237   T   T   T
 -0.0015329826056434 -0.0000986289910033  0.0026435259483717   T   T   T
 -0.0015329826056434  0.5000986289910034  0.0026435259483717   T   T   T
  0.4986736217836111 -0.0000166821563555  0.0025303538596374   T   T   T
  0.4986736217836111  0.5000166821563551  0.0025303538596374   T   T   T
  0.2485427142809224  0.2500000000000000  0.0025642141744451   T   T   T
  0.2483337072065628  0.7500000000000000  0.0024074296923763   T   T   T
  0.7486411919653122  0.2500000000000000  0.0025899490127026   T   T   T
  0.7485194009372331  0.7500000000000000  0.0025794581835917   T   T   T
  0.2487674483367607 -0.0006395905324492  0.0943948589941584   T   T   T
  0.2487674483367607  0.5006395905324493  0.0943948589941584   T   T   T
  0.7482293093993297 -0.0005423919080367  0.0945653941249090   T   T   T
  0.7482293093993297  0.5005423919080364  0.0945653941249090   T   T   T
 -0.0016626059911029  0.2500000000000000  0.0943602397242540   T   T   T
 -0.0017315939550558  0.7500000000000000  0.0946857516935723   T   T   T
  0.4987345824518553  0.2500000000000000  0.0944997861593491   T   T   T
  0.4985223529027404  0.7500000000000000  0.0937742314085994   T   T   T
  0.9982098498937731 -0.0010754092865157  0.1843742936639456   T   T   T
  0.9982098498937731  0.5010754092865155  0.1843742936639456   T   T   T
  0.4988069305387333 -0.0031339578766881  0.1851778763376724   T   T   T
  0.4988069305387333  0.5031339578766882  0.1851778763376724   T   T   T
  0.2493746729442938  0.2500000000000000  0.1829934517639782   T   T   T
  0.2506851442047834  0.7500000000000000  0.1848521984545076   T   T   T
  0.7476887714271409  0.2500000000000000  0.1839755893945978   T   T   T
  0.7456561459671142  0.7500000000000000  0.1850645655364934   T   T   T
  0.2492273401474911  0.9957026734896269  0.2748618371351915   T   T   T
  0.2492273401474911  0.5042973265103731  0.2748618371351915   T   T   T
  0.7477754017518820 -0.0016244379641337  0.2757968718902749   T   T   T
  0.7477754017518820  0.5016244379641335  0.2757968718902749   T   T   T
  0.9946706125770302  0.2500000000000000  0.2744230641638227   T   T   T
  0.9976137498673218  0.7500000000000000  0.2758019871665817   T   T   T
  0.5024737118879691  0.2500000000000000  0.2748534944557005   T   T   T
  0.5018604245086037  0.7499998486940029  0.2788743427732372   T   T   T
  0.4825714300494537  0.7499998486940029  0.3608204633220642   T   T   T
 
  0.00000000E+00  0.00000000E+00  0.00000000E+00
  0.00000000E+00  0.00000000E+00  0.00000000E+00
  0.00000000E+00  0.00000000E+00  0.00000000E+00
  0.00000000E+00  0.00000000E+00  0.00000000E+00
  0.00000000E+00  0.00000000E+00  0.00000000E+00
  0.00000000E+00  0.00000000E+00  0.00000000E+00
  0.00000000E+00  0.00000000E+00  0.00000000E+00
  0.00000000E+00  0.00000000E+00  0.00000000E+00
  0.00000000E+00  0.00000000E+00  0.00000000E+00
  0.00000000E+00  0.00000000E+00  0.00000000E+00
  0.00000000E+00  0.00000000E+00  0.00000000E+00
  0.00000000E+00  0.00000000E+00  0.00000000E+00
  0.00000000E+00  0.00000000E+00  0.00000000E+00
  0.00000000E+00  0.00000000E+00  0.00000000E+00
  0.00000000E+00  0.00000000E+00  0.00000000E+00
  0.00000000E+00  0.00000000E+00  0.00000000E+00
  0.00000000E+00  0.00000000E+00  0.00000000E+00
  0.00000000E+00  0.00000000E+00  0.00000000E+00
  0.00000000E+00  0.00000000E+00  0.00000000E+00
  0.00000000E+00  0.00000000E+00  0.00000000E+00
  0.00000000E+00  0.00000000E+00  0.00000000E+00
  0.00000000E+00  0.00000000E+00  0.00000000E+00
  0.00000000E+00  0.00000000E+00  0.00000000E+00
  0.00000000E+00  0.00000000E+00  0.00000000E+00
  0.00000000E+00  0.00000000E+00  0.00000000E+00
  0.00000000E+00  0.00000000E+00  0.00000000E+00
  0.00000000E+00  0.00000000E+00  0.00000000E+00
  0.00000000E+00  0.00000000E+00  0.00000000E+00
  0.00000000E+00  0.00000000E+00  0.00000000E+00
  0.00000000E+00  0.00000000E+00  0.00000000E+00
  0.00000000E+00  0.00000000E+00  0.00000000E+00
  0.00000000E+00  0.00000000E+00  0.00000000E+00
  0.00000000E+00  0.00000000E+00  0.00000000E+00
  0.00000000E+00  0.00000000E+00  0.00000000E+00
  0.00000000E+00  0.00000000E+00  0.00000000E+00
  0.00000000E+00  0.00000000E+00  0.00000000E+00
  0.00000000E+00  0.00000000E+00  0.00000000E+00
  0.00000000E+00  0.00000000E+00  0.00000000E+00
  0.00000000E+00  0.00000000E+00  0.00000000E+00
  0.00000000E+00  0.00000000E+00  0.00000000E+00
  0.00000000E+00  0.00000000E+00  0.00000000E+00
  0.00000000E+00  0.00000000E+00  0.00000000E+00
  0.00000000E+00  0.00000000E+00  0.00000000E+00
  0.00000000E+00  0.00000000E+00  0.00000000E+00
  0.00000000E+00  0.00000000E+00  0.00000000E+00
  0.00000000E+00  0.00000000E+00  0.00000000E+00
  0.00000000E+00  0.00000000E+00  0.00000000E+00
  0.00000000E+00  0.00000000E+00  0.00000000E+00
  0.00000000E+00  0.00000000E+00  0.00000000E+00
  0.00000000E+00  0.00000000E+00  0.00000000E+00
  0.00000000E+00  0.00000000E+00  0.00000000E+00
  0.00000000E+00  0.00000000E+00  0.00000000E+00
  0.00000000E+00  0.00000000E+00  0.00000000E+00
  0.00000000E+00  0.00000000E+00  0.00000000E+00
  0.00000000E+00  0.00000000E+00  0.00000000E+00
  0.00000000E+00  0.00000000E+00  0.00000000E+00
  0.00000000E+00  0.00000000E+00  0.00000000E+00
  0.00000000E+00  0.00000000E+00  0.00000000E+00
  0.00000000E+00  0.00000000E+00  0.00000000E+00
  0.00000000E+00  0.00000000E+00  0.00000000E+00
  0.00000000E+00  0.00000000E+00  0.00000000E+00
  0.00000000E+00  0.00000000E+00  0.00000000E+00
  0.00000000E+00  0.00000000E+00  0.00000000E+00
  0.00000000E+00  0.00000000E+00  0.00000000E+00
  0.00000000E+00  0.00000000E+00  0.00000000E+00
  0.00000000E+00  0.00000000E+00  0.00000000E+00
