F Mg O Pd                               
   1.00000000000000     
     8.4141216974800006    0.0000000000000000    0.0000000000000000
     0.0000000000000000    8.4141216974800006    0.0000000000000000
     0.0000000000000000    0.0000000000000000   23.4141216974799988
   F    Mg   O    Pd
     1    32    32     1
Selective dynamics
Direct
  0.2752623602275472  0.2499999495650016  0.3735245958810061   T   T   T
  0.2484933560339903  0.0001966977407811  0.0045018078188290   T   T   T
  0.2484933560339903  0.4998033022592190  0.0045018078188290   T   T   T
  0.7489671943432842  0.0003695670040226  0.0045865936209480   T   T   T
  0.7489671943432842  0.4996304329959775  0.0045865936209480   T   T   T
 -0.0015918791041099  0.2500000000000000  0.0046588940681987   T   T   T
 -0.0015755644091859  0.7500000000000000  0.0045137452855193   T   T   T
  0.4989110181315261  0.2500000000000000  0.0045673957834553   T   T   T
  0.4985539420325624  0.7500000000000000  0.0041685597214690   T   T   T
 -0.0009939030131650  0.0006804003128277  0.0942307631753270   T   T   T
 -0.0009939030131650  0.4993195996871724  0.0942307631753270   T   T   T
  0.4987864443919708  0.0005155232499459  0.0938031688817883   T   T   T
  0.4987864443919708  0.4994844767500541  0.0938031688817883   T   T   T
  0.2484529182322871  0.2500000000000000  0.0938978332964193   T   T   T
  0.2481381452187078  0.7500000000000000  0.0937961761927397   T   T   T
  0.7494204256287331  0.2500000000000000  0.0945975320780827   T   T   T
  0.7485051927997647  0.7500000000000000  0.0937341114216652   T   T   T
  0.2491960605184614  0.0043906878055474  0.1850876164822746   T   T   T
  0.2491960605184614  0.4956093121944524  0.1850876164822746   T   T   T
  0.7493551281987860  0.0011293674992519  0.1849830052772936   T   T   T
  0.7493551281987860  0.4988706325007479  0.1849830052772936   T   T   T
  0.0033515240196094  0.2500000000000000  0.1861470084537754   T   T   T
 -0.0026539349617809  0.7500000000000000  0.1839352804516905   T   T   T
  0.4960076782753256  0.2500000000000000  0.1849877994255816   T   T   T
  0.4977312918315925  0.7500000000000000  0.1821287783442635   T   T   T
 -0.0006675033612854  0.0028319966967042  0.2752480646714298   T   T   T
 -0.0006675033612854  0.4971680033032958  0.2752480646714298   T   T   T
  0.4997934006469932  0.0105166588989571  0.2738454298977802   T   T   T
  0.4997934006469932  0.4894833411010430  0.2738454298977802   T   T   T
  0.2506552165810044  0.2499999495650016  0.2949043184295627   T   T   T
  0.2353119104688599  0.7500000000000000  0.2704067858894170   T   T   T
  0.7509437419433194  0.2499999495650016  0.2745647773550843   T   T   T
  0.7550243808238656  0.7500000000000000  0.2745422541640842   T   T   T
 -0.0014471964490320 -0.0000570591849213  0.0024590129594902   T   T   T
 -0.0014471964490320  0.5000570591849212  0.0024590129594902   T   T   T
  0.4988670757021820  0.0001448143095744  0.0022946603562406   T   T   T
  0.4988670757021820  0.4998551856904255  0.0022946603562406   T   T   T
  0.2486206840525661  0.2500000000000000  0.0023219291608597   T   T   T
  0.2482659181679905  0.7500000000000000  0.0021877610258465   T   T   T
  0.7487145929559241  0.2500000000000000  0.0024601947927287   T   T   T
  0.7487575103580350  0.7500000000000000  0.0022137395076854   T   T   T
  0.2488935570167577 -0.0005625031964546  0.0941691395524425   T   T   T
  0.2488935570167577  0.5005625031964548  0.0941691395524425   T   T   T
  0.7487439198923730 -0.0004566460671824  0.0945497220576351   T   T   T
  0.7487439198923730  0.5004566460671824  0.0945497220576351   T   T   T
 -0.0013998540440204  0.2500000000000000  0.0943495902730779   T   T   T
 -0.0020181208136626  0.7500000000000000  0.0944666596094458   T   T   T
  0.4994645508735561  0.2500000000000000  0.0943208147429023   T   T   T
  0.4988092832857028  0.7500000000000000  0.0937847793081361   T   T   T
  0.9994678323014272 -0.0008336134105687  0.1847694212521937   T   T   T
  0.9994678323014272  0.5008336134105689  0.1847694212521937   T   T   T
  0.4990937844500241 -0.0030314938088864  0.1848139818877259   T   T   T
  0.4990937844500241  0.5030314938088866  0.1848139818877259   T   T   T
  0.2497304380411763  0.2500000000000000  0.1827143373859828   T   T   T
  0.2500432743056316  0.7500000000000000  0.1838783208550653   T   T   T
  0.7497674074728301  0.2500000000000000  0.1842541998040863   T   T   T
  0.7454931312827384  0.7500000000000000  0.1850890936644202   T   T   T
  0.2509331192757842  0.9935739299450803  0.2762636717687679   T   T   T
  0.2509331192757842  0.5064260700549197  0.2762636717687679   T   T   T
  0.7486185117972225 -0.0014764941582463  0.2763991696370029   T   T   T
  0.7486185117972225  0.5014764941582466  0.2763991696370029   T   T   T
  0.9980410523543483  0.2500000000000000  0.2761076067691824   T   T   T
  0.9963948286486853  0.7500000000000000  0.2754290273539455   T   T   T
  0.5040304994849732  0.2500000000000000  0.2737026717941575   T   T   T
  0.5029645210416617  0.7499998486940029  0.2812506907331301   T   T   T
  0.4170173011316987  0.7499998486940029  0.3631830525869683   T   T   T
 
  0.00000000E+00  0.00000000E+00  0.00000000E+00
  0.00000000E+00  0.00000000E+00  0.00000000E+00
  0.00000000E+00  0.00000000E+00  0.00000000E+00
  0.00000000E+00  0.00000000E+00  0.00000000E+00
  0.00000000E+00  0.00000000E+00  0.00000000E+00
  0.00000000E+00  0.00000000E+00  0.00000000E+00
  0.00000000E+00  0.00000000E+00  0.00000000E+00
  0.00000000E+00  0.00000000E+00  0.00000000E+00
  0.00000000E+00  0.00000000E+00  0.00000000E+00
  0.00000000E+00  0.00000000E+00  0.00000000E+00
  0.00000000E+00  0.00000000E+00  0.00000000E+00
  0.00000000E+00  0.00000000E+00  0.00000000E+00
  0.00000000E+00  0.00000000E+00  0.00000000E+00
  0.00000000E+00  0.00000000E+00  0.00000000E+00
  0.00000000E+00  0.00000000E+00  0.00000000E+00
  0.00000000E+00  0.00000000E+00  0.00000000E+00
  0.00000000E+00  0.00000000E+00  0.00000000E+00
  0.00000000E+00  0.00000000E+00  0.00000000E+00
  0.00000000E+00  0.00000000E+00  0.00000000E+00
  0.00000000E+00  0.00000000E+00  0.00000000E+00
  0.00000000E+00  0.00000000E+00  0.00000000E+00
  0.00000000E+00  0.00000000E+00  0.00000000E+00
  0.00000000E+00  0.00000000E+00  0.00000000E+00
  0.00000000E+00  0.00000000E+00  0.00000000E+00
  0.00000000E+00  0.00000000E+00  0.00000000E+00
  0.00000000E+00  0.00000000E+00  0.00000000E+00
  0.00000000E+00  0.00000000E+00  0.00000000E+00
  0.00000000E+00  0.00000000E+00  0.00000000E+00
  0.00000000E+00  0.00000000E+00  0.00000000E+00
  0.00000000E+00  0.00000000E+00  0.00000000E+00
  0.00000000E+00  0.00000000E+00  0.00000000E+00
  0.00000000E+00  0.00000000E+00  0.00000000E+00
  0.00000000E+00  0.00000000E+00  0.00000000E+00
  0.00000000E+00  0.00000000E+00  0.00000000E+00
  0.00000000E+00  0.00000000E+00  0.00000000E+00
  0.00000000E+00  0.00000000E+00  0.00000000E+00
  0.00000000E+00  0.00000000E+00  0.00000000E+00
  0.00000000E+00  0.00000000E+00  0.00000000E+00
  0.00000000E+00  0.00000000E+00  0.00000000E+00
  0.00000000E+00  0.00000000E+00  0.00000000E+00
  0.00000000E+00  0.00000000E+00  0.00000000E+00
  0.00000000E+00  0.00000000E+00  0.00000000E+00
  0.00000000E+00  0.00000000E+00  0.00000000E+00
  0.00000000E+00  0.00000000E+00  0.00000000E+00
  0.00000000E+00  0.00000000E+00  0.00000000E+00
  0.00000000E+00  0.00000000E+00  0.00000000E+00
  0.00000000E+00  0.00000000E+00  0.00000000E+00
  0.00000000E+00  0.00000000E+00  0.00000000E+00
  0.00000000E+00  0.00000000E+00  0.00000000E+00
  0.00000000E+00  0.00000000E+00  0.00000000E+00
  0.00000000E+00  0.00000000E+00  0.00000000E+00
  0.00000000E+00  0.00000000E+00  0.00000000E+00
  0.00000000E+00  0.00000000E+00  0.00000000E+00
  0.00000000E+00  0.00000000E+00  0.00000000E+00
  0.00000000E+00  0.00000000E+00  0.00000000E+00
  0.00000000E+00  0.00000000E+00  0.00000000E+00
  0.00000000E+00  0.00000000E+00  0.00000000E+00
  0.00000000E+00  0.00000000E+00  0.00000000E+00
  0.00000000E+00  0.00000000E+00  0.00000000E+00
  0.00000000E+00  0.00000000E+00  0.00000000E+00
  0.00000000E+00  0.00000000E+00  0.00000000E+00
  0.00000000E+00  0.00000000E+00  0.00000000E+00
  0.00000000E+00  0.00000000E+00  0.00000000E+00
  0.00000000E+00  0.00000000E+00  0.00000000E+00
  0.00000000E+00  0.00000000E+00  0.00000000E+00
  0.00000000E+00  0.00000000E+00  0.00000000E+00
