F Mg O Ru                               
   1.00000000000000     
     8.4141216974800006    0.0000000000000000    0.0000000000000000
     0.0000000000000000    8.4141216974800006    0.0000000000000000
     0.0000000000000000    0.0000000000000000   23.4141216974799988
   F    Mg   O    Ru
     1    32    32     1
Selective dynamics
Direct
  0.2606372894840116  0.2499999495650016  0.3744718921731020   T   T   T
  0.2483878181784966 -0.0000954478867651  0.0041935873115082   T   T   T
  0.2483878181784966  0.5000954478867650  0.0041935873115082   T   T   T
  0.7484239060670728  0.0001814668288632  0.0043217499601733   T   T   T
  0.7484239060670728  0.4998185331711366  0.0043217499601733   T   T   T
 -0.0018384673724432  0.2500000000000000  0.0043424078237725   T   T   T
 -0.0014499238628667  0.7500000000000000  0.0041643930624207   T   T   T
  0.4986220224490885  0.2500000000000000  0.0041505000855212   T   T   T
  0.4984505297834813  0.7500000000000000  0.0038204488480354   T   T   T
 -0.0011643588355750  0.0007950377236633  0.0940480146006634   T   T   T
 -0.0011643588355750  0.4992049622763367  0.0940480146006634   T   T   T
  0.4981358764975146  0.0006868097186420  0.0935035442883099   T   T   T
  0.4981358764975146  0.4993131902813580  0.0935035442883099   T   T   T
  0.2481723706965056  0.2500000000000000  0.0937096663287406   T   T   T
  0.2479785809906939  0.7500000000000000  0.0936197747287195   T   T   T
  0.7489937889722434  0.2500000000000000  0.0943336061677752   T   T   T
  0.7487262232262935  0.7500000000000000  0.0933504688711104   T   T   T
  0.2482959035181149  0.0044556800756109  0.1854482523887408   T   T   T
  0.2482959035181149  0.4955443199243890  0.1854482523887408   T   T   T
  0.7487915004412228  0.0009315112142465  0.1847194902478227   T   T   T
  0.7487915004412228  0.4990684887857533  0.1847194902478227   T   T   T
  0.0029498320134739  0.2500000000000000  0.1857565252984329   T   T   T
 -0.0018319193341835  0.7500000000000000  0.1838010111755642   T   T   T
  0.4946842081747003  0.2500000000000000  0.1846787229406302   T   T   T
  0.4976410003137397  0.7500000000000000  0.1809895669723987   T   T   T
 -0.0002170329063592  0.0034429841565652  0.2749765589047384   T   T   T
 -0.0002170329063592  0.4965570158434349  0.2749765589047384   T   T   T
  0.4972119326371292  0.0126522879140651  0.2732907439164934   T   T   T
  0.4972119326371292  0.4873477120859348  0.2732907439164934   T   T   T
  0.2474022775594048  0.2499999495650016  0.2954313613176625   T   T   T
  0.2347218203260527  0.7500000000000000  0.2723942585334698   T   T   T
  0.7500437286540701  0.2499999495650016  0.2744206871651628   T   T   T
  0.7579425069031073  0.7500000000000000  0.2739900447221065   T   T   T
 -0.0016545658804859 -0.0000945442495679  0.0021950799427100   T   T   T
 -0.0016545658804859  0.5000945442495679  0.0021950799427100   T   T   T
  0.4984592696177543  0.0000248012846264  0.0018512920822091   T   T   T
  0.4984592696177543  0.4999751987153734  0.0018512920822091   T   T   T
  0.2484088916190979  0.2500000000000000  0.0020256269067115   T   T   T
  0.2483583646365030  0.7500000000000000  0.0017456439999085   T   T   T
  0.7483589370676482  0.2500000000000000  0.0021926258205877   T   T   T
  0.7485532154368520  0.7500000000000000  0.0019330961243973   T   T   T
  0.2487219896843953 -0.0009073415225550  0.0939164222512041   T   T   T
  0.2487219896843953  0.5009073415225549  0.0939164222512041   T   T   T
  0.7481958270481323 -0.0005928667621105  0.0942871343126329   T   T   T
  0.7481958270481323  0.5005928667621106  0.0942871343126329   T   T   T
 -0.0020599039218910  0.2500000000000000  0.0939449215509721   T   T   T
 -0.0018661121206497  0.7500000000000000  0.0942647799304214   T   T   T
  0.4992427948415825  0.2500000000000000  0.0940911771921203   T   T   T
  0.4986454156144978  0.7500000000000000  0.0933204428585525   T   T   T
 -0.0017317534043239 -0.0010531681560392  0.1845875958126061   T   T   T
 -0.0017317534043239  0.5010531681560391  0.1845875958126061   T   T   T
  0.4987552219137591 -0.0036309502010604  0.1847682141177219   T   T   T
  0.4987552219137591  0.5036309502010606  0.1847682141177219   T   T   T
  0.2491358858631135  0.2500000000000000  0.1820785106946644   T   T   T
  0.2510616244898389  0.7500000000000000  0.1844051032729016   T   T   T
  0.7485221009785205  0.2500000000000000  0.1841814777745512   T   T   T
  0.7449602468795293  0.7500000000000000  0.1849760497825949   T   T   T
  0.2506192676614259  0.9937314311120229  0.2758105893750031   T   T   T
  0.2506192676614259  0.5062685688879771  0.2758105893750031   T   T   T
  0.7467498263280875 -0.0022889106213253  0.2764626773705725   T   T   T
  0.7467498263280875  0.5022889106213252  0.2764626773705725   T   T   T
  0.9958562423131191  0.2500000000000000  0.2757893333490058   T   T   T
  0.9964206303951727  0.7500000000000000  0.2753878070452729   T   T   T
  0.5027533222160475  0.2500000000000000  0.2739917510922609   T   T   T
  0.5023148034749338  0.7499998486940029  0.2843611915240209   T   T   T
  0.4628733639369993  0.7499998486940029  0.3676530784971818   T   T   T
 
  0.00000000E+00  0.00000000E+00  0.00000000E+00
  0.00000000E+00  0.00000000E+00  0.00000000E+00
  0.00000000E+00  0.00000000E+00  0.00000000E+00
  0.00000000E+00  0.00000000E+00  0.00000000E+00
  0.00000000E+00  0.00000000E+00  0.00000000E+00
  0.00000000E+00  0.00000000E+00  0.00000000E+00
  0.00000000E+00  0.00000000E+00  0.00000000E+00
  0.00000000E+00  0.00000000E+00  0.00000000E+00
  0.00000000E+00  0.00000000E+00  0.00000000E+00
  0.00000000E+00  0.00000000E+00  0.00000000E+00
  0.00000000E+00  0.00000000E+00  0.00000000E+00
  0.00000000E+00  0.00000000E+00  0.00000000E+00
  0.00000000E+00  0.00000000E+00  0.00000000E+00
  0.00000000E+00  0.00000000E+00  0.00000000E+00
  0.00000000E+00  0.00000000E+00  0.00000000E+00
  0.00000000E+00  0.00000000E+00  0.00000000E+00
  0.00000000E+00  0.00000000E+00  0.00000000E+00
  0.00000000E+00  0.00000000E+00  0.00000000E+00
  0.00000000E+00  0.00000000E+00  0.00000000E+00
  0.00000000E+00  0.00000000E+00  0.00000000E+00
  0.00000000E+00  0.00000000E+00  0.00000000E+00
  0.00000000E+00  0.00000000E+00  0.00000000E+00
  0.00000000E+00  0.00000000E+00  0.00000000E+00
  0.00000000E+00  0.00000000E+00  0.00000000E+00
  0.00000000E+00  0.00000000E+00  0.00000000E+00
  0.00000000E+00  0.00000000E+00  0.00000000E+00
  0.00000000E+00  0.00000000E+00  0.00000000E+00
  0.00000000E+00  0.00000000E+00  0.00000000E+00
  0.00000000E+00  0.00000000E+00  0.00000000E+00
  0.00000000E+00  0.00000000E+00  0.00000000E+00
  0.00000000E+00  0.00000000E+00  0.00000000E+00
  0.00000000E+00  0.00000000E+00  0.00000000E+00
  0.00000000E+00  0.00000000E+00  0.00000000E+00
  0.00000000E+00  0.00000000E+00  0.00000000E+00
  0.00000000E+00  0.00000000E+00  0.00000000E+00
  0.00000000E+00  0.00000000E+00  0.00000000E+00
  0.00000000E+00  0.00000000E+00  0.00000000E+00
  0.00000000E+00  0.00000000E+00  0.00000000E+00
  0.00000000E+00  0.00000000E+00  0.00000000E+00
  0.00000000E+00  0.00000000E+00  0.00000000E+00
  0.00000000E+00  0.00000000E+00  0.00000000E+00
  0.00000000E+00  0.00000000E+00  0.00000000E+00
  0.00000000E+00  0.00000000E+00  0.00000000E+00
  0.00000000E+00  0.00000000E+00  0.00000000E+00
  0.00000000E+00  0.00000000E+00  0.00000000E+00
  0.00000000E+00  0.00000000E+00  0.00000000E+00
  0.00000000E+00  0.00000000E+00  0.00000000E+00
  0.00000000E+00  0.00000000E+00  0.00000000E+00
  0.00000000E+00  0.00000000E+00  0.00000000E+00
  0.00000000E+00  0.00000000E+00  0.00000000E+00
  0.00000000E+00  0.00000000E+00  0.00000000E+00
  0.00000000E+00  0.00000000E+00  0.00000000E+00
  0.00000000E+00  0.00000000E+00  0.00000000E+00
  0.00000000E+00  0.00000000E+00  0.00000000E+00
  0.00000000E+00  0.00000000E+00  0.00000000E+00
  0.00000000E+00  0.00000000E+00  0.00000000E+00
  0.00000000E+00  0.00000000E+00  0.00000000E+00
  0.00000000E+00  0.00000000E+00  0.00000000E+00
  0.00000000E+00  0.00000000E+00  0.00000000E+00
  0.00000000E+00  0.00000000E+00  0.00000000E+00
  0.00000000E+00  0.00000000E+00  0.00000000E+00
  0.00000000E+00  0.00000000E+00  0.00000000E+00
  0.00000000E+00  0.00000000E+00  0.00000000E+00
  0.00000000E+00  0.00000000E+00  0.00000000E+00
  0.00000000E+00  0.00000000E+00  0.00000000E+00
  0.00000000E+00  0.00000000E+00  0.00000000E+00
