W F Mg O                                
   1.00000000000000     
     8.4141216974800006    0.0000000000000000    0.0000000000000000
     0.0000000000000000    8.4141216974800006    0.0000000000000000
     0.0000000000000000    0.0000000000000000   23.4141216974799988
   W    F    Mg   O 
     1     1    32    32
Selective dynamics
Direct
  0.4819038146306335  0.7499998486940029  0.3715184015214338   T   T   T
  0.2595874185022930  0.2499999495650016  0.3729987577051652   T   T   T
  0.2478518031076189  0.0001286070996934  0.0043393972247616   T   T   T
  0.2478518031076189  0.4998713929003066  0.0043393972247616   T   T   T
  0.7482936675713516  0.0003237764155914  0.0044894205353868   T   T   T
  0.7482936675713516  0.4996762235844086  0.0044894205353868   T   T   T
  0.9978830191396515  0.2500000000000000  0.0045604376331786   T   T   T
  0.9979993466739394  0.7500000000000000  0.0042482091632890   T   T   T
  0.4982255916282096  0.2500000000000000  0.0042483462876715   T   T   T
  0.4979993980660790  0.7500000000000000  0.0038325110517126   T   T   T
  0.9984677283069983  0.0007915061077037  0.0942194186115468   T   T   T
  0.9984677283069983  0.4992084938922963  0.0942194186115468   T   T   T
  0.4978693878197638  0.0010373395067316  0.0935047149100720   T   T   T
  0.4978693878197638  0.4989626604932684  0.0935047149100720   T   T   T
  0.2478083959679146  0.2500000000000000  0.0940087576715503   T   T   T
  0.2473755352694629  0.7500000000000000  0.0935678767256223   T   T   T
  0.7486914889472227  0.2500000000000000  0.0944742639167293   T   T   T
  0.7487890253802310  0.7500000000000000  0.0934300194533483   T   T   T
  0.2481223167903233  0.0042583007288146  0.1855189013989688   T   T   T
  0.2481223167903233  0.4957416992711853  0.1855189013989688   T   T   T
  0.7484389288110004  0.0009801903356698  0.1848437836447128   T   T   T
  0.7484389288110004  0.4990198096643302  0.1848437836447128   T   T   T
  0.0023963217757899  0.2500000000000000  0.1858390391290290   T   T   T
  0.9984918580311780  0.7500000000000000  0.1839469320017329   T   T   T
  0.4948078636801179  0.2500000000000000  0.1848778088216610   T   T   T
  0.4974287679198918  0.7500000000000000  0.1803198815533361   T   T   T
 -0.0000470902827795  0.0035832080135608  0.2751139858067647   T   T   T
 -0.0000470902827795  0.4964167919864392  0.2751139858067647   T   T   T
  0.4964528606894631  0.0135705999299980  0.2738052208840621   T   T   T
  0.4964528606894631  0.4864294000700020  0.2738052208840621   T   T   T
  0.2467051149727464  0.2499999495650016  0.2942433969310351   T   T   T
  0.2354437552971047  0.7500000000000000  0.2721888063369956   T   T   T
  0.7498692294175182  0.2499999495650016  0.2745763121664515   T   T   T
  0.7589212837738423  0.7500000000000000  0.2734569974399870   T   T   T
  0.9979123962891567  0.9999300358694657  0.0023346247601746   T   T   T
  0.9979123962891567  0.5000699641305343  0.0023346247601746   T   T   T
  0.4981981426632635  0.0001919631235942  0.0020168239557096   T   T   T
  0.4981981426632635  0.4998080368764058  0.0020168239557096   T   T   T
  0.2480840493863066  0.2500000000000000  0.0021738202876132   T   T   T
  0.2477409718873792  0.7500000000000000  0.0018708503653423   T   T   T
  0.7480662488049624  0.2500000000000000  0.0023361447852576   T   T   T
  0.7482910754769116  0.7500000000000000  0.0021100891357247   T   T   T
  0.2485386436873650  0.9991104906539280  0.0940685102509845   T   T   T
  0.2485386436873650  0.5008895093460720  0.0940685102509845   T   T   T
  0.7478072299846259  0.9993851406087039  0.0944219540705798   T   T   T
  0.7478072299846259  0.5006148593912961  0.0944219540705798   T   T   T
  0.9977148088194622  0.2500000000000000  0.0941606302110195   T   T   T
  0.9978444081569210  0.7500000000000000  0.0944334521764703   T   T   T
  0.4988280795762490  0.2500000000000000  0.0942730214589132   T   T   T
  0.4983560150253757  0.7500000000000000  0.0931549505547794   T   T   T
  0.9978765154836233  0.9988902139590283  0.1845369390309796   T   T   T
  0.9978765154836233  0.5011097860409717  0.1845369390309796   T   T   T
  0.4986782710713861  0.9960109993773538  0.1849853753085999   T   T   T
  0.4986782710713861  0.5039890006226462  0.1849853753085999   T   T   T
  0.2490167290551080  0.2500000000000000  0.1824406270991478   T   T   T
  0.2511892009623087  0.7500000000000000  0.1843183617007585   T   T   T
  0.7479374170323664  0.2500000000000000  0.1842240368518878   T   T   T
  0.7447223268677717  0.7500000000000000  0.1849780427243220   T   T   T
  0.2502696535347100  0.9934168137831125  0.2754798498475570   T   T   T
  0.2502696535347100  0.5065831862168875  0.2754798498475570   T   T   T
  0.7464218853352982  0.9971175094488764  0.2765061856526844   T   T   T
  0.7464218853352982  0.5028824905511236  0.2765061856526844   T   T   T
  0.9949826912757180  0.2500000000000000  0.2754140172953158   T   T   T
  0.9970691170953939  0.7500000000000000  0.2754613267768715   T   T   T
  0.5030169039716864  0.2500000000000000  0.2740189156272748   T   T   T
  0.4998549956369491  0.7499998486940029  0.2869964466622704   T   T   T
 
  0.00000000E+00  0.00000000E+00  0.00000000E+00
  0.00000000E+00  0.00000000E+00  0.00000000E+00
  0.00000000E+00  0.00000000E+00  0.00000000E+00
  0.00000000E+00  0.00000000E+00  0.00000000E+00
  0.00000000E+00  0.00000000E+00  0.00000000E+00
  0.00000000E+00  0.00000000E+00  0.00000000E+00
  0.00000000E+00  0.00000000E+00  0.00000000E+00
  0.00000000E+00  0.00000000E+00  0.00000000E+00
  0.00000000E+00  0.00000000E+00  0.00000000E+00
  0.00000000E+00  0.00000000E+00  0.00000000E+00
  0.00000000E+00  0.00000000E+00  0.00000000E+00
  0.00000000E+00  0.00000000E+00  0.00000000E+00
  0.00000000E+00  0.00000000E+00  0.00000000E+00
  0.00000000E+00  0.00000000E+00  0.00000000E+00
  0.00000000E+00  0.00000000E+00  0.00000000E+00
  0.00000000E+00  0.00000000E+00  0.00000000E+00
  0.00000000E+00  0.00000000E+00  0.00000000E+00
  0.00000000E+00  0.00000000E+00  0.00000000E+00
  0.00000000E+00  0.00000000E+00  0.00000000E+00
  0.00000000E+00  0.00000000E+00  0.00000000E+00
  0.00000000E+00  0.00000000E+00  0.00000000E+00
  0.00000000E+00  0.00000000E+00  0.00000000E+00
  0.00000000E+00  0.00000000E+00  0.00000000E+00
  0.00000000E+00  0.00000000E+00  0.00000000E+00
  0.00000000E+00  0.00000000E+00  0.00000000E+00
  0.00000000E+00  0.00000000E+00  0.00000000E+00
  0.00000000E+00  0.00000000E+00  0.00000000E+00
  0.00000000E+00  0.00000000E+00  0.00000000E+00
  0.00000000E+00  0.00000000E+00  0.00000000E+00
  0.00000000E+00  0.00000000E+00  0.00000000E+00
  0.00000000E+00  0.00000000E+00  0.00000000E+00
  0.00000000E+00  0.00000000E+00  0.00000000E+00
  0.00000000E+00  0.00000000E+00  0.00000000E+00
  0.00000000E+00  0.00000000E+00  0.00000000E+00
  0.00000000E+00  0.00000000E+00  0.00000000E+00
  0.00000000E+00  0.00000000E+00  0.00000000E+00
  0.00000000E+00  0.00000000E+00  0.00000000E+00
  0.00000000E+00  0.00000000E+00  0.00000000E+00
  0.00000000E+00  0.00000000E+00  0.00000000E+00
  0.00000000E+00  0.00000000E+00  0.00000000E+00
  0.00000000E+00  0.00000000E+00  0.00000000E+00
  0.00000000E+00  0.00000000E+00  0.00000000E+00
  0.00000000E+00  0.00000000E+00  0.00000000E+00
  0.00000000E+00  0.00000000E+00  0.00000000E+00
  0.00000000E+00  0.00000000E+00  0.00000000E+00
  0.00000000E+00  0.00000000E+00  0.00000000E+00
  0.00000000E+00  0.00000000E+00  0.00000000E+00
  0.00000000E+00  0.00000000E+00  0.00000000E+00
  0.00000000E+00  0.00000000E+00  0.00000000E+00
  0.00000000E+00  0.00000000E+00  0.00000000E+00
  0.00000000E+00  0.00000000E+00  0.00000000E+00
  0.00000000E+00  0.00000000E+00  0.00000000E+00
  0.00000000E+00  0.00000000E+00  0.00000000E+00
  0.00000000E+00  0.00000000E+00  0.00000000E+00
  0.00000000E+00  0.00000000E+00  0.00000000E+00
  0.00000000E+00  0.00000000E+00  0.00000000E+00
  0.00000000E+00  0.00000000E+00  0.00000000E+00
  0.00000000E+00  0.00000000E+00  0.00000000E+00
  0.00000000E+00  0.00000000E+00  0.00000000E+00
  0.00000000E+00  0.00000000E+00  0.00000000E+00
  0.00000000E+00  0.00000000E+00  0.00000000E+00
  0.00000000E+00  0.00000000E+00  0.00000000E+00
  0.00000000E+00  0.00000000E+00  0.00000000E+00
  0.00000000E+00  0.00000000E+00  0.00000000E+00
  0.00000000E+00  0.00000000E+00  0.00000000E+00
  0.00000000E+00  0.00000000E+00  0.00000000E+00
