F Mg O Rh                               
   1.00000000000000     
     8.4141216974800006    0.0000000000000000    0.0000000000000000
     0.0000000000000000    8.4141216974800006    0.0000000000000000
     0.0000000000000000    0.0000000000000000   23.4141216974799988
   F    Mg   O    Rh
     1    32    32     1
Selective dynamics
Direct
  0.2684934508308655  0.2499999495650016  0.3734467823675841   T   T   T
  0.2481754969873034  0.0000231030401466  0.0046483977355038   T   T   T
  0.2481754969873034  0.4999768969598534  0.0046483977355038   T   T   T
  0.7487037362125585  0.0002088588153021  0.0046380523220197   T   T   T
  0.7487037362125585  0.4997911411846980  0.0046380523220197   T   T   T
 -0.0015525557451942  0.2500000000000000  0.0047711896982270   T   T   T
 -0.0017069195884087  0.7500000000000000  0.0044999638325935   T   T   T
  0.4987404629862334  0.2500000000000000  0.0044847755902988   T   T   T
  0.4982784023808863  0.7500000000000000  0.0042638849944197   T   T   T
 -0.0012029502386387  0.0006477133412587  0.0942905290732250   T   T   T
 -0.0012029502386387  0.4993522866587413  0.0942905290732250   T   T   T
  0.4983079224656534  0.0006269520774154  0.0936413587961382   T   T   T
  0.4983079224656534  0.4993730479225845  0.0936413587961382   T   T   T
  0.2483051622106038  0.2500000000000000  0.0940107892578936   T   T   T
  0.2477004567415808  0.7500000000000000  0.0937987180709217   T   T   T
  0.7491683734861426  0.2500000000000000  0.0944485743746562   T   T   T
  0.7486130923546535  0.7500000000000000  0.0936553753630312   T   T   T
  0.2488369408781238  0.0043936919460615  0.1851312431296263   T   T   T
  0.2488369408781238  0.4956063080539384  0.1851312431296263   T   T   T
  0.7492082721587530  0.0009600315991854  0.1845784952699043   T   T   T
  0.7492082721587530  0.4990399684008145  0.1845784952699043   T   T   T
  0.0032854616326630  0.2500000000000000  0.1856926392993573   T   T   T
 -0.0017657626565023  0.7500000000000000  0.1839937010295579   T   T   T
  0.4954275211850360  0.2500000000000000  0.1846694248218902   T   T   T
  0.4976225318829846  0.7500000000000000  0.1815657195624260   T   T   T
 -0.0002015302140141  0.0032967741666549  0.2747841355391755   T   T   T
 -0.0002015302140141  0.4967032258333451  0.2747841355391755   T   T   T
  0.4988302570058613  0.0117100015685510  0.2731988335211024   T   T   T
  0.4988302570058613  0.4882899984314490  0.2731988335211024   T   T   T
  0.2496070431785093  0.2499999495650016  0.2946851030040230   T   T   T
  0.2367264163752811  0.7500000000000000  0.2714346107230738   T   T   T
  0.7506717513588772  0.2499999495650016  0.2740647229582894   T   T   T
  0.7566424189769886  0.7500000000000000  0.2739051688645359   T   T   T
 -0.0015951687205011 -0.0001632729116645  0.0026090575017168   T   T   T
 -0.0015951687205011  0.5001632729116647  0.0026090575017168   T   T   T
  0.4985013175031737  0.0000390677889511  0.0023139768572392   T   T   T
  0.4985013175031737  0.4999609322110490  0.0023139768572392   T   T   T
  0.2485808062528221  0.2500000000000000  0.0024933936108518   T   T   T
  0.2481778991642647  0.7500000000000000  0.0022802919592767   T   T   T
  0.7485470352505144  0.2500000000000000  0.0025570167056906   T   T   T
  0.7484617115693393  0.7500000000000000  0.0023630701016409   T   T   T
  0.2486688120887931 -0.0007229962271315  0.0941902627278609   T   T   T
  0.2486688120887931  0.5007229962271316  0.0941902627278609   T   T   T
  0.7483980821248877 -0.0005009896923143  0.0944519534136949   T   T   T
  0.7483980821248877  0.5005009896923145  0.0944519534136949   T   T   T
 -0.0018000700362606  0.2500000000000000  0.0942650379521459   T   T   T
 -0.0021050595969245  0.7500000000000000  0.0945344676085416   T   T   T
  0.4993327573174200  0.2500000000000000  0.0942673855525038   T   T   T
  0.4986007596958575  0.7500000000000000  0.0936253975779006   T   T   T
 -0.0010125433412827 -0.0010038192027264  0.1845452046122367   T   T   T
 -0.0010125433412827  0.5010038192027265  0.1845452046122367   T   T   T
  0.4989666592045288 -0.0034172243791125  0.1846282709803737   T   T   T
  0.4989666592045288  0.5034172243791125  0.1846282709803737   T   T   T
  0.2495603491693334  0.2500000000000000  0.1824819065710974   T   T   T
  0.2505461253349814  0.7500000000000000  0.1840900266929027   T   T   T
  0.7490971782125019  0.2500000000000000  0.1839149931579571   T   T   T
  0.7453948993144253  0.7500000000000000  0.1849145022797251   T   T   T
  0.2512462786038132  0.9937678392425147  0.2757893347284019   T   T   T
  0.2512462786038132  0.5062321607574853  0.2757893347284019   T   T   T
  0.7479598304071495 -0.0017752578633036  0.2760701635739382   T   T   T
  0.7479598304071495  0.5017752578633039  0.2760701635739382   T   T   T
  0.9973834939138259  0.2500000000000000  0.2755194681366123   T   T   T
  0.9969673933672715  0.7500000000000000  0.2754698759018409   T   T   T
  0.5037643077063679  0.2500000000000000  0.2735825537985221   T   T   T
  0.5037602308269661  0.7499998486940029  0.2826836048084442   T   T   T
  0.4332369985247812  0.7499998486940029  0.3650771716042228   T   T   T
 
  0.00000000E+00  0.00000000E+00  0.00000000E+00
  0.00000000E+00  0.00000000E+00  0.00000000E+00
  0.00000000E+00  0.00000000E+00  0.00000000E+00
  0.00000000E+00  0.00000000E+00  0.00000000E+00
  0.00000000E+00  0.00000000E+00  0.00000000E+00
  0.00000000E+00  0.00000000E+00  0.00000000E+00
  0.00000000E+00  0.00000000E+00  0.00000000E+00
  0.00000000E+00  0.00000000E+00  0.00000000E+00
  0.00000000E+00  0.00000000E+00  0.00000000E+00
  0.00000000E+00  0.00000000E+00  0.00000000E+00
  0.00000000E+00  0.00000000E+00  0.00000000E+00
  0.00000000E+00  0.00000000E+00  0.00000000E+00
  0.00000000E+00  0.00000000E+00  0.00000000E+00
  0.00000000E+00  0.00000000E+00  0.00000000E+00
  0.00000000E+00  0.00000000E+00  0.00000000E+00
  0.00000000E+00  0.00000000E+00  0.00000000E+00
  0.00000000E+00  0.00000000E+00  0.00000000E+00
  0.00000000E+00  0.00000000E+00  0.00000000E+00
  0.00000000E+00  0.00000000E+00  0.00000000E+00
  0.00000000E+00  0.00000000E+00  0.00000000E+00
  0.00000000E+00  0.00000000E+00  0.00000000E+00
  0.00000000E+00  0.00000000E+00  0.00000000E+00
  0.00000000E+00  0.00000000E+00  0.00000000E+00
  0.00000000E+00  0.00000000E+00  0.00000000E+00
  0.00000000E+00  0.00000000E+00  0.00000000E+00
  0.00000000E+00  0.00000000E+00  0.00000000E+00
  0.00000000E+00  0.00000000E+00  0.00000000E+00
  0.00000000E+00  0.00000000E+00  0.00000000E+00
  0.00000000E+00  0.00000000E+00  0.00000000E+00
  0.00000000E+00  0.00000000E+00  0.00000000E+00
  0.00000000E+00  0.00000000E+00  0.00000000E+00
  0.00000000E+00  0.00000000E+00  0.00000000E+00
  0.00000000E+00  0.00000000E+00  0.00000000E+00
  0.00000000E+00  0.00000000E+00  0.00000000E+00
  0.00000000E+00  0.00000000E+00  0.00000000E+00
  0.00000000E+00  0.00000000E+00  0.00000000E+00
  0.00000000E+00  0.00000000E+00  0.00000000E+00
  0.00000000E+00  0.00000000E+00  0.00000000E+00
  0.00000000E+00  0.00000000E+00  0.00000000E+00
  0.00000000E+00  0.00000000E+00  0.00000000E+00
  0.00000000E+00  0.00000000E+00  0.00000000E+00
  0.00000000E+00  0.00000000E+00  0.00000000E+00
  0.00000000E+00  0.00000000E+00  0.00000000E+00
  0.00000000E+00  0.00000000E+00  0.00000000E+00
  0.00000000E+00  0.00000000E+00  0.00000000E+00
  0.00000000E+00  0.00000000E+00  0.00000000E+00
  0.00000000E+00  0.00000000E+00  0.00000000E+00
  0.00000000E+00  0.00000000E+00  0.00000000E+00
  0.00000000E+00  0.00000000E+00  0.00000000E+00
  0.00000000E+00  0.00000000E+00  0.00000000E+00
  0.00000000E+00  0.00000000E+00  0.00000000E+00
  0.00000000E+00  0.00000000E+00  0.00000000E+00
  0.00000000E+00  0.00000000E+00  0.00000000E+00
  0.00000000E+00  0.00000000E+00  0.00000000E+00
  0.00000000E+00  0.00000000E+00  0.00000000E+00
  0.00000000E+00  0.00000000E+00  0.00000000E+00
  0.00000000E+00  0.00000000E+00  0.00000000E+00
  0.00000000E+00  0.00000000E+00  0.00000000E+00
  0.00000000E+00  0.00000000E+00  0.00000000E+00
  0.00000000E+00  0.00000000E+00  0.00000000E+00
  0.00000000E+00  0.00000000E+00  0.00000000E+00
  0.00000000E+00  0.00000000E+00  0.00000000E+00
  0.00000000E+00  0.00000000E+00  0.00000000E+00
  0.00000000E+00  0.00000000E+00  0.00000000E+00
  0.00000000E+00  0.00000000E+00  0.00000000E+00
  0.00000000E+00  0.00000000E+00  0.00000000E+00
