F Ir Mg O                               
   1.00000000000000     
     8.4141216974800006    0.0000000000000000    0.0000000000000000
     0.0000000000000000    8.4141216974800006    0.0000000000000000
     0.0000000000000000    0.0000000000000000   23.4141216974799988
   F    Ir   Mg   O 
     1     1    32    32
Selective dynamics
Direct
  0.2537930417205104  0.2499999495650016  0.3733460919061742   T   T   T
  0.4999199928408516  0.7499998486940029  0.3651190918188165   T   T   T
  0.2477713777369648  0.0001392312879276  0.0042172633937585   T   T   T
  0.2477713777369648  0.4998607687120724  0.0042172633937585   T   T   T
  0.7481947769341012  0.0002746486028895  0.0043871795717815   T   T   T
  0.7481947769341012  0.4997253513971105  0.0043871795717815   T   T   T
 -0.0021043153886298  0.2500000000000000  0.0044909372764271   T   T   T
 -0.0019995710260337  0.7500000000000000  0.0039680423767211   T   T   T
  0.4981054709338849  0.2500000000000000  0.0039823662338077   T   T   T
  0.4979685172758233  0.7500000000000000  0.0035263935132198   T   T   T
 -0.0016349606369838  0.0007863136461655  0.0941627322946331   T   T   T
 -0.0016349606369838  0.4992136863538343  0.0941627322946331   T   T   T
  0.4977689622472843  0.0012011286191753  0.0933896866714979   T   T   T
  0.4977689622472843  0.4987988713808247  0.0933896866714979   T   T   T
  0.2478594467309273  0.2500000000000000  0.0939437067876775   T   T   T
  0.2472387269077731  0.7500000000000000  0.0934150840220049   T   T   T
  0.7484932636976895  0.2500000000000000  0.0944863471050585   T   T   T
  0.7489150977280278  0.7500000000000000  0.0932988363294949   T   T   T
  0.2483556373426289  0.0038932186840421  0.1858353777655493   T   T   T
  0.2483556373426289  0.4961067813159578  0.1858353777655493   T   T   T
  0.7477555114156100  0.0005817207927216  0.1851326475595469   T   T   T
  0.7477555114156100  0.4994182792072785  0.1851326475595469   T   T   T
  0.0021994254316655  0.2500000000000000  0.1856050101065181   T   T   T
 -0.0011740490445447  0.7500000000000000  0.1839170167441981   T   T   T
  0.4943931281418246  0.2500000000000000  0.1851278760502902   T   T   T
  0.4971548318360557  0.7500000000000000  0.1791952529407827   T   T   T
 -0.0000718024874479  0.0040272060714433  0.2749081649713694   T   T   T
 -0.0000718024874479  0.4959727939285566  0.2749081649713694   T   T   T
  0.4953528470571710  0.0171152350916197  0.2757344094267872   T   T   T
  0.4953528470571710  0.4828847649083802  0.2757344094267872   T   T   T
  0.2441792254990313  0.2499999495650016  0.2945956941396637   T   T   T
  0.2323908619950922  0.7500000000000000  0.2741666725969104   T   T   T
  0.7502014991181799  0.2499999495650016  0.2743658667326169   T   T   T
  0.7632135551484335  0.7500000000000000  0.2749342095415336   T   T   T
 -0.0021621894198195 -0.0001289418239019  0.0021944672680373   T   T   T
 -0.0021621894198195  0.5001289418239017  0.0021944672680373   T   T   T
  0.4981118565836193  0.0001088343142553  0.0017229083076699   T   T   T
  0.4981118565836193  0.4998911656857446  0.0017229083076699   T   T   T
  0.2480561826374134  0.2500000000000000  0.0020239462241146   T   T   T
  0.2477824175828603  0.7500000000000000  0.0015844502293165   T   T   T
  0.7479115229285190  0.2500000000000000  0.0022443257509775   T   T   T
  0.7481901643422264  0.7500000000000000  0.0018890670758589   T   T   T
  0.2486181841711864 -0.0010155020021316  0.0939242303245702   T   T   T
  0.2486181841711864  0.5010155020021317  0.0939242303245702   T   T   T
  0.7475050360982849 -0.0008131944289385  0.0943223155828267   T   T   T
  0.7475050360982849  0.5008131944289386  0.0943223155828267   T   T   T
 -0.0024179499545322  0.2500000000000000  0.0939887084743641   T   T   T
 -0.0022103755689277  0.7500000000000000  0.0943570001559589   T   T   T
  0.4987059260499253  0.2500000000000000  0.0942809849491329   T   T   T
  0.4984307319465209  0.7500000000000000  0.0928023945477108   T   T   T
 -0.0024214077911119 -0.0013265969311689  0.1843805733558948   T   T   T
 -0.0024214077911119  0.5013265969311690  0.1843805733558948   T   T   T
  0.4983413209364631 -0.0045789190333626  0.1855603008689989   T   T   T
  0.4983413209364631  0.5045789190333625  0.1855603008689989   T   T   T
  0.2490704271669926  0.2500000000000000  0.1821718403179718   T   T   T
  0.2516881567694693  0.7500000000000000  0.1847111727516251   T   T   T
  0.7475434029220261  0.2500000000000000  0.1841602679484475   T   T   T
  0.7439312396277090  0.7500000000000000  0.1854601570827215   T   T   T
  0.2497026329246124  0.9936797229060154  0.2749478504494643   T   T   T
  0.2497026329246124  0.5063202770939846  0.2749478504494643   T   T   T
  0.7461641219300461 -0.0028358819376640  0.2760524890329256   T   T   T
  0.7461641219300461  0.5028358819376643  0.2760524890329256   T   T   T
  0.9949143400670686  0.2500000000000000  0.2752515118277313   T   T   T
  0.9974356186907558  0.7500000000000000  0.2756437420894953   T   T   T
  0.5027197987757080  0.2500000000000000  0.2745676023544537   T   T   T
  0.4981433862154970  0.7499998486940029  0.2864339125115529   T   T   T
 
  0.00000000E+00  0.00000000E+00  0.00000000E+00
  0.00000000E+00  0.00000000E+00  0.00000000E+00
  0.00000000E+00  0.00000000E+00  0.00000000E+00
  0.00000000E+00  0.00000000E+00  0.00000000E+00
  0.00000000E+00  0.00000000E+00  0.00000000E+00
  0.00000000E+00  0.00000000E+00  0.00000000E+00
  0.00000000E+00  0.00000000E+00  0.00000000E+00
  0.00000000E+00  0.00000000E+00  0.00000000E+00
  0.00000000E+00  0.00000000E+00  0.00000000E+00
  0.00000000E+00  0.00000000E+00  0.00000000E+00
  0.00000000E+00  0.00000000E+00  0.00000000E+00
  0.00000000E+00  0.00000000E+00  0.00000000E+00
  0.00000000E+00  0.00000000E+00  0.00000000E+00
  0.00000000E+00  0.00000000E+00  0.00000000E+00
  0.00000000E+00  0.00000000E+00  0.00000000E+00
  0.00000000E+00  0.00000000E+00  0.00000000E+00
  0.00000000E+00  0.00000000E+00  0.00000000E+00
  0.00000000E+00  0.00000000E+00  0.00000000E+00
  0.00000000E+00  0.00000000E+00  0.00000000E+00
  0.00000000E+00  0.00000000E+00  0.00000000E+00
  0.00000000E+00  0.00000000E+00  0.00000000E+00
  0.00000000E+00  0.00000000E+00  0.00000000E+00
  0.00000000E+00  0.00000000E+00  0.00000000E+00
  0.00000000E+00  0.00000000E+00  0.00000000E+00
  0.00000000E+00  0.00000000E+00  0.00000000E+00
  0.00000000E+00  0.00000000E+00  0.00000000E+00
  0.00000000E+00  0.00000000E+00  0.00000000E+00
  0.00000000E+00  0.00000000E+00  0.00000000E+00
  0.00000000E+00  0.00000000E+00  0.00000000E+00
  0.00000000E+00  0.00000000E+00  0.00000000E+00
  0.00000000E+00  0.00000000E+00  0.00000000E+00
  0.00000000E+00  0.00000000E+00  0.00000000E+00
  0.00000000E+00  0.00000000E+00  0.00000000E+00
  0.00000000E+00  0.00000000E+00  0.00000000E+00
  0.00000000E+00  0.00000000E+00  0.00000000E+00
  0.00000000E+00  0.00000000E+00  0.00000000E+00
  0.00000000E+00  0.00000000E+00  0.00000000E+00
  0.00000000E+00  0.00000000E+00  0.00000000E+00
  0.00000000E+00  0.00000000E+00  0.00000000E+00
  0.00000000E+00  0.00000000E+00  0.00000000E+00
  0.00000000E+00  0.00000000E+00  0.00000000E+00
  0.00000000E+00  0.00000000E+00  0.00000000E+00
  0.00000000E+00  0.00000000E+00  0.00000000E+00
  0.00000000E+00  0.00000000E+00  0.00000000E+00
  0.00000000E+00  0.00000000E+00  0.00000000E+00
  0.00000000E+00  0.00000000E+00  0.00000000E+00
  0.00000000E+00  0.00000000E+00  0.00000000E+00
  0.00000000E+00  0.00000000E+00  0.00000000E+00
  0.00000000E+00  0.00000000E+00  0.00000000E+00
  0.00000000E+00  0.00000000E+00  0.00000000E+00
  0.00000000E+00  0.00000000E+00  0.00000000E+00
  0.00000000E+00  0.00000000E+00  0.00000000E+00
  0.00000000E+00  0.00000000E+00  0.00000000E+00
  0.00000000E+00  0.00000000E+00  0.00000000E+00
  0.00000000E+00  0.00000000E+00  0.00000000E+00
  0.00000000E+00  0.00000000E+00  0.00000000E+00
  0.00000000E+00  0.00000000E+00  0.00000000E+00
  0.00000000E+00  0.00000000E+00  0.00000000E+00
  0.00000000E+00  0.00000000E+00  0.00000000E+00
  0.00000000E+00  0.00000000E+00  0.00000000E+00
  0.00000000E+00  0.00000000E+00  0.00000000E+00
  0.00000000E+00  0.00000000E+00  0.00000000E+00
  0.00000000E+00  0.00000000E+00  0.00000000E+00
  0.00000000E+00  0.00000000E+00  0.00000000E+00
  0.00000000E+00  0.00000000E+00  0.00000000E+00
  0.00000000E+00  0.00000000E+00  0.00000000E+00
