Mo F Mg O                               
   1.00000000000000     
     8.4141216974800006    0.0000000000000000    0.0000000000000000
     0.0000000000000000    8.4141216974800006    0.0000000000000000
     0.0000000000000000    0.0000000000000000   23.4141216974799988
   Mo   F    Mg   O 
     1     1    32    32
Selective dynamics
Direct
  0.4795028325955999  0.7499998486940029  0.3739895348307093   T   T   T
  0.2609144852496356  0.2499999495650016  0.3736316300087823   T   T   T
  0.2479573954760127  0.0000922689917083  0.0044797652108270   T   T   T
  0.2479573954760127  0.4999077310082918  0.0044797652108270   T   T   T
  0.7484241826998361  0.0003001725745862  0.0045003944322658   T   T   T
  0.7484241826998361  0.4996998274254137  0.0045003944322658   T   T   T
  0.9980181825488649  0.2500000000000000  0.0047040560735718   T   T   T
  0.9981354378516180  0.7500000000000000  0.0043983145229681   T   T   T
  0.4983411825301919  0.2500000000000000  0.0044146697815551   T   T   T
  0.4980742612194033  0.7500000000000000  0.0039818564279626   T   T   T
  0.9984659007817526  0.0007171778722547  0.0941573236186377   T   T   T
  0.9984659007817526  0.4992828221277452  0.0941573236186377   T   T   T
  0.4978139195148770  0.0006394438534275  0.0935578768616730   T   T   T
  0.4978139195148770  0.4993605561465724  0.0935578768616730   T   T   T
  0.2477941082104715  0.2500000000000000  0.0939327017146908   T   T   T
  0.2475958056445225  0.7500000000000000  0.0937044237048305   T   T   T
  0.7486693156563201  0.2500000000000000  0.0943300879087147   T   T   T
  0.7483731485249042  0.7500000000000000  0.0934466018453087   T   T   T
  0.2477419710308411  0.0046390391394408  0.1854036705239657   T   T   T
  0.2477419710308411  0.4953609608605593  0.1854036705239657   T   T   T
  0.7487716764446236  0.0012558633989508  0.1846318748168729   T   T   T
  0.7487716764446236  0.4987441366010492  0.1846318748168729   T   T   T
  0.0025259010737297  0.2500000000000000  0.1856630243269958   T   T   T
  0.9980931278801298  0.7500000000000000  0.1837418668423807   T   T   T
  0.4947770166250044  0.2500000000000000  0.1845173245599402   T   T   T
  0.4974070968942058  0.7500000000000000  0.1804267703133041   T   T   T
 -0.0000809682821183  0.0032559318138819  0.2747599319128089   T   T   T
 -0.0000809682821183  0.4967440681861181  0.2747599319128089   T   T   T
  0.4965600009310778  0.0130708483610114  0.2733480289492614   T   T   T
  0.4965600009310778  0.4869291516389886  0.2733480289492614   T   T   T
  0.2470209860079082  0.2499999495650016  0.2945889400033093   T   T   T
  0.2359193880820853  0.7500000000000000  0.2718985585970966   T   T   T
  0.7498728248414867  0.2499999495650016  0.2741036277276285   T   T   T
  0.7580079675853453  0.7500000000000000  0.2732778710732611   T   T   T
  0.9980509820855528  0.9999143500229972  0.0024457589718584   T   T   T
  0.9980509820855528  0.5000856499770028  0.0024457589718584   T   T   T
  0.4982922120199407  0.0000287745979080  0.0021494177366880   T   T   T
  0.4982922120199407  0.4999712254020920  0.0021494177366880   T   T   T
  0.2481834904472842  0.2500000000000000  0.0023443022066223   T   T   T
  0.2479948922388151  0.7500000000000000  0.0020601048241166   T   T   T
  0.7481875612330425  0.2500000000000000  0.0023917770598668   T   T   T
  0.7482324671047424  0.7500000000000000  0.0021604211521546   T   T   T
  0.2484751796096746  0.9990652946126963  0.0940690222690534   T   T   T
  0.2484751796096746  0.5009347053873037  0.0940690222690534   T   T   T
  0.7478082124663054  0.9993577635171108  0.0943516417300234   T   T   T
  0.7478082124663054  0.5006422364828892  0.0943516417300234   T   T   T
  0.9976494138857388  0.2500000000000000  0.0941620202251493   T   T   T
  0.9976575612101024  0.7500000000000000  0.0944103470125090   T   T   T
  0.4988782904457167  0.2500000000000000  0.0942234238696922   T   T   T
  0.4983526111039863  0.7500000000000000  0.0933210899436474   T   T   T
  0.9978962593468870  0.9989389096642725  0.1843467379431479   T   T   T
  0.9978962593468870  0.5010610903357275  0.1843467379431479   T   T   T
  0.4986073266776059  0.9957447973620308  0.1848580466579473   T   T   T
  0.4986073266776059  0.5042552026379692  0.1848580466579473   T   T   T
  0.2489559772859368  0.2500000000000000  0.1821376686002776   T   T   T
  0.2512872218906800  0.7500000000000000  0.1842748762107179   T   T   T
  0.7481973849189912  0.2500000000000000  0.1839242284457888   T   T   T
  0.7443060703112471  0.7500000000000000  0.1849356600605072   T   T   T
  0.2499866275172232  0.9937480094557671  0.2752467680758797   T   T   T
  0.2499866275172232  0.5062519905442329  0.2752467680758797   T   T   T
  0.7467836862083237  0.9976012086735030  0.2759823666196447   T   T   T
  0.7467836862083237  0.5023987913264970  0.2759823666196447   T   T   T
  0.9954534049311187  0.2500000000000000  0.2755022377529389   T   T   T
  0.9968720626232782  0.7500000000000000  0.2752526872821388   T   T   T
  0.5028307925703359  0.2500000000000000  0.2736954121458811   T   T   T
  0.5001555495517583  0.7499998486940029  0.2889463312938595   T   T   T
 
  0.00000000E+00  0.00000000E+00  0.00000000E+00
  0.00000000E+00  0.00000000E+00  0.00000000E+00
  0.00000000E+00  0.00000000E+00  0.00000000E+00
  0.00000000E+00  0.00000000E+00  0.00000000E+00
  0.00000000E+00  0.00000000E+00  0.00000000E+00
  0.00000000E+00  0.00000000E+00  0.00000000E+00
  0.00000000E+00  0.00000000E+00  0.00000000E+00
  0.00000000E+00  0.00000000E+00  0.00000000E+00
  0.00000000E+00  0.00000000E+00  0.00000000E+00
  0.00000000E+00  0.00000000E+00  0.00000000E+00
  0.00000000E+00  0.00000000E+00  0.00000000E+00
  0.00000000E+00  0.00000000E+00  0.00000000E+00
  0.00000000E+00  0.00000000E+00  0.00000000E+00
  0.00000000E+00  0.00000000E+00  0.00000000E+00
  0.00000000E+00  0.00000000E+00  0.00000000E+00
  0.00000000E+00  0.00000000E+00  0.00000000E+00
  0.00000000E+00  0.00000000E+00  0.00000000E+00
  0.00000000E+00  0.00000000E+00  0.00000000E+00
  0.00000000E+00  0.00000000E+00  0.00000000E+00
  0.00000000E+00  0.00000000E+00  0.00000000E+00
  0.00000000E+00  0.00000000E+00  0.00000000E+00
  0.00000000E+00  0.00000000E+00  0.00000000E+00
  0.00000000E+00  0.00000000E+00  0.00000000E+00
  0.00000000E+00  0.00000000E+00  0.00000000E+00
  0.00000000E+00  0.00000000E+00  0.00000000E+00
  0.00000000E+00  0.00000000E+00  0.00000000E+00
  0.00000000E+00  0.00000000E+00  0.00000000E+00
  0.00000000E+00  0.00000000E+00  0.00000000E+00
  0.00000000E+00  0.00000000E+00  0.00000000E+00
  0.00000000E+00  0.00000000E+00  0.00000000E+00
  0.00000000E+00  0.00000000E+00  0.00000000E+00
  0.00000000E+00  0.00000000E+00  0.00000000E+00
  0.00000000E+00  0.00000000E+00  0.00000000E+00
  0.00000000E+00  0.00000000E+00  0.00000000E+00
  0.00000000E+00  0.00000000E+00  0.00000000E+00
  0.00000000E+00  0.00000000E+00  0.00000000E+00
  0.00000000E+00  0.00000000E+00  0.00000000E+00
  0.00000000E+00  0.00000000E+00  0.00000000E+00
  0.00000000E+00  0.00000000E+00  0.00000000E+00
  0.00000000E+00  0.00000000E+00  0.00000000E+00
  0.00000000E+00  0.00000000E+00  0.00000000E+00
  0.00000000E+00  0.00000000E+00  0.00000000E+00
  0.00000000E+00  0.00000000E+00  0.00000000E+00
  0.00000000E+00  0.00000000E+00  0.00000000E+00
  0.00000000E+00  0.00000000E+00  0.00000000E+00
  0.00000000E+00  0.00000000E+00  0.00000000E+00
  0.00000000E+00  0.00000000E+00  0.00000000E+00
  0.00000000E+00  0.00000000E+00  0.00000000E+00
  0.00000000E+00  0.00000000E+00  0.00000000E+00
  0.00000000E+00  0.00000000E+00  0.00000000E+00
  0.00000000E+00  0.00000000E+00  0.00000000E+00
  0.00000000E+00  0.00000000E+00  0.00000000E+00
  0.00000000E+00  0.00000000E+00  0.00000000E+00
  0.00000000E+00  0.00000000E+00  0.00000000E+00
  0.00000000E+00  0.00000000E+00  0.00000000E+00
  0.00000000E+00  0.00000000E+00  0.00000000E+00
  0.00000000E+00  0.00000000E+00  0.00000000E+00
  0.00000000E+00  0.00000000E+00  0.00000000E+00
  0.00000000E+00  0.00000000E+00  0.00000000E+00
  0.00000000E+00  0.00000000E+00  0.00000000E+00
  0.00000000E+00  0.00000000E+00  0.00000000E+00
  0.00000000E+00  0.00000000E+00  0.00000000E+00
  0.00000000E+00  0.00000000E+00  0.00000000E+00
  0.00000000E+00  0.00000000E+00  0.00000000E+00
  0.00000000E+00  0.00000000E+00  0.00000000E+00
  0.00000000E+00  0.00000000E+00  0.00000000E+00
