Ca Fe Na O                              
   1.00000000000000     
     9.6048500000000008    0.0000000000000000    0.0000000000000000
     0.0000000000000000    9.6048500000000008    0.0000000000000000
     0.0000000000000000    0.0000000000000000   24.6048000000000009
   Ca   Fe   Na   O 
    31     1     1    32
Selective dynamics
Direct
  0.2499881596708570  0.0001731855437763  0.0984547158558648   T   T   T
  0.7498736101221236  0.0001806483833126  0.0984535862144925   T   T   T
  0.0000873930787627  0.2500801111735643  0.0980415579521322   T   T   T
  0.4996444215298364  0.2502964027914428  0.0986459762849054   T   T   T
  0.2500708434513459  0.5001637954283429  0.0978639363880288   T   T   T
  0.7495099862074676  0.5001668009923540  0.0978795756025684   T   T   T
  0.0000748887375749  0.7502676487406044  0.0980413338488462   T   T   T
  0.4996471170319546  0.7500339761794557  0.0986321041480333   T   T   T
  0.0007651573737657  0.0002030520084013  0.1951147666805090   T   T   T
  0.4991965140876254  0.0001910814153809  0.1952781139448910   T   T   T
  0.2493755867163638  0.2511690674218375  0.1952791379898779   T   T   T
  0.7502600960322382  0.2513637591820574  0.1950060056418723   T   T   T
  0.0001918948472479  0.5001605231173221  0.1941808506877200   T   T   T
  0.4991958434615040  0.5001911778160774  0.1953583752049276   T   T   T
  0.2494096257712857  0.7492029174928815  0.1952598395705629   T   T   T
  0.7502619560334061  0.7489997970142142  0.1949895213654283   T   T   T
  0.2490655606473538  0.0002176223725499  0.2922311449636301   T   T   T
  0.7509728804867439  0.0001927606135027  0.2903001549161282   T   T   T
 -0.0001070971552237  0.2538725745224549  0.2938130463672887   T   T   T
  0.4997118880527834  0.2512116856108502  0.2937349531866421   T   T   T
  0.2459960608799860  0.5002091040528044  0.2930055884855812   T   T   T
  0.7528169427323184  0.5001848971846696  0.2922850766946239   T   T   T
 -0.0000517679596217  0.7464941283152579  0.2937437274573916   T   T   T
  0.4997620464503220  0.7492352440303830  0.2937201687296188   T   T   T
  0.0142642180832047  0.0001339507192889  0.3892805511228983   T   T   T
  0.4856387348213596  0.0002132276030933  0.3899368943925187   T   T   T
  0.2456121417646751  0.2574729938749163  0.3900899674094498   T   T   T
  0.7548226152801784  0.2679168042853011  0.3902796966592220   T   T   T
  0.4971148475239727  0.5002603740805571  0.3893381610143488   T   T   T
  0.2456749584783280  0.7429818622861393  0.3900569777351108   T   T   T
  0.7549025831462256  0.7324415247503764  0.3902411479590548   T   T   T
  0.7518621088044961  0.0000302730848054  0.4721564361577802   T   T   T
  0.0048592080435526  0.5003768221628413  0.3926343637228031   T   T   T
  0.9997040980683186  0.0001835985688450  0.0989646000330314   T   T   T
  0.5001315072710938  0.0001582192995630  0.0995582135335280   T   T   T
  0.2501703608600132  0.2497489890717795  0.0991468896943996   T   T   T
  0.7495687423421639  0.2496330338640722  0.0993691703111873   T   T   T
  0.9996715858431739  0.5001611578065851  0.0975950623028803   T   T   T
  0.4999072033814382  0.5001695272487424  0.0987395513055377   T   T   T
  0.2501782449179781  0.7505722233598084  0.0991330746116796   T   T   T
  0.7495438200946257  0.7507033599007233  0.0993637362043795   T   T   T
  0.2503248806283931  0.0001848062589429  0.1949634439410267   T   T   T
  0.7496824889695726  0.0001786546548166  0.1959344746975460   T   T   T
  0.9994756292923691  0.2490074039755036  0.1939826370371043   T   T   T
  0.5001920723162004  0.2494816443436718  0.1949736237401977   T   T   T
  0.2504527363698647  0.5001779231128736  0.1936875217518615   T   T   T
  0.7488374009191424  0.5001818349007606  0.1939703004696933   T   T   T
  0.9994828236821948  0.7513734826753711  0.1939564962557325   T   T   T
  0.5002157504170117  0.7508999538095159  0.1949541389499861   T   T   T
  0.9975710542249295  0.0001788246343667  0.2936304596491411   T   T   T
  0.5027877232470706  0.0002339156123919  0.2948619202973095   T   T   T
  0.2494457232717550  0.2500081002437843  0.2937224866028610   T   T   T
  0.7500128316545804  0.2474802791049171  0.2949007823480806   T   T   T
  0.9987243700236922  0.5001801713688525  0.2880763296703216   T   T   T
  0.4999367968851992  0.5002481460190582  0.2926217660457219   T   T   T
  0.2495023747621656  0.7504306949255826  0.2936872798872865   T   T   T
  0.7500847793891423  0.7528681078641881  0.2948771248650152   T   T   T
  0.2509670257451919  0.0002044638791267  0.3886697438793593   T   T   T
  0.7479819393727979  0.0000104200487521  0.4024238871618604   T   T   T
  0.9981472353515590  0.2390985723827062  0.3889440186244524   T   T   T
  0.5007105616975638  0.2475563040053140  0.3894787262332784   T   T   T
  0.2586517913407899  0.5002293635763876  0.3882029306116742   T   T   T
  0.7396414821726396  0.5001772301586285  0.3878969365937306   T   T   T
  0.9983018559784713  0.7611372870701968  0.3888670345040199   T   T   T
  0.5007782947248558  0.7528572165733730  0.3894843959203740   T   T   T
 
  0.00000000E+00  0.00000000E+00  0.00000000E+00
  0.00000000E+00  0.00000000E+00  0.00000000E+00
  0.00000000E+00  0.00000000E+00  0.00000000E+00
  0.00000000E+00  0.00000000E+00  0.00000000E+00
  0.00000000E+00  0.00000000E+00  0.00000000E+00
  0.00000000E+00  0.00000000E+00  0.00000000E+00
  0.00000000E+00  0.00000000E+00  0.00000000E+00
  0.00000000E+00  0.00000000E+00  0.00000000E+00
  0.00000000E+00  0.00000000E+00  0.00000000E+00
  0.00000000E+00  0.00000000E+00  0.00000000E+00
  0.00000000E+00  0.00000000E+00  0.00000000E+00
  0.00000000E+00  0.00000000E+00  0.00000000E+00
  0.00000000E+00  0.00000000E+00  0.00000000E+00
  0.00000000E+00  0.00000000E+00  0.00000000E+00
  0.00000000E+00  0.00000000E+00  0.00000000E+00
  0.00000000E+00  0.00000000E+00  0.00000000E+00
  0.00000000E+00  0.00000000E+00  0.00000000E+00
  0.00000000E+00  0.00000000E+00  0.00000000E+00
  0.00000000E+00  0.00000000E+00  0.00000000E+00
  0.00000000E+00  0.00000000E+00  0.00000000E+00
  0.00000000E+00  0.00000000E+00  0.00000000E+00
  0.00000000E+00  0.00000000E+00  0.00000000E+00
  0.00000000E+00  0.00000000E+00  0.00000000E+00
  0.00000000E+00  0.00000000E+00  0.00000000E+00
  0.00000000E+00  0.00000000E+00  0.00000000E+00
  0.00000000E+00  0.00000000E+00  0.00000000E+00
  0.00000000E+00  0.00000000E+00  0.00000000E+00
  0.00000000E+00  0.00000000E+00  0.00000000E+00
  0.00000000E+00  0.00000000E+00  0.00000000E+00
  0.00000000E+00  0.00000000E+00  0.00000000E+00
  0.00000000E+00  0.00000000E+00  0.00000000E+00
  0.00000000E+00  0.00000000E+00  0.00000000E+00
  0.00000000E+00  0.00000000E+00  0.00000000E+00
  0.00000000E+00  0.00000000E+00  0.00000000E+00
  0.00000000E+00  0.00000000E+00  0.00000000E+00
  0.00000000E+00  0.00000000E+00  0.00000000E+00
  0.00000000E+00  0.00000000E+00  0.00000000E+00
  0.00000000E+00  0.00000000E+00  0.00000000E+00
  0.00000000E+00  0.00000000E+00  0.00000000E+00
  0.00000000E+00  0.00000000E+00  0.00000000E+00
  0.00000000E+00  0.00000000E+00  0.00000000E+00
  0.00000000E+00  0.00000000E+00  0.00000000E+00
  0.00000000E+00  0.00000000E+00  0.00000000E+00
  0.00000000E+00  0.00000000E+00  0.00000000E+00
  0.00000000E+00  0.00000000E+00  0.00000000E+00
  0.00000000E+00  0.00000000E+00  0.00000000E+00
  0.00000000E+00  0.00000000E+00  0.00000000E+00
  0.00000000E+00  0.00000000E+00  0.00000000E+00
  0.00000000E+00  0.00000000E+00  0.00000000E+00
  0.00000000E+00  0.00000000E+00  0.00000000E+00
  0.00000000E+00  0.00000000E+00  0.00000000E+00
  0.00000000E+00  0.00000000E+00  0.00000000E+00
  0.00000000E+00  0.00000000E+00  0.00000000E+00
  0.00000000E+00  0.00000000E+00  0.00000000E+00
  0.00000000E+00  0.00000000E+00  0.00000000E+00
  0.00000000E+00  0.00000000E+00  0.00000000E+00
  0.00000000E+00  0.00000000E+00  0.00000000E+00
  0.00000000E+00  0.00000000E+00  0.00000000E+00
  0.00000000E+00  0.00000000E+00  0.00000000E+00
  0.00000000E+00  0.00000000E+00  0.00000000E+00
  0.00000000E+00  0.00000000E+00  0.00000000E+00
  0.00000000E+00  0.00000000E+00  0.00000000E+00
  0.00000000E+00  0.00000000E+00  0.00000000E+00
  0.00000000E+00  0.00000000E+00  0.00000000E+00
  0.00000000E+00  0.00000000E+00  0.00000000E+00
