Ca Na Ni O                              
   1.00000000000000     
     9.6048500000000008    0.0000000000000000    0.0000000000000000
     0.0000000000000000    9.6048500000000008    0.0000000000000000
     0.0000000000000000    0.0000000000000000   24.6048000000000009
   Ca   Na   Ni   O 
    31     1     1    32
Selective dynamics
Direct
  0.2499813770619451  0.0001154540584290  0.0986702560396350   T   T   T
  0.7499140553057834  0.0001189732791188  0.0988010362086811   T   T   T
  0.0001156358963464  0.2500728771135010  0.0982910399780022   T   T   T
  0.4997450567248197  0.2502829883186492  0.0988138728735525   T   T   T
  0.2501438044115683  0.5001311587406390  0.0981175881714058   T   T   T
  0.7496725382311641  0.5001329858065118  0.0982058542951095   T   T   T
  0.0001135019767083  0.7501770299753324  0.0983222019108615   T   T   T
  0.4997500066546041  0.7499673922632468  0.0988486647118869   T   T   T
  0.0005631871237788  0.0001596531421334  0.1952527006784160   T   T   T
  0.4993752955716246  0.0001607292793629  0.1953997327325787   T   T   T
  0.2495547761324206  0.2510105635470044  0.1954851066318449   T   T   T
  0.7502903321730394  0.2510544789923316  0.1951868625213556   T   T   T
  0.0002933825758685  0.5001524043705431  0.1944823117126980   T   T   T
  0.4993068965834429  0.5001519067468285  0.1955820097359628   T   T   T
  0.2495511158911717  0.7492969608335114  0.1955088900961963   T   T   T
  0.7502964228670789  0.7492676747335940  0.1952086115826655   T   T   T
  0.2490666758917613  0.0002007794323013  0.2924388480202501   T   T   T
  0.7509731632490200  0.0002053274714195  0.2914297068414212   T   T   T
  0.0000255597324038  0.2539616725393283  0.2937065213715128   T   T   T
  0.4996561206760444  0.2513060124155157  0.2936966540502480   T   T   T
  0.2460494396112304  0.5002063362446919  0.2933526882480283   T   T   T
  0.7528795348901729  0.5002174119199403  0.2924274874474729   T   T   T
  0.0000177420098801  0.7464497442000807  0.2937267018991224   T   T   T
  0.4996611143730073  0.7491154435994359  0.2937262217140125   T   T   T
  0.0126842681036249  0.0002444031239388  0.3895975635955307   T   T   T
  0.4868365725764167  0.0002212883785911  0.3900298206754945   T   T   T
  0.2458132617550193  0.2574627775463255  0.3902236958062785   T   T   T
  0.7547217176680557  0.2663793304014025  0.3904068422727529   T   T   T
  0.4974769602923622  0.5002341977456913  0.3894698424451539   T   T   T
  0.2458270523931435  0.7429770412608891  0.3902440786800133   T   T   T
  0.7546993334621975  0.7340883283314107  0.3904505741341295   T   T   T
  0.0038074398902682  0.5002260826566454  0.3927682419092008   T   T   T
  0.7493644388638142  0.0004513537963352  0.4674412349129455   T   T   T
  0.9996623233037566  0.0001105514907093  0.0990623614804817   T   T   T
  0.5002555792585670  0.0001110916301480  0.0995813922942264   T   T   T
  0.2501978272848588  0.2497735132025834  0.0992975903328132   T   T   T
  0.7496584942992586  0.2495519203772288  0.0994844871503044   T   T   T
  0.9997962916249109  0.5001254643260056  0.0978912099912704   T   T   T
  0.4999977183168998  0.5001240767489475  0.0989356253454044   T   T   T
  0.2501873888459765  0.7504524644768982  0.0993359625439616   T   T   T
  0.7496535128662730  0.7507074061020942  0.0995402887699459   T   T   T
  0.2502520202613592  0.0001591581041941  0.1949737328245010   T   T   T
  0.7497122130938036  0.0001580724662266  0.1960521453250345   T   T   T
  0.9996901373628235  0.2491325532048419  0.1940578606441455   T   T   T
  0.5001410744709840  0.2496532035842626  0.1949768850349838   T   T   T
  0.2506000720496481  0.5001520554869098  0.1939685097243468   T   T   T
  0.7489680827848126  0.5001527173260275  0.1941155160918975   T   T   T
  0.9996912246174987  0.7511901695557734  0.1940862174156222   T   T   T
  0.5001511372451674  0.7506640156956552  0.1950026746468926   T   T   T
  0.9981351868003494  0.0001838374799830  0.2935067569753155   T   T   T
  0.5019850947954584  0.0002117752151569  0.2945692835526962   T   T   T
  0.2495646382924551  0.2501982696942205  0.2938419538006630   T   T   T
  0.7501248263551932  0.2482862799448722  0.2947594558323261   T   T   T
  0.9989607906393956  0.5002114837514976  0.2883350318272127   T   T   T
  0.5000076861134193  0.5001980612529715  0.2927921143738052   T   T   T
  0.2495622465452348  0.7502020813051231  0.2938620199445645   T   T   T
  0.7501395342281805  0.7521583959128803  0.2947996586814088   T   T   T
  0.2509209799482649  0.0002584457239583  0.3888952712220882   T   T   T
  0.7485923658044761  0.0002676253213545  0.3976583470834789   T   T   T
  0.9989733329566647  0.2399485232093309  0.3888046701188952   T   T   T
  0.5001407757312202  0.2485226874879372  0.3893119803092885   T   T   T
  0.2584383065234807  0.5002317971405015  0.3886854469705099   T   T   T
  0.7398021225809084  0.5002295358997112  0.3882971715573327   T   T   T
  0.9989346530712325  0.7605205777445738  0.3888378427425871   T   T   T
  0.5001307907576541  0.7519561314427590  0.3893332835765855   T   T   T
 
  0.00000000E+00  0.00000000E+00  0.00000000E+00
  0.00000000E+00  0.00000000E+00  0.00000000E+00
  0.00000000E+00  0.00000000E+00  0.00000000E+00
  0.00000000E+00  0.00000000E+00  0.00000000E+00
  0.00000000E+00  0.00000000E+00  0.00000000E+00
  0.00000000E+00  0.00000000E+00  0.00000000E+00
  0.00000000E+00  0.00000000E+00  0.00000000E+00
  0.00000000E+00  0.00000000E+00  0.00000000E+00
  0.00000000E+00  0.00000000E+00  0.00000000E+00
  0.00000000E+00  0.00000000E+00  0.00000000E+00
  0.00000000E+00  0.00000000E+00  0.00000000E+00
  0.00000000E+00  0.00000000E+00  0.00000000E+00
  0.00000000E+00  0.00000000E+00  0.00000000E+00
  0.00000000E+00  0.00000000E+00  0.00000000E+00
  0.00000000E+00  0.00000000E+00  0.00000000E+00
  0.00000000E+00  0.00000000E+00  0.00000000E+00
  0.00000000E+00  0.00000000E+00  0.00000000E+00
  0.00000000E+00  0.00000000E+00  0.00000000E+00
  0.00000000E+00  0.00000000E+00  0.00000000E+00
  0.00000000E+00  0.00000000E+00  0.00000000E+00
  0.00000000E+00  0.00000000E+00  0.00000000E+00
  0.00000000E+00  0.00000000E+00  0.00000000E+00
  0.00000000E+00  0.00000000E+00  0.00000000E+00
  0.00000000E+00  0.00000000E+00  0.00000000E+00
  0.00000000E+00  0.00000000E+00  0.00000000E+00
  0.00000000E+00  0.00000000E+00  0.00000000E+00
  0.00000000E+00  0.00000000E+00  0.00000000E+00
  0.00000000E+00  0.00000000E+00  0.00000000E+00
  0.00000000E+00  0.00000000E+00  0.00000000E+00
  0.00000000E+00  0.00000000E+00  0.00000000E+00
  0.00000000E+00  0.00000000E+00  0.00000000E+00
  0.00000000E+00  0.00000000E+00  0.00000000E+00
  0.00000000E+00  0.00000000E+00  0.00000000E+00
  0.00000000E+00  0.00000000E+00  0.00000000E+00
  0.00000000E+00  0.00000000E+00  0.00000000E+00
  0.00000000E+00  0.00000000E+00  0.00000000E+00
  0.00000000E+00  0.00000000E+00  0.00000000E+00
  0.00000000E+00  0.00000000E+00  0.00000000E+00
  0.00000000E+00  0.00000000E+00  0.00000000E+00
  0.00000000E+00  0.00000000E+00  0.00000000E+00
  0.00000000E+00  0.00000000E+00  0.00000000E+00
  0.00000000E+00  0.00000000E+00  0.00000000E+00
  0.00000000E+00  0.00000000E+00  0.00000000E+00
  0.00000000E+00  0.00000000E+00  0.00000000E+00
  0.00000000E+00  0.00000000E+00  0.00000000E+00
  0.00000000E+00  0.00000000E+00  0.00000000E+00
  0.00000000E+00  0.00000000E+00  0.00000000E+00
  0.00000000E+00  0.00000000E+00  0.00000000E+00
  0.00000000E+00  0.00000000E+00  0.00000000E+00
  0.00000000E+00  0.00000000E+00  0.00000000E+00
  0.00000000E+00  0.00000000E+00  0.00000000E+00
  0.00000000E+00  0.00000000E+00  0.00000000E+00
  0.00000000E+00  0.00000000E+00  0.00000000E+00
  0.00000000E+00  0.00000000E+00  0.00000000E+00
  0.00000000E+00  0.00000000E+00  0.00000000E+00
  0.00000000E+00  0.00000000E+00  0.00000000E+00
  0.00000000E+00  0.00000000E+00  0.00000000E+00
  0.00000000E+00  0.00000000E+00  0.00000000E+00
  0.00000000E+00  0.00000000E+00  0.00000000E+00
  0.00000000E+00  0.00000000E+00  0.00000000E+00
  0.00000000E+00  0.00000000E+00  0.00000000E+00
  0.00000000E+00  0.00000000E+00  0.00000000E+00
  0.00000000E+00  0.00000000E+00  0.00000000E+00
  0.00000000E+00  0.00000000E+00  0.00000000E+00
  0.00000000E+00  0.00000000E+00  0.00000000E+00
