Ca Na O Rh                              
   1.00000000000000     
     9.6048500000000008    0.0000000000000000    0.0000000000000000
     0.0000000000000000    9.6048500000000008    0.0000000000000000
     0.0000000000000000    0.0000000000000000   24.6048000000000009
   Ca   Na   O    Rh
    31     1    32     1
Selective dynamics
Direct
  0.2499278447310727  0.0000958590477465  0.0984375521954013   T   T   T
  0.7499667242718605  0.0001003366885304  0.0985257710192905   T   T   T
  0.0001976126679087  0.2502154550303245  0.0981322349952688   T   T   T
  0.4996780066575746  0.2504051427407400  0.0985912954638120   T   T   T
  0.2501038551679261  0.5001370158530890  0.0979928901540727   T   T   T
  0.7497469293942949  0.5001409927684018  0.0980365198801902   T   T   T
  0.0001863356309600  0.7500225957760827  0.0981762304631608   T   T   T
  0.4996736703310981  0.7498147876570496  0.0986485328111834   T   T   T
  0.0006346224903015  0.0001555694077931  0.1950775424658180   T   T   T
  0.4992758378649088  0.0001298689469567  0.1951969303273393   T   T   T
  0.2495540007523012  0.2509496143689625  0.1953222744901558   T   T   T
  0.7503188856354701  0.2512458205631865  0.1949928674978925   T   T   T
  0.0002126531213106  0.5001709369400610  0.1944591908424285   T   T   T
  0.4994637077096618  0.5001649701678780  0.1954882481156346   T   T   T
  0.2495373027607123  0.7493623299442087  0.1953766433200787   T   T   T
  0.7502844463530441  0.7491122471887657  0.1950369959228108   T   T   T
  0.2490108184763739  0.0002006227665586  0.2922662468407282   T   T   T
  0.7510195650311352  0.0002401297522538  0.2906385147742832   T   T   T
 -0.0002854355567839  0.2535620422812238  0.2937107972886885   T   T   T
  0.5000168740334924  0.2510430537805911  0.2936932569797783   T   T   T
  0.2461665099427599  0.5002182261477545  0.2932616707825670   T   T   T
  0.7528840011265764  0.5002241222037012  0.2924121456860739   T   T   T
 -0.0002969769801101  0.7469017060797859  0.2937914249054446   T   T   T
  0.4999513587901965  0.7494379690618393  0.2937598173125895   T   T   T
  0.0149786318983915  0.0003589307296178  0.3902023129556113   T   T   T
  0.4846544107526309  0.0002724180843180  0.3905564905476515   T   T   T
  0.2457692102740564  0.2580528782379406  0.3901460526491332   T   T   T
  0.7547711578350792  0.2681690001540911  0.3911209006598542   T   T   T
  0.4971508706676322  0.5002351907436094  0.3895188403406863   T   T   T
  0.2457526816135040  0.7424232548121530  0.3902308427996857   T   T   T
  0.7547354586755795  0.7322844812279102  0.3911819821183787   T   T   T
  0.0034813710039804  0.5001767303446883  0.3922197768739012   T   T   T
  0.9996612717000228  0.0000864801623681  0.0989514697989631   T   T   T
  0.5002234661202164  0.0000972358789569  0.0994121515009475   T   T   T
  0.2502061187893261  0.2497336726185046  0.0991820088797553   T   T   T
  0.7496720800575888  0.2495857507867811  0.0993171009719980   T   T   T
  0.9997776389078713  0.5001388171759449  0.0979080711131419   T   T   T
  0.5000554920884546  0.5001106219670127  0.0988829023138524   T   T   T
  0.2501854858080554  0.7504700170928322  0.0992370879558409   T   T   T
  0.7496831715997136  0.7506332429039944  0.0993680451173427   T   T   T
  0.2502447998788206  0.0001524056268556  0.1948450725215888   T   T   T
  0.7496745856630920  0.0001557454125982  0.1957570908761414   T   T   T
  0.9996364753273189  0.2490729399843251  0.1937973610993987   T   T   T
  0.5002206409594518  0.2495698907200693  0.1946661740459698   T   T   T
  0.2506453514531485  0.5001549234552140  0.1938278297932707   T   T   T
  0.7490226685661673  0.5001774434887156  0.1940640193398967   T   T   T
  0.9996172273517604  0.7512640571932159  0.1938409364956171   T   T   T
  0.5002044741585178  0.7507174483034731  0.1947254142595045   T   T   T
  0.9978825601422041  0.0002099032480754  0.2935880736269076   T   T   T
  0.5023363350212289  0.0002521026318335  0.2947242625403670   T   T   T
  0.2496271547584528  0.2500084901464485  0.2937079750333998   T   T   T
  0.7500858242466600  0.2480835729066837  0.2948709579104243   T   T   T
  0.9989094534214139  0.5002521426677730  0.2883210525560314   T   T   T
  0.5003337504959943  0.5002327698949427  0.2927400432716516   T   T   T
  0.2495560016077306  0.7504043725140239  0.2937710103872037   T   T   T
  0.7500514315503931  0.7524625913165057  0.2949615666973263   T   T   T
  0.2509736794673146  0.0003123461185653  0.3890899076636468   T   T   T
  0.7490663158799207  0.0004647800762891  0.3978822160259766   T   T   T
  0.9987753591154190  0.2395708464881996  0.3883715842063454   T   T   T
  0.5003379178493474  0.2483267295777442  0.3889203863149129   T   T   T
  0.2586504892974433  0.5002261264051162  0.3885053850173580   T   T   T
  0.7399880025422119  0.5001970104830509  0.3885764842232473   T   T   T
  0.9987635316332484  0.7609811829907905  0.3884369388278049   T   T   T
  0.5002554041788657  0.7522434302136138  0.3890076904466716   T   T   T
  0.7484091066876968 -0.0003686853783147  0.4725051477769127   T   T   T
 
  0.00000000E+00  0.00000000E+00  0.00000000E+00
  0.00000000E+00  0.00000000E+00  0.00000000E+00
  0.00000000E+00  0.00000000E+00  0.00000000E+00
  0.00000000E+00  0.00000000E+00  0.00000000E+00
  0.00000000E+00  0.00000000E+00  0.00000000E+00
  0.00000000E+00  0.00000000E+00  0.00000000E+00
  0.00000000E+00  0.00000000E+00  0.00000000E+00
  0.00000000E+00  0.00000000E+00  0.00000000E+00
  0.00000000E+00  0.00000000E+00  0.00000000E+00
  0.00000000E+00  0.00000000E+00  0.00000000E+00
  0.00000000E+00  0.00000000E+00  0.00000000E+00
  0.00000000E+00  0.00000000E+00  0.00000000E+00
  0.00000000E+00  0.00000000E+00  0.00000000E+00
  0.00000000E+00  0.00000000E+00  0.00000000E+00
  0.00000000E+00  0.00000000E+00  0.00000000E+00
  0.00000000E+00  0.00000000E+00  0.00000000E+00
  0.00000000E+00  0.00000000E+00  0.00000000E+00
  0.00000000E+00  0.00000000E+00  0.00000000E+00
  0.00000000E+00  0.00000000E+00  0.00000000E+00
  0.00000000E+00  0.00000000E+00  0.00000000E+00
  0.00000000E+00  0.00000000E+00  0.00000000E+00
  0.00000000E+00  0.00000000E+00  0.00000000E+00
  0.00000000E+00  0.00000000E+00  0.00000000E+00
  0.00000000E+00  0.00000000E+00  0.00000000E+00
  0.00000000E+00  0.00000000E+00  0.00000000E+00
  0.00000000E+00  0.00000000E+00  0.00000000E+00
  0.00000000E+00  0.00000000E+00  0.00000000E+00
  0.00000000E+00  0.00000000E+00  0.00000000E+00
  0.00000000E+00  0.00000000E+00  0.00000000E+00
  0.00000000E+00  0.00000000E+00  0.00000000E+00
  0.00000000E+00  0.00000000E+00  0.00000000E+00
  0.00000000E+00  0.00000000E+00  0.00000000E+00
  0.00000000E+00  0.00000000E+00  0.00000000E+00
  0.00000000E+00  0.00000000E+00  0.00000000E+00
  0.00000000E+00  0.00000000E+00  0.00000000E+00
  0.00000000E+00  0.00000000E+00  0.00000000E+00
  0.00000000E+00  0.00000000E+00  0.00000000E+00
  0.00000000E+00  0.00000000E+00  0.00000000E+00
  0.00000000E+00  0.00000000E+00  0.00000000E+00
  0.00000000E+00  0.00000000E+00  0.00000000E+00
  0.00000000E+00  0.00000000E+00  0.00000000E+00
  0.00000000E+00  0.00000000E+00  0.00000000E+00
  0.00000000E+00  0.00000000E+00  0.00000000E+00
  0.00000000E+00  0.00000000E+00  0.00000000E+00
  0.00000000E+00  0.00000000E+00  0.00000000E+00
  0.00000000E+00  0.00000000E+00  0.00000000E+00
  0.00000000E+00  0.00000000E+00  0.00000000E+00
  0.00000000E+00  0.00000000E+00  0.00000000E+00
  0.00000000E+00  0.00000000E+00  0.00000000E+00
  0.00000000E+00  0.00000000E+00  0.00000000E+00
  0.00000000E+00  0.00000000E+00  0.00000000E+00
  0.00000000E+00  0.00000000E+00  0.00000000E+00
  0.00000000E+00  0.00000000E+00  0.00000000E+00
  0.00000000E+00  0.00000000E+00  0.00000000E+00
  0.00000000E+00  0.00000000E+00  0.00000000E+00
  0.00000000E+00  0.00000000E+00  0.00000000E+00
  0.00000000E+00  0.00000000E+00  0.00000000E+00
  0.00000000E+00  0.00000000E+00  0.00000000E+00
  0.00000000E+00  0.00000000E+00  0.00000000E+00
  0.00000000E+00  0.00000000E+00  0.00000000E+00
  0.00000000E+00  0.00000000E+00  0.00000000E+00
  0.00000000E+00  0.00000000E+00  0.00000000E+00
  0.00000000E+00  0.00000000E+00  0.00000000E+00
  0.00000000E+00  0.00000000E+00  0.00000000E+00
  0.00000000E+00  0.00000000E+00  0.00000000E+00
