Ca Na O V                               
   1.00000000000000     
     9.6048500000000008    0.0000000000000000    0.0000000000000000
     0.0000000000000000    9.6048500000000008    0.0000000000000000
     0.0000000000000000    0.0000000000000000   24.6048000000000009
   Ca   Na   O    V 
    31     1    32     1
Selective dynamics
Direct
  0.2500272674561046  0.0001611705751050  0.0983234690579818   T   T   T
  0.7498950593402671  0.0001591368889437  0.0984608003048208   T   T   T
 -0.0000281892383894  0.2499070676966356  0.0979317149974635   T   T   T
  0.4997458776445209  0.2502101787482232  0.0985065790849148   T   T   T
  0.2501447636225737  0.5001524604859175  0.0976859543395530   T   T   T
  0.7495318070945972  0.5001484605931644  0.0977397234505033   T   T   T
  0.0000413794250320  0.7503475347583155  0.0979313089895265   T   T   T
  0.4998146423992343  0.7501616156804726  0.0984841737977698   T   T   T
  0.0007978313916517  0.0001709838988260  0.1949581695565882   T   T   T
  0.4991032632087791  0.0001874834171458  0.1951030936036977   T   T   T
  0.2492154877133238  0.2512107875762944  0.1951543102030048   T   T   T
  0.7503202855388690  0.2514466055723715  0.1948456667905119   T   T   T
  0.0002784662609565  0.5000488328952285  0.1941510421035281   T   T   T
  0.4992159431821079  0.5002855289199424  0.1952860848164228   T   T   T
  0.2494853519061397  0.7491576372998309  0.1951383316223974   T   T   T
  0.7503572268628380  0.7489006807796167  0.1948292752060685   T   T   T
  0.2490637638029557  0.0002307025700501  0.2919127724373224   T   T   T
  0.7509494786651210  0.0001962746052224  0.2900176709648001   T   T   T
  0.9998882574439838  0.2538585773806480  0.2936912136415822   T   T   T
  0.4994969001290616  0.2513319380547235  0.2935951142466486   T   T   T
  0.2460717534072274  0.5001904572878575  0.2931177290628235   T   T   T
  0.7528096754707079  0.5001599797525517  0.2919416109770424   T   T   T
  0.0001096621271542  0.7464511685504736  0.2936843805140697   T   T   T
  0.4997290251793960  0.7492631799933057  0.2935234153734796   T   T   T
  0.0140815361539242  0.0006384687044287  0.3888998401640960   T   T   T
  0.4857940222046810 -0.0003731566406674  0.3894609499778318   T   T   T
  0.2452635734351862  0.2575677541333429  0.3900951215529215   T   T   T
  0.7551701825906909  0.2681874082195155  0.3897196215556094   T   T   T
  0.4972864211428317  0.5003609175784867  0.3893799220374533   T   T   T
  0.2457781821711396  0.7430345178726613  0.3900486898013953   T   T   T
  0.7539737464364408  0.7322533508152241  0.3896608303764439   T   T   T
  0.0039401936998610  0.5000458835706536  0.3928059549992071   T   T   T
  0.9996798933165567  0.0001280165420440  0.0988342631690185   T   T   T
  0.5002494575921892  0.0001768522933990  0.0994023345012033   T   T   T
  0.2501651614647148  0.2496113083190786  0.0989762348077029   T   T   T
  0.7495693762575791  0.2495714746073979  0.0992281642415069   T   T   T
  0.9995304238069597  0.5001422581698045  0.0974507562466955   T   T   T
  0.5000905744806595  0.5001685329655421  0.0985749828420641   T   T   T
  0.2502391551458867  0.7506869880719015  0.0989631071087236   T   T   T
  0.7496281904813138  0.7507301027579999  0.0992180818045988   T   T   T
  0.2502888442530123  0.0001917005941905  0.1947901795253210   T   T   T
  0.7496699632894475  0.0001639031459902  0.1957240398161205   T   T   T
  0.9994179529983936  0.2489485779201013  0.1937728983884802   T   T   T
  0.5001394815590419  0.2495792208500327  0.1947228072450848   T   T   T
  0.2505787239835628  0.5001817339622986  0.1934678362129901   T   T   T
  0.7488179462298539  0.5001707181442895  0.1938719557615902   T   T   T
  0.9995734636658898  0.7512890541363112  0.1937634408945592   T   T   T
  0.5003025875185918  0.7508952052646028  0.1947170174767109   T   T   T
  0.9975074063108950  0.0000705585602578  0.2932300825582657   T   T   T
  0.5028089550462228  0.0003435996720608  0.2944388590650556   T   T   T
  0.2493243141464058  0.2497989253353787  0.2936156272504885   T   T   T
  0.7498619116153712  0.2475156905071494  0.2945416554408561   T   T   T
  0.9987552487418377  0.5000959190830699  0.2879040024279265   T   T   T
  0.5002673978628045  0.5003435447199561  0.2924847710433073   T   T   T
  0.2496047988487865  0.7506330805178950  0.2935930877486199   T   T   T
  0.7501864357387349  0.7528328074220102  0.2945272551923788   T   T   T
  0.2509544125220207  0.0001891724875515  0.3882828044855263   T   T   T
  0.7479278109313964  0.0001263128553126  0.4072768177955688   T   T   T
  0.9981484719033705  0.2391820143361931  0.3883868632635131   T   T   T
  0.5017646836913241  0.2469698620283116  0.3893168592005086   T   T   T
  0.2588883337035347  0.5002370568632842  0.3879946087108126   T   T   T
  0.7399160386912867  0.5001714461400540  0.3876743469307509   T   T   T
  0.9976078234508751  0.7617334899313388  0.3887471258507337   T   T   T
  0.5012260001643485  0.7528354196594398  0.3889420524377602   T   T   T
  0.7512121321681414  0.0002365684712792  0.4794467570370941   T   T   T
 
  0.00000000E+00  0.00000000E+00  0.00000000E+00
  0.00000000E+00  0.00000000E+00  0.00000000E+00
  0.00000000E+00  0.00000000E+00  0.00000000E+00
  0.00000000E+00  0.00000000E+00  0.00000000E+00
  0.00000000E+00  0.00000000E+00  0.00000000E+00
  0.00000000E+00  0.00000000E+00  0.00000000E+00
  0.00000000E+00  0.00000000E+00  0.00000000E+00
  0.00000000E+00  0.00000000E+00  0.00000000E+00
  0.00000000E+00  0.00000000E+00  0.00000000E+00
  0.00000000E+00  0.00000000E+00  0.00000000E+00
  0.00000000E+00  0.00000000E+00  0.00000000E+00
  0.00000000E+00  0.00000000E+00  0.00000000E+00
  0.00000000E+00  0.00000000E+00  0.00000000E+00
  0.00000000E+00  0.00000000E+00  0.00000000E+00
  0.00000000E+00  0.00000000E+00  0.00000000E+00
  0.00000000E+00  0.00000000E+00  0.00000000E+00
  0.00000000E+00  0.00000000E+00  0.00000000E+00
  0.00000000E+00  0.00000000E+00  0.00000000E+00
  0.00000000E+00  0.00000000E+00  0.00000000E+00
  0.00000000E+00  0.00000000E+00  0.00000000E+00
  0.00000000E+00  0.00000000E+00  0.00000000E+00
  0.00000000E+00  0.00000000E+00  0.00000000E+00
  0.00000000E+00  0.00000000E+00  0.00000000E+00
  0.00000000E+00  0.00000000E+00  0.00000000E+00
  0.00000000E+00  0.00000000E+00  0.00000000E+00
  0.00000000E+00  0.00000000E+00  0.00000000E+00
  0.00000000E+00  0.00000000E+00  0.00000000E+00
  0.00000000E+00  0.00000000E+00  0.00000000E+00
  0.00000000E+00  0.00000000E+00  0.00000000E+00
  0.00000000E+00  0.00000000E+00  0.00000000E+00
  0.00000000E+00  0.00000000E+00  0.00000000E+00
  0.00000000E+00  0.00000000E+00  0.00000000E+00
  0.00000000E+00  0.00000000E+00  0.00000000E+00
  0.00000000E+00  0.00000000E+00  0.00000000E+00
  0.00000000E+00  0.00000000E+00  0.00000000E+00
  0.00000000E+00  0.00000000E+00  0.00000000E+00
  0.00000000E+00  0.00000000E+00  0.00000000E+00
  0.00000000E+00  0.00000000E+00  0.00000000E+00
  0.00000000E+00  0.00000000E+00  0.00000000E+00
  0.00000000E+00  0.00000000E+00  0.00000000E+00
  0.00000000E+00  0.00000000E+00  0.00000000E+00
  0.00000000E+00  0.00000000E+00  0.00000000E+00
  0.00000000E+00  0.00000000E+00  0.00000000E+00
  0.00000000E+00  0.00000000E+00  0.00000000E+00
  0.00000000E+00  0.00000000E+00  0.00000000E+00
  0.00000000E+00  0.00000000E+00  0.00000000E+00
  0.00000000E+00  0.00000000E+00  0.00000000E+00
  0.00000000E+00  0.00000000E+00  0.00000000E+00
  0.00000000E+00  0.00000000E+00  0.00000000E+00
  0.00000000E+00  0.00000000E+00  0.00000000E+00
  0.00000000E+00  0.00000000E+00  0.00000000E+00
  0.00000000E+00  0.00000000E+00  0.00000000E+00
  0.00000000E+00  0.00000000E+00  0.00000000E+00
  0.00000000E+00  0.00000000E+00  0.00000000E+00
  0.00000000E+00  0.00000000E+00  0.00000000E+00
  0.00000000E+00  0.00000000E+00  0.00000000E+00
  0.00000000E+00  0.00000000E+00  0.00000000E+00
  0.00000000E+00  0.00000000E+00  0.00000000E+00
  0.00000000E+00  0.00000000E+00  0.00000000E+00
  0.00000000E+00  0.00000000E+00  0.00000000E+00
  0.00000000E+00  0.00000000E+00  0.00000000E+00
  0.00000000E+00  0.00000000E+00  0.00000000E+00
  0.00000000E+00  0.00000000E+00  0.00000000E+00
  0.00000000E+00  0.00000000E+00  0.00000000E+00
  0.00000000E+00  0.00000000E+00  0.00000000E+00
