                                        
   1.00000000000000     
     9.6048500000000008    0.0000000000000000    0.0000000000000000
     0.0000000000000010    9.6048500000000008    0.0000000000000000
     0.0000000000000020    0.0000000000000020   24.6048000000000009
   Ca   Na   Ca   O 
    28     1     3    32
Direct
  0.2499143492068769  0.0000235250286238  0.0986510627800460
  0.7500120904030225  0.0000240956959549  0.0986701417287574
  0.9999554463434988  0.2498987641626584  0.0984295361230228
  0.4999773201649917  0.2501809624532555  0.0986819091857301
  0.2501933346324008  0.5001139639937057  0.0985752023659171
  0.7497302387757790  0.5001122484948435  0.0985948538625082
  0.9999488460391650  0.7502404767344737  0.0985750463775881
  0.4999664851294847  0.7499711402060073  0.0988210770068653
  0.9999212877277949  0.0000588525671589  0.1956827988318270
  0.4999334294446539  0.0000832153608955  0.1957127867803167
  0.2497237225761921  0.2504367753947545  0.1955377975679556
  0.7501421164001425  0.2504362024806445  0.1955612819413197
  0.9999168777761107  0.5002089746386787  0.1950044787476177
  0.4999367763713926  0.5001739815913949  0.1959120840512710
  0.2496923380713557  0.7498287222278839  0.1957459651044235
  0.7501454404760545  0.7498260575286115  0.1957674228962354
  0.2491834455290072  0.0002224821998525  0.2933667733309008
  0.7505253700146874  0.0002250377544480  0.2934004414896938
  0.9998575106418152  0.2532738580163136  0.2932739500537622
  0.4998733189055529  0.2509441901757436  0.2934375413635678
  0.2467613137629125  0.5002681974297183  0.2935606059575257
  0.7529676367805757  0.5002691379894748  0.2936039273378373
  0.9998376458917925  0.7471108412356847  0.2935888423488055
  0.4998617647076910  0.7495241981638144  0.2936532872399045
  0.9998237187519495  0.0004425760888933  0.3898481422114159
  0.4997900016886874  0.0004351225459315  0.3901421487656380
  0.2469446683725476  0.2530361643263489  0.3903206450707135
  0.7526912163949935  0.2530367396908140  0.3903657598185313
  0.9998233834940792  0.4996422287846210  0.3918656616384441
  0.4997903980472973  0.5001209129234063  0.3902341358106507
  0.2468996135369368  0.7474878373793412  0.3906017393230416
  0.7527105639133561  0.7474979937757444  0.3906499835743169
  0.9999565527971968  0.0000168200175145  0.0989320211832008
  0.4999776983055447 -0.0000190191504050  0.0991685497114482
  0.2500675275394303  0.2500102581939909  0.0990776038494464
  0.7498790373658556  0.2500130528024015  0.0990970268487221
  0.9999549582728510  0.5001082376444465  0.0983936265878805
  0.4999783742783732  0.5001507476145215  0.0991059004588426
  0.2501009761931533  0.7501048990853543  0.0992316544839802
  0.7498190922276369  0.7501060704765964  0.0992529202744790
  0.2501813067861716  0.0000694820732412  0.1945949910139763
  0.7496708334426710  0.0000653709454307  0.1946215643842578
  0.9999293694816119  0.2493005203707483  0.1939935247229324
  0.4999413314806758  0.2499297373107641  0.1946198855071544
  0.2508135392739698  0.5001701907710157  0.1941842630366059
  0.7490305845859323  0.5001704582161368  0.1942117730115227
  0.9999157184683095  0.7509568217066771  0.1941684531069517
  0.4999190436390845  0.7503410312709714  0.1948504288671282
  0.9998483813994350  0.0002205940990150  0.2928894807038049
  0.4998643353193606  0.0001861685242487  0.2937030856984495
  0.2496197125833144  0.2505235293645757  0.2937773783146075
  0.7501162959276303  0.2505233237153631  0.2938110828327045
  0.9998603809491320  0.5002504761659833  0.2889900842378150
  0.4998704896887037  0.5002699445655094  0.2932317232530866
  0.2496344329720286  0.7499552556398839  0.2940729485822827
  0.7500654595150573  0.7499564676064532  0.2941088071253619
  0.2511731821915640  0.0004162595550632  0.3892521975084573
  0.7484078502381641  0.0004411449029544  0.3893050923693222
  0.9998240583224556  0.2401218087512525  0.3887012557601278
  0.4997995807761226  0.2488871638946684  0.3892953748979623
  0.2600727832385147  0.5002843989408788  0.3890599012898128
  0.7395231164721261  0.5002959980726208  0.3891126669413077
  0.9997786171440058  0.7607635066210150  0.3890438673931559
  0.4997797644510980  0.7518036937114282  0.3896708353570378
 
  0.00000000E+00  0.00000000E+00  0.00000000E+00
  0.00000000E+00  0.00000000E+00  0.00000000E+00
  0.00000000E+00  0.00000000E+00  0.00000000E+00
  0.00000000E+00  0.00000000E+00  0.00000000E+00
  0.00000000E+00  0.00000000E+00  0.00000000E+00
  0.00000000E+00  0.00000000E+00  0.00000000E+00
  0.00000000E+00  0.00000000E+00  0.00000000E+00
  0.00000000E+00  0.00000000E+00  0.00000000E+00
  0.00000000E+00  0.00000000E+00  0.00000000E+00
  0.00000000E+00  0.00000000E+00  0.00000000E+00
  0.00000000E+00  0.00000000E+00  0.00000000E+00
  0.00000000E+00  0.00000000E+00  0.00000000E+00
  0.00000000E+00  0.00000000E+00  0.00000000E+00
  0.00000000E+00  0.00000000E+00  0.00000000E+00
  0.00000000E+00  0.00000000E+00  0.00000000E+00
  0.00000000E+00  0.00000000E+00  0.00000000E+00
  0.00000000E+00  0.00000000E+00  0.00000000E+00
  0.00000000E+00  0.00000000E+00  0.00000000E+00
  0.00000000E+00  0.00000000E+00  0.00000000E+00
  0.00000000E+00  0.00000000E+00  0.00000000E+00
  0.00000000E+00  0.00000000E+00  0.00000000E+00
  0.00000000E+00  0.00000000E+00  0.00000000E+00
  0.00000000E+00  0.00000000E+00  0.00000000E+00
  0.00000000E+00  0.00000000E+00  0.00000000E+00
  0.00000000E+00  0.00000000E+00  0.00000000E+00
  0.00000000E+00  0.00000000E+00  0.00000000E+00
  0.00000000E+00  0.00000000E+00  0.00000000E+00
  0.00000000E+00  0.00000000E+00  0.00000000E+00
  0.00000000E+00  0.00000000E+00  0.00000000E+00
  0.00000000E+00  0.00000000E+00  0.00000000E+00
  0.00000000E+00  0.00000000E+00  0.00000000E+00
  0.00000000E+00  0.00000000E+00  0.00000000E+00
  0.00000000E+00  0.00000000E+00  0.00000000E+00
  0.00000000E+00  0.00000000E+00  0.00000000E+00
  0.00000000E+00  0.00000000E+00  0.00000000E+00
  0.00000000E+00  0.00000000E+00  0.00000000E+00
  0.00000000E+00  0.00000000E+00  0.00000000E+00
  0.00000000E+00  0.00000000E+00  0.00000000E+00
  0.00000000E+00  0.00000000E+00  0.00000000E+00
  0.00000000E+00  0.00000000E+00  0.00000000E+00
  0.00000000E+00  0.00000000E+00  0.00000000E+00
  0.00000000E+00  0.00000000E+00  0.00000000E+00
  0.00000000E+00  0.00000000E+00  0.00000000E+00
  0.00000000E+00  0.00000000E+00  0.00000000E+00
  0.00000000E+00  0.00000000E+00  0.00000000E+00
  0.00000000E+00  0.00000000E+00  0.00000000E+00
  0.00000000E+00  0.00000000E+00  0.00000000E+00
  0.00000000E+00  0.00000000E+00  0.00000000E+00
  0.00000000E+00  0.00000000E+00  0.00000000E+00
  0.00000000E+00  0.00000000E+00  0.00000000E+00
  0.00000000E+00  0.00000000E+00  0.00000000E+00
  0.00000000E+00  0.00000000E+00  0.00000000E+00
  0.00000000E+00  0.00000000E+00  0.00000000E+00
  0.00000000E+00  0.00000000E+00  0.00000000E+00
  0.00000000E+00  0.00000000E+00  0.00000000E+00
  0.00000000E+00  0.00000000E+00  0.00000000E+00
  0.00000000E+00  0.00000000E+00  0.00000000E+00
  0.00000000E+00  0.00000000E+00  0.00000000E+00
  0.00000000E+00  0.00000000E+00  0.00000000E+00
  0.00000000E+00  0.00000000E+00  0.00000000E+00
  0.00000000E+00  0.00000000E+00  0.00000000E+00
  0.00000000E+00  0.00000000E+00  0.00000000E+00
  0.00000000E+00  0.00000000E+00  0.00000000E+00
  0.00000000E+00  0.00000000E+00  0.00000000E+00
