Ca Mn Na O                              
   1.00000000000000     
     9.6048500000000008    0.0000000000000000    0.0000000000000000
     0.0000000000000000    9.6048500000000008    0.0000000000000000
     0.0000000000000000    0.0000000000000000   24.6048000000000009
   Ca   Mn   Na   O 
    31     1     1    32
Selective dynamics
Direct
  0.2500098592221589  0.0001784968974846  0.0982467599621200   T   T   T
  0.7498717478971130  0.0001777364626622  0.0984463603769726   T   T   T
  0.0000589160100504  0.2500430483044799  0.0978106418664869   T   T   T
  0.4996739193709305  0.2502821850077631  0.0983932289457377   T   T   T
  0.2501353089792652  0.5001567632811562  0.0974827610968139   T   T   T
  0.7494981802168403  0.5001575002357108  0.0975725479049849   T   T   T
  0.0000580829607106  0.7502991904322007  0.0977814354385644   T   T   T
  0.4996747505405019  0.7500536872006210  0.0983626329499932   T   T   T
  0.0006592578504051  0.0001863845608806  0.1948550605680881   T   T   T
  0.4991911592262652  0.0001784990063086  0.1949781096015790   T   T   T
  0.2493022038341711  0.2512007439974397  0.1950103612447803   T   T   T
  0.7503020932424392  0.2513459495713363  0.1947211959798700   T   T   T
  0.0002375208867981  0.5001785061753262  0.1939193761874736   T   T   T
  0.4991534897007123  0.5001728850227675  0.1950853970057184   T   T   T
  0.2493058337813421  0.7491653759710319  0.1949792004384965   T   T   T
  0.7503002814079029  0.7490092196294803  0.1946921392618514   T   T   T
  0.2491541386423230  0.0002013008030502  0.2920304599670968   T   T   T
  0.7508866173852681  0.0001899153344574  0.2900549657219544   T   T   T
  0.0000434620489709  0.2543196085247063  0.2935130251821690   T   T   T
  0.4993369572058016  0.2515182239492011  0.2933070186645899   T   T   T
  0.2459650762224086  0.5001780498107914  0.2932236524537514   T   T   T
  0.7528451206959381  0.5001902569002488  0.2920597184049291   T   T   T
  0.0000471588229787  0.7460614098521789  0.2934670774106240   T   T   T
  0.4993293249455866  0.7488544717940440  0.2932639831903186   T   T   T
  0.0123723779102271  0.0001710906268467  0.3882008005293954   T   T   T
  0.4878998277548627  0.0001727547113400  0.3889237887944221   T   T   T
  0.2457429833620189  0.2568937477478438  0.3901981137004724   T   T   T
  0.7540316277373239  0.2661913529631201  0.3892803052553258   T   T   T
  0.4975613786844223  0.5002106900663282  0.3894418848945642   T   T   T
  0.2457591134788513  0.7434984528244613  0.3901434713910998   T   T   T
  0.7540040881332573  0.7342587006934412  0.3892360544513664   T   T   T
  0.7549132148584574  0.0002987557481798  0.4838376634849108   T   T   T
  0.0030184807583528  0.5002950114178439  0.3934591913110856   T   T   T
  0.9996398870236818  0.0001815711175340  0.0987500974718023   T   T   T
  0.5002615403780374  0.0001759242103160  0.0993045708186834   T   T   T
  0.2501728800989927  0.2495597879600206  0.0989036104936586   T   T   T
  0.7495988716775256  0.2495189414346989  0.0991015385945865   T   T   T
  0.9995125494013117  0.5001694610883863  0.0973346297466305   T   T   T
  0.5000791321420111  0.5001535335888143  0.0984523199943953   T   T   T
  0.2501764672044704  0.7507525212048558  0.0988711869992293   T   T   T
  0.7495840373423728  0.7508102100866464  0.0990683447957714   T   T   T
  0.2502531783250251  0.0001939456419137  0.1947570511233202   T   T   T
  0.7496433896097300  0.0001830151408076  0.1956137646786612   T   T   T
 -0.0004808556560019  0.2490566116996072  0.1937753949861717   T   T   T
  0.5000929267978064  0.2495665276524943  0.1947087140375603   T   T   T
  0.2505381495729266  0.5001715659461866  0.1933967380142543   T   T   T
  0.7487702459415018  0.5001763094547185  0.1937349451017613   T   T   T
 -0.0004662513878946  0.7513251816470148  0.1937386351335418   T   T   T
  0.5000891996559094  0.7507764283126374  0.1946751922783570   T   T   T
  0.9974315574734535  0.0002051948708544  0.2931557416293762   T   T   T
  0.5028180832267249  0.0001930939170732  0.2942761026171266   T   T   T
  0.2493673513701311  0.2497727022706488  0.2936371313298576   T   T   T
  0.7499541697145170  0.2475612202379114  0.2943879158229421   T   T   T
  0.9988145034981554  0.5001843142668749  0.2878207968764753   T   T   T
  0.5000816908833337  0.5001977094980440  0.2924487066848088   T   T   T
  0.2493636097609919  0.7506037965786618  0.2935896335067329   T   T   T
  0.7499461568320061  0.7528133030240510  0.2943369804705473   T   T   T
  0.2511790559715964  0.0001408778977153  0.3883009051921465   T   T   T
  0.7476351446337751  0.0001403965351365  0.4080330650880340   T   T   T
  0.9973215311669256  0.2385655322102805  0.3889260769805837   T   T   T
  0.5017401823459865  0.2469261060910584  0.3892965715591671   T   T   T
  0.2590039886132839  0.5001976217064119  0.3879548557793290   T   T   T
  0.7397595474763341  0.5002144663665151  0.3875358869199239   T   T   T
  0.9973112393923818  0.7618008486780959  0.3888562160071202   T   T   T
  0.5017194951883128  0.7534260187092998  0.3892445077188475   T   T   T
 
  0.00000000E+00  0.00000000E+00  0.00000000E+00
  0.00000000E+00  0.00000000E+00  0.00000000E+00
  0.00000000E+00  0.00000000E+00  0.00000000E+00
  0.00000000E+00  0.00000000E+00  0.00000000E+00
  0.00000000E+00  0.00000000E+00  0.00000000E+00
  0.00000000E+00  0.00000000E+00  0.00000000E+00
  0.00000000E+00  0.00000000E+00  0.00000000E+00
  0.00000000E+00  0.00000000E+00  0.00000000E+00
  0.00000000E+00  0.00000000E+00  0.00000000E+00
  0.00000000E+00  0.00000000E+00  0.00000000E+00
  0.00000000E+00  0.00000000E+00  0.00000000E+00
  0.00000000E+00  0.00000000E+00  0.00000000E+00
  0.00000000E+00  0.00000000E+00  0.00000000E+00
  0.00000000E+00  0.00000000E+00  0.00000000E+00
  0.00000000E+00  0.00000000E+00  0.00000000E+00
  0.00000000E+00  0.00000000E+00  0.00000000E+00
  0.00000000E+00  0.00000000E+00  0.00000000E+00
  0.00000000E+00  0.00000000E+00  0.00000000E+00
  0.00000000E+00  0.00000000E+00  0.00000000E+00
  0.00000000E+00  0.00000000E+00  0.00000000E+00
  0.00000000E+00  0.00000000E+00  0.00000000E+00
  0.00000000E+00  0.00000000E+00  0.00000000E+00
  0.00000000E+00  0.00000000E+00  0.00000000E+00
  0.00000000E+00  0.00000000E+00  0.00000000E+00
  0.00000000E+00  0.00000000E+00  0.00000000E+00
  0.00000000E+00  0.00000000E+00  0.00000000E+00
  0.00000000E+00  0.00000000E+00  0.00000000E+00
  0.00000000E+00  0.00000000E+00  0.00000000E+00
  0.00000000E+00  0.00000000E+00  0.00000000E+00
  0.00000000E+00  0.00000000E+00  0.00000000E+00
  0.00000000E+00  0.00000000E+00  0.00000000E+00
  0.00000000E+00  0.00000000E+00  0.00000000E+00
  0.00000000E+00  0.00000000E+00  0.00000000E+00
  0.00000000E+00  0.00000000E+00  0.00000000E+00
  0.00000000E+00  0.00000000E+00  0.00000000E+00
  0.00000000E+00  0.00000000E+00  0.00000000E+00
  0.00000000E+00  0.00000000E+00  0.00000000E+00
  0.00000000E+00  0.00000000E+00  0.00000000E+00
  0.00000000E+00  0.00000000E+00  0.00000000E+00
  0.00000000E+00  0.00000000E+00  0.00000000E+00
  0.00000000E+00  0.00000000E+00  0.00000000E+00
  0.00000000E+00  0.00000000E+00  0.00000000E+00
  0.00000000E+00  0.00000000E+00  0.00000000E+00
  0.00000000E+00  0.00000000E+00  0.00000000E+00
  0.00000000E+00  0.00000000E+00  0.00000000E+00
  0.00000000E+00  0.00000000E+00  0.00000000E+00
  0.00000000E+00  0.00000000E+00  0.00000000E+00
  0.00000000E+00  0.00000000E+00  0.00000000E+00
  0.00000000E+00  0.00000000E+00  0.00000000E+00
  0.00000000E+00  0.00000000E+00  0.00000000E+00
  0.00000000E+00  0.00000000E+00  0.00000000E+00
  0.00000000E+00  0.00000000E+00  0.00000000E+00
  0.00000000E+00  0.00000000E+00  0.00000000E+00
  0.00000000E+00  0.00000000E+00  0.00000000E+00
  0.00000000E+00  0.00000000E+00  0.00000000E+00
  0.00000000E+00  0.00000000E+00  0.00000000E+00
  0.00000000E+00  0.00000000E+00  0.00000000E+00
  0.00000000E+00  0.00000000E+00  0.00000000E+00
  0.00000000E+00  0.00000000E+00  0.00000000E+00
  0.00000000E+00  0.00000000E+00  0.00000000E+00
  0.00000000E+00  0.00000000E+00  0.00000000E+00
  0.00000000E+00  0.00000000E+00  0.00000000E+00
  0.00000000E+00  0.00000000E+00  0.00000000E+00
  0.00000000E+00  0.00000000E+00  0.00000000E+00
  0.00000000E+00  0.00000000E+00  0.00000000E+00
