Ca Cu Na O                              
   1.00000000000000     
     9.6048500000000008    0.0000000000000000    0.0000000000000000
     0.0000000000000000    9.6048500000000008    0.0000000000000000
     0.0000000000000000    0.0000000000000000   24.6048000000000009
   Ca   Cu   Na   O 
    31     1     1    32
Selective dynamics
Direct
  0.2499635774079148  0.0001265084315404  0.0986023201788040   T   T   T
  0.7499434959707766  0.0001369706897943  0.0986174367489898   T   T   T
  0.0001545604457073  0.2501241294851506  0.0982186645168359   T   T   T
  0.4997181267746873  0.2503496546663715  0.0987578953567777   T   T   T
  0.2501292075535495  0.5001389158691866  0.0980572553395738   T   T   T
  0.7496531535713117  0.5001418008857657  0.0980986667293553   T   T   T
  0.0001516885101807  0.7501455750306951  0.0982392364033641   T   T   T
  0.4997209568874250  0.7499232198999752  0.0987796261643359   T   T   T
  0.0006226659022466  0.0001653924368776  0.1952682438559785   T   T   T
  0.4993183622808363  0.0001674633402697  0.1954001668479071   T   T   T
  0.2495102565426917  0.2511172984163794  0.1953640314693071   T   T   T
  0.7502957107433418  0.2511625807681966  0.1951732920354578   T   T   T
  0.0003329150568765  0.5001604995219175  0.1942996945073908   T   T   T
  0.4992587247917709  0.5001601040836035  0.1954210323991133   T   T   T
  0.2495062438940602  0.7492059290528202  0.1953801368482246   T   T   T
  0.7503013608273510  0.7491719479264636  0.1951916312271226   T   T   T
  0.2489821959777092  0.0002008995772955  0.2924404453130081   T   T   T
  0.7508589901285129  0.0002052352511841  0.2910468801292461   T   T   T
  0.0002986888681790  0.2544164678274780  0.2937357622998405   T   T   T
  0.4993112601688733  0.2516632305345001  0.2936390278981075   T   T   T
  0.2461866620164378  0.5001989296645458  0.2935746187760615   T   T   T
  0.7529527973702272  0.5002080012503346  0.2925311477214264   T   T   T
  0.0002917415317585  0.7459757700982408  0.2937521517565922   T   T   T
  0.4993169977537444  0.7487393967308756  0.2936482516639528   T   T   T
  0.0117595371669287  0.0002235709695132  0.3885792441309209   T   T   T
  0.4877095686644920  0.0002195649491766  0.3891468801725396   T   T   T
  0.2457134832493912  0.2571132054812617  0.3904052152012957   T   T   T
  0.7544823505701629  0.2656320526845386  0.3895502388932179   T   T   T
  0.4976034338444398  0.5002206655229591  0.3896497981310997   T   T   T
  0.2457101093429556  0.7433215909928600  0.3904123542424057   T   T   T
  0.7544790314038756  0.7348274688243035  0.3895759310894889   T   T   T
  0.7516314533096211  0.0004041562363112  0.4705736408820789   T   T   T
  0.0032674363424032  0.5002306186371471  0.3929203880898400   T   T   T
  0.9995847706098887  0.0001311278031899  0.0990752056571474   T   T   T
  0.5003573580388820  0.0001269948053460  0.0995866011296473   T   T   T
  0.2502109439266626  0.2497521410069109  0.0992787479084622   T   T   T
  0.7496645662647454  0.2494451036405524  0.0994838611484185   T   T   T
  0.9998133433581019  0.5001174686123043  0.0978046652882529   T   T   T
  0.4999951246779078  0.5001459382430329  0.0988788269900091   T   T   T
  0.2501982953093769  0.7504902744221453  0.0992967651362774   T   T   T
  0.7496634683468499  0.7508249267098180  0.0995107846691877   T   T   T
  0.2502407063579257  0.0001539786000710  0.1949270543535806   T   T   T
  0.7497108252173922  0.0001677987523920  0.1959974781912935   T   T   T
  0.9997133212083611  0.2491657653910899  0.1941494463599976   T   T   T
  0.5001011020462631  0.2496679692882390  0.1950711661535511   T   T   T
  0.2505865554800373  0.5001605641219807  0.1938709152204695   T   T   T
  0.7489697462411493  0.5001648610078518  0.1940077815187302   T   T   T
  0.9997179853476151  0.7511662813574452  0.1941631105124665   T   T   T
  0.5001148407387821  0.7506703752753784  0.1950935243145735   T   T   T
  0.9979476273499172  0.0001995217794348  0.2934505373340705   T   T   T
  0.5020620172777353  0.0002020253119835  0.2944794182046547   T   T   T
  0.2495544697213819  0.2501289656160275  0.2938640912451976   T   T   T
  0.7501213422468833  0.2480600780376523  0.2946197135203104   T   T   T
  0.9990007609174536  0.5002000899254953  0.2882060201437993   T   T   T
  0.4999513448372818  0.5001894116889860  0.2927386735743595   T   T   T
  0.2495583730964474  0.7502789199606312  0.2938801960434381   T   T   T
  0.7501377833271942  0.7523735593940046  0.2946437325114499   T   T   T
  0.2508843233275898  0.0002563595283103  0.3885550169692687   T   T   T
  0.7474591933171693  0.0002494586325048  0.3985365491673827   T   T   T
  0.9982491079020630  0.2394087229141466  0.3893380580804899   T   T   T
  0.5007838942189512  0.2476387579246822  0.3898057580584956   T   T   T
  0.2589423722903922  0.5002285964231107  0.3885799337272099   T   T   T
  0.7398041936073034  0.5002269675914844  0.3878430800533658   T   T   T
  0.9982507288425659  0.7610287116383740  0.3893639052469171   T   T   T
  0.5007689791292624  0.7527841734279069  0.3898142866368741   T   T   T
 
  0.00000000E+00  0.00000000E+00  0.00000000E+00
  0.00000000E+00  0.00000000E+00  0.00000000E+00
  0.00000000E+00  0.00000000E+00  0.00000000E+00
  0.00000000E+00  0.00000000E+00  0.00000000E+00
  0.00000000E+00  0.00000000E+00  0.00000000E+00
  0.00000000E+00  0.00000000E+00  0.00000000E+00
  0.00000000E+00  0.00000000E+00  0.00000000E+00
  0.00000000E+00  0.00000000E+00  0.00000000E+00
  0.00000000E+00  0.00000000E+00  0.00000000E+00
  0.00000000E+00  0.00000000E+00  0.00000000E+00
  0.00000000E+00  0.00000000E+00  0.00000000E+00
  0.00000000E+00  0.00000000E+00  0.00000000E+00
  0.00000000E+00  0.00000000E+00  0.00000000E+00
  0.00000000E+00  0.00000000E+00  0.00000000E+00
  0.00000000E+00  0.00000000E+00  0.00000000E+00
  0.00000000E+00  0.00000000E+00  0.00000000E+00
  0.00000000E+00  0.00000000E+00  0.00000000E+00
  0.00000000E+00  0.00000000E+00  0.00000000E+00
  0.00000000E+00  0.00000000E+00  0.00000000E+00
  0.00000000E+00  0.00000000E+00  0.00000000E+00
  0.00000000E+00  0.00000000E+00  0.00000000E+00
  0.00000000E+00  0.00000000E+00  0.00000000E+00
  0.00000000E+00  0.00000000E+00  0.00000000E+00
  0.00000000E+00  0.00000000E+00  0.00000000E+00
  0.00000000E+00  0.00000000E+00  0.00000000E+00
  0.00000000E+00  0.00000000E+00  0.00000000E+00
  0.00000000E+00  0.00000000E+00  0.00000000E+00
  0.00000000E+00  0.00000000E+00  0.00000000E+00
  0.00000000E+00  0.00000000E+00  0.00000000E+00
  0.00000000E+00  0.00000000E+00  0.00000000E+00
  0.00000000E+00  0.00000000E+00  0.00000000E+00
  0.00000000E+00  0.00000000E+00  0.00000000E+00
  0.00000000E+00  0.00000000E+00  0.00000000E+00
  0.00000000E+00  0.00000000E+00  0.00000000E+00
  0.00000000E+00  0.00000000E+00  0.00000000E+00
  0.00000000E+00  0.00000000E+00  0.00000000E+00
  0.00000000E+00  0.00000000E+00  0.00000000E+00
  0.00000000E+00  0.00000000E+00  0.00000000E+00
  0.00000000E+00  0.00000000E+00  0.00000000E+00
  0.00000000E+00  0.00000000E+00  0.00000000E+00
  0.00000000E+00  0.00000000E+00  0.00000000E+00
  0.00000000E+00  0.00000000E+00  0.00000000E+00
  0.00000000E+00  0.00000000E+00  0.00000000E+00
  0.00000000E+00  0.00000000E+00  0.00000000E+00
  0.00000000E+00  0.00000000E+00  0.00000000E+00
  0.00000000E+00  0.00000000E+00  0.00000000E+00
  0.00000000E+00  0.00000000E+00  0.00000000E+00
  0.00000000E+00  0.00000000E+00  0.00000000E+00
  0.00000000E+00  0.00000000E+00  0.00000000E+00
  0.00000000E+00  0.00000000E+00  0.00000000E+00
  0.00000000E+00  0.00000000E+00  0.00000000E+00
  0.00000000E+00  0.00000000E+00  0.00000000E+00
  0.00000000E+00  0.00000000E+00  0.00000000E+00
  0.00000000E+00  0.00000000E+00  0.00000000E+00
  0.00000000E+00  0.00000000E+00  0.00000000E+00
  0.00000000E+00  0.00000000E+00  0.00000000E+00
  0.00000000E+00  0.00000000E+00  0.00000000E+00
  0.00000000E+00  0.00000000E+00  0.00000000E+00
  0.00000000E+00  0.00000000E+00  0.00000000E+00
  0.00000000E+00  0.00000000E+00  0.00000000E+00
  0.00000000E+00  0.00000000E+00  0.00000000E+00
  0.00000000E+00  0.00000000E+00  0.00000000E+00
  0.00000000E+00  0.00000000E+00  0.00000000E+00
  0.00000000E+00  0.00000000E+00  0.00000000E+00
  0.00000000E+00  0.00000000E+00  0.00000000E+00
