Ca Na O Ru                              
   1.00000000000000     
     9.6048500000000008    0.0000000000000000    0.0000000000000000
     0.0000000000000000    9.6048500000000008    0.0000000000000000
     0.0000000000000000    0.0000000000000000   24.6048000000000009
   Ca   Na   O    Ru
    31     1    32     1
Selective dynamics
Direct
  0.2500227016238964  0.0001567047555477  0.0984496977500532   T   T   T
  0.7498938441648516  0.0001622217374125  0.0984816396090883   T   T   T
 -0.0000217496024008  0.2498858260141788  0.0980348489653907   T   T   T
  0.4998174452285340  0.2501373176557507  0.0986077953513646   T   T   T
  0.2501372464915365  0.5001427649779929  0.0978421662978085   T   T   T
  0.7495023454125914  0.5001498403157336  0.0978712305421890   T   T   T
 -0.0000238649890546  0.7504193285671119  0.0980203945740308   T   T   T
  0.4998203715552840  0.7501636133327023  0.0985930151694456   T   T   T
  0.0007247335350073  0.0001721377508328  0.1951213843452050   T   T   T
  0.4991678061728569  0.0001689369322344  0.1952889589815286   T   T   T
  0.2494149672640818  0.2510702141643834  0.1952518307177580   T   T   T
  0.7502819505890213  0.2513777879305524  0.1950178971252059   T   T   T
  0.0000975115667646  0.5001533822509228  0.1941933387029495   T   T   T
  0.4993225242991336  0.5001622478165942  0.1953697392561651   T   T   T
  0.2494143797441414  0.7492648549540666  0.1952342196092032   T   T   T
  0.7502782637829689  0.7489644648979723  0.1949999879521364   T   T   T
  0.2489391772241899  0.0001976578314963  0.2921699461378006   T   T   T
  0.7509568190854042  0.0001873193517577  0.2904400498628397   T   T   T
 -0.0003348487166907  0.2536112760352977  0.2937171461127181   T   T   T
  0.4999607936727880  0.2509420459880471  0.2936708477246046   T   T   T
  0.2460433774922081  0.5001746076525468  0.2929182705311023   T   T   T
  0.7528842691088998  0.5001876622354884  0.2922567016517294   T   T   T
 -0.0003415979717734  0.7467445039375394  0.2936869089738131   T   T   T
  0.4999634066832130  0.7494356264239073  0.2936438998615080   T   T   T
  0.0155115859248668  0.0001523560080726  0.3897233409711227   T   T   T
  0.4841340952847348  0.0001903252571469  0.3902581476334026   T   T   T
  0.2458313254312970  0.2575491678825464  0.3899506642748734   T   T   T
  0.7547696955698004  0.2693186982498728  0.3906968747845066   T   T   T
  0.4969991656224982  0.5002152208252882  0.3892177679281093   T   T   T
  0.2458518986843707  0.7428481456073626  0.3899121150996738   T   T   T
  0.7547409118209326  0.7311632022200258  0.3906750694571781   T   T   T
  0.0048187714764088  0.5002856580245517  0.3925618489250496   T   T   T
  0.9996870373462020  0.0001550557156509  0.0989548623890041   T   T   T
  0.5002399297472718  0.0001540045598525  0.0995407228404004   T   T   T
  0.2501982094513773  0.2496773359308717  0.0990727407689495   T   T   T
  0.7496124372569322  0.2495715312207740  0.0993482458006244   T   T   T
  0.9996433544538827  0.5001393284851843  0.0975305381373165   T   T   T
  0.4999942340086208  0.5001408156511056  0.0986698217689816   T   T   T
  0.2502005940826271  0.7505969995797818  0.0990545680137188   T   T   T
  0.7496088945726465  0.7507309411221043  0.0993353036481241   T   T   T
  0.2502789817490030  0.0001687512272644  0.1949223711243554   T   T   T
  0.7496733328439232  0.0001713389153681  0.1959453814358532   T   T   T
  0.9994588881798794  0.2489530906273240  0.1938867632126230   T   T   T
  0.5002808189490924  0.2494126405082502  0.1948403070232713   T   T   T
  0.2505046617133838  0.5001629488294795  0.1935500484057128   T   T   T
  0.7488541281847964  0.5001794596947349  0.1939375244753979   T   T   T
  0.9994655916042090  0.7513966174608272  0.1938612073268267   T   T   T
  0.5002696110735743  0.7509150657194884  0.1948188749163195   T   T   T
  0.9975625123376309  0.0001830473519037  0.2936297962674000   T   T   T
  0.5026425739868510  0.0002070100836448  0.2948648364027133   T   T   T
  0.2494234286426513  0.2497729207301342  0.2936431205911763   T   T   T
  0.7500884599101275  0.2476035705838881  0.2949487347610714   T   T   T
  0.9987081748246308  0.5001669464352774  0.2880008122629970   T   T   T
  0.5001638284431682  0.5002035132410355  0.2925312795834520   T   T   T
  0.2494261456607939  0.7506090437147591  0.2936168947995474   T   T   T
  0.7500860657793308  0.7527547534120255  0.2949224670080742   T   T   T
  0.2508368818441037  0.0001804626372569  0.3886590792009686   T   T   T
  0.7481023992917709  0.0001477739240602  0.4013320620999898   T   T   T
  0.9983899105680581  0.2393487216738364  0.3885425752594690   T   T   T
  0.5005318323603147  0.2476708075109082  0.3890630944023220   T   T   T
  0.2587488524402098  0.5001948538065412  0.3880081111596186   T   T   T
  0.7397380415949212  0.5002317368588910  0.3879259315945714   T   T   T
  0.9983985979640488  0.7609927638784217  0.3884973595575264   T   T   T
  0.5005487407930321  0.7527628015424518  0.3890345816606942   T   T   T
  0.7513097345585439  0.0006929343519837  0.4755984493103851   T   T   T
 
  0.00000000E+00  0.00000000E+00  0.00000000E+00
  0.00000000E+00  0.00000000E+00  0.00000000E+00
  0.00000000E+00  0.00000000E+00  0.00000000E+00
  0.00000000E+00  0.00000000E+00  0.00000000E+00
  0.00000000E+00  0.00000000E+00  0.00000000E+00
  0.00000000E+00  0.00000000E+00  0.00000000E+00
  0.00000000E+00  0.00000000E+00  0.00000000E+00
  0.00000000E+00  0.00000000E+00  0.00000000E+00
  0.00000000E+00  0.00000000E+00  0.00000000E+00
  0.00000000E+00  0.00000000E+00  0.00000000E+00
  0.00000000E+00  0.00000000E+00  0.00000000E+00
  0.00000000E+00  0.00000000E+00  0.00000000E+00
  0.00000000E+00  0.00000000E+00  0.00000000E+00
  0.00000000E+00  0.00000000E+00  0.00000000E+00
  0.00000000E+00  0.00000000E+00  0.00000000E+00
  0.00000000E+00  0.00000000E+00  0.00000000E+00
  0.00000000E+00  0.00000000E+00  0.00000000E+00
  0.00000000E+00  0.00000000E+00  0.00000000E+00
  0.00000000E+00  0.00000000E+00  0.00000000E+00
  0.00000000E+00  0.00000000E+00  0.00000000E+00
  0.00000000E+00  0.00000000E+00  0.00000000E+00
  0.00000000E+00  0.00000000E+00  0.00000000E+00
  0.00000000E+00  0.00000000E+00  0.00000000E+00
  0.00000000E+00  0.00000000E+00  0.00000000E+00
  0.00000000E+00  0.00000000E+00  0.00000000E+00
  0.00000000E+00  0.00000000E+00  0.00000000E+00
  0.00000000E+00  0.00000000E+00  0.00000000E+00
  0.00000000E+00  0.00000000E+00  0.00000000E+00
  0.00000000E+00  0.00000000E+00  0.00000000E+00
  0.00000000E+00  0.00000000E+00  0.00000000E+00
  0.00000000E+00  0.00000000E+00  0.00000000E+00
  0.00000000E+00  0.00000000E+00  0.00000000E+00
  0.00000000E+00  0.00000000E+00  0.00000000E+00
  0.00000000E+00  0.00000000E+00  0.00000000E+00
  0.00000000E+00  0.00000000E+00  0.00000000E+00
  0.00000000E+00  0.00000000E+00  0.00000000E+00
  0.00000000E+00  0.00000000E+00  0.00000000E+00
  0.00000000E+00  0.00000000E+00  0.00000000E+00
  0.00000000E+00  0.00000000E+00  0.00000000E+00
  0.00000000E+00  0.00000000E+00  0.00000000E+00
  0.00000000E+00  0.00000000E+00  0.00000000E+00
  0.00000000E+00  0.00000000E+00  0.00000000E+00
  0.00000000E+00  0.00000000E+00  0.00000000E+00
  0.00000000E+00  0.00000000E+00  0.00000000E+00
  0.00000000E+00  0.00000000E+00  0.00000000E+00
  0.00000000E+00  0.00000000E+00  0.00000000E+00
  0.00000000E+00  0.00000000E+00  0.00000000E+00
  0.00000000E+00  0.00000000E+00  0.00000000E+00
  0.00000000E+00  0.00000000E+00  0.00000000E+00
  0.00000000E+00  0.00000000E+00  0.00000000E+00
  0.00000000E+00  0.00000000E+00  0.00000000E+00
  0.00000000E+00  0.00000000E+00  0.00000000E+00
  0.00000000E+00  0.00000000E+00  0.00000000E+00
  0.00000000E+00  0.00000000E+00  0.00000000E+00
  0.00000000E+00  0.00000000E+00  0.00000000E+00
  0.00000000E+00  0.00000000E+00  0.00000000E+00
  0.00000000E+00  0.00000000E+00  0.00000000E+00
  0.00000000E+00  0.00000000E+00  0.00000000E+00
  0.00000000E+00  0.00000000E+00  0.00000000E+00
  0.00000000E+00  0.00000000E+00  0.00000000E+00
  0.00000000E+00  0.00000000E+00  0.00000000E+00
  0.00000000E+00  0.00000000E+00  0.00000000E+00
  0.00000000E+00  0.00000000E+00  0.00000000E+00
  0.00000000E+00  0.00000000E+00  0.00000000E+00
  0.00000000E+00  0.00000000E+00  0.00000000E+00
