Ag Ca Na O                              
   1.00000000000000     
     9.6048500000000008    0.0000000000000000    0.0000000000000000
     0.0000000000000000    9.6048500000000008    0.0000000000000000
     0.0000000000000000    0.0000000000000000   24.6048000000000009
   Ag   Ca   Na   O 
     1    31     1    32
Selective dynamics
Direct
  0.7526847336837609  0.0002240339558292  0.4816909613543529   T   T   T
  0.2499900751137679  0.0001514477316084  0.0984993178870887   T   T   T
  0.7499002614091275  0.0001556294582259  0.0985048301684981   T   T   T
  0.0000583442502235  0.2499891907929377  0.0980699826431743   T   T   T
  0.4997627751619056  0.2502113846153527  0.0986040405137077   T   T   T
  0.2501488499827150  0.5001516333732624  0.0978752550153017   T   T   T
  0.7495904535238930  0.5001553935514070  0.0979371552114905   T   T   T
  0.0000552356761093  0.7503139653942921  0.0980689785431009   T   T   T
  0.4997629159892070  0.7500930555178356  0.0986030609781905   T   T   T
  0.0004414342578205  0.0001799335724070  0.1951312075149337   T   T   T
  0.4994056773812101  0.0001739424395410  0.1952513791057580   T   T   T
  0.2494393315182862  0.2511271342984168  0.1952311370314996   T   T   T
  0.7502998545195779  0.2511110052437841  0.1950259172267841   T   T   T
  0.0002607907089443  0.5001611228615441  0.1941792249615434   T   T   T
  0.4993169811898805  0.5001708572193437  0.1953182653567737   T   T   T
  0.2494358025682712  0.7492265855265101  0.1952247153316799   T   T   T
  0.7502976391443884  0.7492338101664231  0.1950222770397685   T   T   T
  0.2490202576228298  0.0002042879311501  0.2922701003530999   T   T   T
  0.7507521182433311  0.0002016150462298  0.2912937759322843   T   T   T
  0.0002610073451257  0.2544060114367927  0.2935425842211717   T   T   T
  0.4993211570662358  0.2516390051416451  0.2933706700749754   T   T   T
  0.2461673365786473  0.5001968410137294  0.2935333046270141   T   T   T
  0.7529169153459628  0.5001931153174882  0.2923379868997721   T   T   T
  0.0002564203292081  0.7459941535836551  0.2935284289484377   T   T   T
  0.4993204758333110  0.7487566113462044  0.2933556117030647   T   T   T
  0.0104202733185784  0.0002027312815621  0.3881279155500508   T   T   T
  0.4893730683756289  0.0002059815390319  0.3887058713070802   T   T   T
  0.2459039600040749  0.2563960732132048  0.3903013506015421   T   T   T
  0.7540355285316157  0.2643894133713053  0.3890736054013969   T   T   T
  0.4980653086735017  0.5002179112276759  0.3895685540880376   T   T   T
  0.2459215411786285  0.7440448090176355  0.3902791502915486   T   T   T
  0.7540107191186263  0.7360466892082933  0.3890549001234717   T   T   T
  0.0026569496689479  0.5002692105027690  0.3930585959727608   T   T   T
  0.9996465642314764  0.0001495319958880  0.0989415436197600   T   T   T
  0.5002686267665709  0.0001466270982345  0.0994610498371437   T   T   T
  0.2501856643061131  0.2497135827402302  0.0991123446735739   T   T   T
  0.7496501019757813  0.2495499894002099  0.0993041984951539   T   T   T
  0.9997193939063675  0.5001420354860431  0.0975966879996246   T   T   T
  0.5000187626172649  0.5001447588021439  0.0986870350407367   T   T   T
  0.2501805246725946  0.7505685556777486  0.0991064489758147   T   T   T
  0.7496412537558914  0.7507538698729744  0.0993079358582072   T   T   T
  0.2502399163648888  0.0001909120031514  0.1948410113452117   T   T   T
  0.7496696850897552  0.0001703701116979  0.1959010200551108   T   T   T
 -0.0003143199580524  0.2491338305678452  0.1940281522957248   T   T   T
  0.5000699780188591  0.2496446894283031  0.1949274411575449   T   T   T
  0.2506010128534376  0.5001692016154049  0.1937149529680999   T   T   T
  0.7489158052859944  0.5001747390073944  0.1938630358581662   T   T   T
 -0.0003146284997558  0.7512089968846387  0.1940170135092513   T   T   T
  0.5000666026596418  0.7506983250034571  0.1949157787166830   T   T   T
  0.9980201915282949  0.0001902129195925  0.2931498460997515   T   T   T
  0.5019256838057944  0.0001971425614644  0.2941380666682913   T   T   T
  0.2494859147752483  0.2500329615380601  0.2938107686459550   T   T   T
  0.7500642989723305  0.2482380227064023  0.2942734252709713   T   T   T
  0.9991341349354622  0.5001984347871962  0.2880664546075322   T   T   T
  0.4999012369415018  0.5001998118617711  0.2926354194488429   T   T   T
  0.2494783239137290  0.7503753881679319  0.2937984458809845   T   T   T
  0.7500602629677720  0.7521388817803545  0.2942642254488113   T   T   T
  0.2508949493542985  0.0002074107153412  0.3884794622809644   T   T   T
  0.7475206388808336  0.0002066771356826  0.3978774366673850   T   T   T
  0.9983473804627632  0.2395486812859933  0.3892475334217905   T   T   T
  0.5008086977082581  0.2476229250573785  0.3896818317188061   T   T   T
  0.2591337553220160  0.5002184372054210  0.3885714886339373   T   T   T
  0.7398225759835227  0.5002038666788264  0.3877173000849289   T   T   T
  0.9983428686042918  0.7608821303888024  0.3892238074592864   T   T   T
  0.5008161579336834  0.7527891181873402  0.3896649373656096   T   T   T
 
  0.00000000E+00  0.00000000E+00  0.00000000E+00
  0.00000000E+00  0.00000000E+00  0.00000000E+00
  0.00000000E+00  0.00000000E+00  0.00000000E+00
  0.00000000E+00  0.00000000E+00  0.00000000E+00
  0.00000000E+00  0.00000000E+00  0.00000000E+00
  0.00000000E+00  0.00000000E+00  0.00000000E+00
  0.00000000E+00  0.00000000E+00  0.00000000E+00
  0.00000000E+00  0.00000000E+00  0.00000000E+00
  0.00000000E+00  0.00000000E+00  0.00000000E+00
  0.00000000E+00  0.00000000E+00  0.00000000E+00
  0.00000000E+00  0.00000000E+00  0.00000000E+00
  0.00000000E+00  0.00000000E+00  0.00000000E+00
  0.00000000E+00  0.00000000E+00  0.00000000E+00
  0.00000000E+00  0.00000000E+00  0.00000000E+00
  0.00000000E+00  0.00000000E+00  0.00000000E+00
  0.00000000E+00  0.00000000E+00  0.00000000E+00
  0.00000000E+00  0.00000000E+00  0.00000000E+00
  0.00000000E+00  0.00000000E+00  0.00000000E+00
  0.00000000E+00  0.00000000E+00  0.00000000E+00
  0.00000000E+00  0.00000000E+00  0.00000000E+00
  0.00000000E+00  0.00000000E+00  0.00000000E+00
  0.00000000E+00  0.00000000E+00  0.00000000E+00
  0.00000000E+00  0.00000000E+00  0.00000000E+00
  0.00000000E+00  0.00000000E+00  0.00000000E+00
  0.00000000E+00  0.00000000E+00  0.00000000E+00
  0.00000000E+00  0.00000000E+00  0.00000000E+00
  0.00000000E+00  0.00000000E+00  0.00000000E+00
  0.00000000E+00  0.00000000E+00  0.00000000E+00
  0.00000000E+00  0.00000000E+00  0.00000000E+00
  0.00000000E+00  0.00000000E+00  0.00000000E+00
  0.00000000E+00  0.00000000E+00  0.00000000E+00
  0.00000000E+00  0.00000000E+00  0.00000000E+00
  0.00000000E+00  0.00000000E+00  0.00000000E+00
  0.00000000E+00  0.00000000E+00  0.00000000E+00
  0.00000000E+00  0.00000000E+00  0.00000000E+00
  0.00000000E+00  0.00000000E+00  0.00000000E+00
  0.00000000E+00  0.00000000E+00  0.00000000E+00
  0.00000000E+00  0.00000000E+00  0.00000000E+00
  0.00000000E+00  0.00000000E+00  0.00000000E+00
  0.00000000E+00  0.00000000E+00  0.00000000E+00
  0.00000000E+00  0.00000000E+00  0.00000000E+00
  0.00000000E+00  0.00000000E+00  0.00000000E+00
  0.00000000E+00  0.00000000E+00  0.00000000E+00
  0.00000000E+00  0.00000000E+00  0.00000000E+00
  0.00000000E+00  0.00000000E+00  0.00000000E+00
  0.00000000E+00  0.00000000E+00  0.00000000E+00
  0.00000000E+00  0.00000000E+00  0.00000000E+00
  0.00000000E+00  0.00000000E+00  0.00000000E+00
  0.00000000E+00  0.00000000E+00  0.00000000E+00
  0.00000000E+00  0.00000000E+00  0.00000000E+00
  0.00000000E+00  0.00000000E+00  0.00000000E+00
  0.00000000E+00  0.00000000E+00  0.00000000E+00
  0.00000000E+00  0.00000000E+00  0.00000000E+00
  0.00000000E+00  0.00000000E+00  0.00000000E+00
  0.00000000E+00  0.00000000E+00  0.00000000E+00
  0.00000000E+00  0.00000000E+00  0.00000000E+00
  0.00000000E+00  0.00000000E+00  0.00000000E+00
  0.00000000E+00  0.00000000E+00  0.00000000E+00
  0.00000000E+00  0.00000000E+00  0.00000000E+00
  0.00000000E+00  0.00000000E+00  0.00000000E+00
  0.00000000E+00  0.00000000E+00  0.00000000E+00
  0.00000000E+00  0.00000000E+00  0.00000000E+00
  0.00000000E+00  0.00000000E+00  0.00000000E+00
  0.00000000E+00  0.00000000E+00  0.00000000E+00
  0.00000000E+00  0.00000000E+00  0.00000000E+00
