Ca Na O Pt                              
   1.00000000000000     
     9.6048500000000008    0.0000000000000000    0.0000000000000000
     0.0000000000000000    9.6048500000000008    0.0000000000000000
     0.0000000000000000    0.0000000000000000   24.6048000000000009
   Ca   Na   O    Pt
    31     1    32     1
Selective dynamics
Direct
  0.2500083947127122  0.0000875152968478  0.0986973385526245   T   T   T
  0.7498769802818017  0.0000846076717626  0.0988525738140986   T   T   T
  0.0000427191214420  0.2499443558910038  0.0982796169793085   T   T   T
  0.4998312179635765  0.2501733540695668  0.0987459420276628   T   T   T
  0.2502220448953081  0.5001397887564712  0.0982561597453695   T   T   T
  0.7496461018749930  0.5001406404116658  0.0983054635265207   T   T   T
  0.0000444710373647  0.7502791007146333  0.0983373457578614   T   T   T
  0.4998306783281540  0.7500479340771677  0.0988124887632934   T   T   T
  0.0004914867237612  0.0001377701933311  0.1955499491690826   T   T   T
  0.4993619994453583  0.0001464364858994  0.1956750506947746   T   T   T
  0.2496370735471365  0.2507589835689551  0.1956545249356081   T   T   T
  0.7502221534237061  0.2510594699983673  0.1954945186110756   T   T   T
  0.0001205435664076  0.5001632661071760  0.1947417532204502   T   T   T
  0.4996126040121617  0.5001546002288720  0.1958323403695526   T   T   T
  0.2496324456456442  0.7495574294409572  0.1957194360972579   T   T   T
  0.7502287050595438  0.7492505983965236  0.1955577890297251   T   T   T
  0.2491112637270795  0.0002079593589674  0.2930706845861312   T   T   T
  0.7507791465521900  0.0002105800420560  0.2919851818861352   T   T   T
 -0.0004662383934717  0.2531528893176847  0.2937173790628971   T   T   T
  0.5002599472695861  0.2506159366826027  0.2937715383027243   T   T   T
  0.2462744888631196  0.5002269687218884  0.2934498026919951   T   T   T
  0.7528954141527237  0.5002391247807515  0.2931789703637556   T   T   T
 -0.0004678847271708  0.7472492127448310  0.2938098724167416   T   T   T
  0.5002600599076408  0.7498127723060742  0.2938524454762127   T   T   T
  0.0102778711766525  0.0002875074852184  0.3913600006819569   T   T   T
  0.4892109772992325  0.0002862514434705  0.3916644063580661   T   T   T
  0.2467051202320635  0.2560019052750250  0.3903372287076796   T   T   T
  0.7538996806594429  0.2637635242576675  0.3920480046739415   T   T   T
  0.4981511786371052  0.5002141838353199  0.3898219796963206   T   T   T
  0.2466891840849962  0.7444653985501918  0.3904276309035396   T   T   T
  0.7539264320994282  0.7367222983175173  0.3921534183832188   T   T   T
  0.0023996222545093  0.5001015250156892  0.3928242411539504   T   T   T
  0.9997069728448277  0.0000833627933246  0.0989348870515734   T   T   T
  0.5001756997948581  0.0000790888130943  0.0993536552908843   T   T   T
  0.2501523694804743  0.2498288602485882  0.0991088032758698   T   T   T
  0.7497195713339342  0.2496865733147203  0.0992645054707705   T   T   T
  0.9998408156254598  0.5001166386667225  0.0979188742183910   T   T   T
  0.5000354199900960  0.5001402700856745  0.0988735208519359   T   T   T
  0.2501599365086516  0.7503753823965217  0.0991734458037422   T   T   T
  0.7497240565469550  0.7505164628882927  0.0993359729379736   T   T   T
  0.2501880082961409  0.0001578599139589  0.1948066953233398   T   T   T
  0.7496752560125726  0.0001422125279640  0.1956603119174516   T   T   T
  0.9997150177704693  0.2491812126728110  0.1938057945997545   T   T   T
  0.5001188157805476  0.2497073198393459  0.1945647253816652   T   T   T
  0.2506247046280628  0.5001608078238048  0.1939389611199627   T   T   T
  0.7490847969958608  0.5001633672687005  0.1940832505306253   T   T   T
  0.9997104493549118  0.7511395833010464  0.1938650152629162   T   T   T
  0.5001217583733037  0.7506056099394462  0.1946493250409708   T   T   T
  0.9986475174908509  0.0001801950901750  0.2934555331580278   T   T   T
  0.5012316744446123  0.0002080235474616  0.2943395662838832   T   T   T
  0.2496269536512076  0.2502924888317535  0.2936678480226129   T   T   T
  0.7501422942253591  0.2491398328082050  0.2945567756762443   T   T   T
  0.9993337200440071  0.5002108827028892  0.2885425438083939   T   T   T
  0.5000042589351682  0.5002125289457194  0.2928736885979303   T   T   T
  0.2496063383608256  0.7501258242555002  0.2937497177096735   T   T   T
  0.7501517596017857  0.7513153264268717  0.2946526280687076   T   T   T
  0.2508120642530317  0.0003006581593893  0.3891815848618948   T   T   T
  0.7490260703820706  0.0002923093060186  0.3904071886813815   T   T   T
  0.0004115066440875  0.2406256053293452  0.3880688452410482   T   T   T
  0.4988324410829096  0.2497436102668652  0.3885255805344311   T   T   T
  0.2586963247448683  0.5002431416605772  0.3887685226085607   T   T   T
  0.7398364942856340  0.5002359026349065  0.3888467172807428   T   T   T
  0.0004082098052560  0.7599103486249901  0.3881780956780073   T   T   T
  0.4988295200415275  0.7507544921690937  0.3886235550063348   T   T   T
  0.7481895286854457  0.0004450318720822  0.4682050001537768   T   T   T
 
  0.00000000E+00  0.00000000E+00  0.00000000E+00
  0.00000000E+00  0.00000000E+00  0.00000000E+00
  0.00000000E+00  0.00000000E+00  0.00000000E+00
  0.00000000E+00  0.00000000E+00  0.00000000E+00
  0.00000000E+00  0.00000000E+00  0.00000000E+00
  0.00000000E+00  0.00000000E+00  0.00000000E+00
  0.00000000E+00  0.00000000E+00  0.00000000E+00
  0.00000000E+00  0.00000000E+00  0.00000000E+00
  0.00000000E+00  0.00000000E+00  0.00000000E+00
  0.00000000E+00  0.00000000E+00  0.00000000E+00
  0.00000000E+00  0.00000000E+00  0.00000000E+00
  0.00000000E+00  0.00000000E+00  0.00000000E+00
  0.00000000E+00  0.00000000E+00  0.00000000E+00
  0.00000000E+00  0.00000000E+00  0.00000000E+00
  0.00000000E+00  0.00000000E+00  0.00000000E+00
  0.00000000E+00  0.00000000E+00  0.00000000E+00
  0.00000000E+00  0.00000000E+00  0.00000000E+00
  0.00000000E+00  0.00000000E+00  0.00000000E+00
  0.00000000E+00  0.00000000E+00  0.00000000E+00
  0.00000000E+00  0.00000000E+00  0.00000000E+00
  0.00000000E+00  0.00000000E+00  0.00000000E+00
  0.00000000E+00  0.00000000E+00  0.00000000E+00
  0.00000000E+00  0.00000000E+00  0.00000000E+00
  0.00000000E+00  0.00000000E+00  0.00000000E+00
  0.00000000E+00  0.00000000E+00  0.00000000E+00
  0.00000000E+00  0.00000000E+00  0.00000000E+00
  0.00000000E+00  0.00000000E+00  0.00000000E+00
  0.00000000E+00  0.00000000E+00  0.00000000E+00
  0.00000000E+00  0.00000000E+00  0.00000000E+00
  0.00000000E+00  0.00000000E+00  0.00000000E+00
  0.00000000E+00  0.00000000E+00  0.00000000E+00
  0.00000000E+00  0.00000000E+00  0.00000000E+00
  0.00000000E+00  0.00000000E+00  0.00000000E+00
  0.00000000E+00  0.00000000E+00  0.00000000E+00
  0.00000000E+00  0.00000000E+00  0.00000000E+00
  0.00000000E+00  0.00000000E+00  0.00000000E+00
  0.00000000E+00  0.00000000E+00  0.00000000E+00
  0.00000000E+00  0.00000000E+00  0.00000000E+00
  0.00000000E+00  0.00000000E+00  0.00000000E+00
  0.00000000E+00  0.00000000E+00  0.00000000E+00
  0.00000000E+00  0.00000000E+00  0.00000000E+00
  0.00000000E+00  0.00000000E+00  0.00000000E+00
  0.00000000E+00  0.00000000E+00  0.00000000E+00
  0.00000000E+00  0.00000000E+00  0.00000000E+00
  0.00000000E+00  0.00000000E+00  0.00000000E+00
  0.00000000E+00  0.00000000E+00  0.00000000E+00
  0.00000000E+00  0.00000000E+00  0.00000000E+00
  0.00000000E+00  0.00000000E+00  0.00000000E+00
  0.00000000E+00  0.00000000E+00  0.00000000E+00
  0.00000000E+00  0.00000000E+00  0.00000000E+00
  0.00000000E+00  0.00000000E+00  0.00000000E+00
  0.00000000E+00  0.00000000E+00  0.00000000E+00
  0.00000000E+00  0.00000000E+00  0.00000000E+00
  0.00000000E+00  0.00000000E+00  0.00000000E+00
  0.00000000E+00  0.00000000E+00  0.00000000E+00
  0.00000000E+00  0.00000000E+00  0.00000000E+00
  0.00000000E+00  0.00000000E+00  0.00000000E+00
  0.00000000E+00  0.00000000E+00  0.00000000E+00
  0.00000000E+00  0.00000000E+00  0.00000000E+00
  0.00000000E+00  0.00000000E+00  0.00000000E+00
  0.00000000E+00  0.00000000E+00  0.00000000E+00
  0.00000000E+00  0.00000000E+00  0.00000000E+00
  0.00000000E+00  0.00000000E+00  0.00000000E+00
  0.00000000E+00  0.00000000E+00  0.00000000E+00
  0.00000000E+00  0.00000000E+00  0.00000000E+00
