Ca Co Na O                              
   1.00000000000000     
     9.6048500000000008    0.0000000000000000    0.0000000000000000
     0.0000000000000000    9.6048500000000008    0.0000000000000000
     0.0000000000000000    0.0000000000000000   24.6048000000000009
   Ca   Co   Na   O 
    31     1     1    32
Selective dynamics
Direct
  0.2500056546471592  0.0001533201877415  0.0985126463985734   T   T   T
  0.7499356411318705  0.0001599630445017  0.0985425653763605   T   T   T
  0.0001132444101436  0.2500559093669469  0.0981365221740211   T   T   T
  0.4997054636422425  0.2502967617048275  0.0987052356593119   T   T   T
  0.2501149028123418  0.5001441638913846  0.0979415221681154   T   T   T
  0.7495654263436438  0.5001539675308808  0.0979496854808818   T   T   T
  0.0001081749002777  0.7502419024105348  0.0981286093153188   T   T   T
  0.4997078627256573  0.7500029557702083  0.0986978028215663   T   T   T
  0.0007842817490859  0.0001861768761849  0.1952215143104628   T   T   T
  0.4992577502987602  0.0001810739847204  0.1953700761404377   T   T   T
  0.2494307672924379  0.2511237276678953  0.1952951156181243   T   T   T
  0.7502760499270258  0.2513368405172728  0.1951058238794978   T   T   T
  0.0001850443501384  0.5001521411888705  0.1941758023352824   T   T   T
  0.4992416607523643  0.5001579084924260  0.1953512572793232   T   T   T
  0.2494315097754165  0.7492148169076913  0.1952743049620082   T   T   T
  0.7502740749908029  0.7490136525779768  0.1950889037679950   T   T   T
  0.2491065651644277  0.0002008627810585  0.2923352301137649   T   T   T
  0.7509837883307596  0.0002084280833881  0.2905326916122112   T   T   T
 -0.0002049246210301  0.2538466562634865  0.2938511654962974   T   T   T
  0.4997173330335400  0.2511205261976635  0.2936928896074825   T   T   T
  0.2459555040891264  0.5001669623690962  0.2931012117577782   T   T   T
  0.7529377303426067  0.5002008460924586  0.2924368973837181   T   T   T
 -0.0002075246614074  0.7465177824880115  0.2938097669024591   T   T   T
  0.4997225974229855  0.7492470085548640  0.2936608069167231   T   T   T
  0.0143646498878606  0.0001231143333139  0.3893385118389987   T   T   T
  0.4862082607026862  0.0001593439524877  0.3900321829328095   T   T   T
  0.2458099922881820  0.2576173329110258  0.3901267858688527   T   T   T
  0.7543889183969806  0.2676318292448558  0.3903913241879104   T   T   T
  0.4968578402484130  0.5002235173278983  0.3892933056099174   T   T   T
  0.2458262156770080  0.7427471621469640  0.3900754085374804   T   T   T
  0.7543612288248114  0.7328757643273626  0.3903691393454712   T   T   T
  0.7535373581948601  0.0006616240983374  0.4699823785991493   T   T   T
  0.0042981938685131  0.5003240291730396  0.3926600451323039   T   T   T
  0.9996510953501699  0.0001560435485039  0.0990287884496277   T   T   T
  0.5003036922619556  0.0001555372508531  0.0995871196378589   T   T   T
  0.2501985021412208  0.2497090666866252  0.0992005710527922   T   T   T
  0.7496230345606569  0.2495051904094669  0.0994449241004582   T   T   T
  0.9997182481203468  0.5001267458369179  0.0976561995496712   T   T   T
  0.4999849538685303  0.5001434839912087  0.0987690608889947   T   T   T
  0.2501926954420198  0.7505613414125535  0.0991873230320195   T   T   T
  0.7496172777530333  0.7508032246142187  0.0994400955779133   T   T   T
  0.2503275028965565  0.0001772554766643  0.1950074943916720   T   T   T
  0.7497414070253278  0.0001762044913285  0.1959853738209349   T   T   T
  0.9995069715917521  0.2490187440576481  0.1940571594228983   T   T   T
  0.5002221065528056  0.2494849793105904  0.1949932301156840   T   T   T
  0.2504899192478436  0.5001594609022780  0.1937228234214703   T   T   T
  0.7489062045401379  0.5001764485575574  0.1940358694837530   T   T   T
  0.9995005264099194  0.7513323622594399  0.1940351410004154   T   T   T
  0.5002303776840288  0.7508464675014662  0.1949730619109609   T   T   T
  0.9978803129809777  0.0001918834876855  0.2937250777167612   T   T   T
  0.5025293132298749  0.0002031882734228  0.2949022166586250   T   T   T
  0.2493783259120733  0.2499293516602163  0.2937445561902193   T   T   T
  0.7500913307606383  0.2477991708528725  0.2950153418886783   T   T   T
  0.9986635879409008  0.5001655540548323  0.2881401872285808   T   T   T
  0.5000557648180652  0.5001890681783713  0.2925788535186915   T   T   T
  0.2493908071517102  0.7504644305996128  0.2937063331809787   T   T   T
  0.7500766158552429  0.7526021272805701  0.2949859785061643   T   T   T
  0.2511907483861086  0.0001835766916619  0.3887851973181338   T   T   T
  0.7470690677007501  0.0001762095860836  0.4009965874493075   T   T   T
  0.9979400506356043  0.2390273475451127  0.3890970849875900   T   T   T
  0.5003970962210103  0.2477680653257455  0.3893752227642736   T   T   T
  0.2585307072412834  0.5001745329789623  0.3881733821620558   T   T   T
  0.7397138779173743  0.5002483895036780  0.3880633962667640   T   T   T
  0.9979563649914684  0.7612832957642315  0.3890312843912591   T   T   T
  0.5003764853208921  0.7526178840142611  0.3893341464731939   T   T   T
 
  0.00000000E+00  0.00000000E+00  0.00000000E+00
  0.00000000E+00  0.00000000E+00  0.00000000E+00
  0.00000000E+00  0.00000000E+00  0.00000000E+00
  0.00000000E+00  0.00000000E+00  0.00000000E+00
  0.00000000E+00  0.00000000E+00  0.00000000E+00
  0.00000000E+00  0.00000000E+00  0.00000000E+00
  0.00000000E+00  0.00000000E+00  0.00000000E+00
  0.00000000E+00  0.00000000E+00  0.00000000E+00
  0.00000000E+00  0.00000000E+00  0.00000000E+00
  0.00000000E+00  0.00000000E+00  0.00000000E+00
  0.00000000E+00  0.00000000E+00  0.00000000E+00
  0.00000000E+00  0.00000000E+00  0.00000000E+00
  0.00000000E+00  0.00000000E+00  0.00000000E+00
  0.00000000E+00  0.00000000E+00  0.00000000E+00
  0.00000000E+00  0.00000000E+00  0.00000000E+00
  0.00000000E+00  0.00000000E+00  0.00000000E+00
  0.00000000E+00  0.00000000E+00  0.00000000E+00
  0.00000000E+00  0.00000000E+00  0.00000000E+00
  0.00000000E+00  0.00000000E+00  0.00000000E+00
  0.00000000E+00  0.00000000E+00  0.00000000E+00
  0.00000000E+00  0.00000000E+00  0.00000000E+00
  0.00000000E+00  0.00000000E+00  0.00000000E+00
  0.00000000E+00  0.00000000E+00  0.00000000E+00
  0.00000000E+00  0.00000000E+00  0.00000000E+00
  0.00000000E+00  0.00000000E+00  0.00000000E+00
  0.00000000E+00  0.00000000E+00  0.00000000E+00
  0.00000000E+00  0.00000000E+00  0.00000000E+00
  0.00000000E+00  0.00000000E+00  0.00000000E+00
  0.00000000E+00  0.00000000E+00  0.00000000E+00
  0.00000000E+00  0.00000000E+00  0.00000000E+00
  0.00000000E+00  0.00000000E+00  0.00000000E+00
  0.00000000E+00  0.00000000E+00  0.00000000E+00
  0.00000000E+00  0.00000000E+00  0.00000000E+00
  0.00000000E+00  0.00000000E+00  0.00000000E+00
  0.00000000E+00  0.00000000E+00  0.00000000E+00
  0.00000000E+00  0.00000000E+00  0.00000000E+00
  0.00000000E+00  0.00000000E+00  0.00000000E+00
  0.00000000E+00  0.00000000E+00  0.00000000E+00
  0.00000000E+00  0.00000000E+00  0.00000000E+00
  0.00000000E+00  0.00000000E+00  0.00000000E+00
  0.00000000E+00  0.00000000E+00  0.00000000E+00
  0.00000000E+00  0.00000000E+00  0.00000000E+00
  0.00000000E+00  0.00000000E+00  0.00000000E+00
  0.00000000E+00  0.00000000E+00  0.00000000E+00
  0.00000000E+00  0.00000000E+00  0.00000000E+00
  0.00000000E+00  0.00000000E+00  0.00000000E+00
  0.00000000E+00  0.00000000E+00  0.00000000E+00
  0.00000000E+00  0.00000000E+00  0.00000000E+00
  0.00000000E+00  0.00000000E+00  0.00000000E+00
  0.00000000E+00  0.00000000E+00  0.00000000E+00
  0.00000000E+00  0.00000000E+00  0.00000000E+00
  0.00000000E+00  0.00000000E+00  0.00000000E+00
  0.00000000E+00  0.00000000E+00  0.00000000E+00
  0.00000000E+00  0.00000000E+00  0.00000000E+00
  0.00000000E+00  0.00000000E+00  0.00000000E+00
  0.00000000E+00  0.00000000E+00  0.00000000E+00
  0.00000000E+00  0.00000000E+00  0.00000000E+00
  0.00000000E+00  0.00000000E+00  0.00000000E+00
  0.00000000E+00  0.00000000E+00  0.00000000E+00
  0.00000000E+00  0.00000000E+00  0.00000000E+00
  0.00000000E+00  0.00000000E+00  0.00000000E+00
  0.00000000E+00  0.00000000E+00  0.00000000E+00
  0.00000000E+00  0.00000000E+00  0.00000000E+00
  0.00000000E+00  0.00000000E+00  0.00000000E+00
  0.00000000E+00  0.00000000E+00  0.00000000E+00
