Ca Ir Na O                              
   1.00000000000000     
     9.6048500000000008    0.0000000000000000    0.0000000000000000
     0.0000000000000000    9.6048500000000008    0.0000000000000000
     0.0000000000000000    0.0000000000000000   24.6048000000000009
   Ca   Ir   Na   O 
    31     1     1    32
Selective dynamics
Direct
  0.2499670962212711  0.0000863853422999  0.0984641555663530   T   T   T
  0.7499198093154362  0.0000849359137116  0.0985214242319637   T   T   T
  0.0001299962493509  0.2501126086244498  0.0982121790669960   T   T   T
  0.4997255728383423  0.2503195571033650  0.0986732944447156   T   T   T
  0.2501521454528318  0.5001405184026442  0.0981295644937106   T   T   T
  0.7496951014920129  0.5001371901046464  0.0980959002384027   T   T   T
  0.0001302059582564  0.7501213843402897  0.0982745022660993   T   T   T
  0.4997302314646083  0.7499111048780956  0.0987377297654817   T   T   T
  0.0010188166269654  0.0001434336202680  0.1950475132333659   T   T   T
  0.4989049012656510  0.0001491896854403  0.1951393358774024   T   T   T
  0.2495016734811235  0.2512504383804711  0.1955133700908844   T   T   T
  0.7503214421860765  0.2516095928882880  0.1949646608799927   T   T   T
  0.0005048655560137  0.5001656881661020  0.1946847266741849   T   T   T
  0.4991919775886741  0.5001713084164099  0.1957037739017892   T   T   T
  0.2495119115071133  0.7490688381466920  0.1955791655738179   T   T   T
  0.7503326178829791  0.7486802643575577  0.1950358212279266   T   T   T
  0.2490631337500268  0.0002405358124274  0.2922663067122618   T   T   T
  0.7510266324248416  0.0002002580009835  0.2896125172534384   T   T   T
 -0.0005154914074130  0.2532613332196785  0.2939351540064680   T   T   T
  0.5002250126544511  0.2508125936314688  0.2939734814184209   T   T   T
  0.2460595477716997  0.5002654579986082  0.2932267583472621   T   T   T
  0.7527596093887106  0.5002169212080431  0.2924160929267779   T   T   T
 -0.0004917984629578  0.7471388985295178  0.2940253275036508   T   T   T
  0.5002495012294230  0.7496618313431738  0.2940480691601730   T   T   T
  0.0170688769735072  0.0003031791014404  0.3907419920233502   T   T   T
  0.4825385694197266  0.0003145532825330  0.3910826474845405   T   T   T
  0.2456197046623628  0.2586282577883230  0.3900581143218223   T   T   T
  0.7551190980369477  0.2699613435212705  0.3916612697512999   T   T   T
  0.4970337230190002  0.5002244242069009  0.3894734595066865   T   T   T
  0.2455920763223040  0.7418882436422510  0.3901609846645726   T   T   T
  0.7552074126668651  0.7304114978917844  0.3917676537808544   T   T   T
  0.7482226780343275  0.0001049169277350  0.4690242665964572   T   T   T
  0.0040933119390425  0.5000492241331351  0.3924552756602487   T   T   T
  0.9997830056907560  0.0000918984011550  0.0989881589749427   T   T   T
  0.5001164439573940  0.0000790218313804  0.0994567063629922   T   T   T
  0.2501823757007109  0.2497263638827865  0.0992002656841777   T   T   T
  0.7496765771518878  0.2497168307143842  0.0993639967961164   T   T   T
  0.9997432108546578  0.5001217443363710  0.0979495119968137   T   T   T
  0.5000980116616399  0.5001359799239259  0.0989344785877658   T   T   T
  0.2501896759743674  0.7504831280972992  0.0992688497056361   T   T   T
  0.7496699123637710  0.7505075982510333  0.0994456701130632   T   T   T
  0.2502678508630424  0.0001480850272750  0.1949950310755052   T   T   T
  0.7496476098444986  0.0001380526142235  0.1956245210561538   T   T   T
  0.9995276263061145  0.2490030285926736  0.1939135135031662   T   T   T
  0.5002803226597959  0.2494982683355269  0.1947701198664087   T   T   T
  0.2506385278286836  0.5001677495190431  0.1940078919718932   T   T   T
  0.7490228951116487  0.5001340220163929  0.1942522289361500   T   T   T
  0.9995499023756029  0.7513228699655377  0.1939707894008599   T   T   T
  0.5002932159816167  0.7508154531049430  0.1948440573160626   T   T   T
  0.9977766510887059  0.0002090345086181  0.2936424039101433   T   T   T
  0.5025460464313107  0.0002529424536098  0.2948030712405253   T   T   T
  0.2495252319330485  0.2500769663779679  0.2938096920106413   T   T   T
  0.7501180653068568  0.2478383941550165  0.2950228857924520   T   T   T
  0.9988062369103266  0.5002200108222037  0.2884953749167026   T   T   T
  0.5003360288738656  0.5002629371447109  0.2928594568350919   T   T   T
  0.2495549529149532  0.7504118522476967  0.2938915824698535   T   T   T
  0.7501485244999491  0.7525642206142598  0.2951044276476350   T   T   T
  0.2508031112098771  0.0003517521544955  0.3890463182405204   T   T   T
  0.7492180330937794  0.0002815626118019  0.3963327690846722   T   T   T
  0.9987895186763197  0.2397074440156251  0.3881857467075139   T   T   T
  0.5001399414342088  0.2484924178127079  0.3887744515319506   T   T   T
  0.2581845400747962  0.5002999310708289  0.3885740620565655   T   T   T
  0.7400211715075615  0.5002315123815601  0.3885915683047088   T   T   T
  0.9988502272141224  0.7608269440009404  0.3882804865535132   T   T   T
  0.5001408004445317  0.7520507789740175  0.3888596347874412   T   T   T
 
  0.00000000E+00  0.00000000E+00  0.00000000E+00
  0.00000000E+00  0.00000000E+00  0.00000000E+00
  0.00000000E+00  0.00000000E+00  0.00000000E+00
  0.00000000E+00  0.00000000E+00  0.00000000E+00
  0.00000000E+00  0.00000000E+00  0.00000000E+00
  0.00000000E+00  0.00000000E+00  0.00000000E+00
  0.00000000E+00  0.00000000E+00  0.00000000E+00
  0.00000000E+00  0.00000000E+00  0.00000000E+00
  0.00000000E+00  0.00000000E+00  0.00000000E+00
  0.00000000E+00  0.00000000E+00  0.00000000E+00
  0.00000000E+00  0.00000000E+00  0.00000000E+00
  0.00000000E+00  0.00000000E+00  0.00000000E+00
  0.00000000E+00  0.00000000E+00  0.00000000E+00
  0.00000000E+00  0.00000000E+00  0.00000000E+00
  0.00000000E+00  0.00000000E+00  0.00000000E+00
  0.00000000E+00  0.00000000E+00  0.00000000E+00
  0.00000000E+00  0.00000000E+00  0.00000000E+00
  0.00000000E+00  0.00000000E+00  0.00000000E+00
  0.00000000E+00  0.00000000E+00  0.00000000E+00
  0.00000000E+00  0.00000000E+00  0.00000000E+00
  0.00000000E+00  0.00000000E+00  0.00000000E+00
  0.00000000E+00  0.00000000E+00  0.00000000E+00
  0.00000000E+00  0.00000000E+00  0.00000000E+00
  0.00000000E+00  0.00000000E+00  0.00000000E+00
  0.00000000E+00  0.00000000E+00  0.00000000E+00
  0.00000000E+00  0.00000000E+00  0.00000000E+00
  0.00000000E+00  0.00000000E+00  0.00000000E+00
  0.00000000E+00  0.00000000E+00  0.00000000E+00
  0.00000000E+00  0.00000000E+00  0.00000000E+00
  0.00000000E+00  0.00000000E+00  0.00000000E+00
  0.00000000E+00  0.00000000E+00  0.00000000E+00
  0.00000000E+00  0.00000000E+00  0.00000000E+00
  0.00000000E+00  0.00000000E+00  0.00000000E+00
  0.00000000E+00  0.00000000E+00  0.00000000E+00
  0.00000000E+00  0.00000000E+00  0.00000000E+00
  0.00000000E+00  0.00000000E+00  0.00000000E+00
  0.00000000E+00  0.00000000E+00  0.00000000E+00
  0.00000000E+00  0.00000000E+00  0.00000000E+00
  0.00000000E+00  0.00000000E+00  0.00000000E+00
  0.00000000E+00  0.00000000E+00  0.00000000E+00
  0.00000000E+00  0.00000000E+00  0.00000000E+00
  0.00000000E+00  0.00000000E+00  0.00000000E+00
  0.00000000E+00  0.00000000E+00  0.00000000E+00
  0.00000000E+00  0.00000000E+00  0.00000000E+00
  0.00000000E+00  0.00000000E+00  0.00000000E+00
  0.00000000E+00  0.00000000E+00  0.00000000E+00
  0.00000000E+00  0.00000000E+00  0.00000000E+00
  0.00000000E+00  0.00000000E+00  0.00000000E+00
  0.00000000E+00  0.00000000E+00  0.00000000E+00
  0.00000000E+00  0.00000000E+00  0.00000000E+00
  0.00000000E+00  0.00000000E+00  0.00000000E+00
  0.00000000E+00  0.00000000E+00  0.00000000E+00
  0.00000000E+00  0.00000000E+00  0.00000000E+00
  0.00000000E+00  0.00000000E+00  0.00000000E+00
  0.00000000E+00  0.00000000E+00  0.00000000E+00
  0.00000000E+00  0.00000000E+00  0.00000000E+00
  0.00000000E+00  0.00000000E+00  0.00000000E+00
  0.00000000E+00  0.00000000E+00  0.00000000E+00
  0.00000000E+00  0.00000000E+00  0.00000000E+00
  0.00000000E+00  0.00000000E+00  0.00000000E+00
  0.00000000E+00  0.00000000E+00  0.00000000E+00
  0.00000000E+00  0.00000000E+00  0.00000000E+00
  0.00000000E+00  0.00000000E+00  0.00000000E+00
  0.00000000E+00  0.00000000E+00  0.00000000E+00
  0.00000000E+00  0.00000000E+00  0.00000000E+00
