Au Ca Na O                              
   1.00000000000000     
     9.6048500000000008    0.0000000000000000    0.0000000000000000
     0.0000000000000000    9.6048500000000008    0.0000000000000000
     0.0000000000000000    0.0000000000000000   24.6048000000000009
   Au   Ca   Na   O 
     1    31     1    32
Selective dynamics
Direct
  0.7491167865639252  0.0005042764072682  0.4765084566413247   T   T   T
  0.2499966907791373  0.0001059180474108  0.0986091581728035   T   T   T
  0.7498884082697694  0.0001060261284379  0.0986670078834009   T   T   T
  0.0001742193817575  0.2501220651175254  0.0982333284629107   T   T   T
  0.4997048329770393  0.2503352512441412  0.0987443939991495   T   T   T
  0.2501920460888639  0.5001353116460024  0.0981452638397345   T   T   T
  0.7496558718628438  0.5001366062042377  0.0981426987763064   T   T   T
  0.0001773556703920  0.7501196017592030  0.0982673872705461   T   T   T
  0.4997076857883317  0.7499024169627834  0.0987845403148977   T   T   T
  0.0005563487727582  0.0001504902621978  0.1953614666690076   T   T   T
  0.4993161623211532  0.0001547535582203  0.1954708403422831   T   T   T
  0.2495678646908132  0.2510051561920325  0.1955030285010141   T   T   T
  0.7502945921660400  0.2510987889659187  0.1952886942233441   T   T   T
  0.0003379605719728  0.5001554206944541  0.1945136914409529   T   T   T
  0.4993542187124816  0.5001536414969667  0.1956110173936416   T   T   T
  0.2495692746816444  0.7493037824031962  0.1955350088182190   T   T   T
  0.7503014406045293  0.7492131417272735  0.1953203120002368   T   T   T
  0.2490551983344960  0.0002020658234400  0.2925114677934598   T   T   T
  0.7507796224322695  0.0002087684886993  0.2914587808718862   T   T   T
  0.0001939947810271  0.2541320769514813  0.2936429275036058   T   T   T
  0.4995230709998216  0.2515037912968539  0.2936786118831048   T   T   T
  0.2462740566433703  0.5002109341360297  0.2935782145928994   T   T   T
  0.7529015552889609  0.5002218432477015  0.2925581455477657   T   T   T
  0.0001936386396304  0.7462557503336363  0.2936892867158920   T   T   T
  0.4995289275097027  0.7489223426235222  0.2937202573581366   T   T   T
  0.0113595788717346  0.0002458289121254  0.3892234717524252   T   T   T
  0.4879522250367577  0.0002484561450337  0.3896233816307278   T   T   T
  0.2461856770507292  0.2565209499380136  0.3905277648888348   T   T   T
  0.7541938057313523  0.2649495416588096  0.3900665526732173   T   T   T
  0.4981679423835620  0.5002253610757644  0.3898704553328138   T   T   T
  0.2461907768351489  0.7439293964865340  0.3905719376262722   T   T   T
  0.7542002984738030  0.7355410867771239  0.3901246476120567   T   T   T
  0.0029811263979185  0.5001750334758084  0.3931094122692323   T   T   T
  0.9995621745838403  0.0001079896981821  0.0989541987505062   T   T   T
  0.5003379752636995  0.0001013969089307  0.0994210757041128   T   T   T
  0.2501746494792027  0.2498149622951397  0.0991713941739973   T   T   T
  0.7497032901957645  0.2494920236880029  0.0993191838051283   T   T   T
  0.9998521756494076  0.5001127875472198  0.0978362114620774   T   T   T
  0.5000027411449812  0.5001282485557547  0.0988560292440616   T   T   T
  0.2501779298851726  0.7504075287125562  0.0992106024720602   T   T   T
  0.7497116079156347  0.7507391325559023  0.0993652733806086   T   T   T
  0.2502001542392214  0.0001631569014192  0.1947736303440259   T   T   T
  0.7497058761595893  0.0001492262558085  0.1958667933729356   T   T   T
  0.9997634115472211  0.2492166277678489  0.1939379009784107   T   T   T
  0.5000934694013069  0.2497238971809964  0.1947881129228681   T   T   T
  0.2506099501160990  0.5001550937797574  0.1938597199548936   T   T   T
  0.7490457980488602  0.5001589258660329  0.1939481226152927   T   T   T
  0.9997684444458951  0.7510906317963869  0.1939690217073404   T   T   T
  0.5000933467230783  0.7505918054926274  0.1948279400093950   T   T   T
  0.9982003594844673  0.0001866331323078  0.2932648526061595   T   T   T
  0.5017481810458093  0.0002189911406996  0.2941111183244690   T   T   T
  0.2495451770797835  0.2502550282694386  0.2937459415063485   T   T   T
  0.7502016703212242  0.2485206115014398  0.2943327196372159   T   T   T
  0.9992019196706307  0.5002000626943370  0.2883057916897875   T   T   T
  0.4999706020725712  0.5002104294396139  0.2927434737520768   T   T   T
  0.2495540445033890  0.7501615454045484  0.2937849309085793   T   T   T
  0.7502139358337166  0.7519142358342250  0.2943816292614391   T   T   T
  0.2506557577518496  0.0002883585556027  0.3883568308236085   T   T   T
  0.7480525739954543  0.0002625102448687  0.3941300210538534   T   T   T
  0.9991415319575577  0.2398921400388260  0.3886401945944702   T   T   T
  0.5002530862657496  0.2484845022250524  0.3891103710422001   T   T   T
  0.2588271578301018  0.5002444406477876  0.3886333684647401   T   T   T
  0.7399050730571153  0.5002303413309591  0.3878082403628777   T   T   T
  0.9991434018159847  0.7605744062712312  0.3886917616003328   T   T   T
  0.5002454866518543  0.7520111566486669  0.3891581447610343   T   T   T
 
  0.00000000E+00  0.00000000E+00  0.00000000E+00
  0.00000000E+00  0.00000000E+00  0.00000000E+00
  0.00000000E+00  0.00000000E+00  0.00000000E+00
  0.00000000E+00  0.00000000E+00  0.00000000E+00
  0.00000000E+00  0.00000000E+00  0.00000000E+00
  0.00000000E+00  0.00000000E+00  0.00000000E+00
  0.00000000E+00  0.00000000E+00  0.00000000E+00
  0.00000000E+00  0.00000000E+00  0.00000000E+00
  0.00000000E+00  0.00000000E+00  0.00000000E+00
  0.00000000E+00  0.00000000E+00  0.00000000E+00
  0.00000000E+00  0.00000000E+00  0.00000000E+00
  0.00000000E+00  0.00000000E+00  0.00000000E+00
  0.00000000E+00  0.00000000E+00  0.00000000E+00
  0.00000000E+00  0.00000000E+00  0.00000000E+00
  0.00000000E+00  0.00000000E+00  0.00000000E+00
  0.00000000E+00  0.00000000E+00  0.00000000E+00
  0.00000000E+00  0.00000000E+00  0.00000000E+00
  0.00000000E+00  0.00000000E+00  0.00000000E+00
  0.00000000E+00  0.00000000E+00  0.00000000E+00
  0.00000000E+00  0.00000000E+00  0.00000000E+00
  0.00000000E+00  0.00000000E+00  0.00000000E+00
  0.00000000E+00  0.00000000E+00  0.00000000E+00
  0.00000000E+00  0.00000000E+00  0.00000000E+00
  0.00000000E+00  0.00000000E+00  0.00000000E+00
  0.00000000E+00  0.00000000E+00  0.00000000E+00
  0.00000000E+00  0.00000000E+00  0.00000000E+00
  0.00000000E+00  0.00000000E+00  0.00000000E+00
  0.00000000E+00  0.00000000E+00  0.00000000E+00
  0.00000000E+00  0.00000000E+00  0.00000000E+00
  0.00000000E+00  0.00000000E+00  0.00000000E+00
  0.00000000E+00  0.00000000E+00  0.00000000E+00
  0.00000000E+00  0.00000000E+00  0.00000000E+00
  0.00000000E+00  0.00000000E+00  0.00000000E+00
  0.00000000E+00  0.00000000E+00  0.00000000E+00
  0.00000000E+00  0.00000000E+00  0.00000000E+00
  0.00000000E+00  0.00000000E+00  0.00000000E+00
  0.00000000E+00  0.00000000E+00  0.00000000E+00
  0.00000000E+00  0.00000000E+00  0.00000000E+00
  0.00000000E+00  0.00000000E+00  0.00000000E+00
  0.00000000E+00  0.00000000E+00  0.00000000E+00
  0.00000000E+00  0.00000000E+00  0.00000000E+00
  0.00000000E+00  0.00000000E+00  0.00000000E+00
  0.00000000E+00  0.00000000E+00  0.00000000E+00
  0.00000000E+00  0.00000000E+00  0.00000000E+00
  0.00000000E+00  0.00000000E+00  0.00000000E+00
  0.00000000E+00  0.00000000E+00  0.00000000E+00
  0.00000000E+00  0.00000000E+00  0.00000000E+00
  0.00000000E+00  0.00000000E+00  0.00000000E+00
  0.00000000E+00  0.00000000E+00  0.00000000E+00
  0.00000000E+00  0.00000000E+00  0.00000000E+00
  0.00000000E+00  0.00000000E+00  0.00000000E+00
  0.00000000E+00  0.00000000E+00  0.00000000E+00
  0.00000000E+00  0.00000000E+00  0.00000000E+00
  0.00000000E+00  0.00000000E+00  0.00000000E+00
  0.00000000E+00  0.00000000E+00  0.00000000E+00
  0.00000000E+00  0.00000000E+00  0.00000000E+00
  0.00000000E+00  0.00000000E+00  0.00000000E+00
  0.00000000E+00  0.00000000E+00  0.00000000E+00
  0.00000000E+00  0.00000000E+00  0.00000000E+00
  0.00000000E+00  0.00000000E+00  0.00000000E+00
  0.00000000E+00  0.00000000E+00  0.00000000E+00
  0.00000000E+00  0.00000000E+00  0.00000000E+00
  0.00000000E+00  0.00000000E+00  0.00000000E+00
  0.00000000E+00  0.00000000E+00  0.00000000E+00
  0.00000000E+00  0.00000000E+00  0.00000000E+00
