Ca Na O Pd                              
   1.00000000000000     
     9.6048500000000008    0.0000000000000000    0.0000000000000000
     0.0000000000000000    9.6048500000000008    0.0000000000000000
     0.0000000000000000    0.0000000000000000   24.6048000000000009
   Ca   Na   O    Pd
    31     1    32     1
Selective dynamics
Direct
  0.2500004811508341  0.0000608090862870  0.0986445843875019   T   T   T
  0.7498989313740285  0.0000621039881748  0.0987591849229299   T   T   T
  0.0000029537811817  0.2499481589962465  0.0983022222568898   T   T   T
  0.4998896438001564  0.2501582837292506  0.0987209191322572   T   T   T
  0.2502113665947858  0.5001411684948305  0.0983662159266162   T   T   T
  0.7496847562981447  0.5001414136473455  0.0983320244913616   T   T   T
  0.0000018445421451  0.7502528285979265  0.0983804726494452   T   T   T
  0.4998853024139868  0.7500377030534415  0.0988122783382707   T   T   T
  0.0003003365684435  0.0001276368312983  0.1955251106916214   T   T   T
  0.4995514269083069  0.0001413510011658  0.1956090277660835   T   T   T
  0.2496011196767579  0.2508701164582121  0.1956056965031979   T   T   T
  0.7502451241402807  0.2509157018766903  0.1954474357132682   T   T   T
  0.0002485637985939  0.5001648010059573  0.1947955457184021   T   T   T
  0.4995797274073755  0.5001532838271227  0.1958066866769614   T   T   T
  0.2495937305366666  0.7494244986103515  0.1956944573328637   T   T   T
  0.7502507137368073  0.7493835114743584  0.1955358558022933   T   T   T
  0.2491018068379052  0.0002046179488001  0.2928273529808130   T   T   T
  0.7506778574301647  0.0002115484346702  0.2924595526626103   T   T   T
 -0.0001823430568449  0.2533496607415536  0.2936029897139087   T   T   T
  0.5000053165708630  0.2508942408798699  0.2935860139937834   T   T   T
  0.2464703321390982  0.5002381948091952  0.2936983351362303   T   T   T
  0.7529140731264581  0.5002486951449704  0.2930318934834722   T   T   T
 -0.0001889321849929  0.7470586843506710  0.2937351059676995   T   T   T
  0.5000028788449874  0.7495528675918921  0.2936986497932762   T   T   T
  0.0083136402498117  0.0003311421873717  0.3901265120466172   T   T   T
  0.4912757242949919  0.0003250644253392  0.3904539157091531   T   T   T
  0.2467384676174825  0.2555441217907545  0.3903907636768160   T   T   T
  0.7535371221253746  0.2619282717790989  0.3908669333256867   T   T   T
  0.4982816505414647  0.5002079067120648  0.3899821155302843   T   T   T
  0.2466970187832629  0.7449623538430969  0.3905264579244925   T   T   T
  0.7535693862099088  0.7385546902238544  0.3910114713828711   T   T   T
  0.0012965577875267  0.5000187559880276  0.3926749928760477   T   T   T
  0.9997994324882740  0.0000599759644529  0.0989390520229206   T   T   T
  0.5000927020416970  0.0000559133415765  0.0993156514515529   T   T   T
  0.2501683503285426  0.2497954602450721  0.0991500172532368   T   T   T
  0.7497282661711637  0.2497620649644994  0.0992453040201264   T   T   T
  0.9998352484812877  0.5001278440324317  0.0980284501449344   T   T   T
  0.5000550135948334  0.5001254710062197  0.0989517210287892   T   T   T
  0.2501750782091455  0.7503935474527792  0.0992338494379942   T   T   T
  0.7497197777459907  0.7504241844157109  0.0993387419991041   T   T   T
  0.2502030057922092  0.0001450782284485  0.1947924877707114   T   T   T
  0.7496570236745084  0.0001455463056345  0.1953844437459497   T   T   T
  0.9998103617374463  0.2492287688928977  0.1938906028881605   T   T   T
  0.5000343050625136  0.2497604510953366  0.1946387273278443   T   T   T
  0.2507154090433056  0.5001603460330558  0.1940318712440629   T   T   T
  0.7490990700350427  0.5001559817083543  0.1941370215316937   T   T   T
  0.9998093588942563  0.7510570621246034  0.1939749652627897   T   T   T
  0.5000377003457951  0.7505343702364073  0.1947375618225941   T   T   T
  0.9990120307652105  0.0001831669128380  0.2932068958137958   T   T   T
  0.5007630837200436  0.0002198216038379  0.2940228361733658   T   T   T
  0.2496904920980849  0.2501496785639416  0.2938298307980469   T   T   T
  0.7500847558320920  0.2495817953419602  0.2942479681717229   T   T   T
  0.9994174978876744  0.5002145134854096  0.2886808393936717   T   T   T
  0.5001196671300563  0.5002233881775754  0.2930153287608751   T   T   T
  0.2496757235509726  0.7502756266517824  0.2939319500046697   T   T   T
  0.7500811280669337  0.7508834253121551  0.2943680893393241   T   T   T
  0.2508929064044378  0.0003342853794798  0.3891082526996665   T   T   T
  0.7487755631681398  0.0003487227537084  0.3909847466259203   T   T   T
  0.0002178651932758  0.2404448370443468  0.3882224969631956   T   T   T
  0.4992525539716414  0.2493255201159515  0.3887128455016633   T   T   T
  0.2592880485741254  0.5002413211095698  0.3890168346554552   T   T   T
  0.7398692601514933  0.5002460890227489  0.3887585534154115   T   T   T
  0.0002083833696264  0.7601298096117662  0.3883746151582759   T   T   T
  0.4992431715080274  0.7512007794681835  0.3888451616504486   T   T   T
  0.7482673943661667  0.0004556704373913  0.4718377234973103   T   T   T
 
  0.00000000E+00  0.00000000E+00  0.00000000E+00
  0.00000000E+00  0.00000000E+00  0.00000000E+00
  0.00000000E+00  0.00000000E+00  0.00000000E+00
  0.00000000E+00  0.00000000E+00  0.00000000E+00
  0.00000000E+00  0.00000000E+00  0.00000000E+00
  0.00000000E+00  0.00000000E+00  0.00000000E+00
  0.00000000E+00  0.00000000E+00  0.00000000E+00
  0.00000000E+00  0.00000000E+00  0.00000000E+00
  0.00000000E+00  0.00000000E+00  0.00000000E+00
  0.00000000E+00  0.00000000E+00  0.00000000E+00
  0.00000000E+00  0.00000000E+00  0.00000000E+00
  0.00000000E+00  0.00000000E+00  0.00000000E+00
  0.00000000E+00  0.00000000E+00  0.00000000E+00
  0.00000000E+00  0.00000000E+00  0.00000000E+00
  0.00000000E+00  0.00000000E+00  0.00000000E+00
  0.00000000E+00  0.00000000E+00  0.00000000E+00
  0.00000000E+00  0.00000000E+00  0.00000000E+00
  0.00000000E+00  0.00000000E+00  0.00000000E+00
  0.00000000E+00  0.00000000E+00  0.00000000E+00
  0.00000000E+00  0.00000000E+00  0.00000000E+00
  0.00000000E+00  0.00000000E+00  0.00000000E+00
  0.00000000E+00  0.00000000E+00  0.00000000E+00
  0.00000000E+00  0.00000000E+00  0.00000000E+00
  0.00000000E+00  0.00000000E+00  0.00000000E+00
  0.00000000E+00  0.00000000E+00  0.00000000E+00
  0.00000000E+00  0.00000000E+00  0.00000000E+00
  0.00000000E+00  0.00000000E+00  0.00000000E+00
  0.00000000E+00  0.00000000E+00  0.00000000E+00
  0.00000000E+00  0.00000000E+00  0.00000000E+00
  0.00000000E+00  0.00000000E+00  0.00000000E+00
  0.00000000E+00  0.00000000E+00  0.00000000E+00
  0.00000000E+00  0.00000000E+00  0.00000000E+00
  0.00000000E+00  0.00000000E+00  0.00000000E+00
  0.00000000E+00  0.00000000E+00  0.00000000E+00
  0.00000000E+00  0.00000000E+00  0.00000000E+00
  0.00000000E+00  0.00000000E+00  0.00000000E+00
  0.00000000E+00  0.00000000E+00  0.00000000E+00
  0.00000000E+00  0.00000000E+00  0.00000000E+00
  0.00000000E+00  0.00000000E+00  0.00000000E+00
  0.00000000E+00  0.00000000E+00  0.00000000E+00
  0.00000000E+00  0.00000000E+00  0.00000000E+00
  0.00000000E+00  0.00000000E+00  0.00000000E+00
  0.00000000E+00  0.00000000E+00  0.00000000E+00
  0.00000000E+00  0.00000000E+00  0.00000000E+00
  0.00000000E+00  0.00000000E+00  0.00000000E+00
  0.00000000E+00  0.00000000E+00  0.00000000E+00
  0.00000000E+00  0.00000000E+00  0.00000000E+00
  0.00000000E+00  0.00000000E+00  0.00000000E+00
  0.00000000E+00  0.00000000E+00  0.00000000E+00
  0.00000000E+00  0.00000000E+00  0.00000000E+00
  0.00000000E+00  0.00000000E+00  0.00000000E+00
  0.00000000E+00  0.00000000E+00  0.00000000E+00
  0.00000000E+00  0.00000000E+00  0.00000000E+00
  0.00000000E+00  0.00000000E+00  0.00000000E+00
  0.00000000E+00  0.00000000E+00  0.00000000E+00
  0.00000000E+00  0.00000000E+00  0.00000000E+00
  0.00000000E+00  0.00000000E+00  0.00000000E+00
  0.00000000E+00  0.00000000E+00  0.00000000E+00
  0.00000000E+00  0.00000000E+00  0.00000000E+00
  0.00000000E+00  0.00000000E+00  0.00000000E+00
  0.00000000E+00  0.00000000E+00  0.00000000E+00
  0.00000000E+00  0.00000000E+00  0.00000000E+00
  0.00000000E+00  0.00000000E+00  0.00000000E+00
  0.00000000E+00  0.00000000E+00  0.00000000E+00
  0.00000000E+00  0.00000000E+00  0.00000000E+00
