Li Mg O Rh                              
   1.00000000000000     
     8.4141216974800006    0.0000000000000000    0.0000000000000000
     0.0000000000000000    8.4141216974800006    0.0000000000000000
     0.0000000000000000    0.0000000000000000   23.4141216974799988
   Li   Mg   O    Rh
     1    31    32     1
Selective dynamics
Direct
  0.2500000000000000  0.2456168769565397  0.2747434116257372   T   T   T
  0.2500000000000000  0.0003192733191089  0.0053819023300890   T   T   T
  0.2500000000000000  0.5003157069294140  0.0052175894727154   T   T   T
  0.7500000000000000  0.0002368298763838  0.0051000980930353   T   T   T
  0.7500000000000000  0.5002076117791706  0.0049057239136054   T   T   T
  0.0002166051575552  0.2501050142325690  0.0052659374819373   T   T   T
  0.0002711590302288  0.7504078368083140  0.0052557963698159   T   T   T
  0.4997833948424448  0.2501050142325690  0.0052659374819373   T   T   T
  0.4997288409697712  0.7504078368083140  0.0052557963698159   T   T   T
  0.0008464464135075  0.0006566183597435  0.0948680138222126   T   T   T
  0.0009095662999628  0.5001092661496473  0.0945499055828586   T   T   T
  0.4991535535864927  0.0006566183597435  0.0948680138222126   T   T   T
  0.4990904337000373  0.5001092661496473  0.0945499055828586   T   T   T
  0.2500000000000000  0.2502199882185419  0.0950186784364898   T   T   T
  0.2500000000000000  0.7508724338002942  0.0950786295953146   T   T   T
  0.7500000000000000  0.2497542202001514  0.0943866564387406   T   T   T
  0.7500000000000000  0.7506536383940017  0.0943457277312841   T   T   T
  0.2500000000000000  0.0034794170010749  0.1864253131917540   T   T   T
  0.2500000000000000  0.4980370674624088  0.1858355804554390   T   T   T
  0.7500000000000000  0.0005910323440242  0.1846090140355591   T   T   T
  0.7500000000000000  0.4994815813694052  0.1821245867726392   T   T   T
  0.0029659915978357  0.2505575491338019  0.1862255774210680   T   T   T
  0.0006726528153389  0.7504243444255816  0.1857261226380858   T   T   T
  0.4970340084021643  0.2505575491338019  0.1862255774210680   T   T   T
  0.4993273471846611  0.7504243444255816  0.1857261226380858   T   T   T
  0.0058513222363776  0.0041417234336753  0.2753038510165874   T   T   T
  0.0169276099731910  0.4962576332908425  0.2752084960309835   T   T   T
  0.4941486777636224  0.0041417234336753  0.2753038510165874   T   T   T
  0.4830723900268090  0.4962576332908425  0.2752084960309835   T   T   T
  0.2500000000000000  0.7525826894948365  0.2747004831309561   T   T   T
  0.7500000000000000  0.2371492157060366  0.2727143275209745   T   T   T
  0.7500000000000000  0.7618229939527486  0.2737694109549564   T   T   T
 -0.0000420891919661  0.0001989073770759  0.0030980472907147   T   T   T
  0.0001708824605499  0.5003420333593442  0.0030473363273708   T   T   T
  0.5000420891919661  0.0001989073770759  0.0030980472907147   T   T   T
  0.4998291175394502  0.5003420333593442  0.0030473363273708   T   T   T
  0.2500000000000000  0.2504343500906246  0.0030063582502353   T   T   T
  0.2500000000000000  0.7502277243617161  0.0030941439460576   T   T   T
  0.7500000000000000  0.2501074472661693  0.0028815404295066   T   T   T
  0.7500000000000000  0.7503351731746696  0.0029325266356684   T   T   T
  0.2500000000000000  0.0001071303032787  0.0949253455925321   T   T   T
  0.2500000000000000  0.5009142782421199  0.0951587252416603   T   T   T
  0.7500000000000000  0.9999206341452854  0.0951407018834605   T   T   T
  0.7500000000000000  0.5004888414893531  0.0944129582577333   T   T   T
  0.9992448500274925  0.2508473524964259  0.0950191131160728   T   T   T
  0.9993927542702746  0.7499526473202159  0.0952310115329188   T   T   T
  0.5007551499725075  0.2508473524964259  0.0950191131160728   T   T   T
  0.5006072457297254  0.7499526473202159  0.0952310115329188   T   T   T
  0.9993495100788816  0.0006952644891881  0.1851435117816920   T   T   T
  0.9969433054095855  0.5003252985830939  0.1860245839782632   T   T   T
  0.5006504899211184  0.0006952644891881  0.1851435117816920   T   T   T
  0.5030566945904145  0.5003252985830939  0.1860245839782632   T   T   T
  0.2500000000000000  0.2511817079909128  0.1836468362543774   T   T   T
  0.2500000000000000  0.7499827264429150  0.1845399082719964   T   T   T
  0.7500000000000000  0.2525430672256033  0.1847262771276463   T   T   T
  0.7500000000000000  0.7474697726382644  0.1853464665517982   T   T   T
  0.2499999495650016  0.9937158776391553  0.2765544524656973   T   T   T
  0.2499999495650016  0.5099207013853220  0.2761368242643218   T   T   T
  0.7499999495650016  0.9989250104912354  0.2760215002067421   T   T   T
  0.7499998486940029  0.5067780601200436  0.2831581240450255   T   T   T
  0.9893373817323873  0.2526993735647234  0.2773682180769027   T   T   T
  0.9965220527256727  0.7492820287052500  0.2772674402075416   T   T   T
  0.5106626182676127  0.2526993735647234  0.2773682180769027   T   T   T
  0.5034779472743273  0.7492820287052500  0.2772674402075416   T   T   T
  0.7499998486940029  0.4723357516392050  0.3644089429742140   T   T   T
 
  0.00000000E+00  0.00000000E+00  0.00000000E+00
  0.00000000E+00  0.00000000E+00  0.00000000E+00
  0.00000000E+00  0.00000000E+00  0.00000000E+00
  0.00000000E+00  0.00000000E+00  0.00000000E+00
  0.00000000E+00  0.00000000E+00  0.00000000E+00
  0.00000000E+00  0.00000000E+00  0.00000000E+00
  0.00000000E+00  0.00000000E+00  0.00000000E+00
  0.00000000E+00  0.00000000E+00  0.00000000E+00
  0.00000000E+00  0.00000000E+00  0.00000000E+00
  0.00000000E+00  0.00000000E+00  0.00000000E+00
  0.00000000E+00  0.00000000E+00  0.00000000E+00
  0.00000000E+00  0.00000000E+00  0.00000000E+00
  0.00000000E+00  0.00000000E+00  0.00000000E+00
  0.00000000E+00  0.00000000E+00  0.00000000E+00
  0.00000000E+00  0.00000000E+00  0.00000000E+00
  0.00000000E+00  0.00000000E+00  0.00000000E+00
  0.00000000E+00  0.00000000E+00  0.00000000E+00
  0.00000000E+00  0.00000000E+00  0.00000000E+00
  0.00000000E+00  0.00000000E+00  0.00000000E+00
  0.00000000E+00  0.00000000E+00  0.00000000E+00
  0.00000000E+00  0.00000000E+00  0.00000000E+00
  0.00000000E+00  0.00000000E+00  0.00000000E+00
  0.00000000E+00  0.00000000E+00  0.00000000E+00
  0.00000000E+00  0.00000000E+00  0.00000000E+00
  0.00000000E+00  0.00000000E+00  0.00000000E+00
  0.00000000E+00  0.00000000E+00  0.00000000E+00
  0.00000000E+00  0.00000000E+00  0.00000000E+00
  0.00000000E+00  0.00000000E+00  0.00000000E+00
  0.00000000E+00  0.00000000E+00  0.00000000E+00
  0.00000000E+00  0.00000000E+00  0.00000000E+00
  0.00000000E+00  0.00000000E+00  0.00000000E+00
  0.00000000E+00  0.00000000E+00  0.00000000E+00
  0.00000000E+00  0.00000000E+00  0.00000000E+00
  0.00000000E+00  0.00000000E+00  0.00000000E+00
  0.00000000E+00  0.00000000E+00  0.00000000E+00
  0.00000000E+00  0.00000000E+00  0.00000000E+00
  0.00000000E+00  0.00000000E+00  0.00000000E+00
  0.00000000E+00  0.00000000E+00  0.00000000E+00
  0.00000000E+00  0.00000000E+00  0.00000000E+00
  0.00000000E+00  0.00000000E+00  0.00000000E+00
  0.00000000E+00  0.00000000E+00  0.00000000E+00
  0.00000000E+00  0.00000000E+00  0.00000000E+00
  0.00000000E+00  0.00000000E+00  0.00000000E+00
  0.00000000E+00  0.00000000E+00  0.00000000E+00
  0.00000000E+00  0.00000000E+00  0.00000000E+00
  0.00000000E+00  0.00000000E+00  0.00000000E+00
  0.00000000E+00  0.00000000E+00  0.00000000E+00
  0.00000000E+00  0.00000000E+00  0.00000000E+00
  0.00000000E+00  0.00000000E+00  0.00000000E+00
  0.00000000E+00  0.00000000E+00  0.00000000E+00
  0.00000000E+00  0.00000000E+00  0.00000000E+00
  0.00000000E+00  0.00000000E+00  0.00000000E+00
  0.00000000E+00  0.00000000E+00  0.00000000E+00
  0.00000000E+00  0.00000000E+00  0.00000000E+00
  0.00000000E+00  0.00000000E+00  0.00000000E+00
  0.00000000E+00  0.00000000E+00  0.00000000E+00
  0.00000000E+00  0.00000000E+00  0.00000000E+00
  0.00000000E+00  0.00000000E+00  0.00000000E+00
  0.00000000E+00  0.00000000E+00  0.00000000E+00
  0.00000000E+00  0.00000000E+00  0.00000000E+00
  0.00000000E+00  0.00000000E+00  0.00000000E+00
  0.00000000E+00  0.00000000E+00  0.00000000E+00
  0.00000000E+00  0.00000000E+00  0.00000000E+00
  0.00000000E+00  0.00000000E+00  0.00000000E+00
  0.00000000E+00  0.00000000E+00  0.00000000E+00
