Zn Li Mg O                              
   1.00000000000000     
     8.4141216974800006    0.0000000000000000    0.0000000000000000
     0.0000000000000000    8.4141216974800006    0.0000000000000000
     0.0000000000000000    0.0000000000000000   23.4141216974799988
   Zn   Li   Mg   O 
     1     1    31    32
Selective dynamics
Direct
  0.7499998486940029  0.4931116756611877  0.3703798587321043   T   T   T
  0.2500000000000000  0.2454388617504996  0.2749884134959228   T   T   T
  0.2500000000000000 -0.0000532889843320  0.0055435766632467   T   T   T
  0.2500000000000000  0.5001629939760545  0.0051356136849882   T   T   T
  0.7500000000000000 -0.0000245439991260  0.0051357363980646   T   T   T
  0.7500000000000000  0.4999069111167196  0.0045512364197970   T   T   T
  0.0001966234413774  0.2497355588663344  0.0052883072623986   T   T   T
  0.0003473180855877  0.7502817425399194  0.0053190528779338   T   T   T
  0.4998033765586226  0.2497355588663344  0.0052883072623986   T   T   T
  0.4996526819144124  0.7502817425399194  0.0053190528779338   T   T   T
  0.0007184547442241  0.0004676514994900  0.0950622751963729   T   T   T
  0.0011136197628182  0.4997335358125886  0.0942417381149987   T   T   T
  0.4992815452557758  0.0004676514994900  0.0950622751963729   T   T   T
  0.4988863802371818  0.4997335358125886  0.0942417381149987   T   T   T
  0.2500000000000000  0.2498181257166260  0.0950055572098283   T   T   T
  0.2500000000000000  0.7504716516589370  0.0952019079192646   T   T   T
  0.7500000000000000  0.2491538214795264  0.0943047761665321   T   T   T
  0.7500000000000000  0.7506987804772867  0.0941332821929358   T   T   T
  0.2500000000000000  0.0033301056891728  0.1866723200267651   T   T   T
  0.2500000000000000  0.4974532261672395  0.1859017676371474   T   T   T
  0.7500000000000000  0.0004496957491263  0.1850063577200165   T   T   T
  0.7500000000000000  0.4994178363240574  0.1806330828954160   T   T   T
  0.0032060586032288  0.2500811878968517  0.1863365189160903   T   T   T
  0.0009046981604074  0.7503772537300354  0.1856211647287137   T   T   T
  0.4967939413967712  0.2500811878968517  0.1863365189160903   T   T   T
  0.4990953018395926  0.7503772537300354  0.1856211647287137   T   T   T
  0.0055522152040296  0.0043871904880957  0.2754434016748303   T   T   T
  0.0145944926912746  0.4958618196486223  0.2742243642709195   T   T   T
  0.4944477847959703  0.0043871904880957  0.2754434016748303   T   T   T
  0.4854055073087255  0.4958618196486223  0.2742243642709195   T   T   T
  0.2500000000000000  0.7518389286730904  0.2746807886281223   T   T   T
  0.7500000000000000  0.2390888485781900  0.2731266545700994   T   T   T
  0.7500000000000000  0.7598557906224511  0.2736861482942722   T   T   T
 -0.0001017260490026  0.9999319358544050  0.0033142630651683   T   T   T
  0.0002172656877838  0.5001177871940004  0.0028170356472353   T   T   T
  0.5001017260490026  0.9999319358544050  0.0033142630651683   T   T   T
  0.4997827343122161  0.5001177871940004  0.0028170356472353   T   T   T
  0.2500000000000000  0.2500934327017961  0.0031709441860132   T   T   T
  0.2500000000000000  0.7500000883515173  0.0032611904621993   T   T   T
  0.7500000000000000  0.2496539939780961  0.0027029151593033   T   T   T
  0.7500000000000000  0.7502382916497502  0.0028178260621334   T   T   T
  0.2500000000000000  0.9996570609516764  0.0950592893077402   T   T   T
  0.2500000000000000  0.5006321760671966  0.0951440820359404   T   T   T
  0.7500000000000000  0.9996819784496508  0.0953265208567897   T   T   T
  0.7500000000000000  0.5002513997824460  0.0937346022026689   T   T   T
  0.9991290722717757  0.2505322262047447  0.0949069671417345   T   T   T
  0.9993234717711079  0.7496640170756984  0.0951731416375995   T   T   T
  0.5008709277282243  0.2505322262047447  0.0949069671417345   T   T   T
  0.5006765282288921  0.7496640170756984  0.0951731416375995   T   T   T
  0.9990084218117625  0.0002395805341921  0.1852482077792016   T   T   T
  0.9960876556171671  0.5001782753091036  0.1856597390065803   T   T   T
  0.5009915781882375  0.0002395805341921  0.1852482077792016   T   T   T
  0.5039123443828329  0.5001782753091036  0.1856597390065803   T   T   T
  0.2500000000000000  0.2508587482996180  0.1834011701091756   T   T   T
  0.2500000000000000  0.7497374398990764  0.1844638847687128   T   T   T
  0.7500000000000000  0.2534215245940728  0.1848081779924872   T   T   T
  0.7500000000000000  0.7463547662524462  0.1854120062536098   T   T   T
  0.2499999495650016  0.9929789205339360  0.2765334882022346   T   T   T
  0.2499999495650016  0.5093702691725432  0.2759336598438051   T   T   T
  0.7499999495650016  0.9985555582318543  0.2763975973174586   T   T   T
  0.7499998486940029  0.5042940873926138  0.2896687268842479   T   T   T
  0.9889321451081704  0.2527933959546255  0.2772032481358041   T   T   T
  0.9960815434727763  0.7480345703632940  0.2772772669249046   T   T   T
  0.5110678548918296  0.2527933959546255  0.2772032481358041   T   T   T
  0.5039184565272237  0.7480345703632940  0.2772772669249046   T   T   T
 
  0.00000000E+00  0.00000000E+00  0.00000000E+00
  0.00000000E+00  0.00000000E+00  0.00000000E+00
  0.00000000E+00  0.00000000E+00  0.00000000E+00
  0.00000000E+00  0.00000000E+00  0.00000000E+00
  0.00000000E+00  0.00000000E+00  0.00000000E+00
  0.00000000E+00  0.00000000E+00  0.00000000E+00
  0.00000000E+00  0.00000000E+00  0.00000000E+00
  0.00000000E+00  0.00000000E+00  0.00000000E+00
  0.00000000E+00  0.00000000E+00  0.00000000E+00
  0.00000000E+00  0.00000000E+00  0.00000000E+00
  0.00000000E+00  0.00000000E+00  0.00000000E+00
  0.00000000E+00  0.00000000E+00  0.00000000E+00
  0.00000000E+00  0.00000000E+00  0.00000000E+00
  0.00000000E+00  0.00000000E+00  0.00000000E+00
  0.00000000E+00  0.00000000E+00  0.00000000E+00
  0.00000000E+00  0.00000000E+00  0.00000000E+00
  0.00000000E+00  0.00000000E+00  0.00000000E+00
  0.00000000E+00  0.00000000E+00  0.00000000E+00
  0.00000000E+00  0.00000000E+00  0.00000000E+00
  0.00000000E+00  0.00000000E+00  0.00000000E+00
  0.00000000E+00  0.00000000E+00  0.00000000E+00
  0.00000000E+00  0.00000000E+00  0.00000000E+00
  0.00000000E+00  0.00000000E+00  0.00000000E+00
  0.00000000E+00  0.00000000E+00  0.00000000E+00
  0.00000000E+00  0.00000000E+00  0.00000000E+00
  0.00000000E+00  0.00000000E+00  0.00000000E+00
  0.00000000E+00  0.00000000E+00  0.00000000E+00
  0.00000000E+00  0.00000000E+00  0.00000000E+00
  0.00000000E+00  0.00000000E+00  0.00000000E+00
  0.00000000E+00  0.00000000E+00  0.00000000E+00
  0.00000000E+00  0.00000000E+00  0.00000000E+00
  0.00000000E+00  0.00000000E+00  0.00000000E+00
  0.00000000E+00  0.00000000E+00  0.00000000E+00
  0.00000000E+00  0.00000000E+00  0.00000000E+00
  0.00000000E+00  0.00000000E+00  0.00000000E+00
  0.00000000E+00  0.00000000E+00  0.00000000E+00
  0.00000000E+00  0.00000000E+00  0.00000000E+00
  0.00000000E+00  0.00000000E+00  0.00000000E+00
  0.00000000E+00  0.00000000E+00  0.00000000E+00
  0.00000000E+00  0.00000000E+00  0.00000000E+00
  0.00000000E+00  0.00000000E+00  0.00000000E+00
  0.00000000E+00  0.00000000E+00  0.00000000E+00
  0.00000000E+00  0.00000000E+00  0.00000000E+00
  0.00000000E+00  0.00000000E+00  0.00000000E+00
  0.00000000E+00  0.00000000E+00  0.00000000E+00
  0.00000000E+00  0.00000000E+00  0.00000000E+00
  0.00000000E+00  0.00000000E+00  0.00000000E+00
  0.00000000E+00  0.00000000E+00  0.00000000E+00
  0.00000000E+00  0.00000000E+00  0.00000000E+00
  0.00000000E+00  0.00000000E+00  0.00000000E+00
  0.00000000E+00  0.00000000E+00  0.00000000E+00
  0.00000000E+00  0.00000000E+00  0.00000000E+00
  0.00000000E+00  0.00000000E+00  0.00000000E+00
  0.00000000E+00  0.00000000E+00  0.00000000E+00
  0.00000000E+00  0.00000000E+00  0.00000000E+00
  0.00000000E+00  0.00000000E+00  0.00000000E+00
  0.00000000E+00  0.00000000E+00  0.00000000E+00
  0.00000000E+00  0.00000000E+00  0.00000000E+00
  0.00000000E+00  0.00000000E+00  0.00000000E+00
  0.00000000E+00  0.00000000E+00  0.00000000E+00
  0.00000000E+00  0.00000000E+00  0.00000000E+00
  0.00000000E+00  0.00000000E+00  0.00000000E+00
  0.00000000E+00  0.00000000E+00  0.00000000E+00
  0.00000000E+00  0.00000000E+00  0.00000000E+00
  0.00000000E+00  0.00000000E+00  0.00000000E+00
