Li Mg O Pt                              
   1.00000000000000     
     8.4141216974800006    0.0000000000000000    0.0000000000000000
     0.0000000000000000    8.4141216974800006    0.0000000000000000
     0.0000000000000000    0.0000000000000000   23.4141216974799988
   Li   Mg   O    Pt
     1    31    32     1
Selective dynamics
Direct
  0.2500000000000000  0.2479908862083288  0.2740721500142166   T   T   T
  0.2500000000000000 -0.0000584542730905  0.0056003019998056   T   T   T
  0.2500000000000000  0.5001863565735952  0.0053353755085500   T   T   T
  0.7500000000000000 -0.0000559044384654  0.0053790353870046   T   T   T
  0.7500000000000000  0.5000351780853872  0.0049733307967478   T   T   T
  0.0001513305521899  0.2497915091723297  0.0054713224192032   T   T   T
  0.0002614088239315  0.7502350344106693  0.0055956813383312   T   T   T
  0.4998486694478101  0.2497915091723297  0.0054713224192032   T   T   T
  0.4997385911760686  0.7502350344106693  0.0055956813383312   T   T   T
  0.0005272478867588  0.0002114598115603  0.0952191985481404   T   T   T
  0.0007687091600499  0.4998207692791228  0.0947240701952567   T   T   T
  0.4994727521132413  0.0002114598115603  0.0952191985481404   T   T   T
  0.4992312908399500  0.4998207692791228  0.0947240701952567   T   T   T
  0.2500000000000000  0.2499250477475968  0.0950230614833168   T   T   T
  0.2500000000000000  0.7504200854133218  0.0952995774324432   T   T   T
  0.7500000000000000  0.2493953717263958  0.0946997089972463   T   T   T
  0.7500000000000000  0.7504844721280457  0.0946590510827015   T   T   T
  0.2500000000000000  0.0034068920687119  0.1861221488687589   T   T   T
  0.2500000000000000  0.4973782804721654  0.1859688168357839   T   T   T
  0.7500000000000000  0.0003678355949969  0.1851504611622883   T   T   T
  0.7500000000000000  0.4993033399573374  0.1820817821137891   T   T   T
  0.0030579362754787  0.2502726927046112  0.1863724421329629   T   T   T
  0.0002408087282915  0.7496993988485365  0.1860342615807903   T   T   T
  0.4969420637245213  0.2502726927046112  0.1863724421329629   T   T   T
  0.4997591912717085  0.7496993988485365  0.1860342615807903   T   T   T
  0.0053423951256157  0.0039108623386078  0.2751736576333086   T   T   T
  0.0161477157454876  0.4947681015020655  0.2763577373917154   T   T   T
  0.4946576048743842  0.0039108623386078  0.2751736576333086   T   T   T
  0.4838522842545124  0.4947681015020655  0.2763577373917154   T   T   T
  0.2500000000000000  0.7508461049831042  0.2744943315750305   T   T   T
  0.7500000000000000  0.2373403546407566  0.2751502935230249   T   T   T
  0.7500000000000000  0.7620391623728143  0.2756899587169600   T   T   T
  0.9999646819987349  0.9998848952968471  0.0034206264406845   T   T   T
  0.0000452183636020  0.5001294848372072  0.0031152359219228   T   T   T
  0.5000353180012651  0.9998848952968471  0.0034206264406845   T   T   T
  0.4999547816363980  0.5001294848372072  0.0031152359219228   T   T   T
  0.2500000000000000  0.2500196124975282  0.0032444661366146   T   T   T
  0.2500000000000000  0.7501102904110262  0.0033784455707463   T   T   T
  0.7500000000000000  0.2498744186437048  0.0030061679447640   T   T   T
  0.7500000000000000  0.7501107178107990  0.0031549239488085   T   T   T
  0.2500000000000000  0.9997093300408521  0.0950126460832243   T   T   T
  0.2500000000000000  0.5006443751158328  0.0951869704468533   T   T   T
  0.7500000000000000  0.9997025380082112  0.0953487832000526   T   T   T
  0.7500000000000000  0.5002217912996181  0.0944862408030457   T   T   T
  0.9991250627689963  0.2505212869869493  0.0950264581095430   T   T   T
  0.9993445519850854  0.7495259257876347  0.0953725669836705   T   T   T
  0.5008749372310037  0.2505212869869493  0.0950264581095430   T   T   T
  0.5006554480149146  0.7495259257876347  0.0953725669836705   T   T   T
  0.9993487307495966 -0.0000139976195166  0.1850834394874120   T   T   T
  0.9970109824293226  0.5000211601061871  0.1860428958753346   T   T   T
  0.5006512692504034 -0.0000139976195166  0.1850834394874120   T   T   T
  0.5029890175706774  0.5000211601061871  0.1860428958753346   T   T   T
  0.2500000000000000  0.2507808425536983  0.1832594416967358   T   T   T
  0.2500000000000000  0.7498933919090985  0.1845802779006984   T   T   T
  0.7500000000000000  0.2523948341129323  0.1852675034667664   T   T   T
  0.7500000000000000  0.7471742434796308  0.1858623392890173   T   T   T
  0.2499999495650016  0.9933861621405849  0.2763811445391333   T   T   T
  0.2499999495650016  0.5083676011129846  0.2760130456548396   T   T   T
  0.7499999495650016  0.9991200056677150  0.2764403184063468   T   T   T
  0.7499998486940029  0.5007721934755085  0.2803790318724373   T   T   T
  0.9917610784261046  0.2507287216201565  0.2760216488134828   T   T   T
  0.9978719281897211  0.7495079283118242  0.2764915264904346   T   T   T
  0.5082389215738954  0.2507287216201565  0.2760216488134828   T   T   T
  0.5021280718102789  0.7495079283118242  0.2764915264904346   T   T   T
  0.7499998486940029  0.5014167905786878  0.3621789470718741   T   T   T
 
  0.00000000E+00  0.00000000E+00  0.00000000E+00
  0.00000000E+00  0.00000000E+00  0.00000000E+00
  0.00000000E+00  0.00000000E+00  0.00000000E+00
  0.00000000E+00  0.00000000E+00  0.00000000E+00
  0.00000000E+00  0.00000000E+00  0.00000000E+00
  0.00000000E+00  0.00000000E+00  0.00000000E+00
  0.00000000E+00  0.00000000E+00  0.00000000E+00
  0.00000000E+00  0.00000000E+00  0.00000000E+00
  0.00000000E+00  0.00000000E+00  0.00000000E+00
  0.00000000E+00  0.00000000E+00  0.00000000E+00
  0.00000000E+00  0.00000000E+00  0.00000000E+00
  0.00000000E+00  0.00000000E+00  0.00000000E+00
  0.00000000E+00  0.00000000E+00  0.00000000E+00
  0.00000000E+00  0.00000000E+00  0.00000000E+00
  0.00000000E+00  0.00000000E+00  0.00000000E+00
  0.00000000E+00  0.00000000E+00  0.00000000E+00
  0.00000000E+00  0.00000000E+00  0.00000000E+00
  0.00000000E+00  0.00000000E+00  0.00000000E+00
  0.00000000E+00  0.00000000E+00  0.00000000E+00
  0.00000000E+00  0.00000000E+00  0.00000000E+00
  0.00000000E+00  0.00000000E+00  0.00000000E+00
  0.00000000E+00  0.00000000E+00  0.00000000E+00
  0.00000000E+00  0.00000000E+00  0.00000000E+00
  0.00000000E+00  0.00000000E+00  0.00000000E+00
  0.00000000E+00  0.00000000E+00  0.00000000E+00
  0.00000000E+00  0.00000000E+00  0.00000000E+00
  0.00000000E+00  0.00000000E+00  0.00000000E+00
  0.00000000E+00  0.00000000E+00  0.00000000E+00
  0.00000000E+00  0.00000000E+00  0.00000000E+00
  0.00000000E+00  0.00000000E+00  0.00000000E+00
  0.00000000E+00  0.00000000E+00  0.00000000E+00
  0.00000000E+00  0.00000000E+00  0.00000000E+00
  0.00000000E+00  0.00000000E+00  0.00000000E+00
  0.00000000E+00  0.00000000E+00  0.00000000E+00
  0.00000000E+00  0.00000000E+00  0.00000000E+00
  0.00000000E+00  0.00000000E+00  0.00000000E+00
  0.00000000E+00  0.00000000E+00  0.00000000E+00
  0.00000000E+00  0.00000000E+00  0.00000000E+00
  0.00000000E+00  0.00000000E+00  0.00000000E+00
  0.00000000E+00  0.00000000E+00  0.00000000E+00
  0.00000000E+00  0.00000000E+00  0.00000000E+00
  0.00000000E+00  0.00000000E+00  0.00000000E+00
  0.00000000E+00  0.00000000E+00  0.00000000E+00
  0.00000000E+00  0.00000000E+00  0.00000000E+00
  0.00000000E+00  0.00000000E+00  0.00000000E+00
  0.00000000E+00  0.00000000E+00  0.00000000E+00
  0.00000000E+00  0.00000000E+00  0.00000000E+00
  0.00000000E+00  0.00000000E+00  0.00000000E+00
  0.00000000E+00  0.00000000E+00  0.00000000E+00
  0.00000000E+00  0.00000000E+00  0.00000000E+00
  0.00000000E+00  0.00000000E+00  0.00000000E+00
  0.00000000E+00  0.00000000E+00  0.00000000E+00
  0.00000000E+00  0.00000000E+00  0.00000000E+00
  0.00000000E+00  0.00000000E+00  0.00000000E+00
  0.00000000E+00  0.00000000E+00  0.00000000E+00
  0.00000000E+00  0.00000000E+00  0.00000000E+00
  0.00000000E+00  0.00000000E+00  0.00000000E+00
  0.00000000E+00  0.00000000E+00  0.00000000E+00
  0.00000000E+00  0.00000000E+00  0.00000000E+00
  0.00000000E+00  0.00000000E+00  0.00000000E+00
  0.00000000E+00  0.00000000E+00  0.00000000E+00
  0.00000000E+00  0.00000000E+00  0.00000000E+00
  0.00000000E+00  0.00000000E+00  0.00000000E+00
  0.00000000E+00  0.00000000E+00  0.00000000E+00
  0.00000000E+00  0.00000000E+00  0.00000000E+00
