Cd Li Mg O                              
   1.00000000000000     
     8.4141216974800006    0.0000000000000000    0.0000000000000000
     0.0000000000000000    8.4141216974800006    0.0000000000000000
     0.0000000000000000    0.0000000000000000   23.4141216974799988
   Cd   Li   Mg   O 
     1     1    31    32
Selective dynamics
Direct
  0.7499998486940029  0.4949907129058889  0.3776199318046391   T   T   T
  0.2500000000000000  0.2470624942565866  0.2751702199058271   T   T   T
  0.2500000000000000 -0.0000192400881428  0.0055153946746926   T   T   T
  0.2500000000000000  0.5000733342828897  0.0052305115300646   T   T   T
  0.7500000000000000  0.0000149181000968  0.0052239927439493   T   T   T
  0.7500000000000000  0.4999383229524332  0.0046726747143017   T   T   T
  0.0001574528873677  0.2497687233567746  0.0053051506225458   T   T   T
  0.0002541374174247  0.7502127653132332  0.0053376929951733   T   T   T
  0.4998425471126323  0.2497687233567746  0.0053051506225458   T   T   T
  0.4997458625825753  0.7502127653132332  0.0053376929951733   T   T   T
  0.0008423472041661  0.0003573523221458  0.0950382883568671   T   T   T
  0.0008046878195026  0.4997265595737193  0.0943037970482878   T   T   T
  0.4991576527958339  0.0003573523221458  0.0950382883568671   T   T   T
  0.4991953121804974  0.4997265595737193  0.0943037970482878   T   T   T
  0.2500000000000000  0.2496139953234597  0.0949746632889979   T   T   T
  0.2500000000000000  0.7505644280921556  0.0950916038179174   T   T   T
  0.7500000000000000  0.2494462376121761  0.0943377560394818   T   T   T
  0.7500000000000000  0.7504374012757351  0.0941854268281817   T   T   T
  0.2500000000000000  0.0032609472417282  0.1868934171745664   T   T   T
  0.2500000000000000  0.4974733021423778  0.1856398826539624   T   T   T
  0.7500000000000000  0.0004534888788062  0.1848661143098839   T   T   T
  0.7500000000000000  0.4994434568081280  0.1816571099823472   T   T   T
  0.0034621525453912  0.2497164853700106  0.1861892884261550   T   T   T
  0.0010966259095423  0.7505449750662961  0.1854929956918026   T   T   T
  0.4965378474546089  0.2497164853700106  0.1861892884261550   T   T   T
  0.4989033740904577  0.7505449750662961  0.1854929956918026   T   T   T
  0.0054953901639165  0.0043148682171299  0.2755806922124328   T   T   T
  0.0133707279078747  0.4957890025394042  0.2735298014482355   T   T   T
  0.4945046098360835  0.0043148682171299  0.2755806922124328   T   T   T
  0.4866292720921253  0.4957890025394042  0.2735298014482355   T   T   T
  0.2500000000000000  0.7513188527433178  0.2746903512840808   T   T   T
  0.7500000000000000  0.2403278563352486  0.2724861089538965   T   T   T
  0.7500000000000000  0.7589609363185806  0.2729285113999519   T   T   T
  0.0000107391988905  0.9999081511295981  0.0032179375668609   T   T   T
  0.0002962534708701  0.5000913261009712  0.0029106199508592   T   T   T
  0.4999892608011096  0.9999081511295981  0.0032179375668609   T   T   T
  0.4997037465291299  0.5000913261009712  0.0029106199508592   T   T   T
  0.2500000000000000  0.2499525430473359  0.0030650782613213   T   T   T
  0.2500000000000000  0.7500985827465186  0.0031482888777673   T   T   T
  0.7500000000000000  0.2496061088892204  0.0028074256183601   T   T   T
  0.7500000000000000  0.7503464302609302  0.0029126428329792   T   T   T
  0.2500000000000000  0.9996371710777050  0.0949725885238708   T   T   T
  0.2500000000000000  0.5005854280461163  0.0950297697772356   T   T   T
  0.7500000000000000  0.9996987458117542  0.0952338850920481   T   T   T
  0.7500000000000000  0.5002278917785753  0.0941450260535328   T   T   T
  0.9992240859569325  0.2503326620169435  0.0949019247057179   T   T   T
  0.9994237719928195  0.7497490495489525  0.0951644069160449   T   T   T
  0.5007759140430675  0.2503326620169435  0.0949019247057179   T   T   T
  0.5005762280071805  0.7497490495489525  0.0951644069160449   T   T   T
  0.9993663966851540  0.0001738366174106  0.1852791171495664   T   T   T
  0.9969681166975460  0.5001566264456366  0.1852528549715897   T   T   T
  0.5006336033148460  0.0001738366174106  0.1852791171495664   T   T   T
  0.5030318833024540  0.5001566264456366  0.1852528549715897   T   T   T
  0.2500000000000000  0.2506044807375811  0.1833659025870317   T   T   T
  0.2500000000000000  0.7498949475186492  0.1844762533552896   T   T   T
  0.7500000000000000  0.2525497288146159  0.1844293131497869   T   T   T
  0.7500000000000000  0.7472836483254617  0.1849502638698128   T   T   T
  0.2499999495650016  0.9926111332867971  0.2769450085747440   T   T   T
  0.2499999495650016  0.5089008033416299  0.2755742570240627   T   T   T
  0.7499999495650016  0.9986398233705234  0.2760757295254362   T   T   T
  0.7499998486940029  0.5037070825101914  0.2848496625669065   T   T   T
  0.9893899236199284  0.2523834362896179  0.2774899031495951   T   T   T
  0.9964427072064695  0.7482884901741205  0.2775214179198092   T   T   T
  0.5106100763800716  0.2523834362896179  0.2774899031495951   T   T   T
  0.5035572927935305  0.7482884901741205  0.2775214179198092   T   T   T
 
  0.00000000E+00  0.00000000E+00  0.00000000E+00
  0.00000000E+00  0.00000000E+00  0.00000000E+00
  0.00000000E+00  0.00000000E+00  0.00000000E+00
  0.00000000E+00  0.00000000E+00  0.00000000E+00
  0.00000000E+00  0.00000000E+00  0.00000000E+00
  0.00000000E+00  0.00000000E+00  0.00000000E+00
  0.00000000E+00  0.00000000E+00  0.00000000E+00
  0.00000000E+00  0.00000000E+00  0.00000000E+00
  0.00000000E+00  0.00000000E+00  0.00000000E+00
  0.00000000E+00  0.00000000E+00  0.00000000E+00
  0.00000000E+00  0.00000000E+00  0.00000000E+00
  0.00000000E+00  0.00000000E+00  0.00000000E+00
  0.00000000E+00  0.00000000E+00  0.00000000E+00
  0.00000000E+00  0.00000000E+00  0.00000000E+00
  0.00000000E+00  0.00000000E+00  0.00000000E+00
  0.00000000E+00  0.00000000E+00  0.00000000E+00
  0.00000000E+00  0.00000000E+00  0.00000000E+00
  0.00000000E+00  0.00000000E+00  0.00000000E+00
  0.00000000E+00  0.00000000E+00  0.00000000E+00
  0.00000000E+00  0.00000000E+00  0.00000000E+00
  0.00000000E+00  0.00000000E+00  0.00000000E+00
  0.00000000E+00  0.00000000E+00  0.00000000E+00
  0.00000000E+00  0.00000000E+00  0.00000000E+00
  0.00000000E+00  0.00000000E+00  0.00000000E+00
  0.00000000E+00  0.00000000E+00  0.00000000E+00
  0.00000000E+00  0.00000000E+00  0.00000000E+00
  0.00000000E+00  0.00000000E+00  0.00000000E+00
  0.00000000E+00  0.00000000E+00  0.00000000E+00
  0.00000000E+00  0.00000000E+00  0.00000000E+00
  0.00000000E+00  0.00000000E+00  0.00000000E+00
  0.00000000E+00  0.00000000E+00  0.00000000E+00
  0.00000000E+00  0.00000000E+00  0.00000000E+00
  0.00000000E+00  0.00000000E+00  0.00000000E+00
  0.00000000E+00  0.00000000E+00  0.00000000E+00
  0.00000000E+00  0.00000000E+00  0.00000000E+00
  0.00000000E+00  0.00000000E+00  0.00000000E+00
  0.00000000E+00  0.00000000E+00  0.00000000E+00
  0.00000000E+00  0.00000000E+00  0.00000000E+00
  0.00000000E+00  0.00000000E+00  0.00000000E+00
  0.00000000E+00  0.00000000E+00  0.00000000E+00
  0.00000000E+00  0.00000000E+00  0.00000000E+00
  0.00000000E+00  0.00000000E+00  0.00000000E+00
  0.00000000E+00  0.00000000E+00  0.00000000E+00
  0.00000000E+00  0.00000000E+00  0.00000000E+00
  0.00000000E+00  0.00000000E+00  0.00000000E+00
  0.00000000E+00  0.00000000E+00  0.00000000E+00
  0.00000000E+00  0.00000000E+00  0.00000000E+00
  0.00000000E+00  0.00000000E+00  0.00000000E+00
  0.00000000E+00  0.00000000E+00  0.00000000E+00
  0.00000000E+00  0.00000000E+00  0.00000000E+00
  0.00000000E+00  0.00000000E+00  0.00000000E+00
  0.00000000E+00  0.00000000E+00  0.00000000E+00
  0.00000000E+00  0.00000000E+00  0.00000000E+00
  0.00000000E+00  0.00000000E+00  0.00000000E+00
  0.00000000E+00  0.00000000E+00  0.00000000E+00
  0.00000000E+00  0.00000000E+00  0.00000000E+00
  0.00000000E+00  0.00000000E+00  0.00000000E+00
  0.00000000E+00  0.00000000E+00  0.00000000E+00
  0.00000000E+00  0.00000000E+00  0.00000000E+00
  0.00000000E+00  0.00000000E+00  0.00000000E+00
  0.00000000E+00  0.00000000E+00  0.00000000E+00
  0.00000000E+00  0.00000000E+00  0.00000000E+00
  0.00000000E+00  0.00000000E+00  0.00000000E+00
  0.00000000E+00  0.00000000E+00  0.00000000E+00
  0.00000000E+00  0.00000000E+00  0.00000000E+00
