Li Mg O Ru                              
   1.00000000000000     
     8.4141216974800006    0.0000000000000000    0.0000000000000000
     0.0000000000000000    8.4141216974800006    0.0000000000000000
     0.0000000000000000    0.0000000000000000   23.4141216974799988
   Li   Mg   O    Ru
     1    31    32     1
Selective dynamics
Direct
  0.2500000000000000  0.2429150057715122  0.2740224371195092   T   T   T
  0.2500000000000000 -0.0000405719431982  0.0054865271632329   T   T   T
  0.2500000000000000  0.5001402135177573  0.0051475480861502   T   T   T
  0.7500000000000000 -0.0000094424495737  0.0051371346492987   T   T   T
  0.7500000000000000  0.4999400980020466  0.0046455780046718   T   T   T
  0.0001733912128452  0.2498327461834788  0.0052807441503681   T   T   T
  0.0003010567361065  0.7502133296899829  0.0053373938883094   T   T   T
  0.4998266087871548  0.2498327461834788  0.0052807441503681   T   T   T
  0.4996989432638936  0.7502133296899829  0.0053373938883094   T   T   T
  0.0006713426956213  0.0004373505527363  0.0949908335339866   T   T   T
  0.0009881166154432  0.4998181692166684  0.0943190486135489   T   T   T
  0.4993286573043788  0.0004373505527363  0.0949908335339866   T   T   T
  0.4990118833845569  0.4998181692166684  0.0943190486135489   T   T   T
  0.2500000000000000  0.2499228895259870  0.0949772256076843   T   T   T
  0.2500000000000000  0.7504900871520704  0.0951252880395895   T   T   T
  0.7500000000000000  0.2493263308477458  0.0943494976649417   T   T   T
  0.7500000000000000  0.7505854531410440  0.0941874751273594   T   T   T
  0.2500000000000000  0.0032762726865457  0.1861490737043292   T   T   T
  0.2500000000000000  0.4976864777531625  0.1856424671784252   T   T   T
  0.7500000000000000  0.0005483822783043  0.1846382400343559   T   T   T
  0.7500000000000000  0.4993529451436045  0.1808628726261905   T   T   T
  0.0029215401220125  0.2503218660048273  0.1862739057497451   T   T   T
  0.0006593480596128  0.7501074871455019  0.1856904122077041   T   T   T
  0.4970784598779877  0.2503218660048273  0.1862739057497451   T   T   T
  0.4993406519403873  0.7501074871455019  0.1856904122077041   T   T   T
  0.0061017671211342  0.0044861621205990  0.2750408494484455   T   T   T
  0.0185861138762600  0.4949918649772398  0.2750227883736545   T   T   T
  0.4938982328788659  0.0044861621205990  0.2750408494484455   T   T   T
  0.4814138861237400  0.4949918649772398  0.2750227883736545   T   T   T
  0.2500000000000000  0.7524289564938780  0.2742958082513764   T   T   T
  0.7500000000000000  0.2350354746247975  0.2737426586791963   T   T   T
  0.7500000000000000  0.7642946372541910  0.2741661721711436   T   T   T
 -0.0001426595224136  0.9999217039696507  0.0032936117658281   T   T   T
  0.0001371021940837  0.5001539645309571  0.0028869265599426   T   T   T
  0.5001426595224135  0.9999217039696507  0.0032936117658281   T   T   T
  0.4998628978059162  0.5001539645309571  0.0028869265599426   T   T   T
  0.2500000000000000  0.2501237949391120  0.0031531433122175   T   T   T
  0.2500000000000000  0.7499901093057939  0.0032627334487615   T   T   T
  0.7500000000000000  0.2497466123220342  0.0027705019790019   T   T   T
  0.7500000000000000  0.7501985906603464  0.0028752141808047   T   T   T
  0.2500000000000000  0.9997483980775287  0.0949382256589128   T   T   T
  0.2500000000000000  0.5006582622466285  0.0951419507920485   T   T   T
  0.7500000000000000  0.9997057565152628  0.0952315125809467   T   T   T
  0.7500000000000000  0.5002908488519572  0.0939292590183873   T   T   T
  0.9990841612075967  0.2506477602151827  0.0948820543361190   T   T   T
  0.9992333720048109  0.7495774635588405  0.0951701732366698   T   T   T
  0.5009158387924033  0.2506477602151827  0.0948820543361190   T   T   T
  0.5007666279951891  0.7495774635588405  0.0951701732366698   T   T   T
  0.9989636082546720  0.0001641622476037  0.1850546347651146   T   T   T
  0.9960735793399006  0.5002332792669996  0.1859179429297449   T   T   T
  0.5010363917453280  0.0001641622476037  0.1850546347651146   T   T   T
  0.5039264206600994  0.5002332792669996  0.1859179429297449   T   T   T
  0.2500000000000000  0.2510086323028386  0.1833205004757111   T   T   T
  0.2500000000000000  0.7498392975654424  0.1842953231860270   T   T   T
  0.7500000000000000  0.2533631600951897  0.1849066983676593   T   T   T
  0.7500000000000000  0.7463820417279131  0.1856042209130948   T   T   T
  0.2499999495650016  0.9932381415836572  0.2762607365452298   T   T   T
  0.2499999495650016  0.5102693334995241  0.2757813665500921   T   T   T
  0.7499999495650016  0.9989691874790239  0.2762070879056491   T   T   T
  0.7499998486940029  0.5044590921082417  0.2873463804423957   T   T   T
  0.9892178690676664  0.2525082514482688  0.2764452646498285   T   T   T
  0.9959665461683490  0.7482671941784249  0.2767626867296883   T   T   T
  0.5107821309323336  0.2525082514482688  0.2764452646498285   T   T   T
  0.5040334538316510  0.7482671941784249  0.2767626867296883   T   T   T
  0.7499998486940029  0.4934846352147057  0.3673152901062221   T   T   T
 
  0.00000000E+00  0.00000000E+00  0.00000000E+00
  0.00000000E+00  0.00000000E+00  0.00000000E+00
  0.00000000E+00  0.00000000E+00  0.00000000E+00
  0.00000000E+00  0.00000000E+00  0.00000000E+00
  0.00000000E+00  0.00000000E+00  0.00000000E+00
  0.00000000E+00  0.00000000E+00  0.00000000E+00
  0.00000000E+00  0.00000000E+00  0.00000000E+00
  0.00000000E+00  0.00000000E+00  0.00000000E+00
  0.00000000E+00  0.00000000E+00  0.00000000E+00
  0.00000000E+00  0.00000000E+00  0.00000000E+00
  0.00000000E+00  0.00000000E+00  0.00000000E+00
  0.00000000E+00  0.00000000E+00  0.00000000E+00
  0.00000000E+00  0.00000000E+00  0.00000000E+00
  0.00000000E+00  0.00000000E+00  0.00000000E+00
  0.00000000E+00  0.00000000E+00  0.00000000E+00
  0.00000000E+00  0.00000000E+00  0.00000000E+00
  0.00000000E+00  0.00000000E+00  0.00000000E+00
  0.00000000E+00  0.00000000E+00  0.00000000E+00
  0.00000000E+00  0.00000000E+00  0.00000000E+00
  0.00000000E+00  0.00000000E+00  0.00000000E+00
  0.00000000E+00  0.00000000E+00  0.00000000E+00
  0.00000000E+00  0.00000000E+00  0.00000000E+00
  0.00000000E+00  0.00000000E+00  0.00000000E+00
  0.00000000E+00  0.00000000E+00  0.00000000E+00
  0.00000000E+00  0.00000000E+00  0.00000000E+00
  0.00000000E+00  0.00000000E+00  0.00000000E+00
  0.00000000E+00  0.00000000E+00  0.00000000E+00
  0.00000000E+00  0.00000000E+00  0.00000000E+00
  0.00000000E+00  0.00000000E+00  0.00000000E+00
  0.00000000E+00  0.00000000E+00  0.00000000E+00
  0.00000000E+00  0.00000000E+00  0.00000000E+00
  0.00000000E+00  0.00000000E+00  0.00000000E+00
  0.00000000E+00  0.00000000E+00  0.00000000E+00
  0.00000000E+00  0.00000000E+00  0.00000000E+00
  0.00000000E+00  0.00000000E+00  0.00000000E+00
  0.00000000E+00  0.00000000E+00  0.00000000E+00
  0.00000000E+00  0.00000000E+00  0.00000000E+00
  0.00000000E+00  0.00000000E+00  0.00000000E+00
  0.00000000E+00  0.00000000E+00  0.00000000E+00
  0.00000000E+00  0.00000000E+00  0.00000000E+00
  0.00000000E+00  0.00000000E+00  0.00000000E+00
  0.00000000E+00  0.00000000E+00  0.00000000E+00
  0.00000000E+00  0.00000000E+00  0.00000000E+00
  0.00000000E+00  0.00000000E+00  0.00000000E+00
  0.00000000E+00  0.00000000E+00  0.00000000E+00
  0.00000000E+00  0.00000000E+00  0.00000000E+00
  0.00000000E+00  0.00000000E+00  0.00000000E+00
  0.00000000E+00  0.00000000E+00  0.00000000E+00
  0.00000000E+00  0.00000000E+00  0.00000000E+00
  0.00000000E+00  0.00000000E+00  0.00000000E+00
  0.00000000E+00  0.00000000E+00  0.00000000E+00
  0.00000000E+00  0.00000000E+00  0.00000000E+00
  0.00000000E+00  0.00000000E+00  0.00000000E+00
  0.00000000E+00  0.00000000E+00  0.00000000E+00
  0.00000000E+00  0.00000000E+00  0.00000000E+00
  0.00000000E+00  0.00000000E+00  0.00000000E+00
  0.00000000E+00  0.00000000E+00  0.00000000E+00
  0.00000000E+00  0.00000000E+00  0.00000000E+00
  0.00000000E+00  0.00000000E+00  0.00000000E+00
  0.00000000E+00  0.00000000E+00  0.00000000E+00
  0.00000000E+00  0.00000000E+00  0.00000000E+00
  0.00000000E+00  0.00000000E+00  0.00000000E+00
  0.00000000E+00  0.00000000E+00  0.00000000E+00
  0.00000000E+00  0.00000000E+00  0.00000000E+00
  0.00000000E+00  0.00000000E+00  0.00000000E+00
