Li Mg O V                               
   1.00000000000000     
     8.4141216974800006    0.0000000000000000    0.0000000000000000
     0.0000000000000000    8.4141216974800006    0.0000000000000000
     0.0000000000000000    0.0000000000000000   23.4141216974799988
   Li   Mg   O    V 
     1    31    32     1
Selective dynamics
Direct
  0.2500000000000000  0.2436880684708108  0.2744544828337301   T   T   T
  0.2500000000000000  0.0000371513528230  0.0055599617604598   T   T   T
  0.2500000000000000  0.5001015910944353  0.0051564152482519   T   T   T
  0.7500000000000000 -0.0000066400657546  0.0051612926553387   T   T   T
  0.7500000000000000  0.4999110277518398  0.0044519217899354   T   T   T
  0.0001515650800502  0.2497437714737685  0.0053270640593532   T   T   T
  0.0002323703228013  0.7502162835609796  0.0053573684266266   T   T   T
  0.4998484349199497  0.2497437714737685  0.0053270640593532   T   T   T
  0.4997676296771987  0.7502162835609796  0.0053573684266266   T   T   T
  0.0009084377418789  0.0003588374734364  0.0949854751068741   T   T   T
  0.0010894294644152  0.4997499701404419  0.0941975061526118   T   T   T
  0.4990915622581210  0.0003588374734364  0.0949854751068741   T   T   T
  0.4989105705355847  0.4997499701404419  0.0941975061526118   T   T   T
  0.2500000000000000  0.2495806943545156  0.0948688853984145   T   T   T
  0.2500000000000000  0.7507561024617615  0.0950557127979244   T   T   T
  0.7500000000000000  0.2490362715952999  0.0943105921163013   T   T   T
  0.7500000000000000  0.7507231454198775  0.0941491575834072   T   T   T
  0.2500000000000000  0.0032532060696113  0.1864210264482762   T   T   T
  0.2500000000000000  0.4975998235661208  0.1854762282532798   T   T   T
  0.7500000000000000  0.0004771142619573  0.1847367181598903   T   T   T
  0.7500000000000000  0.4992170483154846  0.1803049990687593   T   T   T
  0.0029472322596028  0.2500766186253344  0.1861858324346256   T   T   T
  0.0007220535002217  0.7502766799944769  0.1854678708435699   T   T   T
  0.4970527677403971  0.2500766186253344  0.1861858324346256   T   T   T
  0.4992779464997781  0.7502766799944769  0.1854678708435699   T   T   T
  0.0054492986738430  0.0044449405881750  0.2751881649118923   T   T   T
  0.0170931053933985  0.4952826368049418  0.2740182266719934   T   T   T
  0.4945507013261570  0.0044449405881750  0.2751881649118923   T   T   T
  0.4829068946066015  0.4952826368049418  0.2740182266719934   T   T   T
  0.2500000000000000  0.7522374879446654  0.2742615475340077   T   T   T
  0.7500000000000000  0.2376119985091309  0.2731755644694034   T   T   T
  0.7500000000000000  0.7612767820995437  0.2738118151321911   T   T   T
 -0.0000552529323592  0.9998582058495391  0.0032173175485093   T   T   T
  0.0004289254499906  0.5001226175804667  0.0028464050678699   T   T   T
  0.5000552529323593  0.9998582058495391  0.0032173175485093   T   T   T
  0.4995710745500093  0.5001226175804667  0.0028464050678699   T   T   T
  0.2500000000000000  0.2500562243287839  0.0030192290944084   T   T   T
  0.2500000000000000  0.7500732995477422  0.0031464874921089   T   T   T
  0.7500000000000000  0.2494541425141377  0.0027336677033947   T   T   T
  0.7500000000000000  0.7504442376074849  0.0028688468531768   T   T   T
  0.2500000000000000  0.9997079916216459  0.0948026726298319   T   T   T
  0.2500000000000000  0.5006780869405525  0.0951083366806506   T   T   T
  0.7500000000000000  0.9995495264341241  0.0952896520151964   T   T   T
  0.7500000000000000  0.5002780273079341  0.0936679428390287   T   T   T
  0.9990508707470807  0.2506083137622805  0.0948310527703861   T   T   T
  0.9991539818700912  0.7495126097476533  0.0951056350387112   T   T   T
  0.5009491292529193  0.2506083137622805  0.0948310527703861   T   T   T
  0.5008460181299088  0.7495126097476533  0.0951056350387112   T   T   T
  0.9990958298641651  0.0001917593196766  0.1851084047154580   T   T   T
  0.9959796192892680  0.5002651384276460  0.1856272052751066   T   T   T
  0.5009041701358349  0.0001917593196766  0.1851084047154580   T   T   T
  0.5040203807107320  0.5002651384276460  0.1856272052751066   T   T   T
  0.2500000000000000  0.2508735328966766  0.1832075030078148   T   T   T
  0.2500000000000000  0.7498128003068563  0.1843284450667136   T   T   T
  0.7500000000000000  0.2533275165851029  0.1846578801572681   T   T   T
  0.7500000000000000  0.7462602378305311  0.1854019670762184   T   T   T
  0.2499999495650016  0.9930540730895272  0.2766044005290154   T   T   T
  0.2499999495650016  0.5096414365489982  0.2753067945133328   T   T   T
  0.7499999495650016  0.9985243655965874  0.2758432205069603   T   T   T
  0.7499998486940029  0.5047644854070836  0.2912612843980014   T   T   T
  0.9889118697358452  0.2528520515689922  0.2767613785910757   T   T   T
  0.9962565071154138  0.7477863245057212  0.2768573400634087   T   T   T
  0.5110881302641548  0.2528520515689922  0.2767613785910757   T   T   T
  0.5037434928845862  0.7477863245057212  0.2768573400634087   T   T   T
  0.7499998486940029  0.4960402382960481  0.3688855442791757   T   T   T
 
  0.00000000E+00  0.00000000E+00  0.00000000E+00
  0.00000000E+00  0.00000000E+00  0.00000000E+00
  0.00000000E+00  0.00000000E+00  0.00000000E+00
  0.00000000E+00  0.00000000E+00  0.00000000E+00
  0.00000000E+00  0.00000000E+00  0.00000000E+00
  0.00000000E+00  0.00000000E+00  0.00000000E+00
  0.00000000E+00  0.00000000E+00  0.00000000E+00
  0.00000000E+00  0.00000000E+00  0.00000000E+00
  0.00000000E+00  0.00000000E+00  0.00000000E+00
  0.00000000E+00  0.00000000E+00  0.00000000E+00
  0.00000000E+00  0.00000000E+00  0.00000000E+00
  0.00000000E+00  0.00000000E+00  0.00000000E+00
  0.00000000E+00  0.00000000E+00  0.00000000E+00
  0.00000000E+00  0.00000000E+00  0.00000000E+00
  0.00000000E+00  0.00000000E+00  0.00000000E+00
  0.00000000E+00  0.00000000E+00  0.00000000E+00
  0.00000000E+00  0.00000000E+00  0.00000000E+00
  0.00000000E+00  0.00000000E+00  0.00000000E+00
  0.00000000E+00  0.00000000E+00  0.00000000E+00
  0.00000000E+00  0.00000000E+00  0.00000000E+00
  0.00000000E+00  0.00000000E+00  0.00000000E+00
  0.00000000E+00  0.00000000E+00  0.00000000E+00
  0.00000000E+00  0.00000000E+00  0.00000000E+00
  0.00000000E+00  0.00000000E+00  0.00000000E+00
  0.00000000E+00  0.00000000E+00  0.00000000E+00
  0.00000000E+00  0.00000000E+00  0.00000000E+00
  0.00000000E+00  0.00000000E+00  0.00000000E+00
  0.00000000E+00  0.00000000E+00  0.00000000E+00
  0.00000000E+00  0.00000000E+00  0.00000000E+00
  0.00000000E+00  0.00000000E+00  0.00000000E+00
  0.00000000E+00  0.00000000E+00  0.00000000E+00
  0.00000000E+00  0.00000000E+00  0.00000000E+00
  0.00000000E+00  0.00000000E+00  0.00000000E+00
  0.00000000E+00  0.00000000E+00  0.00000000E+00
  0.00000000E+00  0.00000000E+00  0.00000000E+00
  0.00000000E+00  0.00000000E+00  0.00000000E+00
  0.00000000E+00  0.00000000E+00  0.00000000E+00
  0.00000000E+00  0.00000000E+00  0.00000000E+00
  0.00000000E+00  0.00000000E+00  0.00000000E+00
  0.00000000E+00  0.00000000E+00  0.00000000E+00
  0.00000000E+00  0.00000000E+00  0.00000000E+00
  0.00000000E+00  0.00000000E+00  0.00000000E+00
  0.00000000E+00  0.00000000E+00  0.00000000E+00
  0.00000000E+00  0.00000000E+00  0.00000000E+00
  0.00000000E+00  0.00000000E+00  0.00000000E+00
  0.00000000E+00  0.00000000E+00  0.00000000E+00
  0.00000000E+00  0.00000000E+00  0.00000000E+00
  0.00000000E+00  0.00000000E+00  0.00000000E+00
  0.00000000E+00  0.00000000E+00  0.00000000E+00
  0.00000000E+00  0.00000000E+00  0.00000000E+00
  0.00000000E+00  0.00000000E+00  0.00000000E+00
  0.00000000E+00  0.00000000E+00  0.00000000E+00
  0.00000000E+00  0.00000000E+00  0.00000000E+00
  0.00000000E+00  0.00000000E+00  0.00000000E+00
  0.00000000E+00  0.00000000E+00  0.00000000E+00
  0.00000000E+00  0.00000000E+00  0.00000000E+00
  0.00000000E+00  0.00000000E+00  0.00000000E+00
  0.00000000E+00  0.00000000E+00  0.00000000E+00
  0.00000000E+00  0.00000000E+00  0.00000000E+00
  0.00000000E+00  0.00000000E+00  0.00000000E+00
  0.00000000E+00  0.00000000E+00  0.00000000E+00
  0.00000000E+00  0.00000000E+00  0.00000000E+00
  0.00000000E+00  0.00000000E+00  0.00000000E+00
  0.00000000E+00  0.00000000E+00  0.00000000E+00
  0.00000000E+00  0.00000000E+00  0.00000000E+00
