Li Mg O                                 
   1.00000000000000     
     8.4141216974800006    0.0000000000000000    0.0000000000000000
     0.0000000000000000    8.4141216974800006    0.0000000000000000
     0.0000000000000000    0.0000000000000000   23.4141216974799988
   Li   Mg   O 
     1    31    32
Selective dynamics
Direct
  0.2500000000000000  0.2500000000000000  0.2748596411295425   T   T   T
  0.2500000000000000  0.0001000997789155  0.0055056816954180   T   T   T
  0.2500000000000000  0.4998999002210845  0.0055056816954180   T   T   T
  0.7500000000000000  0.0000503637315832  0.0054903004977472   T   T   T
  0.7500000000000000  0.4999496362684169  0.0054903004977472   T   T   T
  0.0001015256733192  0.2500000000000000  0.0055853447402297   T   T   T
  0.0000515071986848  0.7500000000000000  0.0055702179649489   T   T   T
  0.4998984743266807  0.2500000000000000  0.0055853447402297   T   T   T
  0.4999484928013152  0.7500000000000000  0.0055702179649489   T   T   T
  0.0001821092194563  0.0001820079569774  0.0950712197360015   T   T   T
  0.0001821092194563  0.4998179920430226  0.0950712197360015   T   T   T
  0.4998178907805437  0.0001820079569774  0.0950712197360015   T   T   T
  0.4998178907805437  0.4998179920430226  0.0950712197360015   T   T   T
  0.2500000000000000  0.2500000000000000  0.0952426445262617   T   T   T
  0.2500000000000000  0.7500000000000000  0.0950788700247364   T   T   T
  0.7500000000000000  0.2500000000000000  0.0950768238541934   T   T   T
  0.7500000000000000  0.7500000000000000  0.0949821945093414   T   T   T
  0.2500000000000000  0.0033422167225526  0.1863382340772657   T   T   T
  0.2500000000000000  0.4966577832774474  0.1863382340772657   T   T   T
  0.7500000000000000  0.0003237973084256  0.1854835829005836   T   T   T
  0.7500000000000000  0.4996762026915743  0.1854835829005836   T   T   T
  0.0033826519263000  0.2500000000000000  0.1863881289108252   T   T   T
  0.0003293420263485  0.7500000000000000  0.1855382087914772   T   T   T
  0.4966173480737000  0.2500000000000000  0.1863881289108252   T   T   T
  0.4996706579736515  0.7500000000000000  0.1855382087914772   T   T   T
  0.0033676727173660  0.0033731282087332  0.2752522828181443   T   T   T
  0.0033676727173660  0.4966268717912669  0.2752522828181443   T   T   T
  0.4966323272826340  0.0033731282087332  0.2752522828181443   T   T   T
  0.4966323272826340  0.4966268717912669  0.2752522828181443   T   T   T
  0.2500000000000000  0.7500000000000000  0.2751635560727676   T   T   T
  0.7500000000000000  0.2500000000000000  0.2751666588204648   T   T   T
  0.7500000000000000  0.7500000000000000  0.2749999498988707   T   T   T
 -0.0000714642654740 -0.0000711777452657  0.0032727298241098   T   T   T
 -0.0000714642654740  0.5000711777452657  0.0032727298241098   T   T   T
  0.5000714642654740 -0.0000711777452657  0.0032727298241098   T   T   T
  0.5000714642654740  0.5000711777452657  0.0032727298241098   T   T   T
  0.2500000000000000  0.2500000000000000  0.0032854868729468   T   T   T
  0.2500000000000000  0.7500000000000000  0.0032362215999282   T   T   T
  0.7500000000000000  0.2500000000000000  0.0032361755224592   T   T   T
  0.7500000000000000  0.7500000000000000  0.0032991563559556   T   T   T
  0.2500000000000000 -0.0005357526678812  0.0950571623551406   T   T   T
  0.2500000000000000  0.5005357526678813  0.0950571623551406   T   T   T
  0.7500000000000000 -0.0001525597828064  0.0951374819227021   T   T   T
  0.7500000000000000  0.5001525597828064  0.0951374819227021   T   T   T
 -0.0005387681504976  0.2500000000000000  0.0951057995700117   T   T   T
 -0.0001520953212628  0.7500000000000000  0.0951844448015503   T   T   T
  0.5005387681504975  0.2500000000000000  0.0951057995700117   T   T   T
  0.5001520953212628  0.7500000000000000  0.0951844448015503   T   T   T
 -0.0004333174569555 -0.0004340786411432  0.1851640841820930   T   T   T
 -0.0004333174569555  0.5004340786411433  0.1851640841820930   T   T   T
  0.5004333174569556 -0.0004340786411432  0.1851640841820930   T   T   T
  0.5004333174569556  0.5004340786411433  0.1851640841820930   T   T   T
  0.2500000000000000  0.2500000000000000  0.1833811687259953   T   T   T
  0.2500000000000000  0.7500000000000000  0.1851434905673091   T   T   T
  0.7500000000000000  0.2500000000000000  0.1851452529938339   T   T   T
  0.7500000000000000  0.7500000000000000  0.1852225765070359   T   T   T
  0.2499999495650016 -0.0064534447346980  0.2767980607787509   T   T   T
  0.2499999495650016  0.5064534447346981  0.2767980607787509   T   T   T
  0.7499999495650016 -0.0007341412308669  0.2772221768027461   T   T   T
  0.7499999495650016  0.5007341412308669  0.2772221768027461   T   T   T
 -0.0064367041130387  0.2500000000000000  0.2765881763309211   T   T   T
 -0.0007319583153464  0.7500000000000000  0.2770045120641719   T   T   T
  0.5064367041130386  0.2500000000000000  0.2765881763309211   T   T   T
  0.5007319583153463  0.7500000000000000  0.2770045120641719   T   T   T
 
  0.00000000E+00  0.00000000E+00  0.00000000E+00
  0.00000000E+00  0.00000000E+00  0.00000000E+00
  0.00000000E+00  0.00000000E+00  0.00000000E+00
  0.00000000E+00  0.00000000E+00  0.00000000E+00
  0.00000000E+00  0.00000000E+00  0.00000000E+00
  0.00000000E+00  0.00000000E+00  0.00000000E+00
  0.00000000E+00  0.00000000E+00  0.00000000E+00
  0.00000000E+00  0.00000000E+00  0.00000000E+00
  0.00000000E+00  0.00000000E+00  0.00000000E+00
  0.00000000E+00  0.00000000E+00  0.00000000E+00
  0.00000000E+00  0.00000000E+00  0.00000000E+00
  0.00000000E+00  0.00000000E+00  0.00000000E+00
  0.00000000E+00  0.00000000E+00  0.00000000E+00
  0.00000000E+00  0.00000000E+00  0.00000000E+00
  0.00000000E+00  0.00000000E+00  0.00000000E+00
  0.00000000E+00  0.00000000E+00  0.00000000E+00
  0.00000000E+00  0.00000000E+00  0.00000000E+00
  0.00000000E+00  0.00000000E+00  0.00000000E+00
  0.00000000E+00  0.00000000E+00  0.00000000E+00
  0.00000000E+00  0.00000000E+00  0.00000000E+00
  0.00000000E+00  0.00000000E+00  0.00000000E+00
  0.00000000E+00  0.00000000E+00  0.00000000E+00
  0.00000000E+00  0.00000000E+00  0.00000000E+00
  0.00000000E+00  0.00000000E+00  0.00000000E+00
  0.00000000E+00  0.00000000E+00  0.00000000E+00
  0.00000000E+00  0.00000000E+00  0.00000000E+00
  0.00000000E+00  0.00000000E+00  0.00000000E+00
  0.00000000E+00  0.00000000E+00  0.00000000E+00
  0.00000000E+00  0.00000000E+00  0.00000000E+00
  0.00000000E+00  0.00000000E+00  0.00000000E+00
  0.00000000E+00  0.00000000E+00  0.00000000E+00
  0.00000000E+00  0.00000000E+00  0.00000000E+00
  0.00000000E+00  0.00000000E+00  0.00000000E+00
  0.00000000E+00  0.00000000E+00  0.00000000E+00
  0.00000000E+00  0.00000000E+00  0.00000000E+00
  0.00000000E+00  0.00000000E+00  0.00000000E+00
  0.00000000E+00  0.00000000E+00  0.00000000E+00
  0.00000000E+00  0.00000000E+00  0.00000000E+00
  0.00000000E+00  0.00000000E+00  0.00000000E+00
  0.00000000E+00  0.00000000E+00  0.00000000E+00
  0.00000000E+00  0.00000000E+00  0.00000000E+00
  0.00000000E+00  0.00000000E+00  0.00000000E+00
  0.00000000E+00  0.00000000E+00  0.00000000E+00
  0.00000000E+00  0.00000000E+00  0.00000000E+00
  0.00000000E+00  0.00000000E+00  0.00000000E+00
  0.00000000E+00  0.00000000E+00  0.00000000E+00
  0.00000000E+00  0.00000000E+00  0.00000000E+00
  0.00000000E+00  0.00000000E+00  0.00000000E+00
  0.00000000E+00  0.00000000E+00  0.00000000E+00
  0.00000000E+00  0.00000000E+00  0.00000000E+00
  0.00000000E+00  0.00000000E+00  0.00000000E+00
  0.00000000E+00  0.00000000E+00  0.00000000E+00
  0.00000000E+00  0.00000000E+00  0.00000000E+00
  0.00000000E+00  0.00000000E+00  0.00000000E+00
  0.00000000E+00  0.00000000E+00  0.00000000E+00
  0.00000000E+00  0.00000000E+00  0.00000000E+00
  0.00000000E+00  0.00000000E+00  0.00000000E+00
  0.00000000E+00  0.00000000E+00  0.00000000E+00
  0.00000000E+00  0.00000000E+00  0.00000000E+00
  0.00000000E+00  0.00000000E+00  0.00000000E+00
  0.00000000E+00  0.00000000E+00  0.00000000E+00
  0.00000000E+00  0.00000000E+00  0.00000000E+00
  0.00000000E+00  0.00000000E+00  0.00000000E+00
  0.00000000E+00  0.00000000E+00  0.00000000E+00
