Au Li Mg O                              
   1.00000000000000     
     8.4141216974800006    0.0000000000000000    0.0000000000000000
     0.0000000000000000    8.4141216974800006    0.0000000000000000
     0.0000000000000000    0.0000000000000000   23.4141216974799988
   Au   Li   Mg   O 
     1     1    31    32
Selective dynamics
Direct
  0.7499998486940029  0.4976923741819025  0.3704394441433843   T   T   T
  0.2500000000000000  0.2452004671213478  0.2749021347531471   T   T   T
  0.2500000000000000 -0.0000080599732809  0.0056887727967278   T   T   T
  0.2500000000000000  0.5000728289317807  0.0052613625560471   T   T   T
  0.7500000000000000 -0.0000082027735063  0.0052683986086828   T   T   T
  0.7500000000000000  0.4999469036732835  0.0046323197780664   T   T   T
  0.0003051275473797  0.2496479081608682  0.0054390688766410   T   T   T
  0.0003815842597419  0.7503253956600802  0.0054898922247345   T   T   T
  0.4996948724526202  0.2496479081608682  0.0054390688766410   T   T   T
  0.4996184157402581  0.7503253956600802  0.0054898922247345   T   T   T
  0.0008501122332395  0.0003038846098775  0.0952375927679256   T   T   T
  0.0010774083475222  0.4996961522883208  0.0943344213376272   T   T   T
  0.4991498877667606  0.0003038846098775  0.0952375927679256   T   T   T
  0.4989225916524779  0.4996961522883208  0.0943344213376272   T   T   T
  0.2500000000000000  0.2496263488030345  0.0951497485567010   T   T   T
  0.2500000000000000  0.7505814063668359  0.0952708918598748   T   T   T
  0.7500000000000000  0.2491236531534517  0.0943715097725688   T   T   T
  0.7500000000000000  0.7506781888835219  0.0942229977824639   T   T   T
  0.2500000000000000  0.0031626790184709  0.1868049077396137   T   T   T
  0.2500000000000000  0.4974473244925642  0.1858596117530885   T   T   T
  0.7500000000000000  0.0005248625621924  0.1850190150583310   T   T   T
  0.7500000000000000  0.4991695744439974  0.1807359774671870   T   T   T
  0.0032979572847177  0.2497361082556505  0.1864929876268567   T   T   T
  0.0009668284762329  0.7503531986045937  0.1858621810046624   T   T   T
  0.4967020427152823  0.2497361082556505  0.1864929876268567   T   T   T
  0.4990331715237671  0.7503531986045937  0.1858621810046624   T   T   T
  0.0058419951648507  0.0044504282626399  0.2756080905776036   T   T   T
  0.0154076339498919  0.4951800673331011  0.2745621115564911   T   T   T
  0.4941580048351493  0.0044504282626399  0.2756080905776036   T   T   T
  0.4845923660501081  0.4951800673331011  0.2745621115564911   T   T   T
  0.2500000000000000  0.7518541058790185  0.2747409072801740   T   T   T
  0.7500000000000000  0.2380918467818136  0.2734008201765334   T   T   T
  0.7500000000000000  0.7613427503697054  0.2738372415120759   T   T   T
  0.9999795724627994  0.9998617206472503  0.0033962350785713   T   T   T
  0.0002338828886519  0.5001068106953008  0.0029732443510937   T   T   T
  0.5000204275372006  0.9998617206472503  0.0033962350785713   T   T   T
  0.4997661171113481  0.5001068106953008  0.0029732443510937   T   T   T
  0.2500000000000000  0.2499631199191621  0.0032144414973149   T   T   T
  0.2500000000000000  0.7501025861472606  0.0033239724286110   T   T   T
  0.7500000000000000  0.2496364594914509  0.0028749661257950   T   T   T
  0.7500000000000000  0.7502975832336771  0.0029926681534765   T   T   T
  0.2500000000000000  0.9996668820645422  0.0951054082402240   T   T   T
  0.2500000000000000  0.5005743422815325  0.0951771154501582   T   T   T
  0.7500000000000000  0.9996154468349160  0.0953479259883885   T   T   T
  0.7500000000000000  0.5002271940108129  0.0939323394197764   T   T   T
  0.9991233215266091  0.2504647711007166  0.0950088689802144   T   T   T
  0.9992784768471605  0.7495324356457534  0.0953103389818079   T   T   T
  0.5008766784733909  0.2504647711007166  0.0950088689802144   T   T   T
  0.5007215231528395  0.7495324356457534  0.0953103389818079   T   T   T
  0.9991991829721698  0.0000229748275792  0.1852721993088829   T   T   T
  0.9962594218814315  0.5001385467656670  0.1856854355636494   T   T   T
  0.5008008170278302  0.0000229748275792  0.1852721993088829   T   T   T
  0.5037405781185685  0.5001385467656670  0.1856854355636494   T   T   T
  0.2500000000000000  0.2508732732334369  0.1834192512127429   T   T   T
  0.2500000000000000  0.7496262932772019  0.1845464649815126   T   T   T
  0.7500000000000000  0.2531231324920258  0.1847508365219762   T   T   T
  0.7500000000000000  0.7464235041600193  0.1853950728502992   T   T   T
  0.2499999495650016  0.9928001328944670  0.2767928616145491   T   T   T
  0.2499999495650016  0.5092681206155664  0.2756924349919055   T   T   T
  0.7499999495650016  0.9988116112045498  0.2761579115186702   T   T   T
  0.7499998486940029  0.5042660237146962  0.2842052548483457   T   T   T
  0.9896039400215754  0.2521036490601722  0.2769770534245303   T   T   T
  0.9965890473365778  0.7485558767912025  0.2771810571495089   T   T   T
  0.5103960599784246  0.2521036490601722  0.2769770534245303   T   T   T
  0.5034109526634222  0.7485558767912025  0.2771810571495089   T   T   T
 
  0.00000000E+00  0.00000000E+00  0.00000000E+00
  0.00000000E+00  0.00000000E+00  0.00000000E+00
  0.00000000E+00  0.00000000E+00  0.00000000E+00
  0.00000000E+00  0.00000000E+00  0.00000000E+00
  0.00000000E+00  0.00000000E+00  0.00000000E+00
  0.00000000E+00  0.00000000E+00  0.00000000E+00
  0.00000000E+00  0.00000000E+00  0.00000000E+00
  0.00000000E+00  0.00000000E+00  0.00000000E+00
  0.00000000E+00  0.00000000E+00  0.00000000E+00
  0.00000000E+00  0.00000000E+00  0.00000000E+00
  0.00000000E+00  0.00000000E+00  0.00000000E+00
  0.00000000E+00  0.00000000E+00  0.00000000E+00
  0.00000000E+00  0.00000000E+00  0.00000000E+00
  0.00000000E+00  0.00000000E+00  0.00000000E+00
  0.00000000E+00  0.00000000E+00  0.00000000E+00
  0.00000000E+00  0.00000000E+00  0.00000000E+00
  0.00000000E+00  0.00000000E+00  0.00000000E+00
  0.00000000E+00  0.00000000E+00  0.00000000E+00
  0.00000000E+00  0.00000000E+00  0.00000000E+00
  0.00000000E+00  0.00000000E+00  0.00000000E+00
  0.00000000E+00  0.00000000E+00  0.00000000E+00
  0.00000000E+00  0.00000000E+00  0.00000000E+00
  0.00000000E+00  0.00000000E+00  0.00000000E+00
  0.00000000E+00  0.00000000E+00  0.00000000E+00
  0.00000000E+00  0.00000000E+00  0.00000000E+00
  0.00000000E+00  0.00000000E+00  0.00000000E+00
  0.00000000E+00  0.00000000E+00  0.00000000E+00
  0.00000000E+00  0.00000000E+00  0.00000000E+00
  0.00000000E+00  0.00000000E+00  0.00000000E+00
  0.00000000E+00  0.00000000E+00  0.00000000E+00
  0.00000000E+00  0.00000000E+00  0.00000000E+00
  0.00000000E+00  0.00000000E+00  0.00000000E+00
  0.00000000E+00  0.00000000E+00  0.00000000E+00
  0.00000000E+00  0.00000000E+00  0.00000000E+00
  0.00000000E+00  0.00000000E+00  0.00000000E+00
  0.00000000E+00  0.00000000E+00  0.00000000E+00
  0.00000000E+00  0.00000000E+00  0.00000000E+00
  0.00000000E+00  0.00000000E+00  0.00000000E+00
  0.00000000E+00  0.00000000E+00  0.00000000E+00
  0.00000000E+00  0.00000000E+00  0.00000000E+00
  0.00000000E+00  0.00000000E+00  0.00000000E+00
  0.00000000E+00  0.00000000E+00  0.00000000E+00
  0.00000000E+00  0.00000000E+00  0.00000000E+00
  0.00000000E+00  0.00000000E+00  0.00000000E+00
  0.00000000E+00  0.00000000E+00  0.00000000E+00
  0.00000000E+00  0.00000000E+00  0.00000000E+00
  0.00000000E+00  0.00000000E+00  0.00000000E+00
  0.00000000E+00  0.00000000E+00  0.00000000E+00
  0.00000000E+00  0.00000000E+00  0.00000000E+00
  0.00000000E+00  0.00000000E+00  0.00000000E+00
  0.00000000E+00  0.00000000E+00  0.00000000E+00
  0.00000000E+00  0.00000000E+00  0.00000000E+00
  0.00000000E+00  0.00000000E+00  0.00000000E+00
  0.00000000E+00  0.00000000E+00  0.00000000E+00
  0.00000000E+00  0.00000000E+00  0.00000000E+00
  0.00000000E+00  0.00000000E+00  0.00000000E+00
  0.00000000E+00  0.00000000E+00  0.00000000E+00
  0.00000000E+00  0.00000000E+00  0.00000000E+00
  0.00000000E+00  0.00000000E+00  0.00000000E+00
  0.00000000E+00  0.00000000E+00  0.00000000E+00
  0.00000000E+00  0.00000000E+00  0.00000000E+00
  0.00000000E+00  0.00000000E+00  0.00000000E+00
  0.00000000E+00  0.00000000E+00  0.00000000E+00
  0.00000000E+00  0.00000000E+00  0.00000000E+00
  0.00000000E+00  0.00000000E+00  0.00000000E+00
