Fe Li Mg O                              
   1.00000000000000     
     8.4141216974800006    0.0000000000000000    0.0000000000000000
     0.0000000000000000    8.4141216974800006    0.0000000000000000
     0.0000000000000000    0.0000000000000000   23.4141216974799988
   Fe   Li   Mg   O 
     1     1    31    32
Selective dynamics
Direct
  0.7499998486940029  0.5019643109600491  0.3617983395425817   T   T   T
  0.2500000000000000  0.2441616844674721  0.2743239778423813   T   T   T
  0.2500000000000000 -0.0002159578540911  0.0054242684905748   T   T   T
  0.2500000000000000  0.4999435571694453  0.0051518703932652   T   T   T
  0.7500000000000000 -0.0001044164111927  0.0051301826018267   T   T   T
  0.7500000000000000  0.4997868132482546  0.0047277731840618   T   T   T
  0.0001358669248337  0.2497112373484791  0.0052393701322283   T   T   T
  0.0002386773760544  0.7500734000901736  0.0052781285339955   T   T   T
  0.4998641330751662  0.2497112373484791  0.0052393701322283   T   T   T
  0.4997613226239457  0.7500734000901736  0.0052781285339955   T   T   T
  0.0006861925053645  0.0003169267886342  0.0949906308109704   T   T   T
  0.0010274915745406  0.4996355466929778  0.0942690655229101   T   T   T
  0.4993138074946355  0.0003169267886342  0.0949906308109704   T   T   T
  0.4989725084254592  0.4996355466929778  0.0942690655229101   T   T   T
  0.2500000000000000  0.2496112664559073  0.0949912357282559   T   T   T
  0.2500000000000000  0.7503227750610306  0.0951108407234733   T   T   T
  0.7500000000000000  0.2492137888850775  0.0943327833228782   T   T   T
  0.7500000000000000  0.7505310171653313  0.0941090520268230   T   T   T
  0.2500000000000000  0.0031559002788075  0.1862206003495469   T   T   T
  0.2500000000000000  0.4974231789079364  0.1856669653179789   T   T   T
  0.7500000000000000  0.0005238253725878  0.1847378062412323   T   T   T
  0.7500000000000000  0.4993290989817657  0.1809001020157522   T   T   T
  0.0030386672611699  0.2500919646424319  0.1863789616311653   T   T   T
  0.0007230037809308  0.7499997384486260  0.1856858572707930   T   T   T
  0.4969613327388302  0.2500919646424319  0.1863789616311653   T   T   T
  0.4992769962190692  0.7499997384486260  0.1856858572707930   T   T   T
  0.0064586521080038  0.0044934830993378  0.2750807587356665   T   T   T
  0.0170042679992298  0.4948725339408971  0.2748083189741569   T   T   T
  0.4935413478919961  0.0044934830993378  0.2750807587356665   T   T   T
  0.4829957320007703  0.4948725339408971  0.2748083189741569   T   T   T
  0.2500000000000000  0.7520718921382717  0.2743080104509487   T   T   T
  0.7500000000000000  0.2364106301045999  0.2736932567253076   T   T   T
  0.7500000000000000  0.7630159751231976  0.2739675790578501   T   T   T
 -0.0001482352148681  0.9997978341334750  0.0032522014628848   T   T   T
  0.0001117731722206  0.4999914510515444  0.0028485024490390   T   T   T
  0.5001482352148682  0.9997978341334750  0.0032522014628848   T   T   T
  0.4998882268277793  0.4999914510515444  0.0028485024490390   T   T   T
  0.2500000000000000  0.2499394611304547  0.0031621282014250   T   T   T
  0.2500000000000000  0.7498055141266196  0.0032034022177982   T   T   T
  0.7500000000000000  0.2496661083680350  0.0027463255321451   T   T   T
  0.7500000000000000  0.7500354959054547  0.0028359512838216   T   T   T
  0.2500000000000000  0.9995287095491791  0.0949829950844224   T   T   T
  0.2500000000000000  0.5004375551703345  0.0951097075071541   T   T   T
  0.7500000000000000  0.9996282244667646  0.0952347841358358   T   T   T
  0.7500000000000000  0.5002045327237479  0.0939246120831846   T   T   T
  0.9991361804517421  0.2504205865590046  0.0949232585095614   T   T   T
  0.9992934010436901  0.7494939406843985  0.0951799018343603   T   T   T
  0.5008638195482579  0.2504205865590046  0.0949232585095614   T   T   T
  0.5007065989563099  0.7494939406843985  0.0951799018343603   T   T   T
  0.9990141499020329 -0.0000351925448594  0.1851005489778492   T   T   T
  0.9962409146056510  0.5001140268470224  0.1858534357863348   T   T   T
  0.5009858500979671 -0.0000351925448594  0.1851005489778492   T   T   T
  0.5037590853943490  0.5001140268470224  0.1858534357863348   T   T   T
  0.2500000000000000  0.2508068440601198  0.1833903114379877   T   T   T
  0.2500000000000000  0.7496396586669439  0.1843477369264003   T   T   T
  0.7500000000000000  0.2532521285897059  0.1849220978438391   T   T   T
  0.7500000000000000  0.7464288095549890  0.1855290954167536   T   T   T
  0.2499999495650016  0.9929582257693264  0.2763453229187832   T   T   T
  0.2499999495650016  0.5098367381582367  0.2760986922913151   T   T   T
  0.7499999495650016  0.9988735311615611  0.2764576180002265   T   T   T
  0.7499998486940029  0.5035864871252090  0.2870303056850504   T   T   T
  0.9894359590513995  0.2522823095225610  0.2768030179638903   T   T   T
  0.9961718402316944  0.7482208378592300  0.2770420584347596   T   T   T
  0.5105640409486005  0.2522823095225610  0.2768030179638903   T   T   T
  0.5038281597683056  0.7482208378592300  0.2770420584347596   T   T   T
 
  0.00000000E+00  0.00000000E+00  0.00000000E+00
  0.00000000E+00  0.00000000E+00  0.00000000E+00
  0.00000000E+00  0.00000000E+00  0.00000000E+00
  0.00000000E+00  0.00000000E+00  0.00000000E+00
  0.00000000E+00  0.00000000E+00  0.00000000E+00
  0.00000000E+00  0.00000000E+00  0.00000000E+00
  0.00000000E+00  0.00000000E+00  0.00000000E+00
  0.00000000E+00  0.00000000E+00  0.00000000E+00
  0.00000000E+00  0.00000000E+00  0.00000000E+00
  0.00000000E+00  0.00000000E+00  0.00000000E+00
  0.00000000E+00  0.00000000E+00  0.00000000E+00
  0.00000000E+00  0.00000000E+00  0.00000000E+00
  0.00000000E+00  0.00000000E+00  0.00000000E+00
  0.00000000E+00  0.00000000E+00  0.00000000E+00
  0.00000000E+00  0.00000000E+00  0.00000000E+00
  0.00000000E+00  0.00000000E+00  0.00000000E+00
  0.00000000E+00  0.00000000E+00  0.00000000E+00
  0.00000000E+00  0.00000000E+00  0.00000000E+00
  0.00000000E+00  0.00000000E+00  0.00000000E+00
  0.00000000E+00  0.00000000E+00  0.00000000E+00
  0.00000000E+00  0.00000000E+00  0.00000000E+00
  0.00000000E+00  0.00000000E+00  0.00000000E+00
  0.00000000E+00  0.00000000E+00  0.00000000E+00
  0.00000000E+00  0.00000000E+00  0.00000000E+00
  0.00000000E+00  0.00000000E+00  0.00000000E+00
  0.00000000E+00  0.00000000E+00  0.00000000E+00
  0.00000000E+00  0.00000000E+00  0.00000000E+00
  0.00000000E+00  0.00000000E+00  0.00000000E+00
  0.00000000E+00  0.00000000E+00  0.00000000E+00
  0.00000000E+00  0.00000000E+00  0.00000000E+00
  0.00000000E+00  0.00000000E+00  0.00000000E+00
  0.00000000E+00  0.00000000E+00  0.00000000E+00
  0.00000000E+00  0.00000000E+00  0.00000000E+00
  0.00000000E+00  0.00000000E+00  0.00000000E+00
  0.00000000E+00  0.00000000E+00  0.00000000E+00
  0.00000000E+00  0.00000000E+00  0.00000000E+00
  0.00000000E+00  0.00000000E+00  0.00000000E+00
  0.00000000E+00  0.00000000E+00  0.00000000E+00
  0.00000000E+00  0.00000000E+00  0.00000000E+00
  0.00000000E+00  0.00000000E+00  0.00000000E+00
  0.00000000E+00  0.00000000E+00  0.00000000E+00
  0.00000000E+00  0.00000000E+00  0.00000000E+00
  0.00000000E+00  0.00000000E+00  0.00000000E+00
  0.00000000E+00  0.00000000E+00  0.00000000E+00
  0.00000000E+00  0.00000000E+00  0.00000000E+00
  0.00000000E+00  0.00000000E+00  0.00000000E+00
  0.00000000E+00  0.00000000E+00  0.00000000E+00
  0.00000000E+00  0.00000000E+00  0.00000000E+00
  0.00000000E+00  0.00000000E+00  0.00000000E+00
  0.00000000E+00  0.00000000E+00  0.00000000E+00
  0.00000000E+00  0.00000000E+00  0.00000000E+00
  0.00000000E+00  0.00000000E+00  0.00000000E+00
  0.00000000E+00  0.00000000E+00  0.00000000E+00
  0.00000000E+00  0.00000000E+00  0.00000000E+00
  0.00000000E+00  0.00000000E+00  0.00000000E+00
  0.00000000E+00  0.00000000E+00  0.00000000E+00
  0.00000000E+00  0.00000000E+00  0.00000000E+00
  0.00000000E+00  0.00000000E+00  0.00000000E+00
  0.00000000E+00  0.00000000E+00  0.00000000E+00
  0.00000000E+00  0.00000000E+00  0.00000000E+00
  0.00000000E+00  0.00000000E+00  0.00000000E+00
  0.00000000E+00  0.00000000E+00  0.00000000E+00
  0.00000000E+00  0.00000000E+00  0.00000000E+00
  0.00000000E+00  0.00000000E+00  0.00000000E+00
  0.00000000E+00  0.00000000E+00  0.00000000E+00
