Cr Li Mg O                              
   1.00000000000000     
     8.4141216974800006    0.0000000000000000    0.0000000000000000
     0.0000000000000000    8.4141216974800006    0.0000000000000000
     0.0000000000000000    0.0000000000000000   23.4141216974799988
   Cr   Li   Mg   O 
     1     1    31    32
Selective dynamics
Direct
  0.7499998486940029  0.4961587472404707  0.3698338678786801   T   T   T
  0.2500000000000000  0.2445576151805265  0.2746376192137044   T   T   T
  0.2500000000000000 -0.0000141500024517  0.0056045778710976   T   T   T
  0.2500000000000000  0.5001118234248040  0.0052593426911496   T   T   T
  0.7500000000000000 -0.0000262238374880  0.0052462883477229   T   T   T
  0.7500000000000000  0.4999008450851700  0.0046294756428482   T   T   T
  0.0001693540935754  0.2497599061475302  0.0054045752591696   T   T   T
  0.0002806268142408  0.7501975720892414  0.0054388969922280   T   T   T
  0.4998306459064246  0.2497599061475302  0.0054045752591696   T   T   T
  0.4997193731857590  0.7501975720892414  0.0054388969922280   T   T   T
  0.0008374945598241  0.0003772883463320  0.0950837150109747   T   T   T
  0.0010727928636690  0.4997199773334640  0.0943212649916206   T   T   T
  0.4991625054401758  0.0003772883463320  0.0950837150109747   T   T   T
  0.4989272071363310  0.4997199773334640  0.0943212649916206   T   T   T
  0.2500000000000000  0.2496817873619399  0.0950319507775401   T   T   T
  0.2500000000000000  0.7505874601225669  0.0951735516054889   T   T   T
  0.7500000000000000  0.2491376820352264  0.0943633168196479   T   T   T
  0.7500000000000000  0.7506025935797936  0.0942031313873190   T   T   T
  0.2500000000000000  0.0032588394151357  0.1866180366360748   T   T   T
  0.2500000000000000  0.4975181031638895  0.1857101122514940   T   T   T
  0.7500000000000000  0.0003451066842296  0.1848102474231674   T   T   T
  0.7500000000000000  0.4993123237976012  0.1808274941404834   T   T   T
  0.0032710894202377  0.2499129030833491  0.1863472198117158   T   T   T
  0.0009560030642602  0.7504088391176703  0.1856294397879446   T   T   T
  0.4967289105797623  0.2499129030833491  0.1863472198117158   T   T   T
  0.4990439969357399  0.7504088391176703  0.1856294397879446   T   T   T
  0.0055407112707368  0.0044297957054452  0.2753468913255866   T   T   T
  0.0154692333862170  0.4955051529450159  0.2739876909743353   T   T   T
  0.4944592887292632  0.0044297957054452  0.2753468913255866   T   T   T
  0.4845307666137830  0.4955051529450159  0.2739876909743353   T   T   T
  0.2500000000000000  0.7519506833199652  0.2745230911056824   T   T   T
  0.7500000000000000  0.2380714791637167  0.2727964078359955   T   T   T
  0.7500000000000000  0.7605838397715184  0.2734030907989168   T   T   T
 -0.0000477843684934  0.9998732049078799  0.0033538307164447   T   T   T
  0.0003116557679259  0.5000975575565895  0.0029716818558665   T   T   T
  0.5000477843684934  0.9998732049078799  0.0033538307164447   T   T   T
  0.4996883442320741  0.5000975575565895  0.0029716818558665   T   T   T
  0.2500000000000000  0.2500284869709760  0.0031735883220753   T   T   T
  0.2500000000000000  0.7500547709960083  0.0032931282544048   T   T   T
  0.7500000000000000  0.2495514355268318  0.0028602111581326   T   T   T
  0.7500000000000000  0.7503258566959965  0.0029801325044234   T   T   T
  0.2500000000000000  0.9996680052506958  0.0949868144914050   T   T   T
  0.2500000000000000  0.5006347239268265  0.0952053102690264   T   T   T
  0.7500000000000000  0.9995891362373094  0.0953597422002320   T   T   T
  0.7500000000000000  0.5002224743981333  0.0939275776034519   T   T   T
  0.9991277835620593  0.2504977209030283  0.0949743106694932   T   T   T
  0.9992813387946521  0.7496041537903011  0.0952430699281478   T   T   T
  0.5008722164379407  0.2504977209030283  0.0949743106694932   T   T   T
  0.5007186612053479  0.7496041537903011  0.0952430699281478   T   T   T
  0.9991190056968958  0.0001696660557007  0.1852192163651155   T   T   T
  0.9959918280211597  0.5001967870691386  0.1856765367700708   T   T   T
  0.5008809943031042  0.0001696660557007  0.1852192163651155   T   T   T
  0.5040081719788403  0.5001967870691386  0.1856765367700708   T   T   T
  0.2500000000000000  0.2508303422091291  0.1833991929009281   T   T   T
  0.2500000000000000  0.7498292562249886  0.1844542175581876   T   T   T
  0.7500000000000000  0.2533650584475980  0.1847260683578595   T   T   T
  0.7500000000000000  0.7462017040770620  0.1853978088844759   T   T   T
  0.2499999495650016  0.9930605160309983  0.2767539845887882   T   T   T
  0.2499999495650016  0.5094488744023414  0.2756474783193046   T   T   T
  0.7499999495650016  0.9984632851006642  0.2761172864824529   T   T   T
  0.7499998486940029  0.5046777030109268  0.2905147695397280   T   T   T
  0.9888716103110256  0.2525317867244690  0.2771500198288335   T   T   T
  0.9963255262302981  0.7482399031727943  0.2772154553115154   T   T   T
  0.5111283896889744  0.2525317867244690  0.2771500198288335   T   T   T
  0.5036744737697019  0.7482399031727943  0.2772154553115154   T   T   T
 
  0.00000000E+00  0.00000000E+00  0.00000000E+00
  0.00000000E+00  0.00000000E+00  0.00000000E+00
  0.00000000E+00  0.00000000E+00  0.00000000E+00
  0.00000000E+00  0.00000000E+00  0.00000000E+00
  0.00000000E+00  0.00000000E+00  0.00000000E+00
  0.00000000E+00  0.00000000E+00  0.00000000E+00
  0.00000000E+00  0.00000000E+00  0.00000000E+00
  0.00000000E+00  0.00000000E+00  0.00000000E+00
  0.00000000E+00  0.00000000E+00  0.00000000E+00
  0.00000000E+00  0.00000000E+00  0.00000000E+00
  0.00000000E+00  0.00000000E+00  0.00000000E+00
  0.00000000E+00  0.00000000E+00  0.00000000E+00
  0.00000000E+00  0.00000000E+00  0.00000000E+00
  0.00000000E+00  0.00000000E+00  0.00000000E+00
  0.00000000E+00  0.00000000E+00  0.00000000E+00
  0.00000000E+00  0.00000000E+00  0.00000000E+00
  0.00000000E+00  0.00000000E+00  0.00000000E+00
  0.00000000E+00  0.00000000E+00  0.00000000E+00
  0.00000000E+00  0.00000000E+00  0.00000000E+00
  0.00000000E+00  0.00000000E+00  0.00000000E+00
  0.00000000E+00  0.00000000E+00  0.00000000E+00
  0.00000000E+00  0.00000000E+00  0.00000000E+00
  0.00000000E+00  0.00000000E+00  0.00000000E+00
  0.00000000E+00  0.00000000E+00  0.00000000E+00
  0.00000000E+00  0.00000000E+00  0.00000000E+00
  0.00000000E+00  0.00000000E+00  0.00000000E+00
  0.00000000E+00  0.00000000E+00  0.00000000E+00
  0.00000000E+00  0.00000000E+00  0.00000000E+00
  0.00000000E+00  0.00000000E+00  0.00000000E+00
  0.00000000E+00  0.00000000E+00  0.00000000E+00
  0.00000000E+00  0.00000000E+00  0.00000000E+00
  0.00000000E+00  0.00000000E+00  0.00000000E+00
  0.00000000E+00  0.00000000E+00  0.00000000E+00
  0.00000000E+00  0.00000000E+00  0.00000000E+00
  0.00000000E+00  0.00000000E+00  0.00000000E+00
  0.00000000E+00  0.00000000E+00  0.00000000E+00
  0.00000000E+00  0.00000000E+00  0.00000000E+00
  0.00000000E+00  0.00000000E+00  0.00000000E+00
  0.00000000E+00  0.00000000E+00  0.00000000E+00
  0.00000000E+00  0.00000000E+00  0.00000000E+00
  0.00000000E+00  0.00000000E+00  0.00000000E+00
  0.00000000E+00  0.00000000E+00  0.00000000E+00
  0.00000000E+00  0.00000000E+00  0.00000000E+00
  0.00000000E+00  0.00000000E+00  0.00000000E+00
  0.00000000E+00  0.00000000E+00  0.00000000E+00
  0.00000000E+00  0.00000000E+00  0.00000000E+00
  0.00000000E+00  0.00000000E+00  0.00000000E+00
  0.00000000E+00  0.00000000E+00  0.00000000E+00
  0.00000000E+00  0.00000000E+00  0.00000000E+00
  0.00000000E+00  0.00000000E+00  0.00000000E+00
  0.00000000E+00  0.00000000E+00  0.00000000E+00
  0.00000000E+00  0.00000000E+00  0.00000000E+00
  0.00000000E+00  0.00000000E+00  0.00000000E+00
  0.00000000E+00  0.00000000E+00  0.00000000E+00
  0.00000000E+00  0.00000000E+00  0.00000000E+00
  0.00000000E+00  0.00000000E+00  0.00000000E+00
  0.00000000E+00  0.00000000E+00  0.00000000E+00
  0.00000000E+00  0.00000000E+00  0.00000000E+00
  0.00000000E+00  0.00000000E+00  0.00000000E+00
  0.00000000E+00  0.00000000E+00  0.00000000E+00
  0.00000000E+00  0.00000000E+00  0.00000000E+00
  0.00000000E+00  0.00000000E+00  0.00000000E+00
  0.00000000E+00  0.00000000E+00  0.00000000E+00
  0.00000000E+00  0.00000000E+00  0.00000000E+00
  0.00000000E+00  0.00000000E+00  0.00000000E+00
