Li Mg O Pd                              
   1.00000000000000     
     8.4141216974800006    0.0000000000000000    0.0000000000000000
     0.0000000000000000    8.4141216974800006    0.0000000000000000
     0.0000000000000000    0.0000000000000000   23.4141216974799988
   Li   Mg   O    Pd
     1    31    32     1
Selective dynamics
Direct
  0.2500000000000000  0.2506544205442482  0.2758265674655073   T   T   T
  0.2500000000000000  0.0012146409708045  0.0055326242942681   T   T   T
  0.2500000000000000  0.5015196239898920  0.0054465743211408   T   T   T
  0.7500000000000000  0.0009729280593493  0.0053283896236748   T   T   T
  0.7500000000000000  0.5012351319096411  0.0051584804496512   T   T   T
  0.0002303100786356  0.2511033474473336  0.0053685095952467   T   T   T
  0.0002686974539516  0.7514028107610440  0.0054996711491674   T   T   T
  0.4997696899213644  0.2511033474473336  0.0053685095952467   T   T   T
  0.4997313025460486  0.7514028107610440  0.0054996711491674   T   T   T
  0.0007588726736595  0.0015279083807836  0.0950543203514145   T   T   T
  0.0006829150062652  0.5012731808605048  0.0947185484474408   T   T   T
  0.4992411273263406  0.0015279083807836  0.0950543203514145   T   T   T
  0.4993170849937349  0.5012731808605048  0.0947185484474408   T   T   T
  0.2500000000000000  0.2512642808991383  0.0949703483943398   T   T   T
  0.2500000000000000  0.7518019026349056  0.0953396959041111   T   T   T
  0.7500000000000000  0.2506588316097448  0.0944752813081329   T   T   T
  0.7500000000000000  0.7509238945289000  0.0945711478862711   T   T   T
  0.2500000000000000  0.0046496668866390  0.1868457382441863   T   T   T
  0.2500000000000000  0.4992247230108930  0.1861335660701496   T   T   T
  0.7500000000000000 -0.0010056868657900  0.1846746702652307   T   T   T
  0.7500000000000000  0.5001089239312914  0.1833572733931749   T   T   T
  0.0034781027338569  0.2516657697797000  0.1856703214906997   T   T   T
  0.0009726247927251  0.7516084852958594  0.1859325171804806   T   T   T
  0.4965218972661430  0.2516657697797000  0.1856703214906997   T   T   T
  0.4990273752072749  0.7516084852958594  0.1859325171804806   T   T   T
  0.0056148974747924  0.0031975773139783  0.2759383919723192   T   T   T
  0.0125986723969090  0.5000814346162094  0.2745105959300329   T   T   T
  0.4943851025252077  0.0031975773139783  0.2759383919723192   T   T   T
  0.4874013276030909  0.5000814346162094  0.2745105959300329   T   T   T
  0.2500000000000000  0.7527663818235462  0.2749418410619794   T   T   T
  0.7500000000000000  0.2347371888805199  0.2704524263723164   T   T   T
  0.7500000000000000  0.7579684371194945  0.2749299391637402   T   T   T
  0.0000072235233668  0.0011546838363340  0.0032969534248935   T   T   T
  0.0000440254399767  0.5014263057239869  0.0032072228416289   T   T   T
  0.4999927764766335  0.0011546838363340  0.0032969534248935   T   T   T
  0.4999559745600234  0.5014263057239869  0.0032072228416289   T   T   T
  0.2500000000000000  0.2513344207354504  0.0031375797436892   T   T   T
  0.2500000000000000  0.7514278200265539  0.0033262325140561   T   T   T
  0.7500000000000000  0.2509802420384323  0.0030616603726047   T   T   T
  0.7500000000000000  0.7512277554374912  0.0031655191128385   T   T   T
  0.2500000000000000  0.0012176711290310  0.0952336751611095   T   T   T
  0.2500000000000000  0.5018245192401748  0.0951979034921133   T   T   T
  0.7500000000000000  0.0004087710836631  0.0952515010906994   T   T   T
  0.7500000000000000  0.5012072092836041  0.0947639642654286   T   T   T
  0.9995449323916684  0.2515032621301598  0.0949912106430642   T   T   T
  0.9995073034508978  0.7513064434581503  0.0954330932558718   T   T   T
  0.5004550676083316  0.2515032621301598  0.0949912106430642   T   T   T
  0.5004926965491022  0.7513064434581503  0.0954330932558718   T   T   T
  0.9993063980096691  0.0023980256992515  0.1855982010349022   T   T   T
  0.9978200879271920  0.5008762174923596  0.1856341060680780   T   T   T
  0.5006936019903309  0.0023980256992515  0.1855982010349022   T   T   T
  0.5021799120728080  0.5008762174923596  0.1856341060680780   T   T   T
  0.2500000000000000  0.2521781920108603  0.1839705408711067   T   T   T
  0.2500000000000000  0.7514570247945561  0.1846769070518376   T   T   T
  0.7500000000000000  0.2518990666386536  0.1842079205472814   T   T   T
  0.7500000000000000  0.7480763773349386  0.1855268089788793   T   T   T
  0.2499999495650016  0.9952454390190320  0.2769091957150401   T   T   T
  0.2499999495650016  0.5099828281115449  0.2762635580168860   T   T   T
  0.7499999495650016  0.9975337809911834  0.2762282075127226   T   T   T
  0.7499998486940029  0.5074071105281937  0.2805648015370975   T   T   T
  0.9890210233748196  0.2538140341774443  0.2784680063272934   T   T   T
  0.9976668115908589  0.7508543322874374  0.2773199916861079   T   T   T
  0.5109789766251804  0.2538140341774443  0.2784680063272934   T   T   T
  0.5023331884091411  0.7508543322874374  0.2773199916861079   T   T   T
  0.7499998486940029  0.4182434580513432  0.3611717552554650   T   T   T
 
  0.00000000E+00  0.00000000E+00  0.00000000E+00
  0.00000000E+00  0.00000000E+00  0.00000000E+00
  0.00000000E+00  0.00000000E+00  0.00000000E+00
  0.00000000E+00  0.00000000E+00  0.00000000E+00
  0.00000000E+00  0.00000000E+00  0.00000000E+00
  0.00000000E+00  0.00000000E+00  0.00000000E+00
  0.00000000E+00  0.00000000E+00  0.00000000E+00
  0.00000000E+00  0.00000000E+00  0.00000000E+00
  0.00000000E+00  0.00000000E+00  0.00000000E+00
  0.00000000E+00  0.00000000E+00  0.00000000E+00
  0.00000000E+00  0.00000000E+00  0.00000000E+00
  0.00000000E+00  0.00000000E+00  0.00000000E+00
  0.00000000E+00  0.00000000E+00  0.00000000E+00
  0.00000000E+00  0.00000000E+00  0.00000000E+00
  0.00000000E+00  0.00000000E+00  0.00000000E+00
  0.00000000E+00  0.00000000E+00  0.00000000E+00
  0.00000000E+00  0.00000000E+00  0.00000000E+00
  0.00000000E+00  0.00000000E+00  0.00000000E+00
  0.00000000E+00  0.00000000E+00  0.00000000E+00
  0.00000000E+00  0.00000000E+00  0.00000000E+00
  0.00000000E+00  0.00000000E+00  0.00000000E+00
  0.00000000E+00  0.00000000E+00  0.00000000E+00
  0.00000000E+00  0.00000000E+00  0.00000000E+00
  0.00000000E+00  0.00000000E+00  0.00000000E+00
  0.00000000E+00  0.00000000E+00  0.00000000E+00
  0.00000000E+00  0.00000000E+00  0.00000000E+00
  0.00000000E+00  0.00000000E+00  0.00000000E+00
  0.00000000E+00  0.00000000E+00  0.00000000E+00
  0.00000000E+00  0.00000000E+00  0.00000000E+00
  0.00000000E+00  0.00000000E+00  0.00000000E+00
  0.00000000E+00  0.00000000E+00  0.00000000E+00
  0.00000000E+00  0.00000000E+00  0.00000000E+00
  0.00000000E+00  0.00000000E+00  0.00000000E+00
  0.00000000E+00  0.00000000E+00  0.00000000E+00
  0.00000000E+00  0.00000000E+00  0.00000000E+00
  0.00000000E+00  0.00000000E+00  0.00000000E+00
  0.00000000E+00  0.00000000E+00  0.00000000E+00
  0.00000000E+00  0.00000000E+00  0.00000000E+00
  0.00000000E+00  0.00000000E+00  0.00000000E+00
  0.00000000E+00  0.00000000E+00  0.00000000E+00
  0.00000000E+00  0.00000000E+00  0.00000000E+00
  0.00000000E+00  0.00000000E+00  0.00000000E+00
  0.00000000E+00  0.00000000E+00  0.00000000E+00
  0.00000000E+00  0.00000000E+00  0.00000000E+00
  0.00000000E+00  0.00000000E+00  0.00000000E+00
  0.00000000E+00  0.00000000E+00  0.00000000E+00
  0.00000000E+00  0.00000000E+00  0.00000000E+00
  0.00000000E+00  0.00000000E+00  0.00000000E+00
  0.00000000E+00  0.00000000E+00  0.00000000E+00
  0.00000000E+00  0.00000000E+00  0.00000000E+00
  0.00000000E+00  0.00000000E+00  0.00000000E+00
  0.00000000E+00  0.00000000E+00  0.00000000E+00
  0.00000000E+00  0.00000000E+00  0.00000000E+00
  0.00000000E+00  0.00000000E+00  0.00000000E+00
  0.00000000E+00  0.00000000E+00  0.00000000E+00
  0.00000000E+00  0.00000000E+00  0.00000000E+00
  0.00000000E+00  0.00000000E+00  0.00000000E+00
  0.00000000E+00  0.00000000E+00  0.00000000E+00
  0.00000000E+00  0.00000000E+00  0.00000000E+00
  0.00000000E+00  0.00000000E+00  0.00000000E+00
  0.00000000E+00  0.00000000E+00  0.00000000E+00
  0.00000000E+00  0.00000000E+00  0.00000000E+00
  0.00000000E+00  0.00000000E+00  0.00000000E+00
  0.00000000E+00  0.00000000E+00  0.00000000E+00
  0.00000000E+00  0.00000000E+00  0.00000000E+00
