Cu Li Mg O                              
   1.00000000000000     
     8.4141216974800006    0.0000000000000000    0.0000000000000000
     0.0000000000000000    8.4141216974800006    0.0000000000000000
     0.0000000000000000    0.0000000000000000   23.4141216974799988
   Cu   Li   Mg   O 
     1     1    31    32
Selective dynamics
Direct
  0.7499998486940029  0.4936114913732092  0.3615446721409207   T   T   T
  0.2500000000000000  0.2456063017914608  0.2746831391048445   T   T   T
  0.2500000000000000 -0.0000459218166800  0.0054963847087485   T   T   T
  0.2500000000000000  0.5001132748777757  0.0051852410573129   T   T   T
  0.7500000000000000 -0.0000045921967023  0.0051745706095267   T   T   T
  0.7500000000000000  0.4999122790598944  0.0047202476308519   T   T   T
  0.0001404227751621  0.2498102055718839  0.0052869181119052   T   T   T
  0.0002712795647351  0.7502030722019396  0.0053146954111373   T   T   T
  0.4998595772248380  0.2498102055718839  0.0052869181119052   T   T   T
  0.4997287204352650  0.7502030722019396  0.0053146954111373   T   T   T
  0.0006920912819000  0.0004264742382740  0.0950271999165679   T   T   T
  0.0009896960851428  0.4997395743572696  0.0943181189521250   T   T   T
  0.4993079087180999  0.0004264742382740  0.0950271999165679   T   T   T
  0.4990103039148572  0.4997395743572696  0.0943181189521250   T   T   T
  0.2500000000000000  0.2497942730336650  0.0950196027448333   T   T   T
  0.2500000000000000  0.7504513980700411  0.0951448856415713   T   T   T
  0.7500000000000000  0.2493291832762568  0.0943775279330993   T   T   T
  0.7500000000000000  0.7505836503571227  0.0941898218119935   T   T   T
  0.2500000000000000  0.0032719825385166  0.1865672477618184   T   T   T
  0.2500000000000000  0.4974560216774592  0.1858073273033576   T   T   T
  0.7500000000000000  0.0004840683274254  0.1849241243717790   T   T   T
  0.7500000000000000  0.4994146270963444  0.1813457754758466   T   T   T
  0.0032616854546116  0.2499786320051000  0.1863270330745613   T   T   T
  0.0009140760711369  0.7503733377023152  0.1856320465710337   T   T   T
  0.4967383145453883  0.2499786320051000  0.1863270330745613   T   T   T
  0.4990859239288631  0.7503733377023152  0.1856320465710337   T   T   T
  0.0058446206184542  0.0044265217778975  0.2753257582597449   T   T   T
  0.0146654044088680  0.4956484041107381  0.2742222239146654   T   T   T
  0.4941553793815459  0.0044265217778975  0.2753257582597449   T   T   T
  0.4853345955911320  0.4956484041107381  0.2742222239146654   T   T   T
  0.2500000000000000  0.7518106950706959  0.2745533052223599   T   T   T
  0.7500000000000000  0.2388738037324515  0.2731247539737982   T   T   T
  0.7500000000000000  0.7603612296047952  0.2735949961364625   T   T   T
  0.9998961648017251  0.9999273182188381  0.0032664817392540   T   T   T
  0.0001428729275160  0.5001127499033846  0.0028949436798693   T   T   T
  0.5001038351982749  0.9999273182188381  0.0032664817392540   T   T   T
  0.4998571270724840  0.5001127499033846  0.0028949436798693   T   T   T
  0.2500000000000000  0.2500752695413583  0.0031507458470023   T   T   T
  0.2500000000000000  0.7499985897255863  0.0032101123829560   T   T   T
  0.7500000000000000  0.2497350816149846  0.0027859807132604   T   T   T
  0.7500000000000000  0.7501963818709210  0.0028872718620340   T   T   T
  0.2500000000000000  0.9996575923185278  0.0950308506089356   T   T   T
  0.2500000000000000  0.5005884100825436  0.0951085457261706   T   T   T
  0.7500000000000000  0.9997158653574783  0.0952738351154861   T   T   T
  0.7500000000000000  0.5002558359799607  0.0940457040201669   T   T   T
  0.9991670735284114  0.2504567085444221  0.0949289560358470   T   T   T
  0.9993780610765953  0.7496997703776257  0.0951874137040709   T   T   T
  0.5008329264715886  0.2504567085444221  0.0949289560358470   T   T   T
  0.5006219389234047  0.7496997703776257  0.0951874137040709   T   T   T
  0.9990797471314546  0.0001567198655172  0.1852289900797275   T   T   T
  0.9965688786280841  0.5001800679988169  0.1856081446034824   T   T   T
  0.5009202528685454  0.0001567198655172  0.1852289900797275   T   T   T
  0.5034311213719159  0.5001800679988169  0.1856081446034824   T   T   T
  0.2500000000000000  0.2508164979745283  0.1834290297647638   T   T   T
  0.2500000000000000  0.7497250594100117  0.1844572152167950   T   T   T
  0.7500000000000000  0.2530511291965478  0.1847564272294479   T   T   T
  0.7500000000000000  0.7467658746235628  0.1853101667625799   T   T   T
  0.2499999495650016  0.9929058752825491  0.2766268534707758   T   T   T
  0.2499999495650016  0.5093923948666942  0.2760989263156735   T   T   T
  0.7499999495650016  0.9986480089498547  0.2765109751127514   T   T   T
  0.7499998486940029  0.5042838188847945  0.2847114759353188   T   T   T
  0.9894954952652990  0.2523284933074920  0.2772962126446749   T   T   T
  0.9964400334466931  0.7484815314961679  0.2774028757657183   T   T   T
  0.5105045047347010  0.2523284933074920  0.2772962126446749   T   T   T
  0.5035599665533069  0.7484815314961679  0.2774028757657183   T   T   T
 
  0.00000000E+00  0.00000000E+00  0.00000000E+00
  0.00000000E+00  0.00000000E+00  0.00000000E+00
  0.00000000E+00  0.00000000E+00  0.00000000E+00
  0.00000000E+00  0.00000000E+00  0.00000000E+00
  0.00000000E+00  0.00000000E+00  0.00000000E+00
  0.00000000E+00  0.00000000E+00  0.00000000E+00
  0.00000000E+00  0.00000000E+00  0.00000000E+00
  0.00000000E+00  0.00000000E+00  0.00000000E+00
  0.00000000E+00  0.00000000E+00  0.00000000E+00
  0.00000000E+00  0.00000000E+00  0.00000000E+00
  0.00000000E+00  0.00000000E+00  0.00000000E+00
  0.00000000E+00  0.00000000E+00  0.00000000E+00
  0.00000000E+00  0.00000000E+00  0.00000000E+00
  0.00000000E+00  0.00000000E+00  0.00000000E+00
  0.00000000E+00  0.00000000E+00  0.00000000E+00
  0.00000000E+00  0.00000000E+00  0.00000000E+00
  0.00000000E+00  0.00000000E+00  0.00000000E+00
  0.00000000E+00  0.00000000E+00  0.00000000E+00
  0.00000000E+00  0.00000000E+00  0.00000000E+00
  0.00000000E+00  0.00000000E+00  0.00000000E+00
  0.00000000E+00  0.00000000E+00  0.00000000E+00
  0.00000000E+00  0.00000000E+00  0.00000000E+00
  0.00000000E+00  0.00000000E+00  0.00000000E+00
  0.00000000E+00  0.00000000E+00  0.00000000E+00
  0.00000000E+00  0.00000000E+00  0.00000000E+00
  0.00000000E+00  0.00000000E+00  0.00000000E+00
  0.00000000E+00  0.00000000E+00  0.00000000E+00
  0.00000000E+00  0.00000000E+00  0.00000000E+00
  0.00000000E+00  0.00000000E+00  0.00000000E+00
  0.00000000E+00  0.00000000E+00  0.00000000E+00
  0.00000000E+00  0.00000000E+00  0.00000000E+00
  0.00000000E+00  0.00000000E+00  0.00000000E+00
  0.00000000E+00  0.00000000E+00  0.00000000E+00
  0.00000000E+00  0.00000000E+00  0.00000000E+00
  0.00000000E+00  0.00000000E+00  0.00000000E+00
  0.00000000E+00  0.00000000E+00  0.00000000E+00
  0.00000000E+00  0.00000000E+00  0.00000000E+00
  0.00000000E+00  0.00000000E+00  0.00000000E+00
  0.00000000E+00  0.00000000E+00  0.00000000E+00
  0.00000000E+00  0.00000000E+00  0.00000000E+00
  0.00000000E+00  0.00000000E+00  0.00000000E+00
  0.00000000E+00  0.00000000E+00  0.00000000E+00
  0.00000000E+00  0.00000000E+00  0.00000000E+00
  0.00000000E+00  0.00000000E+00  0.00000000E+00
  0.00000000E+00  0.00000000E+00  0.00000000E+00
  0.00000000E+00  0.00000000E+00  0.00000000E+00
  0.00000000E+00  0.00000000E+00  0.00000000E+00
  0.00000000E+00  0.00000000E+00  0.00000000E+00
  0.00000000E+00  0.00000000E+00  0.00000000E+00
  0.00000000E+00  0.00000000E+00  0.00000000E+00
  0.00000000E+00  0.00000000E+00  0.00000000E+00
  0.00000000E+00  0.00000000E+00  0.00000000E+00
  0.00000000E+00  0.00000000E+00  0.00000000E+00
  0.00000000E+00  0.00000000E+00  0.00000000E+00
  0.00000000E+00  0.00000000E+00  0.00000000E+00
  0.00000000E+00  0.00000000E+00  0.00000000E+00
  0.00000000E+00  0.00000000E+00  0.00000000E+00
  0.00000000E+00  0.00000000E+00  0.00000000E+00
  0.00000000E+00  0.00000000E+00  0.00000000E+00
  0.00000000E+00  0.00000000E+00  0.00000000E+00
  0.00000000E+00  0.00000000E+00  0.00000000E+00
  0.00000000E+00  0.00000000E+00  0.00000000E+00
  0.00000000E+00  0.00000000E+00  0.00000000E+00
  0.00000000E+00  0.00000000E+00  0.00000000E+00
  0.00000000E+00  0.00000000E+00  0.00000000E+00
