Ag Li Mg O                              
   1.00000000000000     
     8.4141216974800006    0.0000000000000000    0.0000000000000000
     0.0000000000000000    8.4141216974800006    0.0000000000000000
     0.0000000000000000    0.0000000000000000   23.4141216974799988
   Ag   Li   Mg   O 
     1     1    31    32
Selective dynamics
Direct
  0.7499998486940029  0.4958539461262510  0.3720488290639145   T   T   T
  0.2500000000000000  0.2468123420749324  0.2749249428685752   T   T   T
  0.2500000000000000 -0.0000096943229527  0.0056007657812241   T   T   T
  0.2500000000000000  0.5000578269087945  0.0053177100125981   T   T   T
  0.7500000000000000  0.0000233929116175  0.0053052377043145   T   T   T
  0.7500000000000000  0.4999270245486881  0.0048372449612656   T   T   T
  0.0001531722073229  0.2497895395687182  0.0054056072820796   T   T   T
  0.0002405420626136  0.7501801331704006  0.0054226482973246   T   T   T
  0.4998468277926771  0.2497895395687182  0.0054056072820796   T   T   T
  0.4997594579373864  0.7501801331704006  0.0054226482973246   T   T   T
  0.0007865518748227  0.0003536916266767  0.0950865523988541   T   T   T
  0.0007901576916945  0.4997068127465235  0.0944294706441165   T   T   T
  0.4992134481251774  0.0003536916266767  0.0950865523988541   T   T   T
  0.4992098423083056  0.4997068127465235  0.0944294706441165   T   T   T
  0.2500000000000000  0.2496247069373052  0.0950591528446671   T   T   T
  0.2500000000000000  0.7505299759236842  0.0951522894835725   T   T   T
  0.7500000000000000  0.2494751673697083  0.0944819562130733   T   T   T
  0.7500000000000000  0.7504036889825596  0.0942905542521432   T   T   T
  0.2500000000000000  0.0031699258847374  0.1868906260621218   T   T   T
  0.2500000000000000  0.4974289343817027  0.1857891288564762   T   T   T
  0.7500000000000000  0.0005005779693275  0.1849553424529924   T   T   T
  0.7500000000000000  0.4994055431947808  0.1821491474379235   T   T   T
  0.0033623468634143  0.2497507252339791  0.1862914143411838   T   T   T
  0.0010571305795482  0.7504752124598720  0.1855504285224436   T   T   T
  0.4966376531365857  0.2497507252339791  0.1862914143411838   T   T   T
  0.4989428694204517  0.7504752124598720  0.1855504285224436   T   T   T
  0.0053654095488262  0.0043607304425883  0.2755804650431468   T   T   T
  0.0131943616271362  0.4956923554070681  0.2737187016533361   T   T   T
  0.4946345904511738  0.0043607304425883  0.2755804650431468   T   T   T
  0.4868056383728638  0.4956923554070681  0.2737187016533361   T   T   T
  0.2500000000000000  0.7513146759178573  0.2747328608741016   T   T   T
  0.7500000000000000  0.2404850034021799  0.2727057607993828   T   T   T
  0.7500000000000000  0.7588570094913434  0.2730880011783883   T   T   T
  0.9999925384161212  0.9998981035969553  0.0033034245709993   T   T   T
  0.0002524103108965  0.5000842366988677  0.0030310636788967   T   T   T
  0.5000074615838788  0.9998981035969553  0.0033034245709993   T   T   T
  0.4997475896891035  0.5000842366988677  0.0030310636788967   T   T   T
  0.2500000000000000  0.2499619893127902  0.0031660869931533   T   T   T
  0.2500000000000000  0.7500803226052136  0.0032325549037513   T   T   T
  0.7500000000000000  0.2496547945639411  0.0029379995974668   T   T   T
  0.7500000000000000  0.7502983295811183  0.0030415917617456   T   T   T
  0.2500000000000000  0.9996320061209657  0.0950876496761881   T   T   T
  0.2500000000000000  0.5005645575345677  0.0951539443077409   T   T   T
  0.7500000000000000  0.9996797170396883  0.0953350931921088   T   T   T
  0.7500000000000000  0.5002433594247618  0.0943769348272353   T   T   T
  0.9992685206827354  0.2502840715336028  0.0950328467007225   T   T   T
  0.9994603121583729  0.7497714946579143  0.0952712100923284   T   T   T
  0.5007314793172646  0.2502840715336028  0.0950328467007225   T   T   T
  0.5005396878416271  0.7497714946579143  0.0952712100923284   T   T   T
  0.9993409079069407  0.0001199602820760  0.1854060058021337   T   T   T
  0.9971728823723752  0.5001863561958362  0.1854035434077511   T   T   T
  0.5006590920930593  0.0001199602820760  0.1854060058021337   T   T   T
  0.5028271176276248  0.5001863561958362  0.1854035434077511   T   T   T
  0.2500000000000000  0.2506044710455934  0.1835352015950542   T   T   T
  0.2500000000000000  0.7498471985362928  0.1846460576967326   T   T   T
  0.7500000000000000  0.2523829292382767  0.1845988374623439   T   T   T
  0.7500000000000000  0.7474594498213954  0.1850889324285283   T   T   T
  0.2499999495650016  0.9925726561259712  0.2770961338321570   T   T   T
  0.2499999495650016  0.5089274124839219  0.2759115257663565   T   T   T
  0.7499999495650016  0.9986634400258265  0.2763732981836227   T   T   T
  0.7499998486940029  0.5037921492825088  0.2826637156660902   T   T   T
  0.9896202980221483  0.2521194163150276  0.2776447063322430   T   T   T
  0.9965712978278018  0.7484820522957183  0.2777326293939426   T   T   T
  0.5103797019778517  0.2521194163150276  0.2776447063322430   T   T   T
  0.5034287021721982  0.7484820522957183  0.2777326293939426   T   T   T
 
  0.00000000E+00  0.00000000E+00  0.00000000E+00
  0.00000000E+00  0.00000000E+00  0.00000000E+00
  0.00000000E+00  0.00000000E+00  0.00000000E+00
  0.00000000E+00  0.00000000E+00  0.00000000E+00
  0.00000000E+00  0.00000000E+00  0.00000000E+00
  0.00000000E+00  0.00000000E+00  0.00000000E+00
  0.00000000E+00  0.00000000E+00  0.00000000E+00
  0.00000000E+00  0.00000000E+00  0.00000000E+00
  0.00000000E+00  0.00000000E+00  0.00000000E+00
  0.00000000E+00  0.00000000E+00  0.00000000E+00
  0.00000000E+00  0.00000000E+00  0.00000000E+00
  0.00000000E+00  0.00000000E+00  0.00000000E+00
  0.00000000E+00  0.00000000E+00  0.00000000E+00
  0.00000000E+00  0.00000000E+00  0.00000000E+00
  0.00000000E+00  0.00000000E+00  0.00000000E+00
  0.00000000E+00  0.00000000E+00  0.00000000E+00
  0.00000000E+00  0.00000000E+00  0.00000000E+00
  0.00000000E+00  0.00000000E+00  0.00000000E+00
  0.00000000E+00  0.00000000E+00  0.00000000E+00
  0.00000000E+00  0.00000000E+00  0.00000000E+00
  0.00000000E+00  0.00000000E+00  0.00000000E+00
  0.00000000E+00  0.00000000E+00  0.00000000E+00
  0.00000000E+00  0.00000000E+00  0.00000000E+00
  0.00000000E+00  0.00000000E+00  0.00000000E+00
  0.00000000E+00  0.00000000E+00  0.00000000E+00
  0.00000000E+00  0.00000000E+00  0.00000000E+00
  0.00000000E+00  0.00000000E+00  0.00000000E+00
  0.00000000E+00  0.00000000E+00  0.00000000E+00
  0.00000000E+00  0.00000000E+00  0.00000000E+00
  0.00000000E+00  0.00000000E+00  0.00000000E+00
  0.00000000E+00  0.00000000E+00  0.00000000E+00
  0.00000000E+00  0.00000000E+00  0.00000000E+00
  0.00000000E+00  0.00000000E+00  0.00000000E+00
  0.00000000E+00  0.00000000E+00  0.00000000E+00
  0.00000000E+00  0.00000000E+00  0.00000000E+00
  0.00000000E+00  0.00000000E+00  0.00000000E+00
  0.00000000E+00  0.00000000E+00  0.00000000E+00
  0.00000000E+00  0.00000000E+00  0.00000000E+00
  0.00000000E+00  0.00000000E+00  0.00000000E+00
  0.00000000E+00  0.00000000E+00  0.00000000E+00
  0.00000000E+00  0.00000000E+00  0.00000000E+00
  0.00000000E+00  0.00000000E+00  0.00000000E+00
  0.00000000E+00  0.00000000E+00  0.00000000E+00
  0.00000000E+00  0.00000000E+00  0.00000000E+00
  0.00000000E+00  0.00000000E+00  0.00000000E+00
  0.00000000E+00  0.00000000E+00  0.00000000E+00
  0.00000000E+00  0.00000000E+00  0.00000000E+00
  0.00000000E+00  0.00000000E+00  0.00000000E+00
  0.00000000E+00  0.00000000E+00  0.00000000E+00
  0.00000000E+00  0.00000000E+00  0.00000000E+00
  0.00000000E+00  0.00000000E+00  0.00000000E+00
  0.00000000E+00  0.00000000E+00  0.00000000E+00
  0.00000000E+00  0.00000000E+00  0.00000000E+00
  0.00000000E+00  0.00000000E+00  0.00000000E+00
  0.00000000E+00  0.00000000E+00  0.00000000E+00
  0.00000000E+00  0.00000000E+00  0.00000000E+00
  0.00000000E+00  0.00000000E+00  0.00000000E+00
  0.00000000E+00  0.00000000E+00  0.00000000E+00
  0.00000000E+00  0.00000000E+00  0.00000000E+00
  0.00000000E+00  0.00000000E+00  0.00000000E+00
  0.00000000E+00  0.00000000E+00  0.00000000E+00
  0.00000000E+00  0.00000000E+00  0.00000000E+00
  0.00000000E+00  0.00000000E+00  0.00000000E+00
  0.00000000E+00  0.00000000E+00  0.00000000E+00
  0.00000000E+00  0.00000000E+00  0.00000000E+00
