Li Mg Mn O                              
   1.00000000000000     
     8.4141216974800006    0.0000000000000000    0.0000000000000000
     0.0000000000000000    8.4141216974800006    0.0000000000000000
     0.0000000000000000    0.0000000000000000   23.4141216974799988
   Li   Mg   Mn   O 
     1    31     1    32
Selective dynamics
Direct
  0.2500000000000000  0.2462719798848367  0.2750627705925751   T   T   T
  0.2500000000000000 -0.0000602895219296  0.0051631104758237   T   T   T
  0.2500000000000000  0.5001739619855629  0.0049647986190812   T   T   T
  0.7500000000000000 -0.0000150589276045  0.0049630130167852   T   T   T
  0.7500000000000000  0.4999398964205668  0.0045556281602818   T   T   T
  0.0001559512368358  0.2498139999695114  0.0050445362612516   T   T   T
  0.0002924356709839  0.7502764697904661  0.0050745080686695   T   T   T
  0.4998440487631642  0.2498139999695114  0.0050445362612516   T   T   T
  0.4997075643290160  0.7502764697904661  0.0050745080686695   T   T   T
  0.0008137993542307  0.0004981475701948  0.0948090382243671   T   T   T
  0.0009976434898361  0.4997621168885378  0.0940183515445018   T   T   T
  0.4991862006457693  0.0004981475701948  0.0948090382243671   T   T   T
  0.4990023565101639  0.4997621168885378  0.0940183515445018   T   T   T
  0.2500000000000000  0.2496918932413306  0.0947834040673695   T   T   T
  0.2500000000000000  0.7506327273534108  0.0949320172963475   T   T   T
  0.7500000000000000  0.2493039465479351  0.0940849969617426   T   T   T
  0.7500000000000000  0.7506657331597844  0.0939048118010786   T   T   T
  0.2500000000000000  0.0034284760862295  0.1864026977892015   T   T   T
  0.2500000000000000  0.4975128067040813  0.1853948186422823   T   T   T
  0.7500000000000000  0.0003279468608182  0.1846311372380211   T   T   T
  0.7500000000000000  0.4995350298649527  0.1809618120655733   T   T   T
  0.0033946304853587  0.2499219272378966  0.1860421215809177   T   T   T
  0.0010265034452311  0.7505178903087075  0.1853598683092017   T   T   T
  0.4966053695146414  0.2499219272378966  0.1860421215809177   T   T   T
  0.4989734965547689  0.7505178903087075  0.1853598683092017   T   T   T
  0.0059123625991759  0.0044158551795517  0.2753682808858284   T   T   T
  0.0150065778661649  0.4958759659151436  0.2736024536592092   T   T   T
  0.4940876374008241  0.0044158551795517  0.2753682808858284   T   T   T
  0.4849934221338351  0.4958759659151436  0.2736024536592092   T   T   T
  0.2500000000000000  0.7516874751169813  0.2744948590970754   T   T   T
  0.7500000000000000  0.2381378232744997  0.2723909898515441   T   T   T
  0.7500000000000000  0.7602533412481924  0.2730860944305242   T   T   T
  0.7499998486940029  0.4917196440370771  0.3715795907919672   T   T   T
 -0.0001843655006847  0.9999634774006856  0.0031055305227261   T   T   T
  0.0000884469548706  0.5001355007184238  0.0027038029942928   T   T   T
  0.5001843655006847  0.9999634774006856  0.0031055305227261   T   T   T
  0.4999115530451294  0.5001355007184238  0.0027038029942928   T   T   T
  0.2500000000000000  0.2501531116912881  0.0029682605896188   T   T   T
  0.2500000000000000  0.7499757954857534  0.0030434934217020   T   T   T
  0.7500000000000000  0.2498272853364852  0.0025879263620795   T   T   T
  0.7500000000000000  0.7501300929330749  0.0026822411740124   T   T   T
  0.2500000000000000  0.9997029640972240  0.0948331734172488   T   T   T
  0.2500000000000000  0.5006475528600238  0.0948994456812509   T   T   T
  0.7500000000000000  0.9997523006606919  0.0950878381728104   T   T   T
  0.7500000000000000  0.5002897986938918  0.0937542161683908   T   T   T
  0.9991998700318441  0.2504486027074895  0.0947225678560700   T   T   T
 -0.0005939343066051  0.7497877458185562  0.0949978327332439   T   T   T
  0.5008001299681559  0.2504486027074895  0.0947225678560700   T   T   T
  0.5005939343066050  0.7497877458185562  0.0949978327332439   T   T   T
  0.9991066999805893  0.0002849270023013  0.1851058700324246   T   T   T
  0.9962168079772979  0.5001256697925235  0.1853186899022711   T   T   T
  0.5008933000194107  0.0002849270023013  0.1851058700324246   T   T   T
  0.5037831920227021  0.5001256697925235  0.1853186899022711   T   T   T
  0.2500000000000000  0.2509182520029855  0.1832693721625970   T   T   T
  0.2500000000000000  0.7498712021160167  0.1842372425287158   T   T   T
  0.7500000000000000  0.2533884342971672  0.1844866525279301   T   T   T
  0.7500000000000000  0.7464517088787704  0.1850346703583916   T   T   T
  0.2499999495650016  0.9929393884349311  0.2763295522081413   T   T   T
  0.2499999495650016  0.5093688301690096  0.2755708983520189   T   T   T
  0.7499999495650016  0.9984139181874278  0.2760154462484110   T   T   T
  0.7499998486940029  0.5042288910601340  0.2899951213579027   T   T   T
  0.9885526983068917  0.2533044496364756  0.2772198056325952   T   T   T
  0.9958257160534512  0.7476011313972345  0.2771225732991872   T   T   T
  0.5114473016931083  0.2533044496364756  0.2772198056325952   T   T   T
  0.5041742839465488  0.7476011313972345  0.2771225732991872   T   T   T
 
  0.00000000E+00  0.00000000E+00  0.00000000E+00
  0.00000000E+00  0.00000000E+00  0.00000000E+00
  0.00000000E+00  0.00000000E+00  0.00000000E+00
  0.00000000E+00  0.00000000E+00  0.00000000E+00
  0.00000000E+00  0.00000000E+00  0.00000000E+00
  0.00000000E+00  0.00000000E+00  0.00000000E+00
  0.00000000E+00  0.00000000E+00  0.00000000E+00
  0.00000000E+00  0.00000000E+00  0.00000000E+00
  0.00000000E+00  0.00000000E+00  0.00000000E+00
  0.00000000E+00  0.00000000E+00  0.00000000E+00
  0.00000000E+00  0.00000000E+00  0.00000000E+00
  0.00000000E+00  0.00000000E+00  0.00000000E+00
  0.00000000E+00  0.00000000E+00  0.00000000E+00
  0.00000000E+00  0.00000000E+00  0.00000000E+00
  0.00000000E+00  0.00000000E+00  0.00000000E+00
  0.00000000E+00  0.00000000E+00  0.00000000E+00
  0.00000000E+00  0.00000000E+00  0.00000000E+00
  0.00000000E+00  0.00000000E+00  0.00000000E+00
  0.00000000E+00  0.00000000E+00  0.00000000E+00
  0.00000000E+00  0.00000000E+00  0.00000000E+00
  0.00000000E+00  0.00000000E+00  0.00000000E+00
  0.00000000E+00  0.00000000E+00  0.00000000E+00
  0.00000000E+00  0.00000000E+00  0.00000000E+00
  0.00000000E+00  0.00000000E+00  0.00000000E+00
  0.00000000E+00  0.00000000E+00  0.00000000E+00
  0.00000000E+00  0.00000000E+00  0.00000000E+00
  0.00000000E+00  0.00000000E+00  0.00000000E+00
  0.00000000E+00  0.00000000E+00  0.00000000E+00
  0.00000000E+00  0.00000000E+00  0.00000000E+00
  0.00000000E+00  0.00000000E+00  0.00000000E+00
  0.00000000E+00  0.00000000E+00  0.00000000E+00
  0.00000000E+00  0.00000000E+00  0.00000000E+00
  0.00000000E+00  0.00000000E+00  0.00000000E+00
  0.00000000E+00  0.00000000E+00  0.00000000E+00
  0.00000000E+00  0.00000000E+00  0.00000000E+00
  0.00000000E+00  0.00000000E+00  0.00000000E+00
  0.00000000E+00  0.00000000E+00  0.00000000E+00
  0.00000000E+00  0.00000000E+00  0.00000000E+00
  0.00000000E+00  0.00000000E+00  0.00000000E+00
  0.00000000E+00  0.00000000E+00  0.00000000E+00
  0.00000000E+00  0.00000000E+00  0.00000000E+00
  0.00000000E+00  0.00000000E+00  0.00000000E+00
  0.00000000E+00  0.00000000E+00  0.00000000E+00
  0.00000000E+00  0.00000000E+00  0.00000000E+00
  0.00000000E+00  0.00000000E+00  0.00000000E+00
  0.00000000E+00  0.00000000E+00  0.00000000E+00
  0.00000000E+00  0.00000000E+00  0.00000000E+00
  0.00000000E+00  0.00000000E+00  0.00000000E+00
  0.00000000E+00  0.00000000E+00  0.00000000E+00
  0.00000000E+00  0.00000000E+00  0.00000000E+00
  0.00000000E+00  0.00000000E+00  0.00000000E+00
  0.00000000E+00  0.00000000E+00  0.00000000E+00
  0.00000000E+00  0.00000000E+00  0.00000000E+00
  0.00000000E+00  0.00000000E+00  0.00000000E+00
  0.00000000E+00  0.00000000E+00  0.00000000E+00
  0.00000000E+00  0.00000000E+00  0.00000000E+00
  0.00000000E+00  0.00000000E+00  0.00000000E+00
  0.00000000E+00  0.00000000E+00  0.00000000E+00
  0.00000000E+00  0.00000000E+00  0.00000000E+00
  0.00000000E+00  0.00000000E+00  0.00000000E+00
  0.00000000E+00  0.00000000E+00  0.00000000E+00
  0.00000000E+00  0.00000000E+00  0.00000000E+00
  0.00000000E+00  0.00000000E+00  0.00000000E+00
  0.00000000E+00  0.00000000E+00  0.00000000E+00
  0.00000000E+00  0.00000000E+00  0.00000000E+00
