Mo Li Mg O                              
   1.00000000000000     
     8.4141216974800006    0.0000000000000000    0.0000000000000000
     0.0000000000000000    8.4141216974800006    0.0000000000000000
     0.0000000000000000    0.0000000000000000   23.4141216974799988
   Mo   Li   Mg   O 
     1     1    31    32
Selective dynamics
Direct
  0.7499998486940029  0.4960525359447120  0.3746232084306065   T   T   T
  0.2500000000000000  0.2443630679848292  0.2746779679507967   T   T   T
  0.2500000000000000 -0.0000679107342137  0.0054379931143339   T   T   T
  0.2500000000000000  0.5001801606252971  0.0051242553829642   T   T   T
  0.7500000000000000 -0.0000428564491871  0.0051146068110728   T   T   T
  0.7500000000000000  0.4999110085107148  0.0045625559217790   T   T   T
  0.0000906644660247  0.2498253081644878  0.0052530573362121   T   T   T
  0.0002493841188004  0.7501892583148432  0.0052869484029712   T   T   T
  0.4999093355339754  0.2498253081644878  0.0052530573362121   T   T   T
  0.4997506158811997  0.7501892583148432  0.0052869484029712   T   T   T
  0.0007617471591639  0.0004487031522280  0.0950110330317729   T   T   T
  0.0011756855796262  0.4997273271112035  0.0941703996935744   T   T   T
  0.4992382528408360  0.0004487031522280  0.0950110330317729   T   T   T
  0.4988243144203738  0.4997273271112035  0.0941703996935744   T   T   T
  0.2500000000000000  0.2497490580144079  0.0949866481381064   T   T   T
  0.2500000000000000  0.7505171386878637  0.0951399943888123   T   T   T
  0.7500000000000000  0.2490718656766281  0.0942099847394775   T   T   T
  0.7500000000000000  0.7507286269492613  0.0940557499171341   T   T   T
  0.2500000000000000  0.0032979547425958  0.1864768797575709   T   T   T
  0.2500000000000000  0.4975071963139452  0.1855691629473726   T   T   T
  0.7500000000000000  0.0003590235912198  0.1847136069457641   T   T   T
  0.7500000000000000  0.4993943875391103  0.1804281995596202   T   T   T
  0.0031841622722986  0.2500286054458427  0.1863061632451115   T   T   T
  0.0008382100176091  0.7502927874395720  0.1856216372038625   T   T   T
  0.4968158377277014  0.2500286054458427  0.1863061632451115   T   T   T
  0.4991617899823908  0.7502927874395720  0.1856216372038625   T   T   T
  0.0058096702747817  0.0044354565292207  0.2753260844709685   T   T   T
  0.0162682044394866  0.4954265647900027  0.2741395851855591   T   T   T
  0.4941903297252184  0.0044354565292207  0.2753260844709685   T   T   T
  0.4837317955605133  0.4954265647900027  0.2741395851855591   T   T   T
  0.2500000000000000  0.7518833944193587  0.2745459714938143   T   T   T
  0.7500000000000000  0.2371444218709611  0.2729462227851597   T   T   T
  0.7500000000000000  0.7615203605902601  0.2735007707963031   T   T   T
 -0.0001056819453032  0.9999384536050241  0.0032806858352599   T   T   T
  0.0003210477444620  0.5001073059130809  0.0028386526578473   T   T   T
  0.5001056819453032  0.9999384536050241  0.0032806858352599   T   T   T
  0.4996789522555380  0.5001073059130809  0.0028386526578473   T   T   T
  0.2500000000000000  0.2501042715521445  0.0031325381439522   T   T   T
  0.2500000000000000  0.7500005464088502  0.0032318109767512   T   T   T
  0.7500000000000000  0.2495638911637694  0.0027213989266905   T   T   T
  0.7500000000000000  0.7503241613750339  0.0028298893359356   T   T   T
  0.2500000000000000  0.9996435770782844  0.0949515759904885   T   T   T
  0.2500000000000000  0.5006423726467856  0.0951272351289323   T   T   T
  0.7500000000000000  0.9996599940944253  0.0952812051904113   T   T   T
  0.7500000000000000  0.5002321406519400  0.0937307308028895   T   T   T
  0.9991160263932130  0.2505323339054231  0.0948775270791525   T   T   T
  0.9993175342170928  0.7496358356225544  0.0951558541872295   T   T   T
  0.5008839736067870  0.2505323339054231  0.0948775270791525   T   T   T
  0.5006824657829072  0.7496358356225544  0.0951558541872295   T   T   T
  0.9990162173191638  0.0001533036878827  0.1851438852729506   T   T   T
  0.9957610264548981  0.5001254752038083  0.1856282586802831   T   T   T
  0.5009837826808362  0.0001533036878827  0.1851438852729506   T   T   T
  0.5042389735451019  0.5001254752038083  0.1856282586802831   T   T   T
  0.2500000000000000  0.2508161652003946  0.1833406716619950   T   T   T
  0.2500000000000000  0.7497555454279717  0.1843356670024853   T   T   T
  0.7500000000000000  0.2536908989873132  0.1846635430894027   T   T   T
  0.7500000000000000  0.7459061378258600  0.1853284695933588   T   T   T
  0.2499999495650016  0.9930514341427177  0.2764720670300895   T   T   T
  0.2499999495650016  0.5096629702899300  0.2756384082567351   T   T   T
  0.7499999495650016  0.9985808768595194  0.2760897359906659   T   T   T
  0.7499998486940029  0.5044837325908117  0.2912199574677381   T   T   T
  0.9888023252954160  0.2527446169791825  0.2769068170134101   T   T   T
  0.9960723816355472  0.7479118963033853  0.2770473413992373   T   T   T
  0.5111976747045840  0.2527446169791825  0.2769068170134101   T   T   T
  0.5039276183644528  0.7479118963033853  0.2770473413992373   T   T   T
 
  0.00000000E+00  0.00000000E+00  0.00000000E+00
  0.00000000E+00  0.00000000E+00  0.00000000E+00
  0.00000000E+00  0.00000000E+00  0.00000000E+00
  0.00000000E+00  0.00000000E+00  0.00000000E+00
  0.00000000E+00  0.00000000E+00  0.00000000E+00
  0.00000000E+00  0.00000000E+00  0.00000000E+00
  0.00000000E+00  0.00000000E+00  0.00000000E+00
  0.00000000E+00  0.00000000E+00  0.00000000E+00
  0.00000000E+00  0.00000000E+00  0.00000000E+00
  0.00000000E+00  0.00000000E+00  0.00000000E+00
  0.00000000E+00  0.00000000E+00  0.00000000E+00
  0.00000000E+00  0.00000000E+00  0.00000000E+00
  0.00000000E+00  0.00000000E+00  0.00000000E+00
  0.00000000E+00  0.00000000E+00  0.00000000E+00
  0.00000000E+00  0.00000000E+00  0.00000000E+00
  0.00000000E+00  0.00000000E+00  0.00000000E+00
  0.00000000E+00  0.00000000E+00  0.00000000E+00
  0.00000000E+00  0.00000000E+00  0.00000000E+00
  0.00000000E+00  0.00000000E+00  0.00000000E+00
  0.00000000E+00  0.00000000E+00  0.00000000E+00
  0.00000000E+00  0.00000000E+00  0.00000000E+00
  0.00000000E+00  0.00000000E+00  0.00000000E+00
  0.00000000E+00  0.00000000E+00  0.00000000E+00
  0.00000000E+00  0.00000000E+00  0.00000000E+00
  0.00000000E+00  0.00000000E+00  0.00000000E+00
  0.00000000E+00  0.00000000E+00  0.00000000E+00
  0.00000000E+00  0.00000000E+00  0.00000000E+00
  0.00000000E+00  0.00000000E+00  0.00000000E+00
  0.00000000E+00  0.00000000E+00  0.00000000E+00
  0.00000000E+00  0.00000000E+00  0.00000000E+00
  0.00000000E+00  0.00000000E+00  0.00000000E+00
  0.00000000E+00  0.00000000E+00  0.00000000E+00
  0.00000000E+00  0.00000000E+00  0.00000000E+00
  0.00000000E+00  0.00000000E+00  0.00000000E+00
  0.00000000E+00  0.00000000E+00  0.00000000E+00
  0.00000000E+00  0.00000000E+00  0.00000000E+00
  0.00000000E+00  0.00000000E+00  0.00000000E+00
  0.00000000E+00  0.00000000E+00  0.00000000E+00
  0.00000000E+00  0.00000000E+00  0.00000000E+00
  0.00000000E+00  0.00000000E+00  0.00000000E+00
  0.00000000E+00  0.00000000E+00  0.00000000E+00
  0.00000000E+00  0.00000000E+00  0.00000000E+00
  0.00000000E+00  0.00000000E+00  0.00000000E+00
  0.00000000E+00  0.00000000E+00  0.00000000E+00
  0.00000000E+00  0.00000000E+00  0.00000000E+00
  0.00000000E+00  0.00000000E+00  0.00000000E+00
  0.00000000E+00  0.00000000E+00  0.00000000E+00
  0.00000000E+00  0.00000000E+00  0.00000000E+00
  0.00000000E+00  0.00000000E+00  0.00000000E+00
  0.00000000E+00  0.00000000E+00  0.00000000E+00
  0.00000000E+00  0.00000000E+00  0.00000000E+00
  0.00000000E+00  0.00000000E+00  0.00000000E+00
  0.00000000E+00  0.00000000E+00  0.00000000E+00
  0.00000000E+00  0.00000000E+00  0.00000000E+00
  0.00000000E+00  0.00000000E+00  0.00000000E+00
  0.00000000E+00  0.00000000E+00  0.00000000E+00
  0.00000000E+00  0.00000000E+00  0.00000000E+00
  0.00000000E+00  0.00000000E+00  0.00000000E+00
  0.00000000E+00  0.00000000E+00  0.00000000E+00
  0.00000000E+00  0.00000000E+00  0.00000000E+00
  0.00000000E+00  0.00000000E+00  0.00000000E+00
  0.00000000E+00  0.00000000E+00  0.00000000E+00
  0.00000000E+00  0.00000000E+00  0.00000000E+00
  0.00000000E+00  0.00000000E+00  0.00000000E+00
  0.00000000E+00  0.00000000E+00  0.00000000E+00
