Li Mg Ni O                              
   1.00000000000000     
     8.4141216974800006    0.0000000000000000    0.0000000000000000
     0.0000000000000000    8.4141216974800006    0.0000000000000000
     0.0000000000000000    0.0000000000000000   23.4141216974799988
   Li   Mg   Ni   O 
     1    31     1    32
Selective dynamics
Direct
  0.2500000000000000  0.2460135708004341  0.2743294639949530   T   T   T
  0.2500000000000000 -0.0000032663648270  0.0056299448188031   T   T   T
  0.2500000000000000  0.5000609329703338  0.0052828710429957   T   T   T
  0.7500000000000000 -0.0000430363976762  0.0052938681019849   T   T   T
  0.7500000000000000  0.4999177921308585  0.0047788737357856   T   T   T
  0.0002395803066835  0.2496784320178017  0.0054103413382411   T   T   T
  0.0003094164792737  0.7502580864757286  0.0054548778620319   T   T   T
  0.4997604196933165  0.2496784320178017  0.0054103413382411   T   T   T
  0.4996905835207264  0.7502580864757286  0.0054548778620319   T   T   T
  0.0007119527242148  0.0003472515296806  0.0951029009519409   T   T   T
  0.0008222208174887  0.4997013659219143  0.0944543808898141   T   T   T
  0.4992880472757851  0.0003472515296806  0.0951029009519409   T   T   T
  0.4991777791825114  0.4997013659219143  0.0944543808898141   T   T   T
  0.2500000000000000  0.2497689408773288  0.0950333385468294   T   T   T
  0.2500000000000000  0.7504793681638945  0.0951441168840510   T   T   T
  0.7500000000000000  0.2492894864840253  0.0945222877729941   T   T   T
  0.7500000000000000  0.7504188954447498  0.0943555401834503   T   T   T
  0.2500000000000000  0.0031977918004255  0.1863505056926991   T   T   T
  0.2500000000000000  0.4975716800485152  0.1857633943268727   T   T   T
  0.7500000000000000  0.0004764155923943  0.1848639950294947   T   T   T
  0.7500000000000000  0.4992116380948096  0.1814468675581854   T   T   T
  0.0030719706177135  0.2501168401016768  0.1863483748220043   T   T   T
  0.0006866512855600  0.7501430086054377  0.1856851440584767   T   T   T
  0.4969280293822866  0.2501168401016768  0.1863483748220043   T   T   T
  0.4993133487144400  0.7501430086054377  0.1856851440584767   T   T   T
  0.0054417066165958  0.0043711286046516  0.2752445498740109   T   T   T
  0.0160163196241620  0.4952635078882457  0.2746913013679102   T   T   T
  0.4945582933834043  0.0043711286046516  0.2752445498740109   T   T   T
  0.4839836803758379  0.4952635078882457  0.2746913013679102   T   T   T
  0.2500000000000000  0.7516216803635117  0.2743700346468375   T   T   T
  0.7500000000000000  0.2376560010932699  0.2735238432705357   T   T   T
  0.7500000000000000  0.7617656966908439  0.2740196509533578   T   T   T
  0.7499998486940029  0.4968305449894513  0.3589586553814704   T   T   T
 -0.0000670908922537  0.9998393674083819  0.0033540564407095   T   T   T
  0.0002249171892184  0.5001045948817178  0.0030053902968550   T   T   T
  0.5000670908922538  0.9998393674083819  0.0033540564407095   T   T   T
  0.4997750828107816  0.5001045948817178  0.0030053902968550   T   T   T
  0.2500000000000000  0.2500145019459087  0.0031735684730279   T   T   T
  0.2500000000000000  0.7500436545355776  0.0033024357166064   T   T   T
  0.7500000000000000  0.2495942053179313  0.0029071615906594   T   T   T
  0.7500000000000000  0.7502756362861442  0.0030319170112314   T   T   T
  0.2500000000000000  0.9997097617731997  0.0950532449896796   T   T   T
  0.2500000000000000  0.5005855587443958  0.0951358060394074   T   T   T
  0.7500000000000000  0.9995662798223126  0.0953228570274680   T   T   T
  0.7500000000000000  0.5001871685638195  0.0941757929164188   T   T   T
  0.9991725179676367  0.2504163610249997  0.0949944857928722   T   T   T
  0.9993015612095951  0.7496291103473534  0.0952546766505366   T   T   T
  0.5008274820323633  0.2504163610249997  0.0949944857928722   T   T   T
  0.5006984387904049  0.7496291103473534  0.0952546766505366   T   T   T
  0.9992533988062210  0.0001420576624468  0.1852247559170282   T   T   T
  0.9966139988145400  0.5002246353084088  0.1857659967061638   T   T   T
  0.5007466011937790  0.0001420576624468  0.1852247559170282   T   T   T
  0.5033860011854600  0.5002246353084088  0.1857659967061638   T   T   T
  0.2500000000000000  0.2507408304611476  0.1834232317009643   T   T   T
  0.2500000000000000  0.7499124172421350  0.1844773199037744   T   T   T
  0.7500000000000000  0.2527143229896117  0.1848796265111040   T   T   T
  0.7500000000000000  0.7468664627148315  0.1855175262235063   T   T   T
  0.2499999495650016  0.9929826135922598  0.2767461481355966   T   T   T
  0.2499999495650016  0.5093429240396236  0.2758965321664233   T   T   T
  0.7499999495650016  0.9989438206543980  0.2764309680701957   T   T   T
  0.7499998486940029  0.5030201068446618  0.2844739917583737   T   T   T
  0.9897756369801973  0.2521697770047445  0.2768438561429081   T   T   T
  0.9963018531239821  0.7485945835161606  0.2770491031216338   T   T   T
  0.5102243630198027  0.2521697770047445  0.2768438561429081   T   T   T
  0.5036981468760179  0.7485945835161606  0.2770491031216338   T   T   T
 
  0.00000000E+00  0.00000000E+00  0.00000000E+00
  0.00000000E+00  0.00000000E+00  0.00000000E+00
  0.00000000E+00  0.00000000E+00  0.00000000E+00
  0.00000000E+00  0.00000000E+00  0.00000000E+00
  0.00000000E+00  0.00000000E+00  0.00000000E+00
  0.00000000E+00  0.00000000E+00  0.00000000E+00
  0.00000000E+00  0.00000000E+00  0.00000000E+00
  0.00000000E+00  0.00000000E+00  0.00000000E+00
  0.00000000E+00  0.00000000E+00  0.00000000E+00
  0.00000000E+00  0.00000000E+00  0.00000000E+00
  0.00000000E+00  0.00000000E+00  0.00000000E+00
  0.00000000E+00  0.00000000E+00  0.00000000E+00
  0.00000000E+00  0.00000000E+00  0.00000000E+00
  0.00000000E+00  0.00000000E+00  0.00000000E+00
  0.00000000E+00  0.00000000E+00  0.00000000E+00
  0.00000000E+00  0.00000000E+00  0.00000000E+00
  0.00000000E+00  0.00000000E+00  0.00000000E+00
  0.00000000E+00  0.00000000E+00  0.00000000E+00
  0.00000000E+00  0.00000000E+00  0.00000000E+00
  0.00000000E+00  0.00000000E+00  0.00000000E+00
  0.00000000E+00  0.00000000E+00  0.00000000E+00
  0.00000000E+00  0.00000000E+00  0.00000000E+00
  0.00000000E+00  0.00000000E+00  0.00000000E+00
  0.00000000E+00  0.00000000E+00  0.00000000E+00
  0.00000000E+00  0.00000000E+00  0.00000000E+00
  0.00000000E+00  0.00000000E+00  0.00000000E+00
  0.00000000E+00  0.00000000E+00  0.00000000E+00
  0.00000000E+00  0.00000000E+00  0.00000000E+00
  0.00000000E+00  0.00000000E+00  0.00000000E+00
  0.00000000E+00  0.00000000E+00  0.00000000E+00
  0.00000000E+00  0.00000000E+00  0.00000000E+00
  0.00000000E+00  0.00000000E+00  0.00000000E+00
  0.00000000E+00  0.00000000E+00  0.00000000E+00
  0.00000000E+00  0.00000000E+00  0.00000000E+00
  0.00000000E+00  0.00000000E+00  0.00000000E+00
  0.00000000E+00  0.00000000E+00  0.00000000E+00
  0.00000000E+00  0.00000000E+00  0.00000000E+00
  0.00000000E+00  0.00000000E+00  0.00000000E+00
  0.00000000E+00  0.00000000E+00  0.00000000E+00
  0.00000000E+00  0.00000000E+00  0.00000000E+00
  0.00000000E+00  0.00000000E+00  0.00000000E+00
  0.00000000E+00  0.00000000E+00  0.00000000E+00
  0.00000000E+00  0.00000000E+00  0.00000000E+00
  0.00000000E+00  0.00000000E+00  0.00000000E+00
  0.00000000E+00  0.00000000E+00  0.00000000E+00
  0.00000000E+00  0.00000000E+00  0.00000000E+00
  0.00000000E+00  0.00000000E+00  0.00000000E+00
  0.00000000E+00  0.00000000E+00  0.00000000E+00
  0.00000000E+00  0.00000000E+00  0.00000000E+00
  0.00000000E+00  0.00000000E+00  0.00000000E+00
  0.00000000E+00  0.00000000E+00  0.00000000E+00
  0.00000000E+00  0.00000000E+00  0.00000000E+00
  0.00000000E+00  0.00000000E+00  0.00000000E+00
  0.00000000E+00  0.00000000E+00  0.00000000E+00
  0.00000000E+00  0.00000000E+00  0.00000000E+00
  0.00000000E+00  0.00000000E+00  0.00000000E+00
  0.00000000E+00  0.00000000E+00  0.00000000E+00
  0.00000000E+00  0.00000000E+00  0.00000000E+00
  0.00000000E+00  0.00000000E+00  0.00000000E+00
  0.00000000E+00  0.00000000E+00  0.00000000E+00
  0.00000000E+00  0.00000000E+00  0.00000000E+00
  0.00000000E+00  0.00000000E+00  0.00000000E+00
  0.00000000E+00  0.00000000E+00  0.00000000E+00
  0.00000000E+00  0.00000000E+00  0.00000000E+00
  0.00000000E+00  0.00000000E+00  0.00000000E+00
