Li Mg O                                 
   1.00000000000000     
     8.4141216974800006    0.0000000000000000    0.0000000000000000
     0.0000000000000000    8.4141216974800006    0.0000000000000000
     0.0000000000000000    0.0000000000000000   23.4141216974799988
   Li   Mg   O 
     1    31    32
Selective dynamics
Direct
  0.2533729616648905  0.2484248837158564  0.2743735852436953   T   T   T
  0.2500220380813577  0.9997571456077764  0.0054535323777511   T   T   T
  0.2500228188002435  0.5000535465228312  0.0054683192926525   T   T   T
  0.7500377443644514 -0.0000724463461671  0.0056123131565991   T   T   T
  0.7500354810434965  0.4998854282651484  0.0056190223665222   T   T   T
 -0.0001662513504703  0.2499148189746801  0.0054731846093719   T   T   T
 -0.0000458864086010  0.7499028471453816  0.0056037640323508   T   T   T
  0.5002497262006813  0.2499184329778955  0.0054746651335836   T   T   T
  0.5000716596460933  0.7499018760841758  0.0055981888116136   T   T   T
  0.0003018920555883  0.0000804743914376  0.0951498609508249   T   T   T
  0.0003266388286031  0.4996421024116387  0.0951679007850055   T   T   T
  0.4998693146454800  0.0000682137525764  0.0951339124154999   T   T   T
  0.4998481811046308  0.4996567698075132  0.0951515921657128   T   T   T
  0.2500930102029467  0.2498731391912226  0.0949128948397910   T   T   T
  0.2500648705483537  0.7498313341635849  0.0951615571666853   T   T   T
  0.7501351155472499  0.2498668232836783  0.0952098459181236   T   T   T
  0.7500909835877108  0.7498658275771647  0.0952087965076318   T   T   T
  0.2501782420791207  0.0030722916348844  0.1862001101003651   T   T   T
  0.2501785261273150  0.4964669908877646  0.1862655405419542   T   T   T
  0.7502107126367934  0.0001311156015029  0.1857599803940682   T   T   T
  0.7502046637867446  0.4994632086238724  0.1857837325541929   T   T   T
  0.0034996777103567  0.2498133668380491  0.1862780525656617   T   T   T
  0.0005362353067000  0.7497883137749750  0.1857574699127025   T   T   T
  0.4970623401363841  0.2498096480671412  0.1861904136323570   T   T   T
  0.4998271234550211  0.7497833342271518  0.1857354487700959   T   T   T
  0.0040160670698135  0.0034962207162318  0.2753552620364462   T   T   T
  0.0040575372216329  0.4959785428406150  0.2753871402043662   T   T   T
  0.4966713472550996  0.0033057580480737  0.2753282934170941   T   T   T
  0.4966063842259260  0.4961379257452237  0.2753613372549803   T   T   T
  0.2501063429987819  0.7500314289906450  0.2748532248561738   T   T   T
  0.7496645091081470  0.2498018340492681  0.2749611183528434   T   T   T
  0.7504304666478790  0.7496985167374004  0.2751216378697074   T   T   T
 -0.0000637835648095  0.9998423563059078  0.0032778613059560   T   T   T
 -0.0000566211069927  0.4999784043753171  0.0032867454317709   T   T   T
  0.5001320782447226  0.9998376638460126  0.0032776877700626   T   T   T
  0.5001242643869208  0.4999833352434756  0.0032841953265756   T   T   T
  0.2500443157252171  0.2499118693782966  0.0030987064359116   T   T   T
  0.2500225286255321  0.7498907166428637  0.0031648167227842   T   T   T
  0.7500410433194686  0.2499245779548706  0.0032599925059760   T   T   T
  0.7500166101413701  0.7499032496598825  0.0034163304219541   T   T   T
  0.2500823736366081  0.9993086614364196  0.0949967098081611   T   T   T
  0.2500895946305702  0.5004058729434058  0.0950113093192128   T   T   T
  0.7501055817580814 -0.0002011529820667  0.0952957880657777   T   T   T
  0.7501064449468804  0.4999424320900729  0.0952982749204932   T   T   T
  0.9995318793153322  0.2498505795833977  0.0950207605132713   T   T   T
  0.9999366388209224  0.7498501505988797  0.0952932401392147   T   T   T
  0.5007084306950756  0.2498596113582160  0.0950000126948192   T   T   T
  0.5002290736275942  0.7498460542051664  0.0952801422022776   T   T   T
  0.0000769011448876 -0.0002375354310545  0.1852659090237439   T   T   T
  0.0001138044781431  0.4998565378019973  0.1852941254747882   T   T   T
  0.5003258368567458 -0.0003133113996147  0.1852359841638839   T   T   T
  0.5002874971819156  0.4999065237504867  0.1852619097674760   T   T   T
  0.2503049416499020  0.2497745970021464  0.1832879518628361   T   T   T
  0.2501675336971622  0.7498086480720627  0.1849155092336279   T   T   T
  0.7501686116526315  0.2497916392769464  0.1850281921529307   T   T   T
  0.7501879463372244  0.7498053943419871  0.1852497545691804   T   T   T
  0.2503601227156904  0.9932549099068579  0.2764668029252300   T   T   T
  0.2503492984497909  0.5064534290254931  0.2765207784663707   T   T   T
  0.7501791202622026 -0.0012775573362232  0.2771507703933389   T   T   T
  0.7501731021239523  0.5007936096317371  0.2771878042530714   T   T   T
 -0.0067846069679170  0.2497241892013021  0.2765895846891420   T   T   T
  0.9996603371801083  0.7497969207580333  0.2771104090258587   T   T   T
  0.5068804051836768  0.2497055148140049  0.2765215920986298   T   T   T
  0.5008028005339752  0.7497876118825166  0.2770948127102724   T   T   T
 
  0.00000000E+00  0.00000000E+00  0.00000000E+00
  0.00000000E+00  0.00000000E+00  0.00000000E+00
  0.00000000E+00  0.00000000E+00  0.00000000E+00
  0.00000000E+00  0.00000000E+00  0.00000000E+00
  0.00000000E+00  0.00000000E+00  0.00000000E+00
  0.00000000E+00  0.00000000E+00  0.00000000E+00
  0.00000000E+00  0.00000000E+00  0.00000000E+00
  0.00000000E+00  0.00000000E+00  0.00000000E+00
  0.00000000E+00  0.00000000E+00  0.00000000E+00
  0.00000000E+00  0.00000000E+00  0.00000000E+00
  0.00000000E+00  0.00000000E+00  0.00000000E+00
  0.00000000E+00  0.00000000E+00  0.00000000E+00
  0.00000000E+00  0.00000000E+00  0.00000000E+00
  0.00000000E+00  0.00000000E+00  0.00000000E+00
  0.00000000E+00  0.00000000E+00  0.00000000E+00
  0.00000000E+00  0.00000000E+00  0.00000000E+00
  0.00000000E+00  0.00000000E+00  0.00000000E+00
  0.00000000E+00  0.00000000E+00  0.00000000E+00
  0.00000000E+00  0.00000000E+00  0.00000000E+00
  0.00000000E+00  0.00000000E+00  0.00000000E+00
  0.00000000E+00  0.00000000E+00  0.00000000E+00
  0.00000000E+00  0.00000000E+00  0.00000000E+00
  0.00000000E+00  0.00000000E+00  0.00000000E+00
  0.00000000E+00  0.00000000E+00  0.00000000E+00
  0.00000000E+00  0.00000000E+00  0.00000000E+00
  0.00000000E+00  0.00000000E+00  0.00000000E+00
  0.00000000E+00  0.00000000E+00  0.00000000E+00
  0.00000000E+00  0.00000000E+00  0.00000000E+00
  0.00000000E+00  0.00000000E+00  0.00000000E+00
  0.00000000E+00  0.00000000E+00  0.00000000E+00
  0.00000000E+00  0.00000000E+00  0.00000000E+00
  0.00000000E+00  0.00000000E+00  0.00000000E+00
  0.00000000E+00  0.00000000E+00  0.00000000E+00
  0.00000000E+00  0.00000000E+00  0.00000000E+00
  0.00000000E+00  0.00000000E+00  0.00000000E+00
  0.00000000E+00  0.00000000E+00  0.00000000E+00
  0.00000000E+00  0.00000000E+00  0.00000000E+00
  0.00000000E+00  0.00000000E+00  0.00000000E+00
  0.00000000E+00  0.00000000E+00  0.00000000E+00
  0.00000000E+00  0.00000000E+00  0.00000000E+00
  0.00000000E+00  0.00000000E+00  0.00000000E+00
  0.00000000E+00  0.00000000E+00  0.00000000E+00
  0.00000000E+00  0.00000000E+00  0.00000000E+00
  0.00000000E+00  0.00000000E+00  0.00000000E+00
  0.00000000E+00  0.00000000E+00  0.00000000E+00
  0.00000000E+00  0.00000000E+00  0.00000000E+00
  0.00000000E+00  0.00000000E+00  0.00000000E+00
  0.00000000E+00  0.00000000E+00  0.00000000E+00
  0.00000000E+00  0.00000000E+00  0.00000000E+00
  0.00000000E+00  0.00000000E+00  0.00000000E+00
  0.00000000E+00  0.00000000E+00  0.00000000E+00
  0.00000000E+00  0.00000000E+00  0.00000000E+00
  0.00000000E+00  0.00000000E+00  0.00000000E+00
  0.00000000E+00  0.00000000E+00  0.00000000E+00
  0.00000000E+00  0.00000000E+00  0.00000000E+00
  0.00000000E+00  0.00000000E+00  0.00000000E+00
  0.00000000E+00  0.00000000E+00  0.00000000E+00
  0.00000000E+00  0.00000000E+00  0.00000000E+00
  0.00000000E+00  0.00000000E+00  0.00000000E+00
  0.00000000E+00  0.00000000E+00  0.00000000E+00
  0.00000000E+00  0.00000000E+00  0.00000000E+00
  0.00000000E+00  0.00000000E+00  0.00000000E+00
  0.00000000E+00  0.00000000E+00  0.00000000E+00
  0.00000000E+00  0.00000000E+00  0.00000000E+00
