Co Li Mg O                              
   1.00000000000000     
     8.4141216974800006    0.0000000000000000    0.0000000000000000
     0.0000000000000000    8.4141216974800006    0.0000000000000000
     0.0000000000000000    0.0000000000000000   23.4141216974799988
   Co   Li   Mg   O 
     1     1    31    32
Selective dynamics
Direct
  0.7499998486940029  0.4974044914676711  0.3637545802651309   T   T   T
  0.2500000000000000  0.2454319663661656  0.2742692494679819   T   T   T
  0.2500000000000000 -0.0000634063818439  0.0053915113519811   T   T   T
  0.2500000000000000  0.5001103620329114  0.0050412547797165   T   T   T
  0.7500000000000000 -0.0000143685547574  0.0051185409591527   T   T   T
  0.7500000000000000  0.4999267739059468  0.0046466579570358   T   T   T
  0.0001119905281394  0.2497596355724732  0.0051922536946621   T   T   T
  0.0002301196969150  0.7502657146232456  0.0052326947884150   T   T   T
  0.4998880094718606  0.2497596355724732  0.0051922536946621   T   T   T
  0.4997698803030851  0.7502657146232456  0.0052326947884150   T   T   T
  0.0006468091654911  0.0003991594023280  0.0949590973445562   T   T   T
  0.0010423229478330  0.4997224386103061  0.0941480029246090   T   T   T
  0.4993531908345087  0.0003991594023280  0.0949590973445562   T   T   T
  0.4989576770521670  0.4997224386103061  0.0941480029246090   T   T   T
  0.2500000000000000  0.2497057552486102  0.0948773637865891   T   T   T
  0.2500000000000000  0.7504837869872512  0.0950052126728056   T   T   T
  0.7500000000000000  0.2491998005035969  0.0943183033582632   T   T   T
  0.7500000000000000  0.7507129873484337  0.0941210103499244   T   T   T
  0.2500000000000000  0.0032065915267396  0.1863240929852819   T   T   T
  0.2500000000000000  0.4974037401855005  0.1854503535802989   T   T   T
  0.7500000000000000  0.0005248545184763  0.1849856384332819   T   T   T
  0.7500000000000000  0.4993599027914731  0.1807789006762954   T   T   T
  0.0030375327951059  0.2499318344073044  0.1862945619793401   T   T   T
  0.0006443741306962  0.7502528359366192  0.1856231382137207   T   T   T
  0.4969624672048940  0.2499318344073044  0.1862945619793401   T   T   T
  0.4993556258693038  0.7502528359366192  0.1856231382137207   T   T   T
  0.0063659126054236  0.0045288632410723  0.2751971668500401   T   T   T
  0.0155760629876634  0.4952577282234409  0.2739679147683407   T   T   T
  0.4936340873945764  0.0045288632410723  0.2751971668500401   T   T   T
  0.4844239370123367  0.4952577282234409  0.2739679147683407   T   T   T
  0.2500000000000000  0.7517966331488234  0.2742704586314863   T   T   T
  0.7500000000000000  0.2376350897028897  0.2740447485384835   T   T   T
  0.7500000000000000  0.7614831894928425  0.2744444810344093   T   T   T
  0.9998510056473079  0.9999214767500354  0.0032316171064269   T   T   T
  0.0001023133334596  0.5001265495587123  0.0027963307182629   T   T   T
  0.5001489943526921  0.9999214767500354  0.0032316171064269   T   T   T
  0.4998976866665406  0.5001265495587123  0.0027963307182629   T   T   T
  0.2500000000000000  0.2500636611799604  0.0030893826776379   T   T   T
  0.2500000000000000  0.7500037607561499  0.0031462109192248   T   T   T
  0.7500000000000000  0.2497439037433517  0.0027455361264126   T   T   T
  0.7500000000000000  0.7501940347984970  0.0028409604522821   T   T   T
  0.2500000000000000  0.9996518239983904  0.0949694565372336   T   T   T
  0.2500000000000000  0.5005648005418241  0.0949835554697919   T   T   T
  0.7500000000000000  0.9997082652357057  0.0953313072566305   T   T   T
  0.7500000000000000  0.5002705117310399  0.0938464987838519   T   T   T
  0.9990928382103699  0.2504263647255771  0.0948653587515759   T   T   T
  0.9992602458241714  0.7496761134206438  0.0951388137145182   T   T   T
  0.5009071617896301  0.2504263647255771  0.0948653587515759   T   T   T
  0.5007397541758286  0.7496761134206438  0.0951388137145182   T   T   T
  0.9989292353254120  0.0000292125053690  0.1851505274994871   T   T   T
  0.9962205504615840  0.5001415751403194  0.1855143820112548   T   T   T
  0.5010707646745880  0.0000292125053690  0.1851505274994871   T   T   T
  0.5037794495384160  0.5001415751403194  0.1855143820112548   T   T   T
  0.2500000000000000  0.2508494163730218  0.1832351395399486   T   T   T
  0.2500000000000000  0.7496017795289688  0.1842493302339663   T   T   T
  0.7500000000000000  0.2534341481763805  0.1850089645380279   T   T   T
  0.7500000000000000  0.7462331453063483  0.1856394754107272   T   T   T
  0.2499999495650016  0.9927038154736161  0.2763703747958708   T   T   T
  0.2499999495650016  0.5094171612027256  0.2758376365170940   T   T   T
  0.7499999495650016  0.9987935813530004  0.2767137777313388   T   T   T
  0.7499998486940029  0.5034708264636191  0.2882121562023237   T   T   T
  0.9897760986689484  0.2524428571905032  0.2767970533942306   T   T   T
  0.9964706100282086  0.7479785550698860  0.2770519075513252   T   T   T
  0.5102239013310516  0.2524428571905032  0.2767970533942306   T   T   T
  0.5035293899717914  0.7479785550698860  0.2770519075513252   T   T   T
 
  0.00000000E+00  0.00000000E+00  0.00000000E+00
  0.00000000E+00  0.00000000E+00  0.00000000E+00
  0.00000000E+00  0.00000000E+00  0.00000000E+00
  0.00000000E+00  0.00000000E+00  0.00000000E+00
  0.00000000E+00  0.00000000E+00  0.00000000E+00
  0.00000000E+00  0.00000000E+00  0.00000000E+00
  0.00000000E+00  0.00000000E+00  0.00000000E+00
  0.00000000E+00  0.00000000E+00  0.00000000E+00
  0.00000000E+00  0.00000000E+00  0.00000000E+00
  0.00000000E+00  0.00000000E+00  0.00000000E+00
  0.00000000E+00  0.00000000E+00  0.00000000E+00
  0.00000000E+00  0.00000000E+00  0.00000000E+00
  0.00000000E+00  0.00000000E+00  0.00000000E+00
  0.00000000E+00  0.00000000E+00  0.00000000E+00
  0.00000000E+00  0.00000000E+00  0.00000000E+00
  0.00000000E+00  0.00000000E+00  0.00000000E+00
  0.00000000E+00  0.00000000E+00  0.00000000E+00
  0.00000000E+00  0.00000000E+00  0.00000000E+00
  0.00000000E+00  0.00000000E+00  0.00000000E+00
  0.00000000E+00  0.00000000E+00  0.00000000E+00
  0.00000000E+00  0.00000000E+00  0.00000000E+00
  0.00000000E+00  0.00000000E+00  0.00000000E+00
  0.00000000E+00  0.00000000E+00  0.00000000E+00
  0.00000000E+00  0.00000000E+00  0.00000000E+00
  0.00000000E+00  0.00000000E+00  0.00000000E+00
  0.00000000E+00  0.00000000E+00  0.00000000E+00
  0.00000000E+00  0.00000000E+00  0.00000000E+00
  0.00000000E+00  0.00000000E+00  0.00000000E+00
  0.00000000E+00  0.00000000E+00  0.00000000E+00
  0.00000000E+00  0.00000000E+00  0.00000000E+00
  0.00000000E+00  0.00000000E+00  0.00000000E+00
  0.00000000E+00  0.00000000E+00  0.00000000E+00
  0.00000000E+00  0.00000000E+00  0.00000000E+00
  0.00000000E+00  0.00000000E+00  0.00000000E+00
  0.00000000E+00  0.00000000E+00  0.00000000E+00
  0.00000000E+00  0.00000000E+00  0.00000000E+00
  0.00000000E+00  0.00000000E+00  0.00000000E+00
  0.00000000E+00  0.00000000E+00  0.00000000E+00
  0.00000000E+00  0.00000000E+00  0.00000000E+00
  0.00000000E+00  0.00000000E+00  0.00000000E+00
  0.00000000E+00  0.00000000E+00  0.00000000E+00
  0.00000000E+00  0.00000000E+00  0.00000000E+00
  0.00000000E+00  0.00000000E+00  0.00000000E+00
  0.00000000E+00  0.00000000E+00  0.00000000E+00
  0.00000000E+00  0.00000000E+00  0.00000000E+00
  0.00000000E+00  0.00000000E+00  0.00000000E+00
  0.00000000E+00  0.00000000E+00  0.00000000E+00
  0.00000000E+00  0.00000000E+00  0.00000000E+00
  0.00000000E+00  0.00000000E+00  0.00000000E+00
  0.00000000E+00  0.00000000E+00  0.00000000E+00
  0.00000000E+00  0.00000000E+00  0.00000000E+00
  0.00000000E+00  0.00000000E+00  0.00000000E+00
  0.00000000E+00  0.00000000E+00  0.00000000E+00
  0.00000000E+00  0.00000000E+00  0.00000000E+00
  0.00000000E+00  0.00000000E+00  0.00000000E+00
  0.00000000E+00  0.00000000E+00  0.00000000E+00
  0.00000000E+00  0.00000000E+00  0.00000000E+00
  0.00000000E+00  0.00000000E+00  0.00000000E+00
  0.00000000E+00  0.00000000E+00  0.00000000E+00
  0.00000000E+00  0.00000000E+00  0.00000000E+00
  0.00000000E+00  0.00000000E+00  0.00000000E+00
  0.00000000E+00  0.00000000E+00  0.00000000E+00
  0.00000000E+00  0.00000000E+00  0.00000000E+00
  0.00000000E+00  0.00000000E+00  0.00000000E+00
  0.00000000E+00  0.00000000E+00  0.00000000E+00
