Nb Li Mg O                              
   1.00000000000000     
     8.4141216974800006    0.0000000000000000    0.0000000000000000
     0.0000000000000000    8.4141216974800006    0.0000000000000000
     0.0000000000000000    0.0000000000000000   23.4141216974799988
   Nb   Li   Mg   O 
     1     1    31    32
Selective dynamics
Direct
  0.7499998486940029  0.4980566905271137  0.3770610995938602   T   T   T
  0.2500000000000000  0.2441881109844461  0.2744998914409139   T   T   T
  0.2500000000000000 -0.0000495412147236  0.0053468972429269   T   T   T
  0.2500000000000000  0.5001332205203786  0.0049797898421054   T   T   T
  0.7500000000000000 -0.0000654885479841  0.0049218400820881   T   T   T
  0.7500000000000000  0.4999386686247793  0.0044654525364374   T   T   T
  0.0002578060265888  0.2497724585098121  0.0051008628664579   T   T   T
  0.0003643320767265  0.7502848750302302  0.0051594828102676   T   T   T
  0.4997421939734113  0.2497724585098121  0.0051008628664579   T   T   T
  0.4996356679232736  0.7502848750302302  0.0051594828102676   T   T   T
  0.0008651054094167  0.0004336943119339  0.0949002846974992   T   T   T
  0.0012221556911204  0.4997195247259528  0.0940483846108742   T   T   T
  0.4991348945905832  0.0004336943119339  0.0949002846974992   T   T   T
  0.4987778443088796  0.4997195247259528  0.0940483846108742   T   T   T
  0.2500000000000000  0.2496651363641518  0.0949191822962713   T   T   T
  0.2500000000000000  0.7505791805442815  0.0950626713806235   T   T   T
  0.7500000000000000  0.2491430010345319  0.0940470490966405   T   T   T
  0.7500000000000000  0.7507169787213270  0.0938332184707069   T   T   T
  0.2500000000000000  0.0031232776212863  0.1861824064627443   T   T   T
  0.2500000000000000  0.4975088269805051  0.1856534707869675   T   T   T
  0.7500000000000000  0.0004243216066997  0.1844555197209803   T   T   T
  0.7500000000000000  0.4992214328692457  0.1796522769534438   T   T   T
  0.0030396743749000  0.2503074086029500  0.1863207208372297   T   T   T
  0.0008655280902028  0.7499137411833091  0.1856725254975735   T   T   T
  0.4969603256251001  0.2503074086029500  0.1863207208372297   T   T   T
  0.4991344719097974  0.7499137411833091  0.1856725254975735   T   T   T
  0.0064435903486448  0.0044861120900906  0.2750988548872517   T   T   T
  0.0169847016573915  0.4950919869172381  0.2749540254653332   T   T   T
  0.4935564096513552  0.0044861120900906  0.2750988548872517   T   T   T
  0.4830152983426085  0.4950919869172381  0.2749540254653332   T   T   T
  0.2500000000000000  0.7519290037426211  0.2744711802328312   T   T   T
  0.7500000000000000  0.2347880442724130  0.2731403931275054   T   T   T
  0.7500000000000000  0.7635006573644364  0.2736709857716312   T   T   T
 -0.0001484074188962  0.9999283912510235  0.0031534287836508   T   T   T
  0.0002000176209820  0.5001330750612185  0.0026707366067659   T   T   T
  0.5001484074188962  0.9999283912510235  0.0031534287836508   T   T   T
  0.4997999823790181  0.5001330750612185  0.0026707366067659   T   T   T
  0.2500000000000000  0.2501293174011702  0.0030657860974122   T   T   T
  0.2500000000000000  0.7499629625968470  0.0031302977108969   T   T   T
  0.7500000000000000  0.2496960837520381  0.0025367018969213   T   T   T
  0.7500000000000000  0.7501992805162390  0.0026317279543069   T   T   T
  0.2500000000000000  0.9996889890256203  0.0948952139543509   T   T   T
  0.2500000000000000  0.5005472586996176  0.0950168495323691   T   T   T
  0.7500000000000000  0.9996482356844564  0.0950971378298188   T   T   T
  0.7500000000000000  0.5002696563042605  0.0933474460383726   T   T   T
  0.9991080212638581  0.2505472145504682  0.0947437713932722   T   T   T
  0.9992288997257585  0.7495494074608103  0.0950400211174435   T   T   T
  0.5008919787361419  0.2505472145504682  0.0947437713932722   T   T   T
  0.5007711002742415  0.7495494074608103  0.0950400211174435   T   T   T
  0.9987874907531533  0.0000099807447580  0.1849337753522745   T   T   T
  0.9953795201739812  0.5001299083181061  0.1857966067736746   T   T   T
  0.5012125092468467  0.0000099807447580  0.1849337753522745   T   T   T
  0.5046204798260188  0.5001299083181061  0.1857966067736746   T   T   T
  0.2500000000000000  0.2509635892674651  0.1832251265456890   T   T   T
  0.2500000000000000  0.7495588852893426  0.1842023740685083   T   T   T
  0.7500000000000000  0.2539906771381402  0.1847145366803427   T   T   T
  0.7500000000000000  0.7454355597291974  0.1854268176871403   T   T   T
  0.2499999495650016  0.9929259879350900  0.2761283149988382   T   T   T
  0.2499999495650016  0.5097884888114383  0.2755980172973270   T   T   T
  0.7499999495650016  0.9984373710842449  0.2759270573264978   T   T   T
  0.7499998486940029  0.5046375886208604  0.2953400203663510   T   T   T
  0.9883805320853039  0.2528153255829687  0.2764854695546712   T   T   T
  0.9955159205265336  0.7479034761778601  0.2766959457638576   T   T   T
  0.5116194679146961  0.2528153255829687  0.2764854695546712   T   T   T
  0.5044840794734664  0.7479034761778601  0.2766959457638576   T   T   T
 
  0.00000000E+00  0.00000000E+00  0.00000000E+00
  0.00000000E+00  0.00000000E+00  0.00000000E+00
  0.00000000E+00  0.00000000E+00  0.00000000E+00
  0.00000000E+00  0.00000000E+00  0.00000000E+00
  0.00000000E+00  0.00000000E+00  0.00000000E+00
  0.00000000E+00  0.00000000E+00  0.00000000E+00
  0.00000000E+00  0.00000000E+00  0.00000000E+00
  0.00000000E+00  0.00000000E+00  0.00000000E+00
  0.00000000E+00  0.00000000E+00  0.00000000E+00
  0.00000000E+00  0.00000000E+00  0.00000000E+00
  0.00000000E+00  0.00000000E+00  0.00000000E+00
  0.00000000E+00  0.00000000E+00  0.00000000E+00
  0.00000000E+00  0.00000000E+00  0.00000000E+00
  0.00000000E+00  0.00000000E+00  0.00000000E+00
  0.00000000E+00  0.00000000E+00  0.00000000E+00
  0.00000000E+00  0.00000000E+00  0.00000000E+00
  0.00000000E+00  0.00000000E+00  0.00000000E+00
  0.00000000E+00  0.00000000E+00  0.00000000E+00
  0.00000000E+00  0.00000000E+00  0.00000000E+00
  0.00000000E+00  0.00000000E+00  0.00000000E+00
  0.00000000E+00  0.00000000E+00  0.00000000E+00
  0.00000000E+00  0.00000000E+00  0.00000000E+00
  0.00000000E+00  0.00000000E+00  0.00000000E+00
  0.00000000E+00  0.00000000E+00  0.00000000E+00
  0.00000000E+00  0.00000000E+00  0.00000000E+00
  0.00000000E+00  0.00000000E+00  0.00000000E+00
  0.00000000E+00  0.00000000E+00  0.00000000E+00
  0.00000000E+00  0.00000000E+00  0.00000000E+00
  0.00000000E+00  0.00000000E+00  0.00000000E+00
  0.00000000E+00  0.00000000E+00  0.00000000E+00
  0.00000000E+00  0.00000000E+00  0.00000000E+00
  0.00000000E+00  0.00000000E+00  0.00000000E+00
  0.00000000E+00  0.00000000E+00  0.00000000E+00
  0.00000000E+00  0.00000000E+00  0.00000000E+00
  0.00000000E+00  0.00000000E+00  0.00000000E+00
  0.00000000E+00  0.00000000E+00  0.00000000E+00
  0.00000000E+00  0.00000000E+00  0.00000000E+00
  0.00000000E+00  0.00000000E+00  0.00000000E+00
  0.00000000E+00  0.00000000E+00  0.00000000E+00
  0.00000000E+00  0.00000000E+00  0.00000000E+00
  0.00000000E+00  0.00000000E+00  0.00000000E+00
  0.00000000E+00  0.00000000E+00  0.00000000E+00
  0.00000000E+00  0.00000000E+00  0.00000000E+00
  0.00000000E+00  0.00000000E+00  0.00000000E+00
  0.00000000E+00  0.00000000E+00  0.00000000E+00
  0.00000000E+00  0.00000000E+00  0.00000000E+00
  0.00000000E+00  0.00000000E+00  0.00000000E+00
  0.00000000E+00  0.00000000E+00  0.00000000E+00
  0.00000000E+00  0.00000000E+00  0.00000000E+00
  0.00000000E+00  0.00000000E+00  0.00000000E+00
  0.00000000E+00  0.00000000E+00  0.00000000E+00
  0.00000000E+00  0.00000000E+00  0.00000000E+00
  0.00000000E+00  0.00000000E+00  0.00000000E+00
  0.00000000E+00  0.00000000E+00  0.00000000E+00
  0.00000000E+00  0.00000000E+00  0.00000000E+00
  0.00000000E+00  0.00000000E+00  0.00000000E+00
  0.00000000E+00  0.00000000E+00  0.00000000E+00
  0.00000000E+00  0.00000000E+00  0.00000000E+00
  0.00000000E+00  0.00000000E+00  0.00000000E+00
  0.00000000E+00  0.00000000E+00  0.00000000E+00
  0.00000000E+00  0.00000000E+00  0.00000000E+00
  0.00000000E+00  0.00000000E+00  0.00000000E+00
  0.00000000E+00  0.00000000E+00  0.00000000E+00
  0.00000000E+00  0.00000000E+00  0.00000000E+00
  0.00000000E+00  0.00000000E+00  0.00000000E+00
