W Li Mg O                               
   1.00000000000000     
     8.4141216974800006    0.0000000000000000    0.0000000000000000
     0.0000000000000000    8.4141216974800006    0.0000000000000000
     0.0000000000000000    0.0000000000000000   23.4141216974799988
   W    Li   Mg   O 
     1     1    31    32
Selective dynamics
Direct
  0.7499998486940029  0.4947688342489444  0.3718625661579973   T   T   T
  0.2500000000000000  0.2447826830607663  0.2750382247395693   T   T   T
  0.2500000000000000 -0.0000274979731745  0.0055535802944215   T   T   T
  0.2500000000000000  0.5001416418129332  0.0052007983163281   T   T   T
  0.7500000000000000 -0.0000249654266262  0.0051856552460501   T   T   T
  0.7500000000000000  0.4999114949558704  0.0045755669837650   T   T   T
  0.0001488379361762  0.2497804594138854  0.0053369903558938   T   T   T
  0.0002759210130486  0.7502099772597428  0.0053703218982837   T   T   T
  0.4998511620638237  0.2497804594138854  0.0053369903558938   T   T   T
  0.4997240789869514  0.7502099772597428  0.0053703218982837   T   T   T
  0.0008501134496560  0.0004072147482185  0.0950820884240993   T   T   T
  0.0011183723501103  0.4997427624490419  0.0942733682160210   T   T   T
  0.4991498865503440  0.0004072147482185  0.0950820884240993   T   T   T
  0.4988816276498896  0.4997427624490419  0.0942733682160210   T   T   T
  0.2500000000000000  0.2496762187963712  0.0950284161994795   T   T   T
  0.2500000000000000  0.7506179115684387  0.0951833113238067   T   T   T
  0.7500000000000000  0.2491047047303440  0.0943134528678061   T   T   T
  0.7500000000000000  0.7506849684488012  0.0941632463891201   T   T   T
  0.2500000000000000  0.0032937133790855  0.1866758753788536   T   T   T
  0.2500000000000000  0.4975903882403548  0.1855962498876862   T   T   T
  0.7500000000000000  0.0003585301347597  0.1847465019415893   T   T   T
  0.7500000000000000  0.4993477805270347  0.1806955915687560   T   T   T
  0.0031586204591186  0.2500630621313426  0.1863021395427593   T   T   T
  0.0008647581578042  0.7503080338352909  0.1856266587873179   T   T   T
  0.4968413795408815  0.2500630621313426  0.1863021395427593   T   T   T
  0.4991352418421958  0.7503080338352909  0.1856266587873179   T   T   T
  0.0057907902159751  0.0044157211125544  0.2756108615149783   T   T   T
  0.0166718255177603  0.4955211238195582  0.2741734893324123   T   T   T
  0.4942092097840249  0.0044157211125544  0.2756108615149783   T   T   T
  0.4833281744822397  0.4955211238195582  0.2741734893324123   T   T   T
  0.2500000000000000  0.7519434269526382  0.2747452333044391   T   T   T
  0.7500000000000000  0.2367278921752116  0.2729440601484499   T   T   T
  0.7500000000000000  0.7619631459564857  0.2735349062844651   T   T   T
 -0.0000493002517061  0.9999033014158316  0.0033071669400325   T   T   T
  0.0003434296553611  0.5001104381395715  0.0029071296221563   T   T   T
  0.5000493002517061  0.9999033014158316  0.0033071669400325   T   T   T
  0.4996565703446390  0.5001104381395715  0.0029071296221563   T   T   T
  0.2500000000000000  0.2500496506912935  0.0031447008744915   T   T   T
  0.2500000000000000  0.7500583327952826  0.0032517375693556   T   T   T
  0.7500000000000000  0.2495341864467005  0.0027916829481308   T   T   T
  0.7500000000000000  0.7503567599929012  0.0029118242283488   T   T   T
  0.2500000000000000  0.9996726078235665  0.0949982492455890   T   T   T
  0.2500000000000000  0.5006535443604434  0.0951569753381711   T   T   T
  0.7500000000000000  0.9996276714722199  0.0953235068629143   T   T   T
  0.7500000000000000  0.5002320943097534  0.0938479094136685   T   T   T
  0.9991312813496896  0.2504969284871753  0.0949408073868120   T   T   T
  0.9993054591757912  0.7496595980633790  0.0952169666122165   T   T   T
  0.5008687186503104  0.2504969284871753  0.0949408073868120   T   T   T
  0.5006945408242088  0.7496595980633790  0.0952169666122165   T   T   T
  0.9991317693805671  0.0002334063408352  0.1853174798442569   T   T   T
  0.9960555712335594  0.5001721992004302  0.1856408236933465   T   T   T
  0.5008682306194329  0.0002334063408352  0.1853174798442569   T   T   T
  0.5039444287664406  0.5001721992004302  0.1856408236933465   T   T   T
  0.2500000000000000  0.2508131139553073  0.1834354630895951   T   T   T
  0.2500000000000000  0.7498713600785516  0.1844955170006679   T   T   T
  0.7500000000000000  0.2533307147655522  0.1847015036374438   T   T   T
  0.7500000000000000  0.7462772362491948  0.1853634543149228   T   T   T
  0.2499999495650016  0.9930197305224743  0.2766646401042348   T   T   T
  0.2499999495650016  0.5096067617669978  0.2754381126214048   T   T   T
  0.7499999495650016  0.9985814492244984  0.2759403564907150   T   T   T
  0.7499998486940029  0.5045284218764186  0.2885585114645908   T   T   T
  0.9885955764193640  0.2529927139791938  0.2772026401804925   T   T   T
  0.9959454417189733  0.7478131130987513  0.2772556490605150   T   T   T
  0.5114044235806360  0.2529927139791938  0.2772026401804925   T   T   T
  0.5040545582810267  0.7478131130987513  0.2772556490605150   T   T   T
 
  0.00000000E+00  0.00000000E+00  0.00000000E+00
  0.00000000E+00  0.00000000E+00  0.00000000E+00
  0.00000000E+00  0.00000000E+00  0.00000000E+00
  0.00000000E+00  0.00000000E+00  0.00000000E+00
  0.00000000E+00  0.00000000E+00  0.00000000E+00
  0.00000000E+00  0.00000000E+00  0.00000000E+00
  0.00000000E+00  0.00000000E+00  0.00000000E+00
  0.00000000E+00  0.00000000E+00  0.00000000E+00
  0.00000000E+00  0.00000000E+00  0.00000000E+00
  0.00000000E+00  0.00000000E+00  0.00000000E+00
  0.00000000E+00  0.00000000E+00  0.00000000E+00
  0.00000000E+00  0.00000000E+00  0.00000000E+00
  0.00000000E+00  0.00000000E+00  0.00000000E+00
  0.00000000E+00  0.00000000E+00  0.00000000E+00
  0.00000000E+00  0.00000000E+00  0.00000000E+00
  0.00000000E+00  0.00000000E+00  0.00000000E+00
  0.00000000E+00  0.00000000E+00  0.00000000E+00
  0.00000000E+00  0.00000000E+00  0.00000000E+00
  0.00000000E+00  0.00000000E+00  0.00000000E+00
  0.00000000E+00  0.00000000E+00  0.00000000E+00
  0.00000000E+00  0.00000000E+00  0.00000000E+00
  0.00000000E+00  0.00000000E+00  0.00000000E+00
  0.00000000E+00  0.00000000E+00  0.00000000E+00
  0.00000000E+00  0.00000000E+00  0.00000000E+00
  0.00000000E+00  0.00000000E+00  0.00000000E+00
  0.00000000E+00  0.00000000E+00  0.00000000E+00
  0.00000000E+00  0.00000000E+00  0.00000000E+00
  0.00000000E+00  0.00000000E+00  0.00000000E+00
  0.00000000E+00  0.00000000E+00  0.00000000E+00
  0.00000000E+00  0.00000000E+00  0.00000000E+00
  0.00000000E+00  0.00000000E+00  0.00000000E+00
  0.00000000E+00  0.00000000E+00  0.00000000E+00
  0.00000000E+00  0.00000000E+00  0.00000000E+00
  0.00000000E+00  0.00000000E+00  0.00000000E+00
  0.00000000E+00  0.00000000E+00  0.00000000E+00
  0.00000000E+00  0.00000000E+00  0.00000000E+00
  0.00000000E+00  0.00000000E+00  0.00000000E+00
  0.00000000E+00  0.00000000E+00  0.00000000E+00
  0.00000000E+00  0.00000000E+00  0.00000000E+00
  0.00000000E+00  0.00000000E+00  0.00000000E+00
  0.00000000E+00  0.00000000E+00  0.00000000E+00
  0.00000000E+00  0.00000000E+00  0.00000000E+00
  0.00000000E+00  0.00000000E+00  0.00000000E+00
  0.00000000E+00  0.00000000E+00  0.00000000E+00
  0.00000000E+00  0.00000000E+00  0.00000000E+00
  0.00000000E+00  0.00000000E+00  0.00000000E+00
  0.00000000E+00  0.00000000E+00  0.00000000E+00
  0.00000000E+00  0.00000000E+00  0.00000000E+00
  0.00000000E+00  0.00000000E+00  0.00000000E+00
  0.00000000E+00  0.00000000E+00  0.00000000E+00
  0.00000000E+00  0.00000000E+00  0.00000000E+00
  0.00000000E+00  0.00000000E+00  0.00000000E+00
  0.00000000E+00  0.00000000E+00  0.00000000E+00
  0.00000000E+00  0.00000000E+00  0.00000000E+00
  0.00000000E+00  0.00000000E+00  0.00000000E+00
  0.00000000E+00  0.00000000E+00  0.00000000E+00
  0.00000000E+00  0.00000000E+00  0.00000000E+00
  0.00000000E+00  0.00000000E+00  0.00000000E+00
  0.00000000E+00  0.00000000E+00  0.00000000E+00
  0.00000000E+00  0.00000000E+00  0.00000000E+00
  0.00000000E+00  0.00000000E+00  0.00000000E+00
  0.00000000E+00  0.00000000E+00  0.00000000E+00
  0.00000000E+00  0.00000000E+00  0.00000000E+00
  0.00000000E+00  0.00000000E+00  0.00000000E+00
  0.00000000E+00  0.00000000E+00  0.00000000E+00
