Ir Li Mg O                              
   1.00000000000000     
     8.4141216974800006    0.0000000000000000    0.0000000000000000
     0.0000000000000000    8.4141216974800006    0.0000000000000000
     0.0000000000000000    0.0000000000000000   23.4141216974799988
   Ir   Li   Mg   O 
     1     1    31    32
Selective dynamics
Direct
  0.7499998486940029  0.5118871668291741  0.3668678214661322   T   T   T
  0.2500000000000000  0.2425199930434370  0.2737404823615766   T   T   T
  0.2500000000000000 -0.0000920341937695  0.0055249424670372   T   T   T
  0.2500000000000000  0.5001097265364460  0.0051273742756410   T   T   T
  0.7500000000000000 -0.0000691007392869  0.0050592045972042   T   T   T
  0.7500000000000000  0.4999353033575210  0.0046127725208235   T   T   T
  0.0001484351325982  0.2498870896704382  0.0051806310214206   T   T   T
  0.0002467155276915  0.7501213232096290  0.0052653735281652   T   T   T
  0.4998515648674018  0.2498870896704382  0.0051806310214206   T   T   T
  0.4997532844723085  0.7501213232096290  0.0052653735281652   T   T   T
  0.0007550656134538  0.0002538539292931  0.0949948738286994   T   T   T
  0.0013279001578992  0.4997534230444282  0.0942603187652002   T   T   T
  0.4992449343865462  0.0002538539292931  0.0949948738286994   T   T   T
  0.4986720998421009  0.4997534230444282  0.0942603187652002   T   T   T
  0.2500000000000000  0.2496430585712546  0.0949971420178226   T   T   T
  0.2500000000000000  0.7503647867185005  0.0951958015813072   T   T   T
  0.7500000000000000  0.2489580547152379  0.0942724550391432   T   T   T
  0.7500000000000000  0.7508420495970416  0.0940779444585502   T   T   T
  0.2500000000000000  0.0027214131559069  0.1860638889414639   T   T   T
  0.2500000000000000  0.4973782609667045  0.1858575246567661   T   T   T
  0.7500000000000000  0.0003424613244930  0.1847810994061587   T   T   T
  0.7500000000000000  0.4991580496827697  0.1796474123467552   T   T   T
  0.0025805638075246  0.2503682336183672  0.1864708136044167   T   T   T
  0.0003296154073979  0.7494325813930089  0.1860441097973247   T   T   T
  0.4974194361924755  0.2503682336183672  0.1864708136044167   T   T   T
  0.4996703845926020  0.7494325813930089  0.1860441097973247   T   T   T
  0.0065091700944281  0.0041509940984482  0.2749305957796118   T   T   T
  0.0197134006950696  0.4940609139083976  0.2761625970231978   T   T   T
  0.4934908299055717  0.0041509940984482  0.2749305957796118   T   T   T
  0.4802865993049304  0.4940609139083976  0.2761625970231978   T   T   T
  0.2500000000000000  0.7521892454476382  0.2744517822134596   T   T   T
  0.7500000000000000  0.2335468777898430  0.2746606315905538   T   T   T
  0.7500000000000000  0.7658202848290538  0.2755259883139295   T   T   T
 -0.0001126455565543  0.9998860623875312  0.0032221591090328   T   T   T
  0.0002472504591643  0.5001125987315709  0.0028164201146643   T   T   T
  0.5001126455565542  0.9998860623875312  0.0032221591090328   T   T   T
  0.4997527495408357  0.5001125987315709  0.0028164201146643   T   T   T
  0.2500000000000000  0.2500923598559430  0.0031477023712588   T   T   T
  0.2500000000000000  0.7499356391386869  0.0032044887859581   T   T   T
  0.7500000000000000  0.2496967212759797  0.0026818733292525   T   T   T
  0.7500000000000000  0.7501932476764098  0.0027743447731220   T   T   T
  0.2500000000000000  0.9995673949478466  0.0949092594513362   T   T   T
  0.2500000000000000  0.5004511432137899  0.0951725371755342   T   T   T
  0.7500000000000000  0.9995969842349779  0.0952600170761089   T   T   T
  0.7500000000000000  0.5002645854243555  0.0935550883866328   T   T   T
  0.9990068823115889  0.2505657763770359  0.0948406534054741   T   T   T
  0.9990985956745354  0.7493610697323296  0.0951775932706204   T   T   T
  0.5009931176884111  0.2505657763770359  0.0948406534054741   T   T   T
  0.5009014043254646  0.7493610697323296  0.0951775932706204   T   T   T
  0.9987958748259760 -0.0002044434317497  0.1849424962260192   T   T   T
  0.9955373972180751  0.4999865431112884  0.1861855901984537   T   T   T
  0.5012041251740240 -0.0002044434317497  0.1849424962260192   T   T   T
  0.5044626027819249  0.4999865431112884  0.1861855901984537   T   T   T
  0.2500000000000000  0.2507924868629701  0.1832317281374783   T   T   T
  0.2500000000000000  0.7492750674581116  0.1843457001382408   T   T   T
  0.7500000000000000  0.2536611708711886  0.1850698183521107   T   T   T
  0.7500000000000000  0.7455410774537463  0.1860182309000039   T   T   T
  0.2499999495650016  0.9929136856840080  0.2761421333930140   T   T   T
  0.2499999495650016  0.5099548918978459  0.2760888956425699   T   T   T
  0.7499999495650016  0.9990444110413935  0.2763597342460581   T   T   T
  0.7499998486940029  0.4990590662057868  0.2892129758575831   T   T   T
  0.9892003405342786  0.2523234118008246  0.2760919065545172   T   T   T
  0.9956329732971320  0.7476601104361552  0.2765572787648956   T   T   T
  0.5107996594657214  0.2523234118008246  0.2760919065545172   T   T   T
  0.5043670267028680  0.7476601104361552  0.2765572787648956   T   T   T
 
  0.00000000E+00  0.00000000E+00  0.00000000E+00
  0.00000000E+00  0.00000000E+00  0.00000000E+00
  0.00000000E+00  0.00000000E+00  0.00000000E+00
  0.00000000E+00  0.00000000E+00  0.00000000E+00
  0.00000000E+00  0.00000000E+00  0.00000000E+00
  0.00000000E+00  0.00000000E+00  0.00000000E+00
  0.00000000E+00  0.00000000E+00  0.00000000E+00
  0.00000000E+00  0.00000000E+00  0.00000000E+00
  0.00000000E+00  0.00000000E+00  0.00000000E+00
  0.00000000E+00  0.00000000E+00  0.00000000E+00
  0.00000000E+00  0.00000000E+00  0.00000000E+00
  0.00000000E+00  0.00000000E+00  0.00000000E+00
  0.00000000E+00  0.00000000E+00  0.00000000E+00
  0.00000000E+00  0.00000000E+00  0.00000000E+00
  0.00000000E+00  0.00000000E+00  0.00000000E+00
  0.00000000E+00  0.00000000E+00  0.00000000E+00
  0.00000000E+00  0.00000000E+00  0.00000000E+00
  0.00000000E+00  0.00000000E+00  0.00000000E+00
  0.00000000E+00  0.00000000E+00  0.00000000E+00
  0.00000000E+00  0.00000000E+00  0.00000000E+00
  0.00000000E+00  0.00000000E+00  0.00000000E+00
  0.00000000E+00  0.00000000E+00  0.00000000E+00
  0.00000000E+00  0.00000000E+00  0.00000000E+00
  0.00000000E+00  0.00000000E+00  0.00000000E+00
  0.00000000E+00  0.00000000E+00  0.00000000E+00
  0.00000000E+00  0.00000000E+00  0.00000000E+00
  0.00000000E+00  0.00000000E+00  0.00000000E+00
  0.00000000E+00  0.00000000E+00  0.00000000E+00
  0.00000000E+00  0.00000000E+00  0.00000000E+00
  0.00000000E+00  0.00000000E+00  0.00000000E+00
  0.00000000E+00  0.00000000E+00  0.00000000E+00
  0.00000000E+00  0.00000000E+00  0.00000000E+00
  0.00000000E+00  0.00000000E+00  0.00000000E+00
  0.00000000E+00  0.00000000E+00  0.00000000E+00
  0.00000000E+00  0.00000000E+00  0.00000000E+00
  0.00000000E+00  0.00000000E+00  0.00000000E+00
  0.00000000E+00  0.00000000E+00  0.00000000E+00
  0.00000000E+00  0.00000000E+00  0.00000000E+00
  0.00000000E+00  0.00000000E+00  0.00000000E+00
  0.00000000E+00  0.00000000E+00  0.00000000E+00
  0.00000000E+00  0.00000000E+00  0.00000000E+00
  0.00000000E+00  0.00000000E+00  0.00000000E+00
  0.00000000E+00  0.00000000E+00  0.00000000E+00
  0.00000000E+00  0.00000000E+00  0.00000000E+00
  0.00000000E+00  0.00000000E+00  0.00000000E+00
  0.00000000E+00  0.00000000E+00  0.00000000E+00
  0.00000000E+00  0.00000000E+00  0.00000000E+00
  0.00000000E+00  0.00000000E+00  0.00000000E+00
  0.00000000E+00  0.00000000E+00  0.00000000E+00
  0.00000000E+00  0.00000000E+00  0.00000000E+00
  0.00000000E+00  0.00000000E+00  0.00000000E+00
  0.00000000E+00  0.00000000E+00  0.00000000E+00
  0.00000000E+00  0.00000000E+00  0.00000000E+00
  0.00000000E+00  0.00000000E+00  0.00000000E+00
  0.00000000E+00  0.00000000E+00  0.00000000E+00
  0.00000000E+00  0.00000000E+00  0.00000000E+00
  0.00000000E+00  0.00000000E+00  0.00000000E+00
  0.00000000E+00  0.00000000E+00  0.00000000E+00
  0.00000000E+00  0.00000000E+00  0.00000000E+00
  0.00000000E+00  0.00000000E+00  0.00000000E+00
  0.00000000E+00  0.00000000E+00  0.00000000E+00
  0.00000000E+00  0.00000000E+00  0.00000000E+00
  0.00000000E+00  0.00000000E+00  0.00000000E+00
  0.00000000E+00  0.00000000E+00  0.00000000E+00
  0.00000000E+00  0.00000000E+00  0.00000000E+00
