Li O V Zn                               
   1.00000000000000     
     6.5625568183449996    0.0000000000000000    0.0000000000000000
     0.0000000000000000   10.5156600000000005    0.0000000000000000
     0.0000000000000000    0.0000000000000000   32.0500282661819966
   Li   O    V    Zn
     1    40     1    39
Selective dynamics
Direct
  0.2499997575899968  0.3184781192823686  0.4453120971733870   T   T   T
  0.2499987879510002  0.0011689407885874  0.0886332501224622   T   T   T
  0.2499987879510002  0.5008473258167403  0.0879108314223175   T   T   T
  0.7499987879510002  0.0015136613616342  0.0883757938296696   T   T   T
  0.7499987879510002  0.5005678755412049  0.0875087960134825   T   T   T
  0.9998834391792540  0.2475465664199987  0.1188620239186997   T   T   T
  0.9994659761099574  0.7472239536954249  0.1185323493126629   T   T   T
  0.5001134531227466  0.2475465664199987  0.1188620239186997   T   T   T
  0.5005309161920433  0.7472239536954249  0.1185323493126629   T   T   T
  0.9991542521809896  0.9972322501957328  0.1765441329276791   T   T   T
  0.9987544134826617  0.4972950589206847  0.1757863273505826   T   T   T
  0.5008438085410100  0.9972322501957328  0.1765441329276791   T   T   T
  0.5012436472393379  0.4972950589206847  0.1757863273505826   T   T   T
  0.2499986885609999  0.2460104567399405  0.2071418525045139   T   T   T
  0.2499986885609999  0.7455789536847878  0.2065337542697275   T   T   T
  0.7499986885609999  0.2461799345433005  0.2077866593972882   T   T   T
  0.7499986885609999  0.7459863858676001  0.2078166612929175   T   T   T
  0.2499992727709994  0.9972086211703763  0.2652618757140300   T   T   T
  0.2499992727709994  0.4963357514408365  0.2641459958266103   T   T   T
  0.7499992727709994  0.9966230265183061  0.2660441959804696   T   T   T
  0.7499992727709994  0.4976342083633049  0.2654485400442910   T   T   T
  0.0007851878824266  0.2476741001866485  0.2959372148915921   T   T   T
  0.0033806357832282  0.7466943020428570  0.2955981543758831   T   T   T
  0.4992126740595725  0.2476741001866485  0.2959372148915921   T   T   T
  0.4966172261587709  0.7466943020428570  0.2955981543758831   T   T   T
  0.0021767557744136  0.9956050276121694  0.3543942559665495   T   T   T
  0.0067087966277488  0.5009292067015713  0.3537452952397587   T   T   T
  0.4978222745855879  0.9956050276121694  0.3543942559665495   T   T   T
  0.4932902337322456  0.5009292067015713  0.3537452952397587   T   T   T
  0.2499991733809992  0.2473454896476853  0.3850766560540459   T   T   T
  0.2499991733809992  0.7505345355758977  0.3894245334496066   T   T   T
  0.7499991733809992  0.2536229078518077  0.3823583349684342   T   T   T
  0.7499991733809992  0.7472932628658536  0.3809594815436576   T   T   T
  0.2499997575899968  0.9910467367732100  0.4454060549080608   T   T   T
  0.2499997575899968  0.5078616821895389  0.4457098098148174   T   T   T
  0.7499997575899968  0.0131893650747952  0.4415014661700911   T   T   T
  0.7499997575899968  0.4983424909710321  0.4393840215430641   T   T   T
  0.0059768122385118  0.2658675512561600  0.4712346950935660   T   T   T
  0.0117016323546866  0.7400035493362273  0.4852085031540554   T   T   T
  0.4940220193414893  0.2658675512561600  0.4712346950935660   T   T   T
  0.4882971992253144  0.7400035493362273  0.4852085031540554   T   T   T
  0.7499973160219966  0.7309197527637837  0.5020851570664874   T   T   T
  0.2499987879510002  0.3266728406062136  0.0994653348394235   T   T   T
  0.2499987879510002  0.8266213798051854  0.0994325524157076   T   T   T
  0.7499987879510002  0.3265805661886685  0.0993317945099281   T   T   T
  0.7499987879510002  0.8269580428320333  0.0990455281290384   T   T   T
  0.9997773316802312  0.0581373065719792  0.1144955133434223   T   T   T
  0.9993959083742785  0.5576338144487939  0.1136777871498170   T   T   T
  0.5002195606217694  0.0581373065719792  0.1144955133434223   T   T   T
  0.5006009839277221  0.5576338144487939  0.1136777871498170   T   T   T
  0.9992391447644874  0.3083406546740994  0.1796299149732158   T   T   T
  0.9984853943037671  0.8082523973042144  0.1792498263079630   T   T   T
  0.5007589159575122  0.3083406546740994  0.1796299149732158   T   T   T
  0.5015126664182324  0.8082523973042144  0.1792498263079630   T   T   T
  0.2499986885609999  0.0553183720218810  0.2053587084459653   T   T   T
  0.2499986885609999  0.5543771293397086  0.2045258218703085   T   T   T
  0.7499986885609999  0.0551634266316092  0.2061375191334541   T   T   T
  0.7499986885609999  0.5546839416172056  0.2055226898207574   T   T   T
  0.2499992727709994  0.3060189047966553  0.2664727518338305   T   T   T
  0.2499992727709994  0.8074533898118162  0.2651909052488796   T   T   T
  0.7499992727709994  0.3068955155555153  0.2672608540875906   T   T   T
  0.7499992727709994  0.8064658476413176  0.2671132845355204   T   T   T
  0.0012909673052636  0.0580464745582144  0.2947731047924595   T   T   T
  0.0029205699593939  0.5555588172714265  0.2941171054918129   T   T   T
  0.4987068946367356  0.0580464745582144  0.2947731047924595   T   T   T
  0.4970772919826053  0.5555588172714265  0.2941171054918129   T   T   T
  0.0076806598542655  0.3087602621570259  0.3559764504754338   T   T   T
  0.0115441645528781  0.8059440440165505  0.3541318229095564   T   T   T
  0.4923183705057289  0.3087602621570259  0.3559764504754338   T   T   T
  0.4884548658071234  0.8059440440165505  0.3541318229095564   T   T   T
  0.2499991733809992  0.0618208430767244  0.3831929846023304   T   T   T
  0.2499991733809992  0.5572311302305590  0.3857538050720629   T   T   T
  0.7499991733809992  0.0682631456700071  0.3791252348063113   T   T   T
  0.7499991733809992  0.5543229495050696  0.3805951001819793   T   T   T
  0.2499997575899968  0.8021618836439605  0.4503665654218875   T   T   T
  0.7499997575899968  0.3048774786450387  0.4455433289386102   T   T   T
  0.7499997575899968  0.8334041308912694  0.4328866383731810   T   T   T
  0.0116468256170999  0.0934894358345477  0.4617811522946417   T   T   T
  0.9935843173122766  0.5429627364566680  0.4707936157085837   T   T   T
  0.4883520059629011  0.0934894358345477  0.4617811522946417   T   T   T
  0.5064145142677173  0.5429627364566680  0.4707936157085837   T   T   T
 
  0.00000000E+00  0.00000000E+00  0.00000000E+00
  0.00000000E+00  0.00000000E+00  0.00000000E+00
  0.00000000E+00  0.00000000E+00  0.00000000E+00
  0.00000000E+00  0.00000000E+00  0.00000000E+00
  0.00000000E+00  0.00000000E+00  0.00000000E+00
  0.00000000E+00  0.00000000E+00  0.00000000E+00
  0.00000000E+00  0.00000000E+00  0.00000000E+00
  0.00000000E+00  0.00000000E+00  0.00000000E+00
  0.00000000E+00  0.00000000E+00  0.00000000E+00
  0.00000000E+00  0.00000000E+00  0.00000000E+00
  0.00000000E+00  0.00000000E+00  0.00000000E+00
  0.00000000E+00  0.00000000E+00  0.00000000E+00
  0.00000000E+00  0.00000000E+00  0.00000000E+00
  0.00000000E+00  0.00000000E+00  0.00000000E+00
  0.00000000E+00  0.00000000E+00  0.00000000E+00
  0.00000000E+00  0.00000000E+00  0.00000000E+00
  0.00000000E+00  0.00000000E+00  0.00000000E+00
  0.00000000E+00  0.00000000E+00  0.00000000E+00
  0.00000000E+00  0.00000000E+00  0.00000000E+00
  0.00000000E+00  0.00000000E+00  0.00000000E+00
  0.00000000E+00  0.00000000E+00  0.00000000E+00
  0.00000000E+00  0.00000000E+00  0.00000000E+00
  0.00000000E+00  0.00000000E+00  0.00000000E+00
  0.00000000E+00  0.00000000E+00  0.00000000E+00
  0.00000000E+00  0.00000000E+00  0.00000000E+00
  0.00000000E+00  0.00000000E+00  0.00000000E+00
  0.00000000E+00  0.00000000E+00  0.00000000E+00
  0.00000000E+00  0.00000000E+00  0.00000000E+00
  0.00000000E+00  0.00000000E+00  0.00000000E+00
  0.00000000E+00  0.00000000E+00  0.00000000E+00
  0.00000000E+00  0.00000000E+00  0.00000000E+00
  0.00000000E+00  0.00000000E+00  0.00000000E+00
  0.00000000E+00  0.00000000E+00  0.00000000E+00
  0.00000000E+00  0.00000000E+00  0.00000000E+00
  0.00000000E+00  0.00000000E+00  0.00000000E+00
  0.00000000E+00  0.00000000E+00  0.00000000E+00
  0.00000000E+00  0.00000000E+00  0.00000000E+00
  0.00000000E+00  0.00000000E+00  0.00000000E+00
  0.00000000E+00  0.00000000E+00  0.00000000E+00
  0.00000000E+00  0.00000000E+00  0.00000000E+00
  0.00000000E+00  0.00000000E+00  0.00000000E+00
  0.00000000E+00  0.00000000E+00  0.00000000E+00
  0.00000000E+00  0.00000000E+00  0.00000000E+00
  0.00000000E+00  0.00000000E+00  0.00000000E+00
  0.00000000E+00  0.00000000E+00  0.00000000E+00
  0.00000000E+00  0.00000000E+00  0.00000000E+00
  0.00000000E+00  0.00000000E+00  0.00000000E+00
  0.00000000E+00  0.00000000E+00  0.00000000E+00
  0.00000000E+00  0.00000000E+00  0.00000000E+00
  0.00000000E+00  0.00000000E+00  0.00000000E+00
  0.00000000E+00  0.00000000E+00  0.00000000E+00
  0.00000000E+00  0.00000000E+00  0.00000000E+00
  0.00000000E+00  0.00000000E+00  0.00000000E+00
  0.00000000E+00  0.00000000E+00  0.00000000E+00
  0.00000000E+00  0.00000000E+00  0.00000000E+00
  0.00000000E+00  0.00000000E+00  0.00000000E+00
  0.00000000E+00  0.00000000E+00  0.00000000E+00
  0.00000000E+00  0.00000000E+00  0.00000000E+00
  0.00000000E+00  0.00000000E+00  0.00000000E+00
  0.00000000E+00  0.00000000E+00  0.00000000E+00
  0.00000000E+00  0.00000000E+00  0.00000000E+00
  0.00000000E+00  0.00000000E+00  0.00000000E+00
  0.00000000E+00  0.00000000E+00  0.00000000E+00
  0.00000000E+00  0.00000000E+00  0.00000000E+00
  0.00000000E+00  0.00000000E+00  0.00000000E+00
  0.00000000E+00  0.00000000E+00  0.00000000E+00
  0.00000000E+00  0.00000000E+00  0.00000000E+00
  0.00000000E+00  0.00000000E+00  0.00000000E+00
  0.00000000E+00  0.00000000E+00  0.00000000E+00
  0.00000000E+00  0.00000000E+00  0.00000000E+00
  0.00000000E+00  0.00000000E+00  0.00000000E+00
  0.00000000E+00  0.00000000E+00  0.00000000E+00
  0.00000000E+00  0.00000000E+00  0.00000000E+00
  0.00000000E+00  0.00000000E+00  0.00000000E+00
  0.00000000E+00  0.00000000E+00  0.00000000E+00
  0.00000000E+00  0.00000000E+00  0.00000000E+00
  0.00000000E+00  0.00000000E+00  0.00000000E+00
  0.00000000E+00  0.00000000E+00  0.00000000E+00
  0.00000000E+00  0.00000000E+00  0.00000000E+00
  0.00000000E+00  0.00000000E+00  0.00000000E+00
  0.00000000E+00  0.00000000E+00  0.00000000E+00
