Li Ni O Zn                              
   1.00000000000000     
     6.5625568183449996    0.0000000000000000    0.0000000000000000
     0.0000000000000000   10.5156600000000005    0.0000000000000000
     0.0000000000000000    0.0000000000000000   32.0500282661819966
   Li   Ni   O    Zn
     1     1    40    39
Selective dynamics
Direct
  0.2499997575899968  0.3150098317824441  0.4459919383959048   T   T   T
  0.7499973160219966  0.7418103187678781  0.5043602799373923   T   T   T
  0.2499987879510002  0.0015975627242092  0.0885359755100763   T   T   T
  0.2499987879510002  0.5015752344146350  0.0882852495011688   T   T   T
  0.7499987879510002  0.0017073319528536  0.0884853225357790   T   T   T
  0.7499987879510002  0.5015290869134196  0.0882252254208750   T   T   T
 -0.0000054339730830  0.2480508254710577  0.1190674146405171   T   T   T
 -0.0002108117080179  0.7479960868473277  0.1190354942424391   T   T   T
  0.5000023262750837  0.2480508254710577  0.1190674146405171   T   T   T
  0.5002077040100188  0.7479960868473277  0.1190354942424391   T   T   T
 -0.0003302845143804  0.9979450699088953  0.1765480892841791   T   T   T
 -0.0004790505144007  0.4978715876923716  0.1761232274553018   T   T   T
  0.5003283452363797  0.9979450699088953  0.1765480892841791   T   T   T
  0.5004771112364002  0.4978715876923716  0.1761232274553018   T   T   T
  0.2499986885609999  0.2466462381918837  0.2075929317828507   T   T   T
  0.2499986885609999  0.7464230315427259  0.2073012537141617   T   T   T
  0.7499986885609999  0.2465533379535550  0.2077374185356599   T   T   T
  0.7499986885609999  0.7467033283891875  0.2080674517262366   T   T   T
  0.2499992727709994  0.9970745313510141  0.2654283795330193   T   T   T
  0.2499992727709994  0.4964670558118876  0.2646704297223547   T   T   T
  0.7499992727709994  0.9965998941581541  0.2657779058097282   T   T   T
  0.7499992727709994  0.4973305376826769  0.2651995409632258   T   T   T
  0.9998574936844785  0.2468902600474810  0.2962098807252723   T   T   T
  0.0020921582014368  0.7464066907303730  0.2962637398615667   T   T   T
  0.5001403682575206  0.2468902600474810  0.2962098807252723   T   T   T
  0.4979057037405624  0.7464066907303730  0.2962637398615667   T   T   T
  0.0005908474444460  0.9943816421114745  0.3543491741959744   T   T   T
  0.0039137801059483  0.4979512144287204  0.3535273070310427   T   T   T
  0.4994081829155556  0.9943816421114745  0.3543491741959744   T   T   T
  0.4960852502540461  0.4979512144287204  0.3535273070310427   T   T   T
  0.2499991733809992  0.2458461674683650  0.3848460465157603   T   T   T
  0.2499991733809992  0.7484801071330948  0.3885449329328048   T   T   T
  0.7499991733809992  0.2513580643146880  0.3841938903778855   T   T   T
  0.7499991733809992  0.7434759841931681  0.3828489727619646   T   T   T
  0.2499997575899968  0.9947623106868237  0.4440301782550538   T   T   T
  0.2499997575899968  0.5012587550770499  0.4433467564533667   T   T   T
  0.7499997575899968  0.0049174460797140  0.4417923654785525   T   T   T
  0.7499997575899968  0.4982805682794973  0.4410635044329272   T   T   T
  0.0074574702093185  0.2611396512543631  0.4721085255006017   T   T   T
  0.0001545224733444  0.7434147196194952  0.4780176847305511   T   T   T
  0.4925413613706828  0.2611396512543631  0.4721085255006017   T   T   T
  0.4998443091066567  0.7434147196194952  0.4780176847305511   T   T   T
  0.2499987879510002  0.3273071764766732  0.0997214182342360   T   T   T
  0.2499987879510002  0.8272567458500726  0.0997342446144427   T   T   T
  0.7499987879510002  0.3273066662780781  0.0997119592751760   T   T   T
  0.7499987879510002  0.8273507889505751  0.0995711560605026   T   T   T
 -0.0000519598576738  0.0586036865381646  0.1144897207169633   T   T   T
 -0.0001091302261088  0.5584666092477807  0.1141743374759074   T   T   T
  0.5000488521596743  0.0586036865381646  0.1144897207169633   T   T   T
  0.5001060225281097  0.5584666092477807  0.1141743374759074   T   T   T
 -0.0002379329416472  0.3088985255990015  0.1799035002073581   T   T   T
 -0.0008807190717980  0.8091410201899512  0.1797827992056867   T   T   T
  0.5002359936636468  0.3088985255990015  0.1799035002073581   T   T   T
  0.5008787797937976  0.8091410201899512  0.1797827992056867   T   T   T
  0.2499986885609999  0.0559625719589271  0.2056178154766202   T   T   T
  0.2499986885609999  0.5552845861489273  0.2051080930865655   T   T   T
  0.7499986885609999  0.0556861326741531  0.2059818440064772   T   T   T
  0.7499986885609999  0.5555928898067154  0.2054570012365992   T   T   T
  0.2499992727709994  0.3058244566702826  0.2672040106971383   T   T   T
  0.2499992727709994  0.8072908482569086  0.2662803040846398   T   T   T
  0.7499992727709994  0.3065083389898180  0.2673241269204228   T   T   T
  0.7499992727709994  0.8066502936483724  0.2674673425457621   T   T   T
  0.0005411019398009  0.0571872813087636  0.2949470784287970   T   T   T
  0.0013334171623574  0.5554559599259385  0.2941459802075327   T   T   T
  0.4994567600021983  0.0571872813087636  0.2949470784287970   T   T   T
  0.4986644447796417  0.5554559599259385  0.2941459802075327   T   T   T
  0.0049422154811892  0.3052941687327502  0.3567255848868494   T   T   T
  0.0076096319486520  0.8049282719452111  0.3551377843990561   T   T   T
  0.4950568148788052  0.3052941687327502  0.3567255848868494   T   T   T
  0.4923893984113495  0.8049282719452111  0.3551377843990561   T   T   T
  0.2499991733809992  0.0608592455489611  0.3825469033953970   T   T   T
  0.2499991733809992  0.5559218087952893  0.3837233479129751   T   T   T
  0.7499991733809992  0.0654515841457625  0.3803472691564207   T   T   T
  0.7499991733809992  0.5509089742041793  0.3808800533760562   T   T   T
  0.2499997575899968  0.8089868477836768  0.4491306591573264   T   T   T
  0.7499997575899968  0.3052189405949423  0.4492142376067715   T   T   T
  0.7499997575899968  0.8228540721443054  0.4365331840896214   T   T   T
  0.0064171231424266  0.0902585582635741  0.4612689968726719   T   T   T
 -0.0007229623347093  0.5608910345720238  0.4647760756827948   T   T   T
  0.4935817084375743  0.0902585582635741  0.4612689968726719   T   T   T
  0.5007217939147032  0.5608910345720238  0.4647760756827948   T   T   T
 
  0.00000000E+00  0.00000000E+00  0.00000000E+00
  0.00000000E+00  0.00000000E+00  0.00000000E+00
  0.00000000E+00  0.00000000E+00  0.00000000E+00
  0.00000000E+00  0.00000000E+00  0.00000000E+00
  0.00000000E+00  0.00000000E+00  0.00000000E+00
  0.00000000E+00  0.00000000E+00  0.00000000E+00
  0.00000000E+00  0.00000000E+00  0.00000000E+00
  0.00000000E+00  0.00000000E+00  0.00000000E+00
  0.00000000E+00  0.00000000E+00  0.00000000E+00
  0.00000000E+00  0.00000000E+00  0.00000000E+00
  0.00000000E+00  0.00000000E+00  0.00000000E+00
  0.00000000E+00  0.00000000E+00  0.00000000E+00
  0.00000000E+00  0.00000000E+00  0.00000000E+00
  0.00000000E+00  0.00000000E+00  0.00000000E+00
  0.00000000E+00  0.00000000E+00  0.00000000E+00
  0.00000000E+00  0.00000000E+00  0.00000000E+00
  0.00000000E+00  0.00000000E+00  0.00000000E+00
  0.00000000E+00  0.00000000E+00  0.00000000E+00
  0.00000000E+00  0.00000000E+00  0.00000000E+00
  0.00000000E+00  0.00000000E+00  0.00000000E+00
  0.00000000E+00  0.00000000E+00  0.00000000E+00
  0.00000000E+00  0.00000000E+00  0.00000000E+00
  0.00000000E+00  0.00000000E+00  0.00000000E+00
  0.00000000E+00  0.00000000E+00  0.00000000E+00
  0.00000000E+00  0.00000000E+00  0.00000000E+00
  0.00000000E+00  0.00000000E+00  0.00000000E+00
  0.00000000E+00  0.00000000E+00  0.00000000E+00
  0.00000000E+00  0.00000000E+00  0.00000000E+00
  0.00000000E+00  0.00000000E+00  0.00000000E+00
  0.00000000E+00  0.00000000E+00  0.00000000E+00
  0.00000000E+00  0.00000000E+00  0.00000000E+00
  0.00000000E+00  0.00000000E+00  0.00000000E+00
  0.00000000E+00  0.00000000E+00  0.00000000E+00
  0.00000000E+00  0.00000000E+00  0.00000000E+00
  0.00000000E+00  0.00000000E+00  0.00000000E+00
  0.00000000E+00  0.00000000E+00  0.00000000E+00
  0.00000000E+00  0.00000000E+00  0.00000000E+00
  0.00000000E+00  0.00000000E+00  0.00000000E+00
  0.00000000E+00  0.00000000E+00  0.00000000E+00
  0.00000000E+00  0.00000000E+00  0.00000000E+00
  0.00000000E+00  0.00000000E+00  0.00000000E+00
  0.00000000E+00  0.00000000E+00  0.00000000E+00
  0.00000000E+00  0.00000000E+00  0.00000000E+00
  0.00000000E+00  0.00000000E+00  0.00000000E+00
  0.00000000E+00  0.00000000E+00  0.00000000E+00
  0.00000000E+00  0.00000000E+00  0.00000000E+00
  0.00000000E+00  0.00000000E+00  0.00000000E+00
  0.00000000E+00  0.00000000E+00  0.00000000E+00
  0.00000000E+00  0.00000000E+00  0.00000000E+00
  0.00000000E+00  0.00000000E+00  0.00000000E+00
  0.00000000E+00  0.00000000E+00  0.00000000E+00
  0.00000000E+00  0.00000000E+00  0.00000000E+00
  0.00000000E+00  0.00000000E+00  0.00000000E+00
  0.00000000E+00  0.00000000E+00  0.00000000E+00
  0.00000000E+00  0.00000000E+00  0.00000000E+00
  0.00000000E+00  0.00000000E+00  0.00000000E+00
  0.00000000E+00  0.00000000E+00  0.00000000E+00
  0.00000000E+00  0.00000000E+00  0.00000000E+00
  0.00000000E+00  0.00000000E+00  0.00000000E+00
  0.00000000E+00  0.00000000E+00  0.00000000E+00
  0.00000000E+00  0.00000000E+00  0.00000000E+00
  0.00000000E+00  0.00000000E+00  0.00000000E+00
  0.00000000E+00  0.00000000E+00  0.00000000E+00
  0.00000000E+00  0.00000000E+00  0.00000000E+00
  0.00000000E+00  0.00000000E+00  0.00000000E+00
  0.00000000E+00  0.00000000E+00  0.00000000E+00
  0.00000000E+00  0.00000000E+00  0.00000000E+00
  0.00000000E+00  0.00000000E+00  0.00000000E+00
  0.00000000E+00  0.00000000E+00  0.00000000E+00
  0.00000000E+00  0.00000000E+00  0.00000000E+00
  0.00000000E+00  0.00000000E+00  0.00000000E+00
  0.00000000E+00  0.00000000E+00  0.00000000E+00
  0.00000000E+00  0.00000000E+00  0.00000000E+00
  0.00000000E+00  0.00000000E+00  0.00000000E+00
  0.00000000E+00  0.00000000E+00  0.00000000E+00
  0.00000000E+00  0.00000000E+00  0.00000000E+00
  0.00000000E+00  0.00000000E+00  0.00000000E+00
  0.00000000E+00  0.00000000E+00  0.00000000E+00
  0.00000000E+00  0.00000000E+00  0.00000000E+00
  0.00000000E+00  0.00000000E+00  0.00000000E+00
  0.00000000E+00  0.00000000E+00  0.00000000E+00
