Ir Li O Zn                              
   1.00000000000000     
     6.5625568183449996    0.0000000000000000    0.0000000000000000
     0.0000000000000000   10.5156600000000005    0.0000000000000000
     0.0000000000000000    0.0000000000000000   32.0500282661819966
   Ir   Li   O    Zn
     1     1    40    39
Selective dynamics
Direct
  0.7499973160219966  0.7341327913845787  0.4983693826126703   T   T   T
  0.2499997575899968  0.3168336521292889  0.4459143838644088   T   T   T
  0.2499987879510002  0.0014900731069636  0.0885741714182591   T   T   T
  0.2499987879510002  0.5013860614211367  0.0881091598996086   T   T   T
  0.7499987879510002  0.0020469661091304  0.0881598291181537   T   T   T
  0.7499987879510002  0.5012924497009313  0.0876802190680211   T   T   T
  0.9997366881041574  0.2480411271251951  0.1188761030987360   T   T   T
  0.9992387788667061  0.7479057495224706  0.1185775423189661   T   T   T
  0.5002602041978432  0.2480411271251951  0.1188761030987360   T   T   T
  0.5007581134352945  0.7479057495224706  0.1185775423189661   T   T   T
  0.9989516138046194  0.9978523005486901  0.1764339207017852   T   T   T
  0.9987200519732213  0.4978775149919430  0.1758976334013554   T   T   T
  0.5010464469173802  0.9978523005486901  0.1764339207017852   T   T   T
  0.5012780087487783  0.4978775149919430  0.1758976334013554   T   T   T
  0.2499986885609999  0.2466378699982693  0.2071235195922142   T   T   T
  0.2499986885609999  0.7460745969362299  0.2063537276967801   T   T   T
  0.7499986885609999  0.2466346200018272  0.2078654571730863   T   T   T
  0.7499986885609999  0.7466216604318027  0.2079741023838407   T   T   T
  0.2499992727709994  0.9974681613261942  0.2649163042842168   T   T   T
  0.2499992727709994  0.4963194716251416  0.2641364499690647   T   T   T
  0.7499992727709994  0.9967379998719570  0.2659324779415321   T   T   T
  0.7499992727709994  0.4976340294876123  0.2653238040443259   T   T   T
  0.0008603562789450  0.2476671679406059  0.2959299285934690   T   T   T
  0.0044600607283239  0.7467555210515060  0.2955067119361678   T   T   T
  0.4991375056630541  0.2476671679406059  0.2959299285934690   T   T   T
  0.4955378012136752  0.7467555210515060  0.2955067119361678   T   T   T
  0.0029043614893646  0.9951967757580172  0.3539849547503664   T   T   T
  0.0068407094605383  0.5004227900001095  0.3533933587711596   T   T   T
  0.4970946688706369  0.9951967757580172  0.3539849547503664   T   T   T
  0.4931583208994560  0.5004227900001095  0.3533933587711596   T   T   T
  0.2499991733809992  0.2460483426067447  0.3849782215407792   T   T   T
  0.2499991733809992  0.7512670313182134  0.3907788194195060   T   T   T
  0.7499991733809992  0.2544166409794027  0.3823554962902111   T   T   T
  0.7499991733809992  0.7453516343747755  0.3789999087993856   T   T   T
  0.2499997575899968  0.9891135339189868  0.4451653514790336   T   T   T
  0.2499997575899968  0.5066459307967840  0.4445686040966065   T   T   T
  0.7499997575899968  0.0126262169958683  0.4394227103557692   T   T   T
  0.7499997575899968  0.4929097427761397  0.4388935406507924   T   T   T
  0.0067422610677744  0.2613618960033694  0.4713504488159079   T   T   T
  0.0387217796935294  0.7343370195707043  0.4930452481194867   T   T   T
  0.4932565705122267  0.2613618960033694  0.4713504488159079   T   T   T
  0.4612770518864717  0.7343370195707043  0.4930452481194867   T   T   T
  0.2499987879510002  0.3271327443895038  0.0996072582615487   T   T   T
  0.2499987879510002  0.8270115553064916  0.0995357472217941   T   T   T
  0.7499987879510002  0.3271820620871373  0.0993387740914370   T   T   T
  0.7499987879510002  0.8275902791618657  0.0989914510095508   T   T   T
  0.9996587972199863  0.0586204193650303  0.1143948509489272   T   T   T
  0.9994288087709470  0.5583251788316914  0.1138675356400575   T   T   T
  0.5003380950820143  0.0586204193650303  0.1143948509489272   T   T   T
  0.5005680835310536  0.5583251788316914  0.1138675356400575   T   T   T
  0.9990399874091135  0.3089501363831104  0.1797145323046032   T   T   T
  0.9981583017038553  0.8089147604882148  0.1793045029665221   T   T   T
  0.5009580733128861  0.3089501363831104  0.1797145323046032   T   T   T
  0.5018397590181443  0.8089147604882148  0.1793045029665221   T   T   T
  0.2499986885609999  0.0560451309224332  0.2051406707061158   T   T   T
  0.2499986885609999  0.5548875347942428  0.2046323385491098   T   T   T
  0.7499986885609999  0.0556873919448111  0.2061262372022676   T   T   T
  0.7499986885609999  0.5553777986022860  0.2055442311356859   T   T   T
  0.2499992727709994  0.3060532911519521  0.2665906654627510   T   T   T
  0.2499992727709994  0.8078155162238777  0.2649803405056991   T   T   T
  0.7499992727709994  0.3069021285090785  0.2674799886310942   T   T   T
  0.7499992727709994  0.8067059902423793  0.2674143306527333   T   T   T
  0.0017317584261922  0.0581915706468774  0.2945328521723208   T   T   T
  0.0025807700494866  0.5556954459449972  0.2939523675616430   T   T   T
  0.4982661035158069  0.0581915706468774  0.2945328521723208   T   T   T
  0.4974170918925125  0.5556954459449972  0.2939523675616430   T   T   T
  0.0079692321334595  0.3080799719978508  0.3562754469893246   T   T   T
  0.0141696991616372  0.8058992905179375  0.3541802057151432   T   T   T
  0.4920297982265349  0.3080799719978508  0.3562754469893246   T   T   T
  0.4858293311983643  0.8058992905179375  0.3541802057151432   T   T   T
  0.2499991733809992  0.0606165188085050  0.3834597632258221   T   T   T
  0.2499991733809992  0.5579796793254431  0.3848866800639215   T   T   T
  0.7499991733809992  0.0698319881749337  0.3780745646689311   T   T   T
  0.7499991733809992  0.5524301733202256  0.3803382921439967   T   T   T
  0.2499997575899968  0.8028908340073547  0.4532045874792346   T   T   T
  0.7499997575899968  0.3021939359384165  0.4469927493541879   T   T   T
  0.7499997575899968  0.8328977914422845  0.4306630604121331   T   T   T
  0.0096607634137478  0.0895996338680173  0.4618213412194084   T   T   T
  0.9927330974525274  0.5548325299505533  0.4672046841025480   T   T   T
  0.4903380681662532  0.0895996338680173  0.4618213412194084   T   T   T
  0.5072657341274666  0.5548325299505533  0.4672046841025480   T   T   T
 
  0.00000000E+00  0.00000000E+00  0.00000000E+00
  0.00000000E+00  0.00000000E+00  0.00000000E+00
  0.00000000E+00  0.00000000E+00  0.00000000E+00
  0.00000000E+00  0.00000000E+00  0.00000000E+00
  0.00000000E+00  0.00000000E+00  0.00000000E+00
  0.00000000E+00  0.00000000E+00  0.00000000E+00
  0.00000000E+00  0.00000000E+00  0.00000000E+00
  0.00000000E+00  0.00000000E+00  0.00000000E+00
  0.00000000E+00  0.00000000E+00  0.00000000E+00
  0.00000000E+00  0.00000000E+00  0.00000000E+00
  0.00000000E+00  0.00000000E+00  0.00000000E+00
  0.00000000E+00  0.00000000E+00  0.00000000E+00
  0.00000000E+00  0.00000000E+00  0.00000000E+00
  0.00000000E+00  0.00000000E+00  0.00000000E+00
  0.00000000E+00  0.00000000E+00  0.00000000E+00
  0.00000000E+00  0.00000000E+00  0.00000000E+00
  0.00000000E+00  0.00000000E+00  0.00000000E+00
  0.00000000E+00  0.00000000E+00  0.00000000E+00
  0.00000000E+00  0.00000000E+00  0.00000000E+00
  0.00000000E+00  0.00000000E+00  0.00000000E+00
  0.00000000E+00  0.00000000E+00  0.00000000E+00
  0.00000000E+00  0.00000000E+00  0.00000000E+00
  0.00000000E+00  0.00000000E+00  0.00000000E+00
  0.00000000E+00  0.00000000E+00  0.00000000E+00
  0.00000000E+00  0.00000000E+00  0.00000000E+00
  0.00000000E+00  0.00000000E+00  0.00000000E+00
  0.00000000E+00  0.00000000E+00  0.00000000E+00
  0.00000000E+00  0.00000000E+00  0.00000000E+00
  0.00000000E+00  0.00000000E+00  0.00000000E+00
  0.00000000E+00  0.00000000E+00  0.00000000E+00
  0.00000000E+00  0.00000000E+00  0.00000000E+00
  0.00000000E+00  0.00000000E+00  0.00000000E+00
  0.00000000E+00  0.00000000E+00  0.00000000E+00
  0.00000000E+00  0.00000000E+00  0.00000000E+00
  0.00000000E+00  0.00000000E+00  0.00000000E+00
  0.00000000E+00  0.00000000E+00  0.00000000E+00
  0.00000000E+00  0.00000000E+00  0.00000000E+00
  0.00000000E+00  0.00000000E+00  0.00000000E+00
  0.00000000E+00  0.00000000E+00  0.00000000E+00
  0.00000000E+00  0.00000000E+00  0.00000000E+00
  0.00000000E+00  0.00000000E+00  0.00000000E+00
  0.00000000E+00  0.00000000E+00  0.00000000E+00
  0.00000000E+00  0.00000000E+00  0.00000000E+00
  0.00000000E+00  0.00000000E+00  0.00000000E+00
  0.00000000E+00  0.00000000E+00  0.00000000E+00
  0.00000000E+00  0.00000000E+00  0.00000000E+00
  0.00000000E+00  0.00000000E+00  0.00000000E+00
  0.00000000E+00  0.00000000E+00  0.00000000E+00
  0.00000000E+00  0.00000000E+00  0.00000000E+00
  0.00000000E+00  0.00000000E+00  0.00000000E+00
  0.00000000E+00  0.00000000E+00  0.00000000E+00
  0.00000000E+00  0.00000000E+00  0.00000000E+00
  0.00000000E+00  0.00000000E+00  0.00000000E+00
  0.00000000E+00  0.00000000E+00  0.00000000E+00
  0.00000000E+00  0.00000000E+00  0.00000000E+00
  0.00000000E+00  0.00000000E+00  0.00000000E+00
  0.00000000E+00  0.00000000E+00  0.00000000E+00
  0.00000000E+00  0.00000000E+00  0.00000000E+00
  0.00000000E+00  0.00000000E+00  0.00000000E+00
  0.00000000E+00  0.00000000E+00  0.00000000E+00
  0.00000000E+00  0.00000000E+00  0.00000000E+00
  0.00000000E+00  0.00000000E+00  0.00000000E+00
  0.00000000E+00  0.00000000E+00  0.00000000E+00
  0.00000000E+00  0.00000000E+00  0.00000000E+00
  0.00000000E+00  0.00000000E+00  0.00000000E+00
  0.00000000E+00  0.00000000E+00  0.00000000E+00
  0.00000000E+00  0.00000000E+00  0.00000000E+00
  0.00000000E+00  0.00000000E+00  0.00000000E+00
  0.00000000E+00  0.00000000E+00  0.00000000E+00
  0.00000000E+00  0.00000000E+00  0.00000000E+00
  0.00000000E+00  0.00000000E+00  0.00000000E+00
  0.00000000E+00  0.00000000E+00  0.00000000E+00
  0.00000000E+00  0.00000000E+00  0.00000000E+00
  0.00000000E+00  0.00000000E+00  0.00000000E+00
  0.00000000E+00  0.00000000E+00  0.00000000E+00
  0.00000000E+00  0.00000000E+00  0.00000000E+00
  0.00000000E+00  0.00000000E+00  0.00000000E+00
  0.00000000E+00  0.00000000E+00  0.00000000E+00
  0.00000000E+00  0.00000000E+00  0.00000000E+00
  0.00000000E+00  0.00000000E+00  0.00000000E+00
  0.00000000E+00  0.00000000E+00  0.00000000E+00
