Li Mn O Zn                              
   1.00000000000000     
     6.5625568183449996    0.0000000000000000    0.0000000000000000
     0.0000000000000000   10.5156600000000005    0.0000000000000000
     0.0000000000000000    0.0000000000000000   32.0500282661819966
   Li   Mn   O    Zn
     1     1    40    39
Selective dynamics
Direct
  0.2500005772121296  0.3162225003010699  0.4460789353267021   T   T   T
  0.7499991707615848  0.7352272835777285  0.5103000592022711   T   T   T
  0.2499990638608853  0.0015159916520101  0.0885223652305354   T   T   T
  0.2500001909177413  0.5014517098499068  0.0881045859227538   T   T   T
  0.7499993665204263  0.0017788912725335  0.0883464809173259   T   T   T
  0.7500007951071301  0.5013474898095461  0.0879202085506398   T   T   T
  0.9999365088671431  0.2479945431903683  0.1190499221204043   T   T   T
  0.9996707695275149  0.7479160860235311  0.1188874058129417   T   T   T
  0.5000597455708875  0.2479925800287585  0.1190501317942698   T   T   T
  0.5003206190794779  0.7479184751453278  0.1188874376322808   T   T   T
  0.9995686393744114  0.9978518128266205  0.1765910070030491   T   T   T
  0.9993612070467325  0.4977661164856235  0.1760095226507623   T   T   T
  0.5004304780298899  0.9978513367449443  0.1765910723622558   T   T   T
  0.5006385164724478  0.4977663870438668  0.1760091510703306   T   T   T
  0.2499986706853500  0.2464402837928092  0.2076031939850684   T   T   T
  0.2499991477243887  0.7462170084867660  0.2071165529707793   T   T   T
  0.7499992592400426  0.2465136599860097  0.2078759840099399   T   T   T
  0.7499999250205273  0.7464152104713696  0.2078015668849598   T   T   T
  0.2499990928298876  0.9969113864699614  0.2654914096986883   T   T   T
  0.2499995161470915  0.4960411873713108  0.2645074832105777   T   T   T
  0.7499992264941391  0.9965010580373624  0.2658487348179006   T   T   T
  0.7499995050619742  0.4969758661992216  0.2652381836767271   T   T   T
  0.0000517401157469  0.2469416511446317  0.2962738453900582   T   T   T
  0.0020509043295504  0.7458360206022459  0.2958112832258518   T   T   T
  0.4999466702961381  0.2469409808629638  0.2962739182859502   T   T   T
  0.4979469492682800  0.7458363384531917  0.2958113607882221   T   T   T
  0.0006925949836927  0.9947842596767942  0.3543719537352012   T   T   T
  0.0047968826786741  0.4977804914125273  0.3534329844106737   T   T   T
  0.4993053368974200  0.9947835207888687  0.3543720209711968   T   T   T
  0.4952009051244538  0.4977805227031789  0.3534329570733946   T   T   T
  0.2499992888583036  0.2465364399779693  0.3852044150905878   T   T   T
  0.2499967694286436  0.7482699002838814  0.3881420420715804   T   T   T
  0.7499992328445082  0.2513607425562018  0.3841968147824310   T   T   T
  0.7499957078786360  0.7440036313653843  0.3821664137169465   T   T   T
  0.2500004350793807  0.9936211439468270  0.4443336242078504   T   T   T
  0.2500011288321365  0.5059429254273906  0.4444237008627777   T   T   T
  0.7499995032836992  0.0044559508185991  0.4423313399947046   T   T   T
  0.7499999480803256  0.4990168690882349  0.4402643233443789   T   T   T
  0.0067868136120524  0.2620513654576830  0.4722249248928620   T   T   T
  0.9886016617441159  0.7488762020542009  0.4769124631790407   T   T   T
  0.4932141041077218  0.2620516344142704  0.4722250465279805   T   T   T
  0.5113964020213427  0.7488765415969649  0.4769123388158615   T   T   T
  0.2499992847909288  0.3271897383968932  0.0996181355933729   T   T   T
  0.2499965539690493  0.8270719063187333  0.0995923028485898   T   T   T
  0.7499976560320334  0.3271650978975407  0.0995417807668984   T   T   T
  0.7499955235720666  0.8273518107626930  0.0993676372765399   T   T   T
  0.9998673862066083  0.0584883141106895  0.1144766952810568   T   T   T
  0.9997251814692780  0.5583583940665805  0.1139703843452948   T   T   T
  0.5001298225506017  0.0584881354777662  0.1144767231381065   T   T   T
  0.5002744907545528  0.5583604213169259  0.1139701210068473   T   T   T
  0.9996364399370156  0.3088311773816192  0.1798956540710401   T   T   T
  0.9992266316179882  0.8089911502376127  0.1796330245590824   T   T   T
  0.5003617779556898  0.3088311602642839  0.1798957137052442   T   T   T
  0.5007728553625143  0.8089916461353821  0.1796332250132215   T   T   T
  0.2499994426845341  0.0557340479917754  0.2056381792587996   T   T   T
  0.2500006842827164  0.5550816971806186  0.2049731834877243   T   T   T
  0.7499993662869163  0.0556619528079705  0.2060212235429462   T   T   T
  0.7500017132460759  0.5552804593811699  0.2054695438362403   T   T   T
  0.2499987445331532  0.3056822670613917  0.2671038369270510   T   T   T
  0.2499989231759355  0.8071133064846089  0.2660064067701582   T   T   T
  0.7499983031816605  0.3064085490844088  0.2673975713032156   T   T   T
  0.7499991860608256  0.8064446010538662  0.2670915689700369   T   T   T
  0.0005091673047393  0.0573608450363569  0.2948704330661877   T   T   T
  0.0017573066859136  0.5548253407027006  0.2940311361297605   T   T   T
  0.4994882270106807  0.0573602809182280  0.2948697431022926   T   T   T
  0.4982426128135042  0.5548259316761472  0.2940307761207059   T   T   T
  0.0053031933265700  0.3054518105345139  0.3566084691773311   T   T   T
  0.0078988259202461  0.8051240848436031  0.3545148111455966   T   T   T
  0.4946952613959190  0.3054517059154405  0.3566083764466956   T   T   T
  0.4920941507963020  0.8051231273958652  0.3545152527544889   T   T   T
  0.2499993566971797  0.0613856874068787  0.3824913202460907   T   T   T
  0.2499988976717046  0.5556316469656783  0.3840503404747877   T   T   T
  0.7499984662030610  0.0653391234920661  0.3805488886788403   T   T   T
  0.7499987978808628  0.5515109849002187  0.3803702632340058   T   T   T
  0.2499985452894579  0.8070475833656588  0.4484867252382594   T   T   T
  0.7500005337223762  0.3060278348382237  0.4484291641721027   T   T   T
  0.7499986908171311  0.8222474834616875  0.4360797443966116   T   T   T
  0.0072922659123530  0.0911156040598674  0.4611134797540655   T   T   T
  0.9961705210615474  0.5575698324502849  0.4668151582209466   T   T   T
  0.4927068702543895  0.0911159275310565  0.4611138300601655   T   T   T
  0.5038308362272736  0.5575707563593213  0.4668157223929114   T   T   T
 
  0.00000000E+00  0.00000000E+00  0.00000000E+00
  0.00000000E+00  0.00000000E+00  0.00000000E+00
  0.00000000E+00  0.00000000E+00  0.00000000E+00
  0.00000000E+00  0.00000000E+00  0.00000000E+00
  0.00000000E+00  0.00000000E+00  0.00000000E+00
  0.00000000E+00  0.00000000E+00  0.00000000E+00
  0.00000000E+00  0.00000000E+00  0.00000000E+00
  0.00000000E+00  0.00000000E+00  0.00000000E+00
  0.00000000E+00  0.00000000E+00  0.00000000E+00
  0.00000000E+00  0.00000000E+00  0.00000000E+00
  0.00000000E+00  0.00000000E+00  0.00000000E+00
  0.00000000E+00  0.00000000E+00  0.00000000E+00
  0.00000000E+00  0.00000000E+00  0.00000000E+00
  0.00000000E+00  0.00000000E+00  0.00000000E+00
  0.00000000E+00  0.00000000E+00  0.00000000E+00
  0.00000000E+00  0.00000000E+00  0.00000000E+00
  0.00000000E+00  0.00000000E+00  0.00000000E+00
  0.00000000E+00  0.00000000E+00  0.00000000E+00
  0.00000000E+00  0.00000000E+00  0.00000000E+00
  0.00000000E+00  0.00000000E+00  0.00000000E+00
  0.00000000E+00  0.00000000E+00  0.00000000E+00
  0.00000000E+00  0.00000000E+00  0.00000000E+00
  0.00000000E+00  0.00000000E+00  0.00000000E+00
  0.00000000E+00  0.00000000E+00  0.00000000E+00
  0.00000000E+00  0.00000000E+00  0.00000000E+00
  0.00000000E+00  0.00000000E+00  0.00000000E+00
  0.00000000E+00  0.00000000E+00  0.00000000E+00
  0.00000000E+00  0.00000000E+00  0.00000000E+00
  0.00000000E+00  0.00000000E+00  0.00000000E+00
  0.00000000E+00  0.00000000E+00  0.00000000E+00
  0.00000000E+00  0.00000000E+00  0.00000000E+00
  0.00000000E+00  0.00000000E+00  0.00000000E+00
  0.00000000E+00  0.00000000E+00  0.00000000E+00
  0.00000000E+00  0.00000000E+00  0.00000000E+00
  0.00000000E+00  0.00000000E+00  0.00000000E+00
  0.00000000E+00  0.00000000E+00  0.00000000E+00
  0.00000000E+00  0.00000000E+00  0.00000000E+00
  0.00000000E+00  0.00000000E+00  0.00000000E+00
  0.00000000E+00  0.00000000E+00  0.00000000E+00
  0.00000000E+00  0.00000000E+00  0.00000000E+00
  0.00000000E+00  0.00000000E+00  0.00000000E+00
  0.00000000E+00  0.00000000E+00  0.00000000E+00
  0.00000000E+00  0.00000000E+00  0.00000000E+00
  0.00000000E+00  0.00000000E+00  0.00000000E+00
  0.00000000E+00  0.00000000E+00  0.00000000E+00
  0.00000000E+00  0.00000000E+00  0.00000000E+00
  0.00000000E+00  0.00000000E+00  0.00000000E+00
  0.00000000E+00  0.00000000E+00  0.00000000E+00
  0.00000000E+00  0.00000000E+00  0.00000000E+00
  0.00000000E+00  0.00000000E+00  0.00000000E+00
  0.00000000E+00  0.00000000E+00  0.00000000E+00
  0.00000000E+00  0.00000000E+00  0.00000000E+00
  0.00000000E+00  0.00000000E+00  0.00000000E+00
  0.00000000E+00  0.00000000E+00  0.00000000E+00
  0.00000000E+00  0.00000000E+00  0.00000000E+00
  0.00000000E+00  0.00000000E+00  0.00000000E+00
  0.00000000E+00  0.00000000E+00  0.00000000E+00
  0.00000000E+00  0.00000000E+00  0.00000000E+00
  0.00000000E+00  0.00000000E+00  0.00000000E+00
  0.00000000E+00  0.00000000E+00  0.00000000E+00
  0.00000000E+00  0.00000000E+00  0.00000000E+00
  0.00000000E+00  0.00000000E+00  0.00000000E+00
  0.00000000E+00  0.00000000E+00  0.00000000E+00
  0.00000000E+00  0.00000000E+00  0.00000000E+00
  0.00000000E+00  0.00000000E+00  0.00000000E+00
  0.00000000E+00  0.00000000E+00  0.00000000E+00
  0.00000000E+00  0.00000000E+00  0.00000000E+00
  0.00000000E+00  0.00000000E+00  0.00000000E+00
  0.00000000E+00  0.00000000E+00  0.00000000E+00
  0.00000000E+00  0.00000000E+00  0.00000000E+00
  0.00000000E+00  0.00000000E+00  0.00000000E+00
  0.00000000E+00  0.00000000E+00  0.00000000E+00
  0.00000000E+00  0.00000000E+00  0.00000000E+00
  0.00000000E+00  0.00000000E+00  0.00000000E+00
  0.00000000E+00  0.00000000E+00  0.00000000E+00
  0.00000000E+00  0.00000000E+00  0.00000000E+00
  0.00000000E+00  0.00000000E+00  0.00000000E+00
  0.00000000E+00  0.00000000E+00  0.00000000E+00
  0.00000000E+00  0.00000000E+00  0.00000000E+00
  0.00000000E+00  0.00000000E+00  0.00000000E+00
  0.00000000E+00  0.00000000E+00  0.00000000E+00
