Li O Pd Zn                              
   1.00000000000000     
     6.5625568183449996    0.0000000000000000    0.0000000000000000
     0.0000000000000000   10.5156600000000005    0.0000000000000000
     0.0000000000000000    0.0000000000000000   32.0500282661819966
   Li   O    Pd   Zn
     1    40     1    39
Selective dynamics
Direct
  0.2489666233222161  0.3117241122398140  0.4458186201906949   T   T   T
  0.2500009354597683  0.0015631682628300  0.0883702359167093   T   T   T
  0.2500054764873645  0.5015314580432381  0.0882992822752891   T   T   T
  0.7499963766487213  0.0015651500795550  0.0883805311261016   T   T   T
  0.7500005253993812  0.5015206042459208  0.0883008869997603   T   T   T
  0.0000077383031343  0.2480304484856998  0.1191139107856090   T   T   T
  0.0000033168865819  0.7479990122391419  0.1190585917157821   T   T   T
  0.4999888231832721  0.2480291848111464  0.1191163588828754   T   T   T
  0.4999917623019551  0.7480055722225252  0.1190675349709539   T   T   T
 -0.0000011977122655  0.9980717853941755  0.1764295655183171   T   T   T
 -0.0000069506085118  0.4980631293127448  0.1763170577118062   T   T   T
  0.5000024563335008  0.9980640604692099  0.1764397573799711   T   T   T
  0.5000057935952856  0.4980640418852321  0.1763184054542790   T   T   T
  0.2499927165327203  0.2467363568669335  0.2078353375695205   T   T   T
  0.2499919582769489  0.7466473999406898  0.2077757082339351   T   T   T
  0.7500026268222271  0.2467916316165872  0.2078309981774727   T   T   T
  0.7500055729502489  0.7466749040072216  0.2077740975403602   T   T   T
  0.2498676437697454  0.9970596848050707  0.2654539724102251   T   T   T
  0.2500237844031574  0.4968763526715010  0.2652392224904630   T   T   T
  0.7501482499438963  0.9969916826961347  0.2654329640367132   T   T   T
  0.7499746195273426  0.4971602985988952  0.2652568804816438   T   T   T
  0.9996272352094330  0.2471972473796356  0.2963606202762277   T   T   T
  0.0000290540775174  0.7463487127172570  0.2959676433012638   T   T   T
  0.5003374181447362  0.2473163441339676  0.2963498087496751   T   T   T
  0.4999741652276669  0.7465403743314553  0.2961230045415034   T   T   T
  0.9998805358352472  0.9957684687934650  0.3539766487197748   T   T   T
  0.9998048135394708  0.4965173937370649  0.3536910816268358   T   T   T
  0.5001602628605002  0.9958844303784511  0.3537670009293815   T   T   T
  0.5001967683302422  0.4965304193880650  0.3536402300773084   T   T   T
  0.2497670046120793  0.2478971794353774  0.3848561080503279   T   T   T
  0.2499738860816402  0.7453068712680481  0.3848236190537505   T   T   T
  0.7499854655994949  0.2489610008566382  0.3850683686099576   T   T   T
  0.7500371020720485  0.7462281468912295  0.3849071828555689   T   T   T
  0.2486853421242476  0.9962563240886736  0.4419253557954825   T   T   T
  0.2502623849814851  0.4981834488674048  0.4427066006038823   T   T   T
  0.7518954325177811  0.9982306879296725  0.4421570533340614   T   T   T
  0.7496196450282314  0.4997866279944191  0.4430512623111751   T   T   T
  0.0035928357638008  0.2561175656013136  0.4730351948394982   T   T   T
  0.9993151829664511  0.7477668133753325  0.4748226323473471   T   T   T
  0.4966391679983362  0.2533087826176124  0.4718473864346123   T   T   T
  0.5004361856453440  0.7493194188585781  0.4717706519676871   T   T   T
  0.5010233748634840  0.8843018647168719  0.5178365879735295   T   T   T
  0.2499996322851189  0.3272694931458596  0.0997328867700693   T   T   T
  0.2500061940246571  0.8272401407440392  0.0996768989450449   T   T   T
  0.7499961279017008  0.3272566524386045  0.0997383126861376   T   T   T
  0.7499864207964553  0.8272412661554499  0.0996842875403588   T   T   T
  0.0000099113098956  0.0585165774671055  0.1144386866623622   T   T   T
  0.0000002337216610  0.5584391780077202  0.1143649034221776   T   T   T
  0.4999858689251561  0.0585166981291212  0.1144390683402539   T   T   T
  0.5000039634065666  0.5584447269984328  0.1143664197483745   T   T   T
 -0.0000099119307645  0.3090735519926832  0.1800140504884366   T   T   T
 -0.0000100390120867  0.8091241034914621  0.1799177909716041   T   T   T
  0.5000048857269546  0.3090736054543801  0.1800178486667758   T   T   T
  0.5000083483259651  0.8091074574963090  0.1799320638923777   T   T   T
  0.2499751190105232  0.0558074414971037  0.2057583124978420   T   T   T
  0.2499983337145859  0.5555493534190357  0.2056241172477281   T   T   T
  0.7500271904394198  0.0558711008248213  0.2057631140429242   T   T   T
  0.7499998982947728  0.5555891954397969  0.2056334926841941   T   T   T
  0.2499540720341906  0.3064458776295099  0.2674124573648728   T   T   T
  0.2501829628640489  0.8070508818617625  0.2670628082010422   T   T   T
  0.7500186189483786  0.3067909872419833  0.2673999178475461   T   T   T
  0.7498200825768566  0.8069949264984005  0.2670808568452723   T   T   T
  0.9999621130969362  0.0574829573676136  0.2947095592584338   T   T   T
  0.0001849536251012  0.5559704667269089  0.2944171306431644   T   T   T
  0.5000697910885810  0.0576357635419968  0.2945528513001643   T   T   T
  0.4998186638051517  0.5561616568289764  0.2944507665417713   T   T   T
  0.0027523761880499  0.3049016082657340  0.3566963491902720   T   T   T
  0.0006388937833108  0.8056448296745097  0.3551370718870644   T   T   T
  0.4970023341266006  0.3049413488184675  0.3567549783496304   T   T   T
  0.4994177488757882  0.8059365623972183  0.3554830036412721   T   T   T
  0.2509235216531665  0.0628733800770303  0.3814631564804277   T   T   T
  0.2500476975220242  0.5536002454368734  0.3824857940990903   T   T   T
  0.7491129426564077  0.0606944757075844  0.3816238343769194   T   T   T
  0.7499765249413073  0.5558661846824329  0.3816904344614002   T   T   T
  0.2366710009683586  0.8080489633327778  0.4441860753534214   T   T   T
  0.7510159151098443  0.3053512665735480  0.4482665283593092   T   T   T
  0.7631329693163712  0.8097666194302645  0.4443315238498651   T   T   T
  0.0036441289427125  0.0851234096548833  0.4607631598280731   T   T   T
  0.0034169650596079  0.5716539561060837  0.4627567405696104   T   T   T
  0.4965874931723052  0.0792175777720225  0.4646464286698321   T   T   T
  0.4966211758813383  0.5660295304206727  0.4630125713975762   T   T   T
 
  0.00000000E+00  0.00000000E+00  0.00000000E+00
  0.00000000E+00  0.00000000E+00  0.00000000E+00
  0.00000000E+00  0.00000000E+00  0.00000000E+00
  0.00000000E+00  0.00000000E+00  0.00000000E+00
  0.00000000E+00  0.00000000E+00  0.00000000E+00
  0.00000000E+00  0.00000000E+00  0.00000000E+00
  0.00000000E+00  0.00000000E+00  0.00000000E+00
  0.00000000E+00  0.00000000E+00  0.00000000E+00
  0.00000000E+00  0.00000000E+00  0.00000000E+00
  0.00000000E+00  0.00000000E+00  0.00000000E+00
  0.00000000E+00  0.00000000E+00  0.00000000E+00
  0.00000000E+00  0.00000000E+00  0.00000000E+00
  0.00000000E+00  0.00000000E+00  0.00000000E+00
  0.00000000E+00  0.00000000E+00  0.00000000E+00
  0.00000000E+00  0.00000000E+00  0.00000000E+00
  0.00000000E+00  0.00000000E+00  0.00000000E+00
  0.00000000E+00  0.00000000E+00  0.00000000E+00
  0.00000000E+00  0.00000000E+00  0.00000000E+00
  0.00000000E+00  0.00000000E+00  0.00000000E+00
  0.00000000E+00  0.00000000E+00  0.00000000E+00
  0.00000000E+00  0.00000000E+00  0.00000000E+00
  0.00000000E+00  0.00000000E+00  0.00000000E+00
  0.00000000E+00  0.00000000E+00  0.00000000E+00
  0.00000000E+00  0.00000000E+00  0.00000000E+00
  0.00000000E+00  0.00000000E+00  0.00000000E+00
  0.00000000E+00  0.00000000E+00  0.00000000E+00
  0.00000000E+00  0.00000000E+00  0.00000000E+00
  0.00000000E+00  0.00000000E+00  0.00000000E+00
  0.00000000E+00  0.00000000E+00  0.00000000E+00
  0.00000000E+00  0.00000000E+00  0.00000000E+00
  0.00000000E+00  0.00000000E+00  0.00000000E+00
  0.00000000E+00  0.00000000E+00  0.00000000E+00
  0.00000000E+00  0.00000000E+00  0.00000000E+00
  0.00000000E+00  0.00000000E+00  0.00000000E+00
  0.00000000E+00  0.00000000E+00  0.00000000E+00
  0.00000000E+00  0.00000000E+00  0.00000000E+00
  0.00000000E+00  0.00000000E+00  0.00000000E+00
  0.00000000E+00  0.00000000E+00  0.00000000E+00
  0.00000000E+00  0.00000000E+00  0.00000000E+00
  0.00000000E+00  0.00000000E+00  0.00000000E+00
  0.00000000E+00  0.00000000E+00  0.00000000E+00
  0.00000000E+00  0.00000000E+00  0.00000000E+00
  0.00000000E+00  0.00000000E+00  0.00000000E+00
  0.00000000E+00  0.00000000E+00  0.00000000E+00
  0.00000000E+00  0.00000000E+00  0.00000000E+00
  0.00000000E+00  0.00000000E+00  0.00000000E+00
  0.00000000E+00  0.00000000E+00  0.00000000E+00
  0.00000000E+00  0.00000000E+00  0.00000000E+00
  0.00000000E+00  0.00000000E+00  0.00000000E+00
  0.00000000E+00  0.00000000E+00  0.00000000E+00
  0.00000000E+00  0.00000000E+00  0.00000000E+00
  0.00000000E+00  0.00000000E+00  0.00000000E+00
  0.00000000E+00  0.00000000E+00  0.00000000E+00
  0.00000000E+00  0.00000000E+00  0.00000000E+00
  0.00000000E+00  0.00000000E+00  0.00000000E+00
  0.00000000E+00  0.00000000E+00  0.00000000E+00
  0.00000000E+00  0.00000000E+00  0.00000000E+00
  0.00000000E+00  0.00000000E+00  0.00000000E+00
  0.00000000E+00  0.00000000E+00  0.00000000E+00
  0.00000000E+00  0.00000000E+00  0.00000000E+00
  0.00000000E+00  0.00000000E+00  0.00000000E+00
  0.00000000E+00  0.00000000E+00  0.00000000E+00
  0.00000000E+00  0.00000000E+00  0.00000000E+00
  0.00000000E+00  0.00000000E+00  0.00000000E+00
  0.00000000E+00  0.00000000E+00  0.00000000E+00
  0.00000000E+00  0.00000000E+00  0.00000000E+00
  0.00000000E+00  0.00000000E+00  0.00000000E+00
  0.00000000E+00  0.00000000E+00  0.00000000E+00
  0.00000000E+00  0.00000000E+00  0.00000000E+00
  0.00000000E+00  0.00000000E+00  0.00000000E+00
  0.00000000E+00  0.00000000E+00  0.00000000E+00
  0.00000000E+00  0.00000000E+00  0.00000000E+00
  0.00000000E+00  0.00000000E+00  0.00000000E+00
  0.00000000E+00  0.00000000E+00  0.00000000E+00
  0.00000000E+00  0.00000000E+00  0.00000000E+00
  0.00000000E+00  0.00000000E+00  0.00000000E+00
  0.00000000E+00  0.00000000E+00  0.00000000E+00
  0.00000000E+00  0.00000000E+00  0.00000000E+00
  0.00000000E+00  0.00000000E+00  0.00000000E+00
  0.00000000E+00  0.00000000E+00  0.00000000E+00
  0.00000000E+00  0.00000000E+00  0.00000000E+00
