Au Li O Zn                              
   1.00000000000000     
     6.5625568183449996    0.0000000000000000    0.0000000000000000
     0.0000000000000000   10.5156600000000005    0.0000000000000000
     0.0000000000000000    0.0000000000000000   32.0500282661819966
   Au   Li   O    Zn
     1     1    40    39
Selective dynamics
Direct
  0.5015317085210416  0.8803147425659827  0.5208606449958905   T   T   T
  0.2486741848229989  0.3117480519636928  0.4459610626536013   T   T   T
  0.2500188690337355  0.0015917252824476  0.0884237416438543   T   T   T
  0.2500083989772460  0.5015737293806208  0.0883344490697166   T   T   T
  0.7499864246570611  0.0015918675572928  0.0884283363310536   T   T   T
  0.7499938142460754  0.5015648169710749  0.0883345838934095   T   T   T
  0.0000120446388762  0.2480513084898993  0.1191360535943289   T   T   T
  0.0000040142587628  0.7480316921022345  0.1191005063205745   T   T   T
  0.4999892783566930  0.2480480200834676  0.1191485638770639   T   T   T
  0.4999981303633225  0.7480257976400764  0.1191142037660322   T   T   T
  0.0000011103344822  0.9979794638223886  0.1764814255539264   T   T   T
 -0.0000067851875846  0.4980079241667208  0.1763520277706156   T   T   T
  0.5000070967742249  0.9979774122515376  0.1765175209535085   T   T   T
  0.5000102058664011  0.4980039532278727  0.1763591638561072   T   T   T
  0.2499744283718388  0.2467020514261575  0.2078237755983320   T   T   T
  0.2499938603979263  0.7465441089273992  0.2076920259895682   T   T   T
  0.7500281513121113  0.2467219343282380  0.2077840647217913   T   T   T
  0.7500050184515037  0.7465837929084415  0.2076909010228131   T   T   T
  0.2497968905429954  0.9970803375472805  0.2654496207627365   T   T   T
  0.2499870132496405  0.4967629928708049  0.2652119204585119   T   T   T
  0.7502375966563816  0.9970058014772737  0.2654358142289127   T   T   T
  0.7500130900794092  0.4970618938916090  0.2652085102858797   T   T   T
  0.9995122738364484  0.2472503141974773  0.2962905620148055   T   T   T
  0.0000008147891576  0.7462283889396918  0.2959328763906299   T   T   T
  0.5004909269709340  0.2474079382076914  0.2962392864484924   T   T   T
  0.4999843071321222  0.7465317651203995  0.2960839668993622   T   T   T
  0.9997776472506729  0.9956918034527369  0.3541173187113164   T   T   T
  0.9997026832014885  0.4968830812519477  0.3538651003633868   T   T   T
  0.5002628325863410  0.9959729361462024  0.3537902185855558   T   T   T
  0.5003268175539507  0.4967083841097386  0.3537525752751036   T   T   T
  0.2498575486784239  0.2486314940031165  0.3847011955734674   T   T   T
  0.2503529926305068  0.7450908286602174  0.3846427833431297   T   T   T
  0.7498773520343713  0.2496945352964808  0.3852217356081676   T   T   T
  0.7495589864282910  0.7457030604085063  0.3848555214614957   T   T   T
  0.2487595134336118  0.9959640922429710  0.4418858474516150   T   T   T
  0.2505346571967876  0.4996638382309428  0.4430316947561352   T   T   T
  0.7518128764760117  0.9985366303495105  0.4421277226870569   T   T   T
  0.7493213624506823  0.5000319203850212  0.4435898050378439   T   T   T
  0.0055554627919366  0.2576773816529588  0.4726510531269429   T   T   T
  0.9990083155929878  0.7476614221995234  0.4745715356478217   T   T   T
  0.4946573694870463  0.2529362010925386  0.4713983143471409   T   T   T
  0.5002291746937014  0.7501615091033518  0.4723872781027851   T   T   T
  0.2500128166778219  0.3272854734625022  0.0997381548846704   T   T   T
  0.2500150179783545  0.8272677733794047  0.0996966830867267   T   T   T
  0.7499883430026600  0.3272795938933348  0.0997417983331095   T   T   T
  0.7499863091843655  0.8272690426782475  0.0997022097820550   T   T   T
  0.0000036490830145  0.0585380591215413  0.1144231812332292   T   T   T
 -0.0000019536745918  0.5584789622195266  0.1143224306970846   T   T   T
  0.4999980364370193  0.0585403884900638  0.1144339408807287   T   T   T
  0.5000047257975111  0.5584764536031374  0.1143282519425772   T   T   T
  0.0000211307291727  0.3090179875275759  0.1799725462857193   T   T   T
 -0.0000058108454491  0.8091256210669113  0.1798537647250626   T   T   T
  0.4999834404077915  0.3090126839223309  0.1799911127461877   T   T   T
  0.5000078647422765  0.8091175785282554  0.1798603796739191   T   T   T
  0.2499281098507403  0.0558516099669957  0.2057211309354362   T   T   T
  0.2499813225395734  0.5554951305844484  0.2055472079878634   T   T   T
  0.7500803599253042  0.0558726648279217  0.2057350056865314   T   T   T
  0.7500203868141303  0.5555558989314069  0.2055501282514384   T   T   T
  0.2499453065669190  0.3063388259461401  0.2673566137041120   T   T   T
  0.2502253118574321  0.8071770299957495  0.2668633542422462   T   T   T
  0.7500672091125576  0.3067160396454464  0.2672728295219484   T   T   T
  0.7497636312974386  0.8071360741179151  0.2668773319738037   T   T   T
  0.9999681328143590  0.0574773243486364  0.2947755933221686   T   T   T
  0.0001284786041752  0.5556146343144329  0.2944013944680641   T   T   T
  0.5000700202199431  0.0577155979715637  0.2945308379063781   T   T   T
  0.4998650686547606  0.5560177874881638  0.2943591449103539   T   T   T
  0.0022638539670976  0.3045316290753381  0.3566867045384965   T   T   T
  0.0003411562525687  0.8057881120961180  0.3548526715738622   T   T   T
  0.4974932914078919  0.3044046975968271  0.3566695059799400   T   T   T
  0.4996194408657732  0.8063509375969683  0.3552236380892567   T   T   T
  0.2511678385842787  0.0635134346779158  0.3817487496260756   T   T   T
  0.2502274056613313  0.5531838235739169  0.3824999328691485   T   T   T
  0.7488905599246689  0.0614637683850918  0.3819268557550649   T   T   T
  0.7497978737407920  0.5550492606423812  0.3818657721498852   T   T   T
  0.2332262184616178  0.8087997672345566  0.4432960497094414   T   T   T
  0.7509107738960014  0.3043636256745301  0.4490398581157080   T   T   T
  0.7664527638687056  0.8111199198154754  0.4434380935486235   T   T   T
  0.0041868793946785  0.0866127779756362  0.4607258874262271   T   T   T
  0.0030622535428191  0.5708877923867284  0.4632489840771365   T   T   T
  0.4964530226857556  0.0785328191591172  0.4651350690669446   T   T   T
  0.4971685385110724  0.5648606351481894  0.4635222285553167   T   T   T
 
  0.00000000E+00  0.00000000E+00  0.00000000E+00
  0.00000000E+00  0.00000000E+00  0.00000000E+00
  0.00000000E+00  0.00000000E+00  0.00000000E+00
  0.00000000E+00  0.00000000E+00  0.00000000E+00
  0.00000000E+00  0.00000000E+00  0.00000000E+00
  0.00000000E+00  0.00000000E+00  0.00000000E+00
  0.00000000E+00  0.00000000E+00  0.00000000E+00
  0.00000000E+00  0.00000000E+00  0.00000000E+00
  0.00000000E+00  0.00000000E+00  0.00000000E+00
  0.00000000E+00  0.00000000E+00  0.00000000E+00
  0.00000000E+00  0.00000000E+00  0.00000000E+00
  0.00000000E+00  0.00000000E+00  0.00000000E+00
  0.00000000E+00  0.00000000E+00  0.00000000E+00
  0.00000000E+00  0.00000000E+00  0.00000000E+00
  0.00000000E+00  0.00000000E+00  0.00000000E+00
  0.00000000E+00  0.00000000E+00  0.00000000E+00
  0.00000000E+00  0.00000000E+00  0.00000000E+00
  0.00000000E+00  0.00000000E+00  0.00000000E+00
  0.00000000E+00  0.00000000E+00  0.00000000E+00
  0.00000000E+00  0.00000000E+00  0.00000000E+00
  0.00000000E+00  0.00000000E+00  0.00000000E+00
  0.00000000E+00  0.00000000E+00  0.00000000E+00
  0.00000000E+00  0.00000000E+00  0.00000000E+00
  0.00000000E+00  0.00000000E+00  0.00000000E+00
  0.00000000E+00  0.00000000E+00  0.00000000E+00
  0.00000000E+00  0.00000000E+00  0.00000000E+00
  0.00000000E+00  0.00000000E+00  0.00000000E+00
  0.00000000E+00  0.00000000E+00  0.00000000E+00
  0.00000000E+00  0.00000000E+00  0.00000000E+00
  0.00000000E+00  0.00000000E+00  0.00000000E+00
  0.00000000E+00  0.00000000E+00  0.00000000E+00
  0.00000000E+00  0.00000000E+00  0.00000000E+00
  0.00000000E+00  0.00000000E+00  0.00000000E+00
  0.00000000E+00  0.00000000E+00  0.00000000E+00
  0.00000000E+00  0.00000000E+00  0.00000000E+00
  0.00000000E+00  0.00000000E+00  0.00000000E+00
  0.00000000E+00  0.00000000E+00  0.00000000E+00
  0.00000000E+00  0.00000000E+00  0.00000000E+00
  0.00000000E+00  0.00000000E+00  0.00000000E+00
  0.00000000E+00  0.00000000E+00  0.00000000E+00
  0.00000000E+00  0.00000000E+00  0.00000000E+00
  0.00000000E+00  0.00000000E+00  0.00000000E+00
  0.00000000E+00  0.00000000E+00  0.00000000E+00
  0.00000000E+00  0.00000000E+00  0.00000000E+00
  0.00000000E+00  0.00000000E+00  0.00000000E+00
  0.00000000E+00  0.00000000E+00  0.00000000E+00
  0.00000000E+00  0.00000000E+00  0.00000000E+00
  0.00000000E+00  0.00000000E+00  0.00000000E+00
  0.00000000E+00  0.00000000E+00  0.00000000E+00
  0.00000000E+00  0.00000000E+00  0.00000000E+00
  0.00000000E+00  0.00000000E+00  0.00000000E+00
  0.00000000E+00  0.00000000E+00  0.00000000E+00
  0.00000000E+00  0.00000000E+00  0.00000000E+00
  0.00000000E+00  0.00000000E+00  0.00000000E+00
  0.00000000E+00  0.00000000E+00  0.00000000E+00
  0.00000000E+00  0.00000000E+00  0.00000000E+00
  0.00000000E+00  0.00000000E+00  0.00000000E+00
  0.00000000E+00  0.00000000E+00  0.00000000E+00
  0.00000000E+00  0.00000000E+00  0.00000000E+00
  0.00000000E+00  0.00000000E+00  0.00000000E+00
  0.00000000E+00  0.00000000E+00  0.00000000E+00
  0.00000000E+00  0.00000000E+00  0.00000000E+00
  0.00000000E+00  0.00000000E+00  0.00000000E+00
  0.00000000E+00  0.00000000E+00  0.00000000E+00
  0.00000000E+00  0.00000000E+00  0.00000000E+00
  0.00000000E+00  0.00000000E+00  0.00000000E+00
  0.00000000E+00  0.00000000E+00  0.00000000E+00
  0.00000000E+00  0.00000000E+00  0.00000000E+00
  0.00000000E+00  0.00000000E+00  0.00000000E+00
  0.00000000E+00  0.00000000E+00  0.00000000E+00
  0.00000000E+00  0.00000000E+00  0.00000000E+00
  0.00000000E+00  0.00000000E+00  0.00000000E+00
  0.00000000E+00  0.00000000E+00  0.00000000E+00
  0.00000000E+00  0.00000000E+00  0.00000000E+00
  0.00000000E+00  0.00000000E+00  0.00000000E+00
  0.00000000E+00  0.00000000E+00  0.00000000E+00
  0.00000000E+00  0.00000000E+00  0.00000000E+00
  0.00000000E+00  0.00000000E+00  0.00000000E+00
  0.00000000E+00  0.00000000E+00  0.00000000E+00
  0.00000000E+00  0.00000000E+00  0.00000000E+00
  0.00000000E+00  0.00000000E+00  0.00000000E+00
