Li O Pt Zn                              
   1.00000000000000     
     6.5625568183449996    0.0000000000000000    0.0000000000000000
     0.0000000000000000   10.5156600000000005    0.0000000000000000
     0.0000000000000000    0.0000000000000000   32.0500282661819966
   Li   O    Pt   Zn
     1    40     1    39
Selective dynamics
Direct
  0.2487997351451832  0.3106995683010196  0.4456662053533473   T   T   T
  0.2500835428783796  0.0017180011918010  0.0882437398288153   T   T   T
  0.2500662979395807  0.5017336161552579  0.0883716253469052   T   T   T
  0.7500315938408219  0.0017124173025289  0.0882471670698687   T   T   T
  0.7500736640344412  0.5017114075387649  0.0883878524325270   T   T   T
  0.0001337131543384  0.2481129117058932  0.1189959748049968   T   T   T
  0.0001049120406319  0.7481394198996874  0.1190327009271088   T   T   T
  0.5000715976871898  0.2481153020899476  0.1189906246440235   T   T   T
  0.5000915843502324  0.7481453898319527  0.1190062429957364   T   T   T
  0.0000960831958425  0.9980627039134128  0.1762113875855859   T   T   T
  0.0001194642658580  0.4981833770169541  0.1764091085083939   T   T   T
  0.5000621202645660  0.9981102216743840  0.1762466328567713   T   T   T
  0.5000340964581538  0.4981646235559876  0.1764051172850573   T   T   T
  0.2500577466965979  0.2468373131307723  0.2076507674603457   T   T   T
  0.2501145632681752  0.7466561275245310  0.2076913584322690   T   T   T
  0.7500816239910969  0.2468539567875964  0.2075856688733205   T   T   T
  0.7499827033516377  0.7467236680068479  0.2076650949397463   T   T   T
  0.2499288408232758  0.9973883993809597  0.2651384323195356   T   T   T
  0.2500608477818843  0.4972656949854907  0.2654389399671922   T   T   T
  0.7504612935923713  0.9973203061669199  0.2651038599670401   T   T   T
  0.7500792296147311  0.4975879070351766  0.2654027303309303   T   T   T
  0.9995027972928966  0.2478646420691513  0.2961683440211906   T   T   T
  0.9999677683081423  0.7470560304494399  0.2960088043324061   T   T   T
  0.5005375249945452  0.2475905481250268  0.2960080020159762   T   T   T
  0.5000741920819834  0.7473182965813507  0.2962283993116326   T   T   T
  0.0006006856470998  0.9974619044610479  0.3537061831669894   T   T   T
  0.9996571172871862  0.4979742179451790  0.3541868320817493   T   T   T
  0.5007928616705417  0.9969312169680596  0.3534179838429645   T   T   T
  0.5003344188268570  0.4980438845320908  0.3540250470093434   T   T   T
  0.2501482059546432  0.2503717316541264  0.3845898761954599   T   T   T
  0.2499375130596739  0.7465044823229885  0.3849005246801164   T   T   T
  0.7489192679178379  0.2512610898502647  0.3846750892531580   T   T   T
  0.7499049681198926  0.7473197616957817  0.3851197524237821   T   T   T
  0.2477416091458856  0.9995619084878642  0.4408487648493584   T   T   T
  0.2527544541039214  0.4973335951326781  0.4432636886811817   T   T   T
  0.7579716243053081  0.0019456428530199  0.4411003457770006   T   T   T
  0.7459724383349510  0.4974485781780819  0.4437016669231376   T   T   T
  0.9998683899136569  0.2607670356377079  0.4721985912985984   T   T   T
  0.9990531983526525  0.7440818894664202  0.4739152203214775   T   T   T
  0.4944575235273460  0.2398939716638759  0.4704780808344003   T   T   T
  0.5001410240082482  0.7532217343588916  0.4709022435124157   T   T   T
  0.5010100368325318  0.8657375459746184  0.5193569650033516   T   T   T
  0.2500958271677809  0.3274509211871170  0.0996682973990327   T   T   T
  0.2500641171412823  0.8273891958204311  0.0996845341941483   T   T   T
  0.7501323365330149  0.3274264778680759  0.0996885133947942   T   T   T
  0.7501334291640863  0.8273986072564687  0.0996916225035135   T   T   T
  0.0000614307638312  0.0586459640450361  0.1142898450792497   T   T   T
  0.0000874671009533  0.5586464213518124  0.1144490870652220   T   T   T
  0.5000534946160768  0.0586387847010765  0.1143182743543980   T   T   T
  0.5000553792426303  0.5586533701161787  0.1144462568669144   T   T   T
  0.0001299035492570  0.3092329751919494  0.1798696987441030   T   T   T
  0.0000966245521270  0.8091417089675897  0.1798864838774427   T   T   T
  0.5000169388346005  0.3092179095423419  0.1798637714165664   T   T   T
  0.5000116416837999  0.8091735587658697  0.1798533833141364   T   T   T
  0.2499828625658755  0.0558608810598608  0.2055320400669568   T   T   T
  0.2500836366281146  0.5555916520445574  0.2057837221227262   T   T   T
  0.7501739015422786  0.0558854438120978  0.2055257031997756   T   T   T
  0.7500611740562996  0.5556929260505208  0.2057370468857043   T   T   T
  0.2498800651917704  0.3067912012872123  0.2671628522658517   T   T   T
  0.2503453819367495  0.8073643897258129  0.2669931965887168   T   T   T
  0.7500890084555515  0.3072499788022167  0.2670443852236402   T   T   T
  0.7497100535291950  0.8073422561552702  0.2669708918218112   T   T   T
  0.0001271566264956  0.0576170063498793  0.2946063956604099   T   T   T
  0.0001771294042581  0.5566231466762278  0.2947678544938003   T   T   T
  0.5002421268683851  0.0574239947060532  0.2943327946656672   T   T   T
  0.4999801300117743  0.5569808731183077  0.2947393430339690   T   T   T
  0.0026306527430407  0.3062563269469148  0.3563383777610747   T   T   T
  0.0003834998705410  0.8074231419442639  0.3550965111070735   T   T   T
  0.4960803581626534  0.3063280074110963  0.3560393481617641   T   T   T
  0.4995176310958667  0.8071503035637900  0.3556621335735928   T   T   T
  0.2528979500916094  0.0647268650945988  0.3816027994369072   T   T   T
  0.2501562115023679  0.5549980631945755  0.3830568904168797   T   T   T
  0.7485878152956592  0.0619612525924060  0.3817226175613406   T   T   T
  0.7498060415197216  0.5571246653047705  0.3824047772513947   T   T   T
  0.2288464634427326  0.8135468710639571  0.4437845485465063   T   T   T
  0.7433063936412410  0.3012218579442777  0.4472921417052918   T   T   T
  0.7706103213389341  0.8157202429762298  0.4440336228946970   T   T   T
  0.0072461064456482  0.0890691271341571  0.4605312147327958   T   T   T
  0.0025748455431912  0.5670987939234287  0.4631451036010242   T   T   T
  0.4997798686584926  0.0606934105279509  0.4718252042565786   T   T   T
  0.4970689879042002  0.5675515651759915  0.4636672926793619   T   T   T
 
  0.00000000E+00  0.00000000E+00  0.00000000E+00
  0.00000000E+00  0.00000000E+00  0.00000000E+00
  0.00000000E+00  0.00000000E+00  0.00000000E+00
  0.00000000E+00  0.00000000E+00  0.00000000E+00
  0.00000000E+00  0.00000000E+00  0.00000000E+00
  0.00000000E+00  0.00000000E+00  0.00000000E+00
  0.00000000E+00  0.00000000E+00  0.00000000E+00
  0.00000000E+00  0.00000000E+00  0.00000000E+00
  0.00000000E+00  0.00000000E+00  0.00000000E+00
  0.00000000E+00  0.00000000E+00  0.00000000E+00
  0.00000000E+00  0.00000000E+00  0.00000000E+00
  0.00000000E+00  0.00000000E+00  0.00000000E+00
  0.00000000E+00  0.00000000E+00  0.00000000E+00
  0.00000000E+00  0.00000000E+00  0.00000000E+00
  0.00000000E+00  0.00000000E+00  0.00000000E+00
  0.00000000E+00  0.00000000E+00  0.00000000E+00
  0.00000000E+00  0.00000000E+00  0.00000000E+00
  0.00000000E+00  0.00000000E+00  0.00000000E+00
  0.00000000E+00  0.00000000E+00  0.00000000E+00
  0.00000000E+00  0.00000000E+00  0.00000000E+00
  0.00000000E+00  0.00000000E+00  0.00000000E+00
  0.00000000E+00  0.00000000E+00  0.00000000E+00
  0.00000000E+00  0.00000000E+00  0.00000000E+00
  0.00000000E+00  0.00000000E+00  0.00000000E+00
  0.00000000E+00  0.00000000E+00  0.00000000E+00
  0.00000000E+00  0.00000000E+00  0.00000000E+00
  0.00000000E+00  0.00000000E+00  0.00000000E+00
  0.00000000E+00  0.00000000E+00  0.00000000E+00
  0.00000000E+00  0.00000000E+00  0.00000000E+00
  0.00000000E+00  0.00000000E+00  0.00000000E+00
  0.00000000E+00  0.00000000E+00  0.00000000E+00
  0.00000000E+00  0.00000000E+00  0.00000000E+00
  0.00000000E+00  0.00000000E+00  0.00000000E+00
  0.00000000E+00  0.00000000E+00  0.00000000E+00
  0.00000000E+00  0.00000000E+00  0.00000000E+00
  0.00000000E+00  0.00000000E+00  0.00000000E+00
  0.00000000E+00  0.00000000E+00  0.00000000E+00
  0.00000000E+00  0.00000000E+00  0.00000000E+00
  0.00000000E+00  0.00000000E+00  0.00000000E+00
  0.00000000E+00  0.00000000E+00  0.00000000E+00
  0.00000000E+00  0.00000000E+00  0.00000000E+00
  0.00000000E+00  0.00000000E+00  0.00000000E+00
  0.00000000E+00  0.00000000E+00  0.00000000E+00
  0.00000000E+00  0.00000000E+00  0.00000000E+00
  0.00000000E+00  0.00000000E+00  0.00000000E+00
  0.00000000E+00  0.00000000E+00  0.00000000E+00
  0.00000000E+00  0.00000000E+00  0.00000000E+00
  0.00000000E+00  0.00000000E+00  0.00000000E+00
  0.00000000E+00  0.00000000E+00  0.00000000E+00
  0.00000000E+00  0.00000000E+00  0.00000000E+00
  0.00000000E+00  0.00000000E+00  0.00000000E+00
  0.00000000E+00  0.00000000E+00  0.00000000E+00
  0.00000000E+00  0.00000000E+00  0.00000000E+00
  0.00000000E+00  0.00000000E+00  0.00000000E+00
  0.00000000E+00  0.00000000E+00  0.00000000E+00
  0.00000000E+00  0.00000000E+00  0.00000000E+00
  0.00000000E+00  0.00000000E+00  0.00000000E+00
  0.00000000E+00  0.00000000E+00  0.00000000E+00
  0.00000000E+00  0.00000000E+00  0.00000000E+00
  0.00000000E+00  0.00000000E+00  0.00000000E+00
  0.00000000E+00  0.00000000E+00  0.00000000E+00
  0.00000000E+00  0.00000000E+00  0.00000000E+00
  0.00000000E+00  0.00000000E+00  0.00000000E+00
  0.00000000E+00  0.00000000E+00  0.00000000E+00
  0.00000000E+00  0.00000000E+00  0.00000000E+00
  0.00000000E+00  0.00000000E+00  0.00000000E+00
  0.00000000E+00  0.00000000E+00  0.00000000E+00
  0.00000000E+00  0.00000000E+00  0.00000000E+00
  0.00000000E+00  0.00000000E+00  0.00000000E+00
  0.00000000E+00  0.00000000E+00  0.00000000E+00
  0.00000000E+00  0.00000000E+00  0.00000000E+00
  0.00000000E+00  0.00000000E+00  0.00000000E+00
  0.00000000E+00  0.00000000E+00  0.00000000E+00
  0.00000000E+00  0.00000000E+00  0.00000000E+00
  0.00000000E+00  0.00000000E+00  0.00000000E+00
  0.00000000E+00  0.00000000E+00  0.00000000E+00
  0.00000000E+00  0.00000000E+00  0.00000000E+00
  0.00000000E+00  0.00000000E+00  0.00000000E+00
  0.00000000E+00  0.00000000E+00  0.00000000E+00
  0.00000000E+00  0.00000000E+00  0.00000000E+00
  0.00000000E+00  0.00000000E+00  0.00000000E+00
