Li O Zn                                 
   1.00000000000000     
     6.5625568183449996    0.0000000000000000    0.0000000000000000
     0.0000000000000000   10.5156600000000005    0.0000000000000000
     0.0000000000000000    0.0000000000000000   32.0500282661819966
   Li   O    Zn
     1    40    39
Selective dynamics
Direct
  0.2499997575899968  0.3137466657646569  0.4457603722107967   T   T   T
  0.2499987879510002  0.0014147709985680  0.0882974794195241   T   T   T
  0.2499987879510002  0.5014308968546027  0.0882692426212215   T   T   T
  0.7499987879510002  0.0014166716844679  0.0883001490439481   T   T   T
  0.7499987879510002  0.5014165706917652  0.0882756601611822   T   T   T
  0.0000161227550131  0.2479233925969442  0.1189872307254884   T   T   T
  0.0000021820591850  0.7479146337081969  0.1189657359719530   T   T   T
  0.4999807695469805  0.2479233925969442  0.1189872307254884   T   T   T
  0.4999947102428084  0.7479146337081969  0.1189657359719530   T   T   T
  0.0000231600858926  0.9980629084310279  0.1762264039682212   T   T   T
  0.0000160105794961  0.4980127749498082  0.1761493973145188   T   T   T
  0.4999749006361142  0.9980629084310279  0.1762264039682212   T   T   T
  0.4999820501425107  0.4980127749498082  0.1761493973145188   T   T   T
  0.2499986885609999  0.2467975281073810  0.2077621159940977   T   T   T
  0.2499986885609999  0.7466988286262010  0.2076295675258595   T   T   T
  0.7499986885609999  0.2468618041668666  0.2077466551169978   T   T   T
  0.7499986885609999  0.7467579529251189  0.2076104152182962   T   T   T
  0.2499992727709994  0.9973184002784501  0.2652783083010140   T   T   T
  0.2499992727709994  0.4969583775778845  0.2651219945711628   T   T   T
  0.7499992727709994  0.9972921281418654  0.2652434501267816   T   T   T
  0.7499992727709994  0.4973359099873356  0.2651578028816870   T   T   T
  0.9996991025237114  0.2474487676113639  0.2964511947368366   T   T   T
  0.0000518753825926  0.7469076638127093  0.2961674558407351   T   T   T
  0.5002987594182948  0.2474487676113639  0.2964511947368366   T   T   T
  0.4999459865594137  0.7469076638127093  0.2961674558407351   T   T   T
 -0.0002917894661336  0.9957502701919065  0.3538530487370621   T   T   T
 -0.0000340981651079  0.4967251330452143  0.3537807351754814   T   T   T
  0.5002908198261351  0.9957502701919065  0.3538530487370621   T   T   T
  0.5000331285251094  0.4967251330452143  0.3537807351754814   T   T   T
  0.2499991733809992  0.2470879780877214  0.3853520328137779   T   T   T
  0.2499991733809992  0.7464690925640056  0.3851595810144339   T   T   T
  0.7499991733809992  0.2483940914842698  0.3851460767448857   T   T   T
  0.7499991733809992  0.7474392726743717  0.3851759781920688   T   T   T
  0.2499997575899968  0.9965126526199172  0.4424360604331073   T   T   T
  0.2499997575899968  0.4949149184496454  0.4424088606051124   T   T   T
  0.7499997575899968  0.9981093841719534  0.4426677470945324   T   T   T
  0.7499997575899968  0.4983277181085762  0.4425068225445650   T   T   T
  0.9987907125863371  0.2532398586225261  0.4724184497625137   T   T   T
  0.9995723347607421  0.7483342127806755  0.4724861330761775   T   T   T
  0.5012081189936639  0.2532398586225261  0.4724184497625137   T   T   T
  0.5004264968192589  0.7483342127806755  0.4724861330761775   T   T   T
  0.2499987879510002  0.3271315249880647  0.0996805310331821   T   T   T
  0.2499987879510002  0.8271108303644599  0.0996822615403173   T   T   T
  0.7499987879510002  0.3271263848021074  0.0996959118746335   T   T   T
  0.7499987879510002  0.8271105023952489  0.0996849609977654   T   T   T
  0.0000023856285529  0.0584582264986093  0.1144275099883482   T   T   T
  0.0000028303667613  0.5584558237162780  0.1144009395438447   T   T   T
  0.4999945066734405  0.0584582264986093  0.1144275099883482   T   T   T
  0.4999940619352324  0.5584558237162780  0.1144009395438447   T   T   T
  0.0000227805976435  0.3090250820912103  0.1800390763182929   T   T   T
  0.0000300278882108  0.8090770010591419  0.1799764460168932   T   T   T
  0.4999752801243633  0.3090250820912103  0.1800390763182929   T   T   T
  0.4999680328337959  0.8090770010591419  0.1799764460168932   T   T   T
  0.2499986885609999  0.0557852876684775  0.2057641103547062   T   T   T
  0.2499986885609999  0.5556052680396431  0.2056892080263654   T   T   T
  0.7499986885609999  0.0558272716183814  0.2057587640950145   T   T   T
  0.7499986885609999  0.5556485150874421  0.2056934078111541   T   T   T
  0.2499992727709994  0.3066212655261941  0.2675195580002497   T   T   T
  0.2499992727709994  0.8069472763318000  0.2672789294401782   T   T   T
  0.7499992727709994  0.3070291659653311  0.2675005753233727   T   T   T
  0.7499992727709994  0.8069328752120009  0.2672798829826158   T   T   T
 -0.0000596267185638  0.0573424095775304  0.2947703096295139   T   T   T
  0.0002590897338589  0.5564680791959025  0.2947339465693240   T   T   T
  0.5000574886605700  0.0573424095775304  0.2947703096295139   T   T   T
  0.4997387722081475  0.5564680791959025  0.2947339465693240   T   T   T
  0.0037318359258977  0.3053760459246339  0.3569161562425091   T   T   T
  0.0005353857100828  0.8048851679372089  0.3561499151858409   T   T   T
  0.4962671944341037  0.3053760459246339  0.3569161562425091   T   T   T
  0.4994636446499185  0.8048851679372089  0.3561499151858409   T   T   T
  0.2499991733809992  0.0614228058879771  0.3815672787104162   T   T   T
  0.2499991733809992  0.5555306696476512  0.3829438036301699   T   T   T
  0.7499991733809992  0.0592546108469154  0.3817901838810369   T   T   T
  0.7499991733809992  0.5581304445657451  0.3819166765108483   T   T   T
  0.2499997575899968  0.8073876480230964  0.4470109033187809   T   T   T
  0.7499997575899968  0.3088463937961946  0.4473997074980950   T   T   T
  0.7499997575899968  0.8086826765205629  0.4472228739006130   T   T   T
  0.0028657566105935  0.0817530719149515  0.4608430872721347   T   T   T
  0.0043677137747884  0.5725219479837275  0.4617894855420194   T   T   T
  0.4971330749694074  0.0817530719149515  0.4608430872721347   T   T   T
  0.4956311178052126  0.5725219479837275  0.4617894855420194   T   T   T
 
  0.00000000E+00  0.00000000E+00  0.00000000E+00
  0.00000000E+00  0.00000000E+00  0.00000000E+00
  0.00000000E+00  0.00000000E+00  0.00000000E+00
  0.00000000E+00  0.00000000E+00  0.00000000E+00
  0.00000000E+00  0.00000000E+00  0.00000000E+00
  0.00000000E+00  0.00000000E+00  0.00000000E+00
  0.00000000E+00  0.00000000E+00  0.00000000E+00
  0.00000000E+00  0.00000000E+00  0.00000000E+00
  0.00000000E+00  0.00000000E+00  0.00000000E+00
  0.00000000E+00  0.00000000E+00  0.00000000E+00
  0.00000000E+00  0.00000000E+00  0.00000000E+00
  0.00000000E+00  0.00000000E+00  0.00000000E+00
  0.00000000E+00  0.00000000E+00  0.00000000E+00
  0.00000000E+00  0.00000000E+00  0.00000000E+00
  0.00000000E+00  0.00000000E+00  0.00000000E+00
  0.00000000E+00  0.00000000E+00  0.00000000E+00
  0.00000000E+00  0.00000000E+00  0.00000000E+00
  0.00000000E+00  0.00000000E+00  0.00000000E+00
  0.00000000E+00  0.00000000E+00  0.00000000E+00
  0.00000000E+00  0.00000000E+00  0.00000000E+00
  0.00000000E+00  0.00000000E+00  0.00000000E+00
  0.00000000E+00  0.00000000E+00  0.00000000E+00
  0.00000000E+00  0.00000000E+00  0.00000000E+00
  0.00000000E+00  0.00000000E+00  0.00000000E+00
  0.00000000E+00  0.00000000E+00  0.00000000E+00
  0.00000000E+00  0.00000000E+00  0.00000000E+00
  0.00000000E+00  0.00000000E+00  0.00000000E+00
  0.00000000E+00  0.00000000E+00  0.00000000E+00
  0.00000000E+00  0.00000000E+00  0.00000000E+00
  0.00000000E+00  0.00000000E+00  0.00000000E+00
  0.00000000E+00  0.00000000E+00  0.00000000E+00
  0.00000000E+00  0.00000000E+00  0.00000000E+00
  0.00000000E+00  0.00000000E+00  0.00000000E+00
  0.00000000E+00  0.00000000E+00  0.00000000E+00
  0.00000000E+00  0.00000000E+00  0.00000000E+00
  0.00000000E+00  0.00000000E+00  0.00000000E+00
  0.00000000E+00  0.00000000E+00  0.00000000E+00
  0.00000000E+00  0.00000000E+00  0.00000000E+00
  0.00000000E+00  0.00000000E+00  0.00000000E+00
  0.00000000E+00  0.00000000E+00  0.00000000E+00
  0.00000000E+00  0.00000000E+00  0.00000000E+00
  0.00000000E+00  0.00000000E+00  0.00000000E+00
  0.00000000E+00  0.00000000E+00  0.00000000E+00
  0.00000000E+00  0.00000000E+00  0.00000000E+00
  0.00000000E+00  0.00000000E+00  0.00000000E+00
  0.00000000E+00  0.00000000E+00  0.00000000E+00
  0.00000000E+00  0.00000000E+00  0.00000000E+00
  0.00000000E+00  0.00000000E+00  0.00000000E+00
  0.00000000E+00  0.00000000E+00  0.00000000E+00
  0.00000000E+00  0.00000000E+00  0.00000000E+00
  0.00000000E+00  0.00000000E+00  0.00000000E+00
  0.00000000E+00  0.00000000E+00  0.00000000E+00
  0.00000000E+00  0.00000000E+00  0.00000000E+00
  0.00000000E+00  0.00000000E+00  0.00000000E+00
  0.00000000E+00  0.00000000E+00  0.00000000E+00
  0.00000000E+00  0.00000000E+00  0.00000000E+00
  0.00000000E+00  0.00000000E+00  0.00000000E+00
  0.00000000E+00  0.00000000E+00  0.00000000E+00
  0.00000000E+00  0.00000000E+00  0.00000000E+00
  0.00000000E+00  0.00000000E+00  0.00000000E+00
  0.00000000E+00  0.00000000E+00  0.00000000E+00
  0.00000000E+00  0.00000000E+00  0.00000000E+00
  0.00000000E+00  0.00000000E+00  0.00000000E+00
  0.00000000E+00  0.00000000E+00  0.00000000E+00
  0.00000000E+00  0.00000000E+00  0.00000000E+00
  0.00000000E+00  0.00000000E+00  0.00000000E+00
  0.00000000E+00  0.00000000E+00  0.00000000E+00
  0.00000000E+00  0.00000000E+00  0.00000000E+00
  0.00000000E+00  0.00000000E+00  0.00000000E+00
  0.00000000E+00  0.00000000E+00  0.00000000E+00
  0.00000000E+00  0.00000000E+00  0.00000000E+00
  0.00000000E+00  0.00000000E+00  0.00000000E+00
  0.00000000E+00  0.00000000E+00  0.00000000E+00
  0.00000000E+00  0.00000000E+00  0.00000000E+00
  0.00000000E+00  0.00000000E+00  0.00000000E+00
  0.00000000E+00  0.00000000E+00  0.00000000E+00
  0.00000000E+00  0.00000000E+00  0.00000000E+00
  0.00000000E+00  0.00000000E+00  0.00000000E+00
  0.00000000E+00  0.00000000E+00  0.00000000E+00
  0.00000000E+00  0.00000000E+00  0.00000000E+00
