Li O Rh Zn                              
   1.00000000000000     
     6.5625568183449996    0.0000000000000000    0.0000000000000000
     0.0000000000000000   10.5156600000000005    0.0000000000000000
     0.0000000000000000    0.0000000000000000   32.0500282661819966
   Li   O    Rh   Zn
     1    40     1    39
Selective dynamics
Direct
  0.2485679946530993  0.3124187510260779  0.4457529873763537   T   T   T
  0.2500086067612156  0.0015865457553004  0.0884115163018620   T   T   T
  0.2500024481279101  0.5015601397247526  0.0883199615808170   T   T   T
  0.7499982008901039  0.0015896774939000  0.0884176140440840   T   T   T
  0.7499987871411226  0.5015508112903172  0.0883217007924812   T   T   T
  0.0000100667351126  0.2480321635608800  0.1191452297337480   T   T   T
  0.0000042500278582  0.7480143874426487  0.1191027831468858   T   T   T
  0.4999913036496600  0.2480299406773055  0.1191465943295909   T   T   T
  0.4999982040965955  0.7480137864610681  0.1191067771307277   T   T   T
  0.0000016752958151  0.9980044424784027  0.1765079750989074   T   T   T
 -0.0000087256147532  0.4980196727424295  0.1763569968476022   T   T   T
  0.5000040219883735  0.9980051709471122  0.1765310489709514   T   T   T
  0.5000110642997724  0.4980176022145448  0.1763543436063400   T   T   T
  0.2500006962349612  0.2466915473856388  0.2078266973515368   T   T   T
  0.2500313948243769  0.7465746152044864  0.2077023448939899   T   T   T
  0.7500040397791033  0.2467340825268358  0.2078212805198656   T   T   T
  0.7499717300409334  0.7466029345036791  0.2077047380494753   T   T   T
  0.2498081184130037  0.9970179233524321  0.2655580304922890   T   T   T
  0.2501233602575555  0.4967694957932948  0.2651895905643971   T   T   T
  0.7501982642246201  0.9969443050267244  0.2655355718400080   T   T   T
  0.7498913894339535  0.4970409846790821  0.2652060249342019   T   T   T
  0.9996324493479977  0.2471341621351298  0.2962725996572900   T   T   T
  0.0000401145745888  0.7461294557970678  0.2957264497564064   T   T   T
  0.5003832507466651  0.2473235781339824  0.2963205668724502   T   T   T
  0.4999648868161272  0.7464078645169315  0.2960213716991352   T   T   T
  0.9997802868542163  0.9956113217104426  0.3542896244987093   T   T   T
  0.9997264244074722  0.4962553560247082  0.3535751280540863   T   T   T
  0.5001556026376242  0.9956741762504888  0.3539350448455083   T   T   T
  0.5002762878785230  0.4963121344427244  0.3535804881592359   T   T   T
  0.2497389036403025  0.2477168469273172  0.3847958717690389   T   T   T
  0.2498307084598836  0.7445928790255689  0.3843743764327373   T   T   T
  0.7501942602717906  0.2486114499824749  0.3851452862586168   T   T   T
  0.7502057771058095  0.7453966109119853  0.3844814988048487   T   T   T
  0.2496191275609658  0.9949614851083559  0.4426140524146719   T   T   T
  0.2494452322512836  0.4990885401528288  0.4426560979425349   T   T   T
  0.7505020160146668  0.9972241096948445  0.4430062014630228   T   T   T
  0.7503439686072438  0.5004937040804149  0.4430655435676474   T   T   T
  0.0049051114986352  0.2560366330622506  0.4729391888015536   T   T   T
  0.9992613674670530  0.7475068501246243  0.4750102249549685   T   T   T
  0.4952514473358117  0.2582960426416314  0.4719681520508273   T   T   T
  0.5004801802787551  0.7494349861718538  0.4719543498481019   T   T   T
  0.5019796426036466  0.8865499863634696  0.5161333635853173   T   T   T
  0.2500025242415789  0.3272801948358229  0.0997305578322184   T   T   T
  0.2500067349868261  0.8272416428208136  0.0996760130782293   T   T   T
  0.7499978380803373  0.3272721261128136  0.0997343092227501   T   T   T
  0.7499935604418849  0.8272438025023839  0.0996802961032823   T   T   T
  0.0000138183348772  0.0585165431007638  0.1144170786582138   T   T   T
 -0.0000020373230367  0.5584395801477532  0.1143194323056855   T   T   T
  0.4999970219121374  0.0585166615200866  0.1144207895940788   T   T   T
  0.5000030866817374  0.5584416004718115  0.1143212203612825   T   T   T
 -0.0000157810796918  0.3090141625051305  0.1799882643576054   T   T   T
 -0.0000093426823459  0.8090795619137212  0.1798819876327294   T   T   T
  0.5000214131510795  0.3090162873069396  0.1799905624196388   T   T   T
  0.5000136711551775  0.8090728898438028  0.1798749853398286   T   T   T
  0.2499513976734465  0.0558371870767769  0.2057697768847653   T   T   T
  0.2500108218701970  0.5555081013554481  0.2055668740292039   T   T   T
  0.7500586287330872  0.0558824109334792  0.2057761014562897   T   T   T
  0.7499908713819066  0.5555526004433544  0.2055818213378595   T   T   T
  0.2500245354032430  0.3063693412353565  0.2673810871171168   T   T   T
  0.2503895378344674  0.8071668874862076  0.2668524811915423   T   T   T
  0.7499857786423947  0.3067052551895853  0.2673621936589856   T   T   T
  0.7496164127073126  0.8071083045253369  0.2668768997851251   T   T   T
  0.9999309818880662  0.0576232961637656  0.2947979908724232   T   T   T
  0.0001605902716328  0.5556234502560411  0.2942459414280361   T   T   T
  0.5000680197949479  0.0578203289473438  0.2945854063336861   T   T   T
  0.4998401679731352  0.5559445676252728  0.2943005410119586   T   T   T
  0.0025025729801676  0.3041589979192425  0.3566578421385758   T   T   T
  0.0005943302422099  0.8056987171966928  0.3545716528156315   T   T   T
  0.4974072262026227  0.3042531464755797  0.3568158237262287   T   T   T
  0.4994515512559425  0.8060242189078459  0.3551598197751027   T   T   T
  0.2511626905845544  0.0628916362216370  0.3817930396041040   T   T   T
  0.2499233890991537  0.5524761082073253  0.3823222207624020   T   T   T
  0.7487470913487184  0.0607238864427754  0.3820198472894401   T   T   T
  0.7500717274383476  0.5545599912635191  0.3815895840931778   T   T   T
  0.2336653383616795  0.8064165719040629  0.4431291307797058   T   T   T
  0.7517711848255375  0.3055945698448335  0.4486817271341684   T   T   T
  0.7662053026054733  0.8083927936997364  0.4432194987284589   T   T   T
  0.0036175621745039  0.0852968120440856  0.4609525828838222   T   T   T
  0.0033506651126515  0.5707322274662456  0.4630937373336134   T   T   T
  0.4954660073415985  0.0848706509873859  0.4645787397724337   T   T   T
  0.4968464092159339  0.5648979145571942  0.4630769454447974   T   T   T
 
  0.00000000E+00  0.00000000E+00  0.00000000E+00
  0.00000000E+00  0.00000000E+00  0.00000000E+00
  0.00000000E+00  0.00000000E+00  0.00000000E+00
  0.00000000E+00  0.00000000E+00  0.00000000E+00
  0.00000000E+00  0.00000000E+00  0.00000000E+00
  0.00000000E+00  0.00000000E+00  0.00000000E+00
  0.00000000E+00  0.00000000E+00  0.00000000E+00
  0.00000000E+00  0.00000000E+00  0.00000000E+00
  0.00000000E+00  0.00000000E+00  0.00000000E+00
  0.00000000E+00  0.00000000E+00  0.00000000E+00
  0.00000000E+00  0.00000000E+00  0.00000000E+00
  0.00000000E+00  0.00000000E+00  0.00000000E+00
  0.00000000E+00  0.00000000E+00  0.00000000E+00
  0.00000000E+00  0.00000000E+00  0.00000000E+00
  0.00000000E+00  0.00000000E+00  0.00000000E+00
  0.00000000E+00  0.00000000E+00  0.00000000E+00
  0.00000000E+00  0.00000000E+00  0.00000000E+00
  0.00000000E+00  0.00000000E+00  0.00000000E+00
  0.00000000E+00  0.00000000E+00  0.00000000E+00
  0.00000000E+00  0.00000000E+00  0.00000000E+00
  0.00000000E+00  0.00000000E+00  0.00000000E+00
  0.00000000E+00  0.00000000E+00  0.00000000E+00
  0.00000000E+00  0.00000000E+00  0.00000000E+00
  0.00000000E+00  0.00000000E+00  0.00000000E+00
  0.00000000E+00  0.00000000E+00  0.00000000E+00
  0.00000000E+00  0.00000000E+00  0.00000000E+00
  0.00000000E+00  0.00000000E+00  0.00000000E+00
  0.00000000E+00  0.00000000E+00  0.00000000E+00
  0.00000000E+00  0.00000000E+00  0.00000000E+00
  0.00000000E+00  0.00000000E+00  0.00000000E+00
  0.00000000E+00  0.00000000E+00  0.00000000E+00
  0.00000000E+00  0.00000000E+00  0.00000000E+00
  0.00000000E+00  0.00000000E+00  0.00000000E+00
  0.00000000E+00  0.00000000E+00  0.00000000E+00
  0.00000000E+00  0.00000000E+00  0.00000000E+00
  0.00000000E+00  0.00000000E+00  0.00000000E+00
  0.00000000E+00  0.00000000E+00  0.00000000E+00
  0.00000000E+00  0.00000000E+00  0.00000000E+00
  0.00000000E+00  0.00000000E+00  0.00000000E+00
  0.00000000E+00  0.00000000E+00  0.00000000E+00
  0.00000000E+00  0.00000000E+00  0.00000000E+00
  0.00000000E+00  0.00000000E+00  0.00000000E+00
  0.00000000E+00  0.00000000E+00  0.00000000E+00
  0.00000000E+00  0.00000000E+00  0.00000000E+00
  0.00000000E+00  0.00000000E+00  0.00000000E+00
  0.00000000E+00  0.00000000E+00  0.00000000E+00
  0.00000000E+00  0.00000000E+00  0.00000000E+00
  0.00000000E+00  0.00000000E+00  0.00000000E+00
  0.00000000E+00  0.00000000E+00  0.00000000E+00
  0.00000000E+00  0.00000000E+00  0.00000000E+00
  0.00000000E+00  0.00000000E+00  0.00000000E+00
  0.00000000E+00  0.00000000E+00  0.00000000E+00
  0.00000000E+00  0.00000000E+00  0.00000000E+00
  0.00000000E+00  0.00000000E+00  0.00000000E+00
  0.00000000E+00  0.00000000E+00  0.00000000E+00
  0.00000000E+00  0.00000000E+00  0.00000000E+00
  0.00000000E+00  0.00000000E+00  0.00000000E+00
  0.00000000E+00  0.00000000E+00  0.00000000E+00
  0.00000000E+00  0.00000000E+00  0.00000000E+00
  0.00000000E+00  0.00000000E+00  0.00000000E+00
  0.00000000E+00  0.00000000E+00  0.00000000E+00
  0.00000000E+00  0.00000000E+00  0.00000000E+00
  0.00000000E+00  0.00000000E+00  0.00000000E+00
  0.00000000E+00  0.00000000E+00  0.00000000E+00
  0.00000000E+00  0.00000000E+00  0.00000000E+00
  0.00000000E+00  0.00000000E+00  0.00000000E+00
  0.00000000E+00  0.00000000E+00  0.00000000E+00
  0.00000000E+00  0.00000000E+00  0.00000000E+00
  0.00000000E+00  0.00000000E+00  0.00000000E+00
  0.00000000E+00  0.00000000E+00  0.00000000E+00
  0.00000000E+00  0.00000000E+00  0.00000000E+00
  0.00000000E+00  0.00000000E+00  0.00000000E+00
  0.00000000E+00  0.00000000E+00  0.00000000E+00
  0.00000000E+00  0.00000000E+00  0.00000000E+00
  0.00000000E+00  0.00000000E+00  0.00000000E+00
  0.00000000E+00  0.00000000E+00  0.00000000E+00
  0.00000000E+00  0.00000000E+00  0.00000000E+00
  0.00000000E+00  0.00000000E+00  0.00000000E+00
  0.00000000E+00  0.00000000E+00  0.00000000E+00
  0.00000000E+00  0.00000000E+00  0.00000000E+00
  0.00000000E+00  0.00000000E+00  0.00000000E+00
