Co Li O Zn                              
   1.00000000000000     
     6.5625568183449996    0.0000000000000000    0.0000000000000000
     0.0000000000000000   10.5156600000000005    0.0000000000000000
     0.0000000000000000    0.0000000000000000   32.0500282661819966
   Co   Li   O    Zn
     1     1    40    39
Selective dynamics
Direct
  0.7500161557455229  0.7380814046382757  0.4957184787593898   T   T   T
  0.2499994547234558  0.3163744921473019  0.4459261277560174   T   T   T
  0.2499989814122045  0.0015175318584311  0.0885805072768808   T   T   T
  0.2500012821395785  0.5014434221088599  0.0881913172870802   T   T   T
  0.7499992628316675  0.0017261021912993  0.0884621874830696   T   T   T
  0.7500000915652452  0.5013554364474839  0.0880613258850879   T   T   T
 -0.0000338536722828  0.2479613706571357  0.1190149766680489   T   T   T
  0.9996395148175966  0.7479138090627113  0.1189174093044808   T   T   T
  0.5000311151445602  0.2479615372184940  0.1190151074571820   T   T   T
  0.5003574945788613  0.7479151260362437  0.1189175932271445   T   T   T
  0.9995270509625176  0.9978572764416866  0.1765919313862982   T   T   T
  0.9993076810392356  0.4978031751833311  0.1760676540140809   T   T   T
  0.5004709063752610  0.9978576915769787  0.1765919272245279   T   T   T
  0.5006908885095379  0.4978036878664054  0.1760679322172848   T   T   T
  0.2499986650915732  0.2465095055455029  0.2075463934855814   T   T   T
  0.2499984752789738  0.7461658509551495  0.2069397674569882   T   T   T
  0.7499984098003906  0.2464753244704059  0.2078356671486391   T   T   T
  0.7499988759921995  0.7465517786705510  0.2079873417454168   T   T   T
  0.2500001012884421  0.9970341254539351  0.2654276473899292   T   T   T
  0.2499983950386542  0.4961278144007215  0.2645158300495523   T   T   T
  0.7500003430992025  0.9963922095081506  0.2659349102559626   T   T   T
  0.7499984106385180  0.4971751145023525  0.2652548648260863   T   T   T
  0.0000748618657993  0.2468365235559272  0.2962287901704800   T   T   T
  0.0031794695871798  0.7460076220026158  0.2957545902840898   T   T   T
  0.4999227255831201  0.2468378910125570  0.2962286242591365   T   T   T
  0.4968182752153963  0.7460071050397271  0.2957544167114988   T   T   T
  0.0010745858443221  0.9944436647010145  0.3543581435718234   T   T   T
  0.0051250834659409  0.4985156202101910  0.3534567141185218   T   T   T
  0.4989240428373657  0.9944441254948493  0.3543576786875497   T   T   T
  0.4948731075028265  0.4985157186726263  0.3534564534710904   T   T   T
  0.2499992877588926  0.2451465530111779  0.3850064190210731   T   T   T
  0.2499999708426856  0.7496120352895003  0.3897188013351971   T   T   T
  0.7499992238450411  0.2538489699818004  0.3837366584934142   T   T   T
  0.7499987025961001  0.7431374542001498  0.3803225198017010   T   T   T
  0.2499999112018558  0.9905920185352773  0.4446835088060490   T   T   T
  0.2500015659437080  0.5041519898016829  0.4435562463928405   T   T   T
  0.7499994388413657  0.0107229858566043  0.4410770244872240   T   T   T
  0.7499988958270078  0.4974445457636911  0.4407309219910088   T   T   T
  0.0076401213583191  0.2619785821831582  0.4719349865884196   T   T   T
  0.0172777649514669  0.7386754828191441  0.4869427725823127   T   T   T
  0.4923587827073653  0.2619784635266759  0.4719350165027338   T   T   T
  0.4827045918981173  0.7386760775637928  0.4869426851126004   T   T   T
  0.2499978111504543  0.3271833198213472  0.0996483189620442   T   T   T
  0.2499975464729995  0.8270947694166464  0.0996587249610322   T   T   T
  0.7499979908261766  0.3271721305570053  0.0996104890475111   T   T   T
  0.7499985573343256  0.8272819984692038  0.0993891550358027   T   T   T
 -0.0000985558239529  0.0585540235971055  0.1144690035143669   T   T   T
  0.9997893402389290  0.5584063707632070  0.1140282303664931   T   T   T
  0.5000974385857234  0.0585544596068131  0.1144689833746137   T   T   T
  0.5002132092185003  0.5584075509256361  0.1140287375836275   T   T   T
  0.9996122538249852  0.3088157643604353  0.1798265588591240   T   T   T
  0.9988277244924336  0.8090580627705286  0.1795980120960803   T   T   T
  0.5003845116548895  0.3088166143470246  0.1798266617908308   T   T   T
  0.5011693871531533  0.8090586343105073  0.1795983121799703   T   T   T
  0.2499987247991884  0.0558943469853065  0.2055540480946904   T   T   T
  0.2499985840537766  0.5550222889233350  0.2049417975413355   T   T   T
  0.7499987926471117  0.0555906211286676  0.2060465305517993   T   T   T
  0.7499985934091927  0.5553819004910594  0.2054414621642766   T   T   T
  0.2499978798799488  0.3056132462423971  0.2670794368455074   T   T   T
  0.2499987363627349  0.8074536796609190  0.2656207619110457   T   T   T
  0.7499995864139419  0.3063880197163379  0.2673831496559810   T   T   T
  0.7499989981397063  0.8064796812433221  0.2673214401445757   T   T   T
  0.0008254004914222  0.0573238814441537  0.2948594762465106   T   T   T
  0.0017195662007895  0.5549886116764665  0.2940120639513755   T   T   T
  0.4991744341166522  0.0573248314293302  0.2948590818446860   T   T   T
  0.4982747568325587  0.5549876528313731  0.2940114927340925   T   T   T
  0.0065799659116418  0.3060810873868547  0.3565784496736540   T   T   T
  0.0120502074197444  0.8049427366318269  0.3543382319872286   T   T   T
  0.4934182395863735  0.3060811493229426  0.3565784334088575   T   T   T
  0.4879479486075052  0.8049431827519008  0.3543378935383542   T   T   T
  0.2499995813912420  0.0599877289662980  0.3830222014320840   T   T   T
  0.2499997393888836  0.5568540182513405  0.3839368749552176   T   T   T
  0.7499986893619734  0.0688899444568667  0.3794069598046688   T   T   T
  0.7499984690796622  0.5501078654021239  0.3807844125363411   T   T   T
  0.2499981842508659  0.8042255471721002  0.4518931226349002   T   T   T
  0.7499992591422773  0.3045838969724604  0.4486782554026449   T   T   T
  0.7499999810386022  0.8323058351661536  0.4314735533768699   T   T   T
  0.0106465004281985  0.0907754585190160  0.4617206051947889   T   T   T
  0.9976622654675634  0.5604972753672122  0.4657921446802190   T   T   T
  0.4893519316816674  0.0907754749414327  0.4617204862928429   T   T   T
  0.5023351223713136  0.5604945444747702  0.4657922876624883   T   T   T
 
  0.00000000E+00  0.00000000E+00  0.00000000E+00
  0.00000000E+00  0.00000000E+00  0.00000000E+00
  0.00000000E+00  0.00000000E+00  0.00000000E+00
  0.00000000E+00  0.00000000E+00  0.00000000E+00
  0.00000000E+00  0.00000000E+00  0.00000000E+00
  0.00000000E+00  0.00000000E+00  0.00000000E+00
  0.00000000E+00  0.00000000E+00  0.00000000E+00
  0.00000000E+00  0.00000000E+00  0.00000000E+00
  0.00000000E+00  0.00000000E+00  0.00000000E+00
  0.00000000E+00  0.00000000E+00  0.00000000E+00
  0.00000000E+00  0.00000000E+00  0.00000000E+00
  0.00000000E+00  0.00000000E+00  0.00000000E+00
  0.00000000E+00  0.00000000E+00  0.00000000E+00
  0.00000000E+00  0.00000000E+00  0.00000000E+00
  0.00000000E+00  0.00000000E+00  0.00000000E+00
  0.00000000E+00  0.00000000E+00  0.00000000E+00
  0.00000000E+00  0.00000000E+00  0.00000000E+00
  0.00000000E+00  0.00000000E+00  0.00000000E+00
  0.00000000E+00  0.00000000E+00  0.00000000E+00
  0.00000000E+00  0.00000000E+00  0.00000000E+00
  0.00000000E+00  0.00000000E+00  0.00000000E+00
  0.00000000E+00  0.00000000E+00  0.00000000E+00
  0.00000000E+00  0.00000000E+00  0.00000000E+00
  0.00000000E+00  0.00000000E+00  0.00000000E+00
  0.00000000E+00  0.00000000E+00  0.00000000E+00
  0.00000000E+00  0.00000000E+00  0.00000000E+00
  0.00000000E+00  0.00000000E+00  0.00000000E+00
  0.00000000E+00  0.00000000E+00  0.00000000E+00
  0.00000000E+00  0.00000000E+00  0.00000000E+00
  0.00000000E+00  0.00000000E+00  0.00000000E+00
  0.00000000E+00  0.00000000E+00  0.00000000E+00
  0.00000000E+00  0.00000000E+00  0.00000000E+00
  0.00000000E+00  0.00000000E+00  0.00000000E+00
  0.00000000E+00  0.00000000E+00  0.00000000E+00
  0.00000000E+00  0.00000000E+00  0.00000000E+00
  0.00000000E+00  0.00000000E+00  0.00000000E+00
  0.00000000E+00  0.00000000E+00  0.00000000E+00
  0.00000000E+00  0.00000000E+00  0.00000000E+00
  0.00000000E+00  0.00000000E+00  0.00000000E+00
  0.00000000E+00  0.00000000E+00  0.00000000E+00
  0.00000000E+00  0.00000000E+00  0.00000000E+00
  0.00000000E+00  0.00000000E+00  0.00000000E+00
  0.00000000E+00  0.00000000E+00  0.00000000E+00
  0.00000000E+00  0.00000000E+00  0.00000000E+00
  0.00000000E+00  0.00000000E+00  0.00000000E+00
  0.00000000E+00  0.00000000E+00  0.00000000E+00
  0.00000000E+00  0.00000000E+00  0.00000000E+00
  0.00000000E+00  0.00000000E+00  0.00000000E+00
  0.00000000E+00  0.00000000E+00  0.00000000E+00
  0.00000000E+00  0.00000000E+00  0.00000000E+00
  0.00000000E+00  0.00000000E+00  0.00000000E+00
  0.00000000E+00  0.00000000E+00  0.00000000E+00
  0.00000000E+00  0.00000000E+00  0.00000000E+00
  0.00000000E+00  0.00000000E+00  0.00000000E+00
  0.00000000E+00  0.00000000E+00  0.00000000E+00
  0.00000000E+00  0.00000000E+00  0.00000000E+00
  0.00000000E+00  0.00000000E+00  0.00000000E+00
  0.00000000E+00  0.00000000E+00  0.00000000E+00
  0.00000000E+00  0.00000000E+00  0.00000000E+00
  0.00000000E+00  0.00000000E+00  0.00000000E+00
  0.00000000E+00  0.00000000E+00  0.00000000E+00
  0.00000000E+00  0.00000000E+00  0.00000000E+00
  0.00000000E+00  0.00000000E+00  0.00000000E+00
  0.00000000E+00  0.00000000E+00  0.00000000E+00
  0.00000000E+00  0.00000000E+00  0.00000000E+00
  0.00000000E+00  0.00000000E+00  0.00000000E+00
  0.00000000E+00  0.00000000E+00  0.00000000E+00
  0.00000000E+00  0.00000000E+00  0.00000000E+00
  0.00000000E+00  0.00000000E+00  0.00000000E+00
  0.00000000E+00  0.00000000E+00  0.00000000E+00
  0.00000000E+00  0.00000000E+00  0.00000000E+00
  0.00000000E+00  0.00000000E+00  0.00000000E+00
  0.00000000E+00  0.00000000E+00  0.00000000E+00
  0.00000000E+00  0.00000000E+00  0.00000000E+00
  0.00000000E+00  0.00000000E+00  0.00000000E+00
  0.00000000E+00  0.00000000E+00  0.00000000E+00
  0.00000000E+00  0.00000000E+00  0.00000000E+00
  0.00000000E+00  0.00000000E+00  0.00000000E+00
  0.00000000E+00  0.00000000E+00  0.00000000E+00
  0.00000000E+00  0.00000000E+00  0.00000000E+00
  0.00000000E+00  0.00000000E+00  0.00000000E+00
