Li O Ru Zn                              
   1.00000000000000     
     6.5625568183449996    0.0000000000000000    0.0000000000000000
     0.0000000000000000   10.5156600000000005    0.0000000000000000
     0.0000000000000000    0.0000000000000000   32.0500282661819966
   Li   O    Ru   Zn
     1    40     1    39
Selective dynamics
Direct
  0.2343374223087089  0.3105785425550782  0.4417142808245921   T   T   T
  0.2500438332555425  0.0017362121555892  0.0884929836059250   T   T   T
  0.2500116644089820  0.5015736022060446  0.0881720551547587   T   T   T
  0.7499448620013062  0.0017093103422340  0.0885286618849983   T   T   T
  0.7499175621760572  0.5015637390681065  0.0882285380617109   T   T   T
  0.0000337550236275  0.2480998927440510  0.1190382957466849   T   T   T
  0.0000223507680531  0.7480043242359731  0.1190304137671949   T   T   T
  0.4999480214023536  0.2481031446338703  0.1190191395914957   T   T   T
  0.4999312641021980  0.7480113435505422  0.1190427782410032   T   T   T
  0.0000172200690023  0.9978519711636578  0.1765875908153365   T   T   T
 -0.0000127136170450  0.4980365126503934  0.1762305360876600   T   T   T
  0.4999419673022520  0.9978794284048402  0.1766449692891460   T   T   T
  0.4998005200122402  0.4980937861597969  0.1762971012920769   T   T   T
  0.2501300316436593  0.2465903086803147  0.2076705008912007   T   T   T
  0.2499563691070615  0.7466150625660548  0.2077765738023769   T   T   T
  0.7499582111766653  0.2466437466048035  0.2076249479265136   T   T   T
  0.7499640312766964  0.7466515168480812  0.2077430800392554   T   T   T
  0.2497950810792487  0.9971797946981222  0.2656818575792306   T   T   T
  0.2493115576833003  0.4973531724878712  0.2653302086728699   T   T   T
  0.7501443677005598  0.9971224159402319  0.2656144550477728   T   T   T
  0.7499633889945676  0.4976455658489828  0.2652314302884716   T   T   T
  0.9999246593695125  0.2474792083921375  0.2958936465075049   T   T   T
  0.9998808741698267  0.7470676304204468  0.2962977009173237   T   T   T
  0.5007637145562951  0.2480245513894475  0.2962820807386467   T   T   T
  0.4999749957266650  0.7468688453887444  0.2963524771414944   T   T   T
  0.9994088421912616  0.9947876519217020  0.3543675677927588   T   T   T
  0.9980298638887929  0.5015157175924012  0.3544035855652641   T   T   T
  0.5001649806977025  0.9965237196927567  0.3539664294910065   T   T   T
  0.4992208009315309  0.4990320166006677  0.3539254962333022   T   T   T
  0.2493165496300249  0.2474709601103395  0.3838256758566245   T   T   T
  0.2511047786825727  0.7495921455378489  0.3861954639950058   T   T   T
  0.7531049212818240  0.2486771823255482  0.3837604169993108   T   T   T
  0.7482048499499786  0.7509153174666287  0.3863526125613039   T   T   T
  0.2569015585465493  0.0015288577959323  0.4434469232120430   T   T   T
  0.2368330835309048  0.4956358378146760  0.4419248550043097   T   T   T
  0.7414885057763287  0.0055610603040897  0.4437595828338049   T   T   T
  0.7501048952321403  0.4999563275251791  0.4427209650891220   T   T   T
  0.0144365528349505  0.2523683632483671  0.4745246794303783   T   T   T
  0.9971159129511328  0.7541329143646174  0.4750837306788344   T   T   T
  0.5043955318555299  0.2797600072076393  0.4690705213697815   T   T   T
  0.4991299829427719  0.7687596650448177  0.4759132157296621   T   T   T
  0.5091364762253794  0.6676122326727433  0.5212599323913164   T   T   T
  0.2499648488887554  0.3273073406882948  0.0996061843431870   T   T   T
  0.2499797188243034  0.8273553178061698  0.0996373282394197   T   T   T
  0.7500192992302296  0.3272800407468353  0.0996417615742094   T   T   T
  0.7499708451433375  0.8273295651635511  0.0996840058620707   T   T   T
  0.0000286777980337  0.0585945878421029  0.1144985306605419   T   T   T
  0.0000198594370277  0.5584483779453981  0.1141716395469151   T   T   T
  0.4999548592594558  0.0585794731280753  0.1145585799291471   T   T   T
  0.4999128365567199  0.5584408955421105  0.1142189209841043   T   T   T
  0.0000890009911909  0.3090530884808062  0.1798723340385101   T   T   T
  0.0000061220444566  0.8089371724164265  0.1798129593732311   T   T   T
  0.4999979591821616  0.3090956619167041  0.1798255013064102   T   T   T
  0.4999206669211618  0.8089630968440370  0.1798183638366538   T   T   T
  0.2498552078208431  0.0556492693489226  0.2058733960699900   T   T   T
  0.2497458664680558  0.5554044554685795  0.2056319653183420   T   T   T
  0.7501145458476096  0.0557095068467427  0.2058439278537647   T   T   T
  0.7500483243219523  0.5554556520973962  0.2055468226837581   T   T   T
  0.2507860542540868  0.3068463855794299  0.2670999119481887   T   T   T
  0.2500950487928328  0.8070825350343336  0.2669842307917589   T   T   T
  0.7498813486081767  0.3072742538364424  0.2670281093152799   T   T   T
  0.7497591782658738  0.8070780255521497  0.2669531416846687   T   T   T
  0.9998296491340452  0.0575628419863410  0.2949320691890052   T   T   T
  0.9995756977560466  0.5561411265758884  0.2949268978974253   T   T   T
  0.5000903150956570  0.0582922327026594  0.2946311088236496   T   T   T
  0.4996328137009817  0.5559685236850251  0.2945917384611870   T   T   T
  0.0045243260708990  0.3099936826205162  0.3553747594147282   T   T   T
  0.0001422509126786  0.8042834956452352  0.3554097824895811   T   T   T
  0.4979347617408466  0.3075141288485832  0.3565218215320868   T   T   T
  0.4991601701536753  0.8065448306585655  0.3553550282479671   T   T   T
  0.2494499287409641  0.0623554987262757  0.3812236218131810   T   T   T
  0.2526459806871179  0.5564613977150442  0.3842476855404842   T   T   T
  0.7498353742724332  0.0606380268532815  0.3814754802383500   T   T   T
  0.7448698027056984  0.5589312560771849  0.3837580903479149   T   T   T
  0.2370999975435957  0.8128667359206729  0.4446750688772129   T   T   T
  0.7818265268478048  0.3086056348254737  0.4446415330241620   T   T   T
  0.7604944147153218  0.8168806565492547  0.4446091509531092   T   T   T
  0.0020806131454558  0.0819643797671934  0.4621761851005339   T   T   T
  0.9990890269434133  0.5764025011965138  0.4629019981368550   T   T   T
  0.4935316096321608  0.1034176439518480  0.4602099076416737   T   T   T
  0.4861602409672066  0.4724825805935555  0.4741630767837010   T   T   T
 
  0.00000000E+00  0.00000000E+00  0.00000000E+00
  0.00000000E+00  0.00000000E+00  0.00000000E+00
  0.00000000E+00  0.00000000E+00  0.00000000E+00
  0.00000000E+00  0.00000000E+00  0.00000000E+00
  0.00000000E+00  0.00000000E+00  0.00000000E+00
  0.00000000E+00  0.00000000E+00  0.00000000E+00
  0.00000000E+00  0.00000000E+00  0.00000000E+00
  0.00000000E+00  0.00000000E+00  0.00000000E+00
  0.00000000E+00  0.00000000E+00  0.00000000E+00
  0.00000000E+00  0.00000000E+00  0.00000000E+00
  0.00000000E+00  0.00000000E+00  0.00000000E+00
  0.00000000E+00  0.00000000E+00  0.00000000E+00
  0.00000000E+00  0.00000000E+00  0.00000000E+00
  0.00000000E+00  0.00000000E+00  0.00000000E+00
  0.00000000E+00  0.00000000E+00  0.00000000E+00
  0.00000000E+00  0.00000000E+00  0.00000000E+00
  0.00000000E+00  0.00000000E+00  0.00000000E+00
  0.00000000E+00  0.00000000E+00  0.00000000E+00
  0.00000000E+00  0.00000000E+00  0.00000000E+00
  0.00000000E+00  0.00000000E+00  0.00000000E+00
  0.00000000E+00  0.00000000E+00  0.00000000E+00
  0.00000000E+00  0.00000000E+00  0.00000000E+00
  0.00000000E+00  0.00000000E+00  0.00000000E+00
  0.00000000E+00  0.00000000E+00  0.00000000E+00
  0.00000000E+00  0.00000000E+00  0.00000000E+00
  0.00000000E+00  0.00000000E+00  0.00000000E+00
  0.00000000E+00  0.00000000E+00  0.00000000E+00
  0.00000000E+00  0.00000000E+00  0.00000000E+00
  0.00000000E+00  0.00000000E+00  0.00000000E+00
  0.00000000E+00  0.00000000E+00  0.00000000E+00
  0.00000000E+00  0.00000000E+00  0.00000000E+00
  0.00000000E+00  0.00000000E+00  0.00000000E+00
  0.00000000E+00  0.00000000E+00  0.00000000E+00
  0.00000000E+00  0.00000000E+00  0.00000000E+00
  0.00000000E+00  0.00000000E+00  0.00000000E+00
  0.00000000E+00  0.00000000E+00  0.00000000E+00
  0.00000000E+00  0.00000000E+00  0.00000000E+00
  0.00000000E+00  0.00000000E+00  0.00000000E+00
  0.00000000E+00  0.00000000E+00  0.00000000E+00
  0.00000000E+00  0.00000000E+00  0.00000000E+00
  0.00000000E+00  0.00000000E+00  0.00000000E+00
  0.00000000E+00  0.00000000E+00  0.00000000E+00
  0.00000000E+00  0.00000000E+00  0.00000000E+00
  0.00000000E+00  0.00000000E+00  0.00000000E+00
  0.00000000E+00  0.00000000E+00  0.00000000E+00
  0.00000000E+00  0.00000000E+00  0.00000000E+00
  0.00000000E+00  0.00000000E+00  0.00000000E+00
  0.00000000E+00  0.00000000E+00  0.00000000E+00
  0.00000000E+00  0.00000000E+00  0.00000000E+00
  0.00000000E+00  0.00000000E+00  0.00000000E+00
  0.00000000E+00  0.00000000E+00  0.00000000E+00
  0.00000000E+00  0.00000000E+00  0.00000000E+00
  0.00000000E+00  0.00000000E+00  0.00000000E+00
  0.00000000E+00  0.00000000E+00  0.00000000E+00
  0.00000000E+00  0.00000000E+00  0.00000000E+00
  0.00000000E+00  0.00000000E+00  0.00000000E+00
  0.00000000E+00  0.00000000E+00  0.00000000E+00
  0.00000000E+00  0.00000000E+00  0.00000000E+00
  0.00000000E+00  0.00000000E+00  0.00000000E+00
  0.00000000E+00  0.00000000E+00  0.00000000E+00
  0.00000000E+00  0.00000000E+00  0.00000000E+00
  0.00000000E+00  0.00000000E+00  0.00000000E+00
  0.00000000E+00  0.00000000E+00  0.00000000E+00
  0.00000000E+00  0.00000000E+00  0.00000000E+00
  0.00000000E+00  0.00000000E+00  0.00000000E+00
  0.00000000E+00  0.00000000E+00  0.00000000E+00
  0.00000000E+00  0.00000000E+00  0.00000000E+00
  0.00000000E+00  0.00000000E+00  0.00000000E+00
  0.00000000E+00  0.00000000E+00  0.00000000E+00
  0.00000000E+00  0.00000000E+00  0.00000000E+00
  0.00000000E+00  0.00000000E+00  0.00000000E+00
  0.00000000E+00  0.00000000E+00  0.00000000E+00
  0.00000000E+00  0.00000000E+00  0.00000000E+00
  0.00000000E+00  0.00000000E+00  0.00000000E+00
  0.00000000E+00  0.00000000E+00  0.00000000E+00
  0.00000000E+00  0.00000000E+00  0.00000000E+00
  0.00000000E+00  0.00000000E+00  0.00000000E+00
  0.00000000E+00  0.00000000E+00  0.00000000E+00
  0.00000000E+00  0.00000000E+00  0.00000000E+00
  0.00000000E+00  0.00000000E+00  0.00000000E+00
  0.00000000E+00  0.00000000E+00  0.00000000E+00
