Fe Li O Zn                              
   1.00000000000000     
     6.5625568183449996    0.0000000000000000    0.0000000000000000
     0.0000000000000000   10.5156600000000005    0.0000000000000000
     0.0000000000000000    0.0000000000000000   32.0500282661819966
   Fe   Li   O    Zn
     1     1    40    39
Selective dynamics
Direct
  0.7502080771938207  0.7404915492329964  0.4981973309866152   T   T   T
  0.2499757782240296  0.3147394540977311  0.4454239529503978   T   T   T
  0.2499954311416430  0.0014324913713684  0.0886105627225525   T   T   T
  0.2499939458977422  0.5012868947236997  0.0881468749255037   T   T   T
  0.7499965858401647  0.0018207670867284  0.0883278718595703   T   T   T
  0.7499923493577431  0.5012678496709899  0.0878348465515196   T   T   T
  0.9997774289893108  0.2479084777532032  0.1189654466943307   T   T   T
  0.9994541687659507  0.7477874418438158  0.1188178453635591   T   T   T
  0.5002026703103927  0.2479070875164145  0.1189658397322882   T   T   T
  0.5005283681024674  0.7477923300503317  0.1188194953022119   T   T   T
  0.9992911571241139  0.9976876180732137  0.1765463664344286   T   T   T
  0.9991641270590437  0.4977336673175199  0.1759808588301668   T   T   T
  0.5007016763283162  0.9976862359431858  0.1765471640827122   T   T   T
  0.5008284951006521  0.4977341330279009  0.1759809099154420   T   T   T
  0.2499947408965108  0.2463898423980707  0.2073447666044495   T   T   T
  0.2499870307703914  0.7460420611988432  0.2068000983114933   T   T   T
  0.7499933304190509  0.2464429957872612  0.2078301755426679   T   T   T
  0.7499998071099628  0.7464566229060718  0.2079757411868176   T   T   T
  0.2499874502683465  0.9971715958641130  0.2652450285747993   T   T   T
  0.2499886340823119  0.4962843067932444  0.2644483058143117   T   T   T
  0.7500032492434189  0.9966267337496231  0.2659033957289073   T   T   T
  0.7499995772072137  0.4972813465123448  0.2651987763763444   T   T   T
  0.0003757206835816  0.2473323256941632  0.2960840628206884   T   T   T
  0.0033556659196655  0.7463723588963603  0.2957310145269992   T   T   T
  0.4996142326511891  0.2473425047176842  0.2960830574030625   T   T   T
  0.4966332431366275  0.7463614868880499  0.2957163731254389   T   T   T
  0.0010362218181487  0.9951944810205536  0.3542426029978512   T   T   T
  0.0041554411577831  0.4994019858672106  0.3534335504395071   T   T   T
  0.4989420433362733  0.9951964308776006  0.3542347436474128   T   T   T
  0.4958263452217979  0.4993991221563339  0.3534317744608004   T   T   T
  0.2499942141464368  0.2452139389666614  0.3848253520419196   T   T   T
  0.2500149732349543  0.7502167088874742  0.3899859943199345   T   T   T
  0.7499944008441130  0.2548955892460626  0.3834780842991612   T   T   T
  0.7499766604972549  0.7445625530041411  0.3804126489659034   T   T   T
  0.2500412618639702  0.9907383016834312  0.4449788632470831   T   T   T
  0.2500111951327552  0.5001222586171284  0.4426637895945452   T   T   T
  0.7498905698402156  0.0118279105599884  0.4406642729216001   T   T   T
  0.7500148950939728  0.5005289430517332  0.4412005207128435   T   T   T
  0.0068814374068815  0.2626572692563006  0.4717121648207357   T   T   T
  0.0216143884716232  0.7329615745484629  0.4875297681258098   T   T   T
  0.4931419906846252  0.2628081240149849  0.4717121544715225   T   T   T
  0.4786412825200505  0.7329895208460211  0.4874434901802145   T   T   T
  0.2499881735632964  0.3270342889949228  0.0996229715695042   T   T   T
  0.2499946166367162  0.8269856810212838  0.0996343021965427   T   T   T
  0.7499879872192142  0.3270950422468082  0.0994225502291131   T   T   T
  0.7499928944302261  0.8273761749506027  0.0992603307560767   T   T   T
  0.9997703493111173  0.0584913775265891  0.1144605096850234   T   T   T
  0.9995798409920734  0.5582665193073016  0.1139273491705706   T   T   T
  0.5002225581907721  0.0584910107384850  0.1144604595343996   T   T   T
  0.5004047364605190  0.5582686165639569  0.1139278236729556   T   T   T
  0.9993598802632255  0.3087565955067635  0.1797858881701143   T   T   T
  0.9986428544108777  0.8087977309258200  0.1795370109570574   T   T   T
  0.5006286973468762  0.3087590721832481  0.1797854619999815   T   T   T
  0.5013413139809285  0.8087977064975910  0.1795401450271122   T   T   T
  0.2499987017147198  0.0557284200838205  0.2054436319213220   T   T   T
  0.2499951186708416  0.5549222700700971  0.2048921138316985   T   T   T
  0.7499966524578049  0.0555469203696383  0.2060971848138853   T   T   T
  0.7499951670836265  0.5552914905246008  0.2054765790335683   T   T   T
  0.2499904246453126  0.3058211094174301  0.2668543462608469   T   T   T
  0.2499761320982356  0.8074642504024911  0.2655756148060531   T   T   T
  0.7500018506619311  0.3065910562567291  0.2674166750670111   T   T   T
  0.7500150469875559  0.8066144762945224  0.2673758177849260   T   T   T
  0.0011030356226437  0.0577477685838850  0.2947799646365020   T   T   T
  0.0016037990703153  0.5553889054540012  0.2940386215855443   T   T   T
  0.4988849244365990  0.0577566989422762  0.2947719219156967   T   T   T
  0.4983855249695240  0.5553747602024266  0.2940378675860243   T   T   T
  0.0070915118945094  0.3070047165277675  0.3564146536453551   T   T   T
  0.0124438045746823  0.8056377451608446  0.3544930094091188   T   T   T
  0.4929001177448133  0.3070036473634533  0.3564148184444775   T   T   T
  0.4875642030673891  0.8056415505499750  0.3544748884432565   T   T   T
  0.2499996164583336  0.0598373442885581  0.3831085511367803   T   T   T
  0.2499878178629417  0.5579233695566681  0.3836884380867341   T   T   T
  0.7499872822431364  0.0698595025075276  0.3791197948526159   T   T   T
  0.7499830672781743  0.5519468396457186  0.3810785575330194   T   T   T
  0.2500308424372571  0.8034885405047330  0.4525789470210027   T   T   T
  0.7500625132177190  0.3059710843386897  0.4480280763312182   T   T   T
  0.7498849436555834  0.8322440645869770  0.4320420865081930   T   T   T
  0.0102060931390546  0.0913124003066538  0.4615218630189855   T   T   T
  0.0020937173525110  0.5566375512153034  0.4664946852466842   T   T   T
  0.4896543366715720  0.0914683193854828  0.4615223278780158   T   T   T
  0.4979550537607929  0.5565359119423301  0.4665039353509028   T   T   T
 
  0.00000000E+00  0.00000000E+00  0.00000000E+00
  0.00000000E+00  0.00000000E+00  0.00000000E+00
  0.00000000E+00  0.00000000E+00  0.00000000E+00
  0.00000000E+00  0.00000000E+00  0.00000000E+00
  0.00000000E+00  0.00000000E+00  0.00000000E+00
  0.00000000E+00  0.00000000E+00  0.00000000E+00
  0.00000000E+00  0.00000000E+00  0.00000000E+00
  0.00000000E+00  0.00000000E+00  0.00000000E+00
  0.00000000E+00  0.00000000E+00  0.00000000E+00
  0.00000000E+00  0.00000000E+00  0.00000000E+00
  0.00000000E+00  0.00000000E+00  0.00000000E+00
  0.00000000E+00  0.00000000E+00  0.00000000E+00
  0.00000000E+00  0.00000000E+00  0.00000000E+00
  0.00000000E+00  0.00000000E+00  0.00000000E+00
  0.00000000E+00  0.00000000E+00  0.00000000E+00
  0.00000000E+00  0.00000000E+00  0.00000000E+00
  0.00000000E+00  0.00000000E+00  0.00000000E+00
  0.00000000E+00  0.00000000E+00  0.00000000E+00
  0.00000000E+00  0.00000000E+00  0.00000000E+00
  0.00000000E+00  0.00000000E+00  0.00000000E+00
  0.00000000E+00  0.00000000E+00  0.00000000E+00
  0.00000000E+00  0.00000000E+00  0.00000000E+00
  0.00000000E+00  0.00000000E+00  0.00000000E+00
  0.00000000E+00  0.00000000E+00  0.00000000E+00
  0.00000000E+00  0.00000000E+00  0.00000000E+00
  0.00000000E+00  0.00000000E+00  0.00000000E+00
  0.00000000E+00  0.00000000E+00  0.00000000E+00
  0.00000000E+00  0.00000000E+00  0.00000000E+00
  0.00000000E+00  0.00000000E+00  0.00000000E+00
  0.00000000E+00  0.00000000E+00  0.00000000E+00
  0.00000000E+00  0.00000000E+00  0.00000000E+00
  0.00000000E+00  0.00000000E+00  0.00000000E+00
  0.00000000E+00  0.00000000E+00  0.00000000E+00
  0.00000000E+00  0.00000000E+00  0.00000000E+00
  0.00000000E+00  0.00000000E+00  0.00000000E+00
  0.00000000E+00  0.00000000E+00  0.00000000E+00
  0.00000000E+00  0.00000000E+00  0.00000000E+00
  0.00000000E+00  0.00000000E+00  0.00000000E+00
  0.00000000E+00  0.00000000E+00  0.00000000E+00
  0.00000000E+00  0.00000000E+00  0.00000000E+00
  0.00000000E+00  0.00000000E+00  0.00000000E+00
  0.00000000E+00  0.00000000E+00  0.00000000E+00
  0.00000000E+00  0.00000000E+00  0.00000000E+00
  0.00000000E+00  0.00000000E+00  0.00000000E+00
  0.00000000E+00  0.00000000E+00  0.00000000E+00
  0.00000000E+00  0.00000000E+00  0.00000000E+00
  0.00000000E+00  0.00000000E+00  0.00000000E+00
  0.00000000E+00  0.00000000E+00  0.00000000E+00
  0.00000000E+00  0.00000000E+00  0.00000000E+00
  0.00000000E+00  0.00000000E+00  0.00000000E+00
  0.00000000E+00  0.00000000E+00  0.00000000E+00
  0.00000000E+00  0.00000000E+00  0.00000000E+00
  0.00000000E+00  0.00000000E+00  0.00000000E+00
  0.00000000E+00  0.00000000E+00  0.00000000E+00
  0.00000000E+00  0.00000000E+00  0.00000000E+00
  0.00000000E+00  0.00000000E+00  0.00000000E+00
  0.00000000E+00  0.00000000E+00  0.00000000E+00
  0.00000000E+00  0.00000000E+00  0.00000000E+00
  0.00000000E+00  0.00000000E+00  0.00000000E+00
  0.00000000E+00  0.00000000E+00  0.00000000E+00
  0.00000000E+00  0.00000000E+00  0.00000000E+00
  0.00000000E+00  0.00000000E+00  0.00000000E+00
  0.00000000E+00  0.00000000E+00  0.00000000E+00
  0.00000000E+00  0.00000000E+00  0.00000000E+00
  0.00000000E+00  0.00000000E+00  0.00000000E+00
  0.00000000E+00  0.00000000E+00  0.00000000E+00
  0.00000000E+00  0.00000000E+00  0.00000000E+00
  0.00000000E+00  0.00000000E+00  0.00000000E+00
  0.00000000E+00  0.00000000E+00  0.00000000E+00
  0.00000000E+00  0.00000000E+00  0.00000000E+00
  0.00000000E+00  0.00000000E+00  0.00000000E+00
  0.00000000E+00  0.00000000E+00  0.00000000E+00
  0.00000000E+00  0.00000000E+00  0.00000000E+00
  0.00000000E+00  0.00000000E+00  0.00000000E+00
  0.00000000E+00  0.00000000E+00  0.00000000E+00
  0.00000000E+00  0.00000000E+00  0.00000000E+00
  0.00000000E+00  0.00000000E+00  0.00000000E+00
  0.00000000E+00  0.00000000E+00  0.00000000E+00
  0.00000000E+00  0.00000000E+00  0.00000000E+00
  0.00000000E+00  0.00000000E+00  0.00000000E+00
  0.00000000E+00  0.00000000E+00  0.00000000E+00
