Cu Li O Zn                              
   1.00000000000000     
     6.5625568183449996    0.0000000000000000    0.0000000000000000
     0.0000000000000000   10.5156600000000005    0.0000000000000000
     0.0000000000000000    0.0000000000000000   32.0500282661819966
   Cu   Li   O    Zn
     1     1    40    39
Selective dynamics
Direct
  0.7499973160219966  0.7488501362147936  0.5086557955191170   T   T   T
  0.2499997575899968  0.3134835704957806  0.4460082077548601   T   T   T
  0.2499987879510002  0.0015694245445087  0.0884653901907236   T   T   T
  0.2499987879510002  0.5015790012761155  0.0883138390989708   T   T   T
  0.7499987879510002  0.0016217450490639  0.0884606286349638   T   T   T
  0.7499987879510002  0.5015678375053001  0.0883008984392358   T   T   T
  0.0000027842944553  0.2480410119091603  0.1191004002097357   T   T   T
 -0.0001220067639494  0.7480046968987842  0.1190586208866401   T   T   T
  0.4999941080075454  0.2480410119091603  0.1191004002097357   T   T   T
  0.5001188990659502  0.7480046968987842  0.1190586208866401   T   T   T
 -0.0001325763633778  0.9979864579456417  0.1765555813918272   T   T   T
 -0.0002383445185762  0.4979122336037546  0.1762334256211568   T   T   T
  0.5001306370853774  0.9979864579456417  0.1765555813918272   T   T   T
  0.5002364052405759  0.4979122336037546  0.1762334256211568   T   T   T
  0.2499986885609999  0.2466891314659496  0.2076931247489013   T   T   T
  0.2499986885609999  0.7464150996785237  0.2074227794807434   T   T   T
  0.7499986885609999  0.2466286943970803  0.2077329837406318   T   T   T
  0.7499986885609999  0.7466864863171547  0.2079873141022161   T   T   T
  0.2499992727709994  0.9971429161722278  0.2654724029866182   T   T   T
  0.2499992727709994  0.4965993497574894  0.2648615759465526   T   T   T
  0.7499992727709994  0.9967050807021980  0.2656255430877708   T   T   T
  0.7499992727709994  0.4971940450465590  0.2651081096657991   T   T   T
  0.9996968092287132  0.2470608428893692  0.2962090618709591   T   T   T
  0.0017389792916942  0.7464605797544321  0.2962554053514996   T   T   T
  0.5003010527132860  0.2470608428893692  0.2962090618709591   T   T   T
  0.4982588826503049  0.7464605797544321  0.2962554053514996   T   T   T
 -0.0000011402387047  0.9945089280804906  0.3542581065447870   T   T   T
  0.0022739916949923  0.4971404620887288  0.3534233359754837   T   T   T
  0.5000001705987062  0.9945089280804906  0.3542581065447870   T   T   T
  0.4977250386650021  0.4971404620887288  0.3534233359754837   T   T   T
  0.2499991733809992  0.2459268963117504  0.3847426833040899   T   T   T
  0.2499991733809992  0.7478338174055600  0.3884211258582508   T   T   T
  0.7499991733809992  0.2503971896806981  0.3846912151098877   T   T   T
  0.7499991733809992  0.7434752468239116  0.3829217068005846   T   T   T
  0.2499997575899968  0.9948188898679693  0.4435807346805729   T   T   T
  0.2499997575899968  0.4988638051703824  0.4422874690518730   T   T   T
  0.7499997575899968  0.0010801092736766  0.4422151552647541   T   T   T
  0.7499997575899968  0.5004375035459385  0.4419500517419020   T   T   T
  0.0071927001811642  0.2596594488059779  0.4721687081325633   T   T   T
  0.9974734797768097  0.7453888740493236  0.4770106774237070   T   T   T
  0.4928061313988368  0.2596594488059779  0.4721687081325633   T   T   T
  0.5025253518031914  0.7453888740493236  0.4770106774237070   T   T   T
  0.2499987879510002  0.3272901011343040  0.0997277548566989   T   T   T
  0.2499987879510002  0.8272482604568632  0.0997080060738260   T   T   T
  0.7499987879510002  0.3272946339304971  0.0997251284579955   T   T   T
  0.7499987879510002  0.8272902352362751  0.0996372582954802   T   T   T
 -0.0000030170100213  0.0585722479500076  0.1144608921053585   T   T   T
 -0.0000286981806397  0.5584534694179073  0.1142647921073195   T   T   T
  0.4999999093120219  0.0585722479500076  0.1144608921053585   T   T   T
  0.5000255904826403  0.5584534694179073  0.1142647921073195   T   T   T
 -0.0000745411427874  0.3089560685296767  0.1799410533914349   T   T   T
 -0.0006079563519594  0.8091858708656164  0.1797818035707995   T   T   T
  0.5000726018647869  0.3089560685296767  0.1799410533914349   T   T   T
  0.5006060170739589  0.8091858708656164  0.1797818035707995   T   T   T
  0.2499986885609999  0.0559976284464030  0.2056960343725783   T   T   T
  0.2499986885609999  0.5553042393074260  0.2052838335417123   T   T   T
  0.7499986885609999  0.0558177383386158  0.2058542681682405   T   T   T
  0.7499986885609999  0.5555828368255731  0.2054067279274009   T   T   T
  0.2499992727709994  0.3059859687102371  0.2672793265164662   T   T   T
  0.2499992727709994  0.8074050426876788  0.2663946493347858   T   T   T
  0.7499992727709994  0.3064661598988817  0.2672952588792856   T   T   T
  0.7499992727709994  0.8068511394804075  0.2673258640780593   T   T   T
  0.0001729008982220  0.0574334061456737  0.2948651067710681   T   T   T
  0.0006969937773255  0.5556248094690832  0.2941119925404491   T   T   T
  0.4998249610437772  0.0574334061456737  0.2948651067710681   T   T   T
  0.4993008681646736  0.5556248094690832  0.2941119925404491   T   T   T
  0.0040801978774809  0.3044163346610140  0.3567951523799525   T   T   T
  0.0072379936392706  0.8050269893169626  0.3552878087604197   T   T   T
  0.4959188324825136  0.3044163346610140  0.3567951523799525   T   T   T
  0.4927610367207310  0.8050269893169626  0.3552878087604197   T   T   T
  0.2499991733809992  0.0609157730656243  0.3822664524424076   T   T   T
  0.2499991733809992  0.5556359605797793  0.3826478129195764   T   T   T
  0.7499991733809992  0.0639449287750623  0.3809365310481918   T   T   T
  0.7499991733809992  0.5515293232494437  0.3810067151331140   T   T   T
  0.2499997575899968  0.8096975236031707  0.4494445027946679   T   T   T
  0.7499997575899968  0.3058976688701706  0.4497289857050888   T   T   T
  0.7499997575899968  0.8172322529742163  0.4378945645387424   T   T   T
  0.0051324082398874  0.0889006145759497  0.4608135389408092   T   T   T
  0.0031085993142343  0.5647776682383068  0.4628581872433742   T   T   T
  0.4948664233401137  0.0889006145759497  0.4608135389408092   T   T   T
  0.4968902322657596  0.5647776682383068  0.4628581872433742   T   T   T
 
  0.00000000E+00  0.00000000E+00  0.00000000E+00
  0.00000000E+00  0.00000000E+00  0.00000000E+00
  0.00000000E+00  0.00000000E+00  0.00000000E+00
  0.00000000E+00  0.00000000E+00  0.00000000E+00
  0.00000000E+00  0.00000000E+00  0.00000000E+00
  0.00000000E+00  0.00000000E+00  0.00000000E+00
  0.00000000E+00  0.00000000E+00  0.00000000E+00
  0.00000000E+00  0.00000000E+00  0.00000000E+00
  0.00000000E+00  0.00000000E+00  0.00000000E+00
  0.00000000E+00  0.00000000E+00  0.00000000E+00
  0.00000000E+00  0.00000000E+00  0.00000000E+00
  0.00000000E+00  0.00000000E+00  0.00000000E+00
  0.00000000E+00  0.00000000E+00  0.00000000E+00
  0.00000000E+00  0.00000000E+00  0.00000000E+00
  0.00000000E+00  0.00000000E+00  0.00000000E+00
  0.00000000E+00  0.00000000E+00  0.00000000E+00
  0.00000000E+00  0.00000000E+00  0.00000000E+00
  0.00000000E+00  0.00000000E+00  0.00000000E+00
  0.00000000E+00  0.00000000E+00  0.00000000E+00
  0.00000000E+00  0.00000000E+00  0.00000000E+00
  0.00000000E+00  0.00000000E+00  0.00000000E+00
  0.00000000E+00  0.00000000E+00  0.00000000E+00
  0.00000000E+00  0.00000000E+00  0.00000000E+00
  0.00000000E+00  0.00000000E+00  0.00000000E+00
  0.00000000E+00  0.00000000E+00  0.00000000E+00
  0.00000000E+00  0.00000000E+00  0.00000000E+00
  0.00000000E+00  0.00000000E+00  0.00000000E+00
  0.00000000E+00  0.00000000E+00  0.00000000E+00
  0.00000000E+00  0.00000000E+00  0.00000000E+00
  0.00000000E+00  0.00000000E+00  0.00000000E+00
  0.00000000E+00  0.00000000E+00  0.00000000E+00
  0.00000000E+00  0.00000000E+00  0.00000000E+00
  0.00000000E+00  0.00000000E+00  0.00000000E+00
  0.00000000E+00  0.00000000E+00  0.00000000E+00
  0.00000000E+00  0.00000000E+00  0.00000000E+00
  0.00000000E+00  0.00000000E+00  0.00000000E+00
  0.00000000E+00  0.00000000E+00  0.00000000E+00
  0.00000000E+00  0.00000000E+00  0.00000000E+00
  0.00000000E+00  0.00000000E+00  0.00000000E+00
  0.00000000E+00  0.00000000E+00  0.00000000E+00
  0.00000000E+00  0.00000000E+00  0.00000000E+00
  0.00000000E+00  0.00000000E+00  0.00000000E+00
  0.00000000E+00  0.00000000E+00  0.00000000E+00
  0.00000000E+00  0.00000000E+00  0.00000000E+00
  0.00000000E+00  0.00000000E+00  0.00000000E+00
  0.00000000E+00  0.00000000E+00  0.00000000E+00
  0.00000000E+00  0.00000000E+00  0.00000000E+00
  0.00000000E+00  0.00000000E+00  0.00000000E+00
  0.00000000E+00  0.00000000E+00  0.00000000E+00
  0.00000000E+00  0.00000000E+00  0.00000000E+00
  0.00000000E+00  0.00000000E+00  0.00000000E+00
  0.00000000E+00  0.00000000E+00  0.00000000E+00
  0.00000000E+00  0.00000000E+00  0.00000000E+00
  0.00000000E+00  0.00000000E+00  0.00000000E+00
  0.00000000E+00  0.00000000E+00  0.00000000E+00
  0.00000000E+00  0.00000000E+00  0.00000000E+00
  0.00000000E+00  0.00000000E+00  0.00000000E+00
  0.00000000E+00  0.00000000E+00  0.00000000E+00
  0.00000000E+00  0.00000000E+00  0.00000000E+00
  0.00000000E+00  0.00000000E+00  0.00000000E+00
  0.00000000E+00  0.00000000E+00  0.00000000E+00
  0.00000000E+00  0.00000000E+00  0.00000000E+00
  0.00000000E+00  0.00000000E+00  0.00000000E+00
  0.00000000E+00  0.00000000E+00  0.00000000E+00
  0.00000000E+00  0.00000000E+00  0.00000000E+00
  0.00000000E+00  0.00000000E+00  0.00000000E+00
  0.00000000E+00  0.00000000E+00  0.00000000E+00
  0.00000000E+00  0.00000000E+00  0.00000000E+00
  0.00000000E+00  0.00000000E+00  0.00000000E+00
  0.00000000E+00  0.00000000E+00  0.00000000E+00
  0.00000000E+00  0.00000000E+00  0.00000000E+00
  0.00000000E+00  0.00000000E+00  0.00000000E+00
  0.00000000E+00  0.00000000E+00  0.00000000E+00
  0.00000000E+00  0.00000000E+00  0.00000000E+00
  0.00000000E+00  0.00000000E+00  0.00000000E+00
  0.00000000E+00  0.00000000E+00  0.00000000E+00
  0.00000000E+00  0.00000000E+00  0.00000000E+00
  0.00000000E+00  0.00000000E+00  0.00000000E+00
  0.00000000E+00  0.00000000E+00  0.00000000E+00
  0.00000000E+00  0.00000000E+00  0.00000000E+00
  0.00000000E+00  0.00000000E+00  0.00000000E+00
