Ag Li O Zn                              
   1.00000000000000     
     6.5625568183449996    0.0000000000000000    0.0000000000000000
     0.0000000000000000   10.5156600000000005    0.0000000000000000
     0.0000000000000000    0.0000000000000000   32.0500282661819966
   Ag   Li   O    Zn
     1     1    40    39
Selective dynamics
Direct
  0.5016105831790265  0.8875496380082655  0.5207481950151491   T   T   T
  0.2480106428888902  0.3125468902215249  0.4464798992100679   T   T   T
  0.2500170994306686  0.0015857678882096  0.0884125310219587   T   T   T
  0.2500131289105889  0.5015689206857111  0.0883156875529314   T   T   T
  0.7500027253150043  0.0015878864831204  0.0884206496817465   T   T   T
  0.7500055506762967  0.5015628434438200  0.0883157802511817   T   T   T
  0.0000151269271257  0.2480434731656137  0.1191415096293230   T   T   T
  0.0000157075463784  0.7480186281525195  0.1190968471754506   T   T   T
  0.5000019710469168  0.2480420987706470  0.1191497412745987   T   T   T
  0.5000041165423056  0.7480218751402772  0.1191035956546512   T   T   T
  0.0000072822846709  0.9980132968881938  0.1765287307479567   T   T   T
 -0.0000056567604152  0.4980358533175256  0.1763524225961888   T   T   T
  0.5000123079977409  0.9980202024651426  0.1765507840398509   T   T   T
  0.5000220972414681  0.4980294982277368  0.1763542928468807   T   T   T
  0.2499754419845951  0.2467042596665816  0.2078431613080750   T   T   T
  0.2500265289976847  0.7465926767224419  0.2077119712752402   T   T   T
  0.7500414607382222  0.2467462940493567  0.2078361700817017   T   T   T
  0.7499922981274205  0.7466236890469649  0.2077118396986797   T   T   T
  0.2498206193154916  0.9970694890914718  0.2656302063898400   T   T   T
  0.2500646050723018  0.4968097678868231  0.2652052423402001   T   T   T
  0.7501836669973667  0.9969972881945433  0.2656080502371068   T   T   T
  0.7499504261818469  0.4970725302880589  0.2652214149890283   T   T   T
  0.9996232415510525  0.2471466185489351  0.2964174261350924   T   T   T
  0.0000371314056698  0.7462367357121662  0.2958268867614824   T   T   T
  0.5003959646583968  0.2473015888766944  0.2963278886878626   T   T   T
  0.4999813877025572  0.7464745973666280  0.2960212228137037   T   T   T
  0.9997189497581456  0.9952151888156413  0.3543258378761299   T   T   T
  0.9997347489699933  0.4960899265266864  0.3535853688382980   T   T   T
  0.5001746541739990  0.9955440160876572  0.3541116047417385   T   T   T
  0.5002471845928587  0.4962704076403376  0.3535943533032995   T   T   T
  0.2502105808802034  0.2471501137508825  0.3849147433513534   T   T   T
  0.2499337282994326  0.7447322523429115  0.3845378874314195   T   T   T
  0.7497920119944094  0.2482943397906068  0.3854237274736957   T   T   T
  0.7500925689879743  0.7455119115071377  0.3846680622859479   T   T   T
  0.2505255806986676  0.9940786575471418  0.4429558518553959   T   T   T
  0.2491804175984889  0.4986228032200827  0.4426139566016499   T   T   T
  0.7490043086175143  0.9966366499293130  0.4431909570312517   T   T   T
  0.7504626053082550  0.5003107432877327  0.4430400172660200   T   T   T
  0.0063189481831936  0.2557760044286077  0.4730690978151359   T   T   T
  0.9992144681894864  0.7484437474599194  0.4751328593811909   T   T   T
  0.4949457605756411  0.2578694032488704  0.4726344716953387   T   T   T
  0.5004037644613668  0.7481587392739802  0.4725614404831005   T   T   T
  0.2500159463061489  0.3272843762383640  0.0997324349361250   T   T   T
  0.2500157538451637  0.8272469196037046  0.0996751986482087   T   T   T
  0.7500015843129997  0.3272807246515468  0.0997350392954204   T   T   T
  0.7500038732069416  0.8272473069084484  0.0996796068681212   T   T   T
  0.0000181082686802  0.0585285504490944  0.1144201752560686   T   T   T
  0.0000076881384837  0.5584415264641650  0.1143176622772076   T   T   T
  0.5000023927640973  0.0585311861089849  0.1144245432699889   T   T   T
  0.5000129414622567  0.5584445793048662  0.1143209296177697   T   T   T
 -0.0000095999354559  0.3090326403482414  0.1799821126549303   T   T   T
  0.0000032566925467  0.8090904541580434  0.1798715675053940   T   T   T
  0.5000261251537466  0.3090238218272454  0.1799986711785470   T   T   T
  0.5000189969718082  0.8090841267386292  0.1798700442910545   T   T   T
  0.2499579493017330  0.0558340165774532  0.2058048543743248   T   T   T
  0.2500081039608189  0.5554993311176392  0.2055697845006393   T   T   T
  0.7500615672048877  0.0558916604250492  0.2058081208235624   T   T   T
  0.7500089348394194  0.5555468460826317  0.2055855449237901   T   T   T
  0.2498972271893917  0.3063846892903369  0.2674052634358787   T   T   T
  0.2502728057805347  0.8071733572358467  0.2668588988197605   T   T   T
  0.7501230243648502  0.3067108653626913  0.2673767918750770   T   T   T
  0.7497462131049524  0.8071214655606153  0.2668779833868366   T   T   T
  0.9999453863304778  0.0576473761515816  0.2948447541594511   T   T   T
  0.0001681450429773  0.5556547053835248  0.2943032495311103   T   T   T
  0.5000546468163208  0.0577767521822693  0.2946929581121294   T   T   T
  0.4998358003672986  0.5559465485241838  0.2943186616150651   T   T   T
  0.0023501172394854  0.3040208043481902  0.3569489043703457   T   T   T
  0.0005096951680609  0.8051827252458637  0.3548007539457027   T   T   T
  0.4976277835195305  0.3042129373631845  0.3568554266611249   T   T   T
  0.4995323045781298  0.8056843516679766  0.3552135353464401   T   T   T
  0.2502159994556958  0.0623417436226680  0.3817331198602795   T   T   T
  0.2498581203172510  0.5525635834183646  0.3823414657764846   T   T   T
  0.7496141308685232  0.0605676522148988  0.3819490102631906   T   T   T
  0.7501119325195298  0.5546580369287448  0.3816010063521976   T   T   T
  0.2376931745360010  0.8052096490902101  0.4437059721054070   T   T   T
  0.7527502268101743  0.3064608785677137  0.4495523035864764   T   T   T
  0.7621275081035236  0.8073582594386779  0.4438064256660559   T   T   T
  0.0032593595480731  0.0855192477709547  0.4606203783030327   T   T   T
  0.0034245588756833  0.5717971576888695  0.4628614141580136   T   T   T
  0.4955232080052622  0.0881843602227747  0.4601953861419394   T   T   T
  0.4965865101980421  0.5659496535532497  0.4625679987029579   T   T   T
 
  0.00000000E+00  0.00000000E+00  0.00000000E+00
  0.00000000E+00  0.00000000E+00  0.00000000E+00
  0.00000000E+00  0.00000000E+00  0.00000000E+00
  0.00000000E+00  0.00000000E+00  0.00000000E+00
  0.00000000E+00  0.00000000E+00  0.00000000E+00
  0.00000000E+00  0.00000000E+00  0.00000000E+00
  0.00000000E+00  0.00000000E+00  0.00000000E+00
  0.00000000E+00  0.00000000E+00  0.00000000E+00
  0.00000000E+00  0.00000000E+00  0.00000000E+00
  0.00000000E+00  0.00000000E+00  0.00000000E+00
  0.00000000E+00  0.00000000E+00  0.00000000E+00
  0.00000000E+00  0.00000000E+00  0.00000000E+00
  0.00000000E+00  0.00000000E+00  0.00000000E+00
  0.00000000E+00  0.00000000E+00  0.00000000E+00
  0.00000000E+00  0.00000000E+00  0.00000000E+00
  0.00000000E+00  0.00000000E+00  0.00000000E+00
  0.00000000E+00  0.00000000E+00  0.00000000E+00
  0.00000000E+00  0.00000000E+00  0.00000000E+00
  0.00000000E+00  0.00000000E+00  0.00000000E+00
  0.00000000E+00  0.00000000E+00  0.00000000E+00
  0.00000000E+00  0.00000000E+00  0.00000000E+00
  0.00000000E+00  0.00000000E+00  0.00000000E+00
  0.00000000E+00  0.00000000E+00  0.00000000E+00
  0.00000000E+00  0.00000000E+00  0.00000000E+00
  0.00000000E+00  0.00000000E+00  0.00000000E+00
  0.00000000E+00  0.00000000E+00  0.00000000E+00
  0.00000000E+00  0.00000000E+00  0.00000000E+00
  0.00000000E+00  0.00000000E+00  0.00000000E+00
  0.00000000E+00  0.00000000E+00  0.00000000E+00
  0.00000000E+00  0.00000000E+00  0.00000000E+00
  0.00000000E+00  0.00000000E+00  0.00000000E+00
  0.00000000E+00  0.00000000E+00  0.00000000E+00
  0.00000000E+00  0.00000000E+00  0.00000000E+00
  0.00000000E+00  0.00000000E+00  0.00000000E+00
  0.00000000E+00  0.00000000E+00  0.00000000E+00
  0.00000000E+00  0.00000000E+00  0.00000000E+00
  0.00000000E+00  0.00000000E+00  0.00000000E+00
  0.00000000E+00  0.00000000E+00  0.00000000E+00
  0.00000000E+00  0.00000000E+00  0.00000000E+00
  0.00000000E+00  0.00000000E+00  0.00000000E+00
  0.00000000E+00  0.00000000E+00  0.00000000E+00
  0.00000000E+00  0.00000000E+00  0.00000000E+00
  0.00000000E+00  0.00000000E+00  0.00000000E+00
  0.00000000E+00  0.00000000E+00  0.00000000E+00
  0.00000000E+00  0.00000000E+00  0.00000000E+00
  0.00000000E+00  0.00000000E+00  0.00000000E+00
  0.00000000E+00  0.00000000E+00  0.00000000E+00
  0.00000000E+00  0.00000000E+00  0.00000000E+00
  0.00000000E+00  0.00000000E+00  0.00000000E+00
  0.00000000E+00  0.00000000E+00  0.00000000E+00
  0.00000000E+00  0.00000000E+00  0.00000000E+00
  0.00000000E+00  0.00000000E+00  0.00000000E+00
  0.00000000E+00  0.00000000E+00  0.00000000E+00
  0.00000000E+00  0.00000000E+00  0.00000000E+00
  0.00000000E+00  0.00000000E+00  0.00000000E+00
  0.00000000E+00  0.00000000E+00  0.00000000E+00
  0.00000000E+00  0.00000000E+00  0.00000000E+00
  0.00000000E+00  0.00000000E+00  0.00000000E+00
  0.00000000E+00  0.00000000E+00  0.00000000E+00
  0.00000000E+00  0.00000000E+00  0.00000000E+00
  0.00000000E+00  0.00000000E+00  0.00000000E+00
  0.00000000E+00  0.00000000E+00  0.00000000E+00
  0.00000000E+00  0.00000000E+00  0.00000000E+00
  0.00000000E+00  0.00000000E+00  0.00000000E+00
  0.00000000E+00  0.00000000E+00  0.00000000E+00
  0.00000000E+00  0.00000000E+00  0.00000000E+00
  0.00000000E+00  0.00000000E+00  0.00000000E+00
  0.00000000E+00  0.00000000E+00  0.00000000E+00
  0.00000000E+00  0.00000000E+00  0.00000000E+00
  0.00000000E+00  0.00000000E+00  0.00000000E+00
  0.00000000E+00  0.00000000E+00  0.00000000E+00
  0.00000000E+00  0.00000000E+00  0.00000000E+00
  0.00000000E+00  0.00000000E+00  0.00000000E+00
  0.00000000E+00  0.00000000E+00  0.00000000E+00
  0.00000000E+00  0.00000000E+00  0.00000000E+00
  0.00000000E+00  0.00000000E+00  0.00000000E+00
  0.00000000E+00  0.00000000E+00  0.00000000E+00
  0.00000000E+00  0.00000000E+00  0.00000000E+00
  0.00000000E+00  0.00000000E+00  0.00000000E+00
  0.00000000E+00  0.00000000E+00  0.00000000E+00
  0.00000000E+00  0.00000000E+00  0.00000000E+00
