Ag H Mg O                               
   1.00000000000000     
     8.4141216974800006    0.0000000000000000    0.0000000000000000
     0.0000000000000000    8.4141216974800006    0.0000000000000000
     0.0000000000000000    0.0000000000000000   23.4141216974799988
   Ag   H    Mg   O 
     1     1    32    32
Selective dynamics
Direct
  0.7499998486940029  0.4999998991290013  0.3886000086678882   T   T   T
  0.2499999495650016  0.0000000000000000  0.3352901894368306   T   T   T
  0.2500000000000000  0.0000000000000000  0.0026001736802495   T   T   T
  0.2500000000000000  0.5000000000000000  0.0031341998543833   T   T   T
  0.7500000000000000  0.0000000000000000  0.0031341998543833   T   T   T
  0.7500000000000000  0.5000000000000000  0.0036603577856001   T   T   T
  0.9997473901997269  0.2502526098002734  0.0034760345009587   T   T   T
  0.9997473901997269  0.7497473901997269  0.0034760345009587   T   T   T
  0.5002526098002731  0.2502526098002734  0.0034760345009587   T   T   T
  0.5002526098002731  0.7497473901997269  0.0034760345009587   T   T   T
  0.9987027692408874  0.0000000000000000  0.0924162341190068   T   T   T
  0.0002492982905176  0.5000000000000000  0.0932852123365382   T   T   T
  0.5012972307591126  0.0000000000000000  0.0924162341190068   T   T   T
  0.4997507017094825  0.5000000000000000  0.0932852123365382   T   T   T
  0.2500000000000000  0.2512972307591129  0.0924162341190068   T   T   T
  0.2500000000000000  0.7487027692408874  0.0924162341190068   T   T   T
  0.7500000000000000  0.2497507017094824  0.0932852123365382   T   T   T
  0.7500000000000000  0.7502492982905178  0.0932852123365382   T   T   T
  0.2500000000000000  0.0000000000000000  0.1771735175772021   T   T   T
  0.2500000000000000  0.5000000000000000  0.1838040638984832   T   T   T
  0.7500000000000000  0.0000000000000000  0.1838040638984832   T   T   T
  0.7500000000000000  0.5000000000000000  0.1825666339895244   T   T   T
 -0.0012976029615327  0.2512976029615327  0.1845352818194665   T   T   T
 -0.0012976029615327  0.7487023970384673  0.1845352818194665   T   T   T
  0.5012976029615327  0.2512976029615327  0.1845352818194665   T   T   T
  0.5012976029615327  0.7487023970384673  0.1845352818194665   T   T   T
  0.9879268749742979  0.0000000000000000  0.2735562946576459   T   T   T
  0.9950180293827795  0.5000000000000000  0.2775554188968264   T   T   T
  0.5120731250257021  0.0000000000000000  0.2735560815536510   T   T   T
  0.5049819706172205  0.5000000000000000  0.2775554188968264   T   T   T
  0.2500000000000000  0.2620731250257021  0.2735560815536510   T   T   T
  0.2500000000000000  0.7379268749742979  0.2735560815536510   T   T   T
  0.7500000000000000  0.2549819706172200  0.2775554188968264   T   T   T
  0.7500000000000000  0.7450180293827795  0.2775554188968264   T   T   T
  0.9996875635449010  0.0000000000000000  0.0009041875707134   T   T   T
  0.0000141579002679  0.5000000000000000  0.0014140649503950   T   T   T
  0.5003124364550990  0.0000000000000000  0.0009041875707134   T   T   T
  0.4999858420997322  0.5000000000000000  0.0014140649503950   T   T   T
  0.2500000000000000  0.2503124364550990  0.0009041875707134   T   T   T
  0.2500000000000000  0.7496875635449010  0.0009041875707134   T   T   T
  0.7500000000000000  0.2499858420997322  0.0014140649503950   T   T   T
  0.7500000000000000  0.7500141579002678  0.0014140649503950   T   T   T
  0.2500000000000000  0.0000000000000000  0.0915163150932669   T   T   T
  0.2500000000000000  0.5000000000000000  0.0932713376247505   T   T   T
  0.7500000000000000  0.0000000000000000  0.0932713376247505   T   T   T
  0.7500000000000000  0.5000000000000000  0.0930764170032799   T   T   T
  0.0007585749745344  0.2492414250254657  0.0932699081676040   T   T   T
  0.0007585749745344  0.7507585749745346  0.0932699081676040   T   T   T
  0.4992414250254654  0.2492414250254657  0.0932699081676040   T   T   T
  0.4992414250254654  0.7507585749745346  0.0932699081676040   T   T   T
  0.0051582320774574  0.0000000000000000  0.1843411842932642   T   T   T
  0.0028496083510853  0.5000000000000000  0.1828736541898699   T   T   T
  0.4948417679225427  0.0000000000000000  0.1843411842932642   T   T   T
  0.4971503916489146  0.5000000000000000  0.1828736541898699   T   T   T
  0.2500000000000000  0.2448417679225425  0.1843411842932642   T   T   T
  0.2500000000000000  0.7551582320774576  0.1843411842932642   T   T   T
  0.7500000000000000  0.2471503916489147  0.1828736541898699   T   T   T
  0.7500000000000000  0.7528496083510848  0.1828736541898699   T   T   T
  0.2499999495650016  0.0000000000000000  0.2935089655974358   T   T   T
  0.2500000000000000  0.5000000000000000  0.2749408503171348   T   T   T
  0.7500000000000000  0.0000000000000000  0.2749408503171348   T   T   T
  0.7499998486940029  0.4999998991290013  0.2676215776641680   T   T   T
  0.0038877504706125  0.2461122495293876  0.2747803372762191   T   T   T
  0.0038877504706125  0.7538877504706125  0.2747803372762191   T   T   T
  0.4961122495293875  0.2461122495293876  0.2747803372762191   T   T   T
  0.4961122495293875  0.7538877504706125  0.2747803372762191   T   T   T
 
  0.00000000E+00  0.00000000E+00  0.00000000E+00
  0.00000000E+00  0.00000000E+00  0.00000000E+00
  0.00000000E+00  0.00000000E+00  0.00000000E+00
  0.00000000E+00  0.00000000E+00  0.00000000E+00
  0.00000000E+00  0.00000000E+00  0.00000000E+00
  0.00000000E+00  0.00000000E+00  0.00000000E+00
  0.00000000E+00  0.00000000E+00  0.00000000E+00
  0.00000000E+00  0.00000000E+00  0.00000000E+00
  0.00000000E+00  0.00000000E+00  0.00000000E+00
  0.00000000E+00  0.00000000E+00  0.00000000E+00
  0.00000000E+00  0.00000000E+00  0.00000000E+00
  0.00000000E+00  0.00000000E+00  0.00000000E+00
  0.00000000E+00  0.00000000E+00  0.00000000E+00
  0.00000000E+00  0.00000000E+00  0.00000000E+00
  0.00000000E+00  0.00000000E+00  0.00000000E+00
  0.00000000E+00  0.00000000E+00  0.00000000E+00
  0.00000000E+00  0.00000000E+00  0.00000000E+00
  0.00000000E+00  0.00000000E+00  0.00000000E+00
  0.00000000E+00  0.00000000E+00  0.00000000E+00
  0.00000000E+00  0.00000000E+00  0.00000000E+00
  0.00000000E+00  0.00000000E+00  0.00000000E+00
  0.00000000E+00  0.00000000E+00  0.00000000E+00
  0.00000000E+00  0.00000000E+00  0.00000000E+00
  0.00000000E+00  0.00000000E+00  0.00000000E+00
  0.00000000E+00  0.00000000E+00  0.00000000E+00
  0.00000000E+00  0.00000000E+00  0.00000000E+00
  0.00000000E+00  0.00000000E+00  0.00000000E+00
  0.00000000E+00  0.00000000E+00  0.00000000E+00
  0.00000000E+00  0.00000000E+00  0.00000000E+00
  0.00000000E+00  0.00000000E+00  0.00000000E+00
  0.00000000E+00  0.00000000E+00  0.00000000E+00
  0.00000000E+00  0.00000000E+00  0.00000000E+00
  0.00000000E+00  0.00000000E+00  0.00000000E+00
  0.00000000E+00  0.00000000E+00  0.00000000E+00
  0.00000000E+00  0.00000000E+00  0.00000000E+00
  0.00000000E+00  0.00000000E+00  0.00000000E+00
  0.00000000E+00  0.00000000E+00  0.00000000E+00
  0.00000000E+00  0.00000000E+00  0.00000000E+00
  0.00000000E+00  0.00000000E+00  0.00000000E+00
  0.00000000E+00  0.00000000E+00  0.00000000E+00
  0.00000000E+00  0.00000000E+00  0.00000000E+00
  0.00000000E+00  0.00000000E+00  0.00000000E+00
  0.00000000E+00  0.00000000E+00  0.00000000E+00
  0.00000000E+00  0.00000000E+00  0.00000000E+00
  0.00000000E+00  0.00000000E+00  0.00000000E+00
  0.00000000E+00  0.00000000E+00  0.00000000E+00
  0.00000000E+00  0.00000000E+00  0.00000000E+00
  0.00000000E+00  0.00000000E+00  0.00000000E+00
  0.00000000E+00  0.00000000E+00  0.00000000E+00
  0.00000000E+00  0.00000000E+00  0.00000000E+00
  0.00000000E+00  0.00000000E+00  0.00000000E+00
  0.00000000E+00  0.00000000E+00  0.00000000E+00
  0.00000000E+00  0.00000000E+00  0.00000000E+00
  0.00000000E+00  0.00000000E+00  0.00000000E+00
  0.00000000E+00  0.00000000E+00  0.00000000E+00
  0.00000000E+00  0.00000000E+00  0.00000000E+00
  0.00000000E+00  0.00000000E+00  0.00000000E+00
  0.00000000E+00  0.00000000E+00  0.00000000E+00
  0.00000000E+00  0.00000000E+00  0.00000000E+00
  0.00000000E+00  0.00000000E+00  0.00000000E+00
  0.00000000E+00  0.00000000E+00  0.00000000E+00
  0.00000000E+00  0.00000000E+00  0.00000000E+00
  0.00000000E+00  0.00000000E+00  0.00000000E+00
  0.00000000E+00  0.00000000E+00  0.00000000E+00
  0.00000000E+00  0.00000000E+00  0.00000000E+00
  0.00000000E+00  0.00000000E+00  0.00000000E+00
