W H Mg O                                
   1.00000000000000     
     8.4141216974800006    0.0000000000000000    0.0000000000000000
     0.0000000000000000    8.4141216974800006    0.0000000000000000
     0.0000000000000000    0.0000000000000000   23.4141216974799988
   W    H    Mg   O 
     1     1    32    32
Selective dynamics
Direct
  0.7499998486940029  0.4999998991290013  0.3808314394818343   T   T   T
  0.2499999495650016 -0.0000000000000000  0.3357645018593435   T   T   T
  0.2500000000000000 -0.0000000000000000  0.0029150754299124   T   T   T
  0.2500000000000000  0.5000000000000000  0.0035510986127898   T   T   T
  0.7500000000000000 -0.0000000000000000  0.0035510986127898   T   T   T
  0.7500000000000000  0.5000000000000000  0.0039216306655642   T   T   T
  0.9997466634002241  0.2502533365997759  0.0037513120571447   T   T   T
  0.9997466634002241  0.7497466634002241  0.0037513120571447   T   T   T
  0.5002533365997759  0.2502533365997759  0.0037513120571447   T   T   T
  0.5002533365997759  0.7497466634002241  0.0037513120571447   T   T   T
  0.9985731497314113 -0.0000000000000000  0.0926685001774458   T   T   T
 -0.0002951730550337  0.5000000000000000  0.0938101253341574   T   T   T
  0.5014268502685887 -0.0000000000000000  0.0926685001774458   T   T   T
  0.5002951730550339  0.5000000000000000  0.0938101253341574   T   T   T
  0.2500000000000000  0.2514268502685886  0.0926685001774458   T   T   T
  0.2500000000000000  0.7485731497314113  0.0926685001774458   T   T   T
  0.7500000000000000  0.2502951730550337  0.0938101253341574   T   T   T
  0.7500000000000000  0.7497048269449662  0.0938101253341574   T   T   T
  0.2500000000000000 -0.0000000000000000  0.1772093161146968   T   T   T
  0.2500000000000000  0.5000000000000000  0.1840460020716878   T   T   T
  0.7500000000000000 -0.0000000000000000  0.1840460020716878   T   T   T
  0.7500000000000000  0.5000000000000000  0.1840700532814578   T   T   T
  0.9987318049410286  0.2512681950589716  0.1847870537656337   T   T   T
  0.9987318049410286  0.7487318049410286  0.1847870537656337   T   T   T
  0.5012681950589714  0.2512681950589716  0.1847870537656337   T   T   T
  0.5012681950589714  0.7487318049410286  0.1847870537656337   T   T   T
  0.9886718468697311 -0.0000000000000000  0.2735132233055124   T   T   T
  0.9983329743563891  0.5000000000000000  0.2785231894897491   T   T   T
  0.5113281531302689 -0.0000000000000000  0.2735130102015104   T   T   T
  0.5016670256436109  0.5000000000000000  0.2785231894897491   T   T   T
  0.2500000000000000  0.2613281531302690  0.2735130102015104   T   T   T
  0.2500000000000000  0.7386718468697311  0.2735130102015104   T   T   T
  0.7500000000000000  0.2516670256436108  0.2785231894897491   T   T   T
  0.7500000000000000  0.7483329743563891  0.2785231894897491   T   T   T
  0.9996808401829317 -0.0000000000000000  0.0012580842021086   T   T   T
 -0.0000978148596411  0.5000000000000000  0.0017136117284625   T   T   T
  0.5003191598170683 -0.0000000000000000  0.0012580842021086   T   T   T
  0.5000978148596411  0.5000000000000000  0.0017136117284625   T   T   T
  0.2500000000000000  0.2503191598170682  0.0012580842021086   T   T   T
  0.2500000000000000  0.7496808401829317  0.0012580842021086   T   T   T
  0.7500000000000000  0.2500978148596411  0.0017136117284625   T   T   T
  0.7500000000000000  0.7499021851403588  0.0017136117284625   T   T   T
  0.2500000000000000 -0.0000000000000000  0.0916539359163474   T   T   T
  0.2500000000000000  0.5000000000000000  0.0937529453288124   T   T   T
  0.7500000000000000 -0.0000000000000000  0.0937529453288124   T   T   T
  0.7500000000000000  0.5000000000000000  0.0937409682953090   T   T   T
  0.0004510442547219  0.2495489557452782  0.0935783674762340   T   T   T
  0.0004510442547219  0.7504510442547218  0.0935783674762340   T   T   T
  0.4995489557452781  0.2495489557452782  0.0935783674762340   T   T   T
  0.4995489557452781  0.7504510442547218  0.0935783674762340   T   T   T
  0.0050511472193005 -0.0000000000000000  0.1842054692925607   T   T   T
  0.0018532490473721  0.5000000000000000  0.1837038646002808   T   T   T
  0.4949488527806996 -0.0000000000000000  0.1842054692925607   T   T   T
  0.4981467509526279  0.5000000000000000  0.1837038646002808   T   T   T
  0.2500000000000000  0.2449488527806995  0.1842054692925607   T   T   T
  0.2500000000000000  0.7550511472193003  0.1842054692925607   T   T   T
  0.7500000000000000  0.2481467509526279  0.1837038646002808   T   T   T
  0.7500000000000000  0.7518532490473721  0.1837038646002809   T   T   T
  0.2499999495650016 -0.0000000000000000  0.2939520584763573   T   T   T
  0.2500000000000000  0.5000000000000000  0.2749026836084703   T   T   T
  0.7500000000000000 -0.0000000000000000  0.2749026836084703   T   T   T
  0.7499998486940029  0.4999998991290013  0.2707057091126990   T   T   T
  0.0049822395276095  0.2450177604723906  0.2744203009274688   T   T   T
  0.0049822395276095  0.7549822395276095  0.2744203009274688   T   T   T
  0.4950177604723906  0.2450177604723906  0.2744203009274688   T   T   T
  0.4950177604723906  0.7549822395276095  0.2744203009274688   T   T   T
 
  0.00000000E+00  0.00000000E+00  0.00000000E+00
  0.00000000E+00  0.00000000E+00  0.00000000E+00
  0.00000000E+00  0.00000000E+00  0.00000000E+00
  0.00000000E+00  0.00000000E+00  0.00000000E+00
  0.00000000E+00  0.00000000E+00  0.00000000E+00
  0.00000000E+00  0.00000000E+00  0.00000000E+00
  0.00000000E+00  0.00000000E+00  0.00000000E+00
  0.00000000E+00  0.00000000E+00  0.00000000E+00
  0.00000000E+00  0.00000000E+00  0.00000000E+00
  0.00000000E+00  0.00000000E+00  0.00000000E+00
  0.00000000E+00  0.00000000E+00  0.00000000E+00
  0.00000000E+00  0.00000000E+00  0.00000000E+00
  0.00000000E+00  0.00000000E+00  0.00000000E+00
  0.00000000E+00  0.00000000E+00  0.00000000E+00
  0.00000000E+00  0.00000000E+00  0.00000000E+00
  0.00000000E+00  0.00000000E+00  0.00000000E+00
  0.00000000E+00  0.00000000E+00  0.00000000E+00
  0.00000000E+00  0.00000000E+00  0.00000000E+00
  0.00000000E+00  0.00000000E+00  0.00000000E+00
  0.00000000E+00  0.00000000E+00  0.00000000E+00
  0.00000000E+00  0.00000000E+00  0.00000000E+00
  0.00000000E+00  0.00000000E+00  0.00000000E+00
  0.00000000E+00  0.00000000E+00  0.00000000E+00
  0.00000000E+00  0.00000000E+00  0.00000000E+00
  0.00000000E+00  0.00000000E+00  0.00000000E+00
  0.00000000E+00  0.00000000E+00  0.00000000E+00
  0.00000000E+00  0.00000000E+00  0.00000000E+00
  0.00000000E+00  0.00000000E+00  0.00000000E+00
  0.00000000E+00  0.00000000E+00  0.00000000E+00
  0.00000000E+00  0.00000000E+00  0.00000000E+00
  0.00000000E+00  0.00000000E+00  0.00000000E+00
  0.00000000E+00  0.00000000E+00  0.00000000E+00
  0.00000000E+00  0.00000000E+00  0.00000000E+00
  0.00000000E+00  0.00000000E+00  0.00000000E+00
  0.00000000E+00  0.00000000E+00  0.00000000E+00
  0.00000000E+00  0.00000000E+00  0.00000000E+00
  0.00000000E+00  0.00000000E+00  0.00000000E+00
  0.00000000E+00  0.00000000E+00  0.00000000E+00
  0.00000000E+00  0.00000000E+00  0.00000000E+00
  0.00000000E+00  0.00000000E+00  0.00000000E+00
  0.00000000E+00  0.00000000E+00  0.00000000E+00
  0.00000000E+00  0.00000000E+00  0.00000000E+00
  0.00000000E+00  0.00000000E+00  0.00000000E+00
  0.00000000E+00  0.00000000E+00  0.00000000E+00
  0.00000000E+00  0.00000000E+00  0.00000000E+00
  0.00000000E+00  0.00000000E+00  0.00000000E+00
  0.00000000E+00  0.00000000E+00  0.00000000E+00
  0.00000000E+00  0.00000000E+00  0.00000000E+00
  0.00000000E+00  0.00000000E+00  0.00000000E+00
  0.00000000E+00  0.00000000E+00  0.00000000E+00
  0.00000000E+00  0.00000000E+00  0.00000000E+00
  0.00000000E+00  0.00000000E+00  0.00000000E+00
  0.00000000E+00  0.00000000E+00  0.00000000E+00
  0.00000000E+00  0.00000000E+00  0.00000000E+00
  0.00000000E+00  0.00000000E+00  0.00000000E+00
  0.00000000E+00  0.00000000E+00  0.00000000E+00
  0.00000000E+00  0.00000000E+00  0.00000000E+00
  0.00000000E+00  0.00000000E+00  0.00000000E+00
  0.00000000E+00  0.00000000E+00  0.00000000E+00
  0.00000000E+00  0.00000000E+00  0.00000000E+00
  0.00000000E+00  0.00000000E+00  0.00000000E+00
  0.00000000E+00  0.00000000E+00  0.00000000E+00
  0.00000000E+00  0.00000000E+00  0.00000000E+00
  0.00000000E+00  0.00000000E+00  0.00000000E+00
  0.00000000E+00  0.00000000E+00  0.00000000E+00
  0.00000000E+00  0.00000000E+00  0.00000000E+00
