H Ir Mg O                               
   1.00000000000000     
     8.4141216974800006    0.0000000000000000    0.0000000000000000
     0.0000000000000000    8.4141216974800006    0.0000000000000000
     0.0000000000000000    0.0000000000000000   23.4141216974799988
   H    Ir   Mg   O 
     1     1    32    32
Selective dynamics
Direct
  0.2499999495650016  0.0000000000000000  0.3356610548775098   T   T   T
  0.7499998486940029  0.4999998991290013  0.3544510184833011   T   T   T
  0.2500000000000000  0.0000000000000000  0.0030344868317813   T   T   T
  0.2500000000000000  0.5000000000000000  0.0037051396733567   T   T   T
  0.7500000000000000  0.0000000000000000  0.0037051396733567   T   T   T
  0.7500000000000000  0.5000000000000000  0.0042423923833548   T   T   T
  0.9996782983820869  0.2503217016179131  0.0039950951010920   T   T   T
  0.9996782983820869  0.7496782983820869  0.0039950951010920   T   T   T
  0.5003217016179131  0.2503217016179131  0.0039950951010920   T   T   T
  0.5003217016179131  0.7496782983820869  0.0039950951010920   T   T   T
  0.9986662089936116  0.0000000000000000  0.0928675754220296   T   T   T
  0.0000361048745813  0.5000000000000000  0.0939382524759557   T   T   T
  0.5013337910063884  0.0000000000000000  0.0928675754220296   T   T   T
  0.4999638951254187  0.5000000000000000  0.0939382524759557   T   T   T
  0.2500000000000000  0.2513337910063885  0.0928675754220296   T   T   T
  0.2500000000000000  0.7486662089936116  0.0928675754220296   T   T   T
  0.7500000000000000  0.2499638951254186  0.0939382524759557   T   T   T
  0.7500000000000000  0.7500361048745814  0.0939382524759557   T   T   T
  0.2500000000000000  0.0000000000000000  0.1772479782796361   T   T   T
  0.2500000000000000  0.5000000000000000  0.1841569718466300   T   T   T
  0.7500000000000000  0.0000000000000000  0.1841569718466300   T   T   T
  0.7500000000000000  0.5000000000000000  0.1830315377191349   T   T   T
  0.9984332204188099  0.2515667795811902  0.1850887207021434   T   T   T
  0.9984332204188099  0.7484332204188099  0.1850887207021434   T   T   T
  0.5015667795811901  0.2515667795811902  0.1850887207021434   T   T   T
  0.5015667795811901  0.7484332204188099  0.1850887207021434   T   T   T
  0.9894685851796937  0.0000000000000000  0.2731903616024337   T   T   T
  0.0006613534560432  0.5000000000000000  0.2802757357804321   T   T   T
  0.5105314148203063  0.0000000000000000  0.2731901484984317   T   T   T
  0.4993386465439569  0.5000000000000000  0.2802757357804321   T   T   T
  0.2500000000000000  0.2605314148203065  0.2731901484984317   T   T   T
  0.2500000000000000  0.7394685851796937  0.2731901484984317   T   T   T
  0.7500000000000000  0.2493386465439568  0.2802757357804321   T   T   T
  0.7500000000000000  0.7506613534560430  0.2802757357804321   T   T   T
  0.9995865252836570  0.0000000000000000  0.0014057077224848   T   T   T
  0.9999861577689648  0.5000000000000000  0.0019700062560512   T   T   T
  0.5004134747163430  0.0000000000000000  0.0014057077224848   T   T   T
  0.5000138422310352  0.5000000000000000  0.0019700062560512   T   T   T
  0.2500000000000000  0.2504134747163430  0.0014057077224848   T   T   T
  0.2500000000000000  0.7495865252836570  0.0014057077224848   T   T   T
  0.7500000000000000  0.2500138422310352  0.0019700062560512   T   T   T
  0.7500000000000000  0.7499861577689648  0.0019700062560512   T   T   T
  0.2500000000000000  0.0000000000000000  0.0918016589357857   T   T   T
  0.2500000000000000  0.5000000000000000  0.0939417217948347   T   T   T
  0.7500000000000000  0.0000000000000000  0.0939417217948347   T   T   T
  0.7500000000000000  0.5000000000000000  0.0936728917636358   T   T   T
  0.0005283956574600  0.2494716043425400  0.0937481072400268   T   T   T
  0.0005283956574600  0.7505283956574599  0.0937481072400268   T   T   T
  0.4994716043425400  0.2494716043425400  0.0937481072400268   T   T   T
  0.4994716043425400  0.7505283956574599  0.0937481072400268   T   T   T
  0.0048177914208965  0.0000000000000000  0.1842698217164031   T   T   T
  0.0014830833816512  0.5000000000000000  0.1839525131272962   T   T   T
  0.4951822085791035  0.0000000000000000  0.1842698217164031   T   T   T
  0.4985169166183488  0.5000000000000000  0.1839525131272962   T   T   T
  0.2500000000000000  0.2451822085791035  0.1842698217164031   T   T   T
  0.2500000000000000  0.7548177914208964  0.1842698217164031   T   T   T
  0.7500000000000000  0.2485169166183489  0.1839525131272962   T   T   T
  0.7500000000000000  0.7514830833816513  0.1839525131272962   T   T   T
  0.2499999495650016  0.0000000000000000  0.2939261343728707   T   T   T
  0.2500000000000000  0.5000000000000000  0.2755111711765952   T   T   T
  0.7500000000000000  0.0000000000000000  0.2755111711765952   T   T   T
  0.7499998486940029  0.4999998991290013  0.2684765477238668   T   T   T
  0.0065922978254928  0.2434077021745072  0.2742677536359706   T   T   T
  0.0065922978254928  0.7565922978254928  0.2742677536359706   T   T   T
  0.4934077021745071  0.2434077021745072  0.2742677536359706   T   T   T
  0.4934077021745071  0.7565922978254928  0.2742677536359706   T   T   T
 
  0.00000000E+00  0.00000000E+00  0.00000000E+00
  0.00000000E+00  0.00000000E+00  0.00000000E+00
  0.00000000E+00  0.00000000E+00  0.00000000E+00
  0.00000000E+00  0.00000000E+00  0.00000000E+00
  0.00000000E+00  0.00000000E+00  0.00000000E+00
  0.00000000E+00  0.00000000E+00  0.00000000E+00
  0.00000000E+00  0.00000000E+00  0.00000000E+00
  0.00000000E+00  0.00000000E+00  0.00000000E+00
  0.00000000E+00  0.00000000E+00  0.00000000E+00
  0.00000000E+00  0.00000000E+00  0.00000000E+00
  0.00000000E+00  0.00000000E+00  0.00000000E+00
  0.00000000E+00  0.00000000E+00  0.00000000E+00
  0.00000000E+00  0.00000000E+00  0.00000000E+00
  0.00000000E+00  0.00000000E+00  0.00000000E+00
  0.00000000E+00  0.00000000E+00  0.00000000E+00
  0.00000000E+00  0.00000000E+00  0.00000000E+00
  0.00000000E+00  0.00000000E+00  0.00000000E+00
  0.00000000E+00  0.00000000E+00  0.00000000E+00
  0.00000000E+00  0.00000000E+00  0.00000000E+00
  0.00000000E+00  0.00000000E+00  0.00000000E+00
  0.00000000E+00  0.00000000E+00  0.00000000E+00
  0.00000000E+00  0.00000000E+00  0.00000000E+00
  0.00000000E+00  0.00000000E+00  0.00000000E+00
  0.00000000E+00  0.00000000E+00  0.00000000E+00
  0.00000000E+00  0.00000000E+00  0.00000000E+00
  0.00000000E+00  0.00000000E+00  0.00000000E+00
  0.00000000E+00  0.00000000E+00  0.00000000E+00
  0.00000000E+00  0.00000000E+00  0.00000000E+00
  0.00000000E+00  0.00000000E+00  0.00000000E+00
  0.00000000E+00  0.00000000E+00  0.00000000E+00
  0.00000000E+00  0.00000000E+00  0.00000000E+00
  0.00000000E+00  0.00000000E+00  0.00000000E+00
  0.00000000E+00  0.00000000E+00  0.00000000E+00
  0.00000000E+00  0.00000000E+00  0.00000000E+00
  0.00000000E+00  0.00000000E+00  0.00000000E+00
  0.00000000E+00  0.00000000E+00  0.00000000E+00
  0.00000000E+00  0.00000000E+00  0.00000000E+00
  0.00000000E+00  0.00000000E+00  0.00000000E+00
  0.00000000E+00  0.00000000E+00  0.00000000E+00
  0.00000000E+00  0.00000000E+00  0.00000000E+00
  0.00000000E+00  0.00000000E+00  0.00000000E+00
  0.00000000E+00  0.00000000E+00  0.00000000E+00
  0.00000000E+00  0.00000000E+00  0.00000000E+00
  0.00000000E+00  0.00000000E+00  0.00000000E+00
  0.00000000E+00  0.00000000E+00  0.00000000E+00
  0.00000000E+00  0.00000000E+00  0.00000000E+00
  0.00000000E+00  0.00000000E+00  0.00000000E+00
  0.00000000E+00  0.00000000E+00  0.00000000E+00
  0.00000000E+00  0.00000000E+00  0.00000000E+00
  0.00000000E+00  0.00000000E+00  0.00000000E+00
  0.00000000E+00  0.00000000E+00  0.00000000E+00
  0.00000000E+00  0.00000000E+00  0.00000000E+00
  0.00000000E+00  0.00000000E+00  0.00000000E+00
  0.00000000E+00  0.00000000E+00  0.00000000E+00
  0.00000000E+00  0.00000000E+00  0.00000000E+00
  0.00000000E+00  0.00000000E+00  0.00000000E+00
  0.00000000E+00  0.00000000E+00  0.00000000E+00
  0.00000000E+00  0.00000000E+00  0.00000000E+00
  0.00000000E+00  0.00000000E+00  0.00000000E+00
  0.00000000E+00  0.00000000E+00  0.00000000E+00
  0.00000000E+00  0.00000000E+00  0.00000000E+00
  0.00000000E+00  0.00000000E+00  0.00000000E+00
  0.00000000E+00  0.00000000E+00  0.00000000E+00
  0.00000000E+00  0.00000000E+00  0.00000000E+00
  0.00000000E+00  0.00000000E+00  0.00000000E+00
  0.00000000E+00  0.00000000E+00  0.00000000E+00
