Au H Mg O                               
   1.00000000000000     
     8.4141216974800006    0.0000000000000000    0.0000000000000000
     0.0000000000000000    8.4141216974800006    0.0000000000000000
     0.0000000000000000    0.0000000000000000   23.4141216974799988
   Au   H    Mg   O 
     1     1    32    32
Selective dynamics
Direct
  0.7499998486940029  0.4999998991290013  0.3850803748347336   T   T   T
  0.2499999495650016 -0.0000000000000000  0.3355730691172413   T   T   T
  0.2500000000000000 -0.0000000000000000  0.0029880765593716   T   T   T
  0.2500000000000000  0.5000000000000000  0.0035290356830005   T   T   T
  0.7500000000000000 -0.0000000000000000  0.0035290356830005   T   T   T
  0.7500000000000000  0.5000000000000000  0.0041511138094959   T   T   T
  0.9997555079570070  0.2502444920429930  0.0039382547693920   T   T   T
  0.9997555079570070  0.7497555079570070  0.0039382547693920   T   T   T
  0.5002444920429930  0.2502444920429930  0.0039382547693920   T   T   T
  0.5002444920429930  0.7497555079570070  0.0039382547693920   T   T   T
  0.9987746769615524 -0.0000000000000000  0.0928368599070880   T   T   T
  0.0007355957336183  0.5000000000000000  0.0935254046936976   T   T   T
  0.5012253230384476 -0.0000000000000000  0.0928368599070880   T   T   T
  0.4992644042663817  0.5000000000000000  0.0935254046936976   T   T   T
  0.2500000000000000  0.2512253230384475  0.0928368599070880   T   T   T
  0.2500000000000000  0.7487746769615524  0.0928368599070880   T   T   T
  0.7500000000000000  0.2492644042663815  0.0935254046936976   T   T   T
  0.7500000000000000  0.7507355957336184  0.0935254046936976   T   T   T
  0.2500000000000000 -0.0000000000000000  0.1775449596381865   T   T   T
  0.2500000000000000  0.5000000000000000  0.1842018771302343   T   T   T
  0.7500000000000000 -0.0000000000000000  0.1842018771302343   T   T   T
  0.7500000000000000  0.5000000000000000  0.1816813479721507   T   T   T
  0.9985758153231453  0.2514241846768548  0.1848755979341554   T   T   T
  0.9985758153231453  0.7485758153231453  0.1848755979341554   T   T   T
  0.5014241846768547  0.2514241846768548  0.1848755979341554   T   T   T
  0.5014241846768547  0.7485758153231453  0.1848755979341554   T   T   T
  0.9874551606686335 -0.0000000000000000  0.2739013546702480   T   T   T
  0.9933218540871115  0.5000000000000000  0.2778104900383661   T   T   T
  0.5125448393313665 -0.0000000000000000  0.2739011415662460   T   T   T
  0.5066781459128885  0.5000000000000000  0.2778104900383661   T   T   T
  0.2500000000000000  0.2625448393313665  0.2739011415662460   T   T   T
  0.2500000000000000  0.7374551606686335  0.2739011415662460   T   T   T
  0.7500000000000000  0.2566781459128887  0.2778104900383661   T   T   T
  0.7500000000000000  0.7433218540871115  0.2778104900383661   T   T   T
  0.9996533846233924 -0.0000000000000000  0.0013302932866473   T   T   T
  0.0000970550210418  0.5000000000000000  0.0018416961082197   T   T   T
  0.5003466153766076 -0.0000000000000000  0.0013302932866473   T   T   T
  0.4999029449789582  0.5000000000000000  0.0018416961082197   T   T   T
  0.2500000000000000  0.2503466153766077  0.0013302932866473   T   T   T
  0.2500000000000000  0.7496533846233924  0.0013302932866473   T   T   T
  0.7500000000000000  0.2499029449789582  0.0018416961082197   T   T   T
  0.7500000000000000  0.7500970550210418  0.0018416961082197   T   T   T
  0.2500000000000000 -0.0000000000000000  0.0918907073890417   T   T   T
  0.2500000000000000  0.5000000000000000  0.0935279785915414   T   T   T
  0.7500000000000000 -0.0000000000000000  0.0935279785915414   T   T   T
  0.7500000000000000  0.5000000000000000  0.0930822732163061   T   T   T
  0.0009737740105955  0.2490262259894045  0.0936342099734278   T   T   T
  0.0009737740105955  0.7509737740105955  0.0936342099734278   T   T   T
  0.4990262259894045  0.2490262259894045  0.0936342099734278   T   T   T
  0.4990262259894045  0.7509737740105955  0.0936342099734278   T   T   T
  0.0052884561025069 -0.0000000000000000  0.1848587585502458   T   T   T
  0.0034980309272239  0.5000000000000000  0.1828628375491646   T   T   T
  0.4947115438974931 -0.0000000000000000  0.1848587585502458   T   T   T
  0.4965019690727760  0.5000000000000000  0.1828628375491646   T   T   T
  0.2500000000000000  0.2447115438974931  0.1848587585502458   T   T   T
  0.2500000000000000  0.7552884561025067  0.1848587585502458   T   T   T
  0.7500000000000000  0.2465019690727761  0.1828628375491646   T   T   T
  0.7500000000000000  0.7534980309272238  0.1828628375491646   T   T   T
  0.2499999495650016 -0.0000000000000000  0.2938384654045512   T   T   T
  0.2500000000000000  0.5000000000000000  0.2754629529246250   T   T   T
  0.7500000000000000 -0.0000000000000000  0.2754629529246250   T   T   T
  0.7499998486940029  0.4999998991290013  0.2653211974487072   T   T   T
  0.0035185349845390  0.2464814650154609  0.2751860633331983   T   T   T
  0.0035185349845390  0.7535185349845389  0.2751860633331983   T   T   T
  0.4964814650154610  0.2464814650154609  0.2751860633331983   T   T   T
  0.4964814650154610  0.7535185349845389  0.2751860633331983   T   T   T
 
  0.00000000E+00  0.00000000E+00  0.00000000E+00
  0.00000000E+00  0.00000000E+00  0.00000000E+00
  0.00000000E+00  0.00000000E+00  0.00000000E+00
  0.00000000E+00  0.00000000E+00  0.00000000E+00
  0.00000000E+00  0.00000000E+00  0.00000000E+00
  0.00000000E+00  0.00000000E+00  0.00000000E+00
  0.00000000E+00  0.00000000E+00  0.00000000E+00
  0.00000000E+00  0.00000000E+00  0.00000000E+00
  0.00000000E+00  0.00000000E+00  0.00000000E+00
  0.00000000E+00  0.00000000E+00  0.00000000E+00
  0.00000000E+00  0.00000000E+00  0.00000000E+00
  0.00000000E+00  0.00000000E+00  0.00000000E+00
  0.00000000E+00  0.00000000E+00  0.00000000E+00
  0.00000000E+00  0.00000000E+00  0.00000000E+00
  0.00000000E+00  0.00000000E+00  0.00000000E+00
  0.00000000E+00  0.00000000E+00  0.00000000E+00
  0.00000000E+00  0.00000000E+00  0.00000000E+00
  0.00000000E+00  0.00000000E+00  0.00000000E+00
  0.00000000E+00  0.00000000E+00  0.00000000E+00
  0.00000000E+00  0.00000000E+00  0.00000000E+00
  0.00000000E+00  0.00000000E+00  0.00000000E+00
  0.00000000E+00  0.00000000E+00  0.00000000E+00
  0.00000000E+00  0.00000000E+00  0.00000000E+00
  0.00000000E+00  0.00000000E+00  0.00000000E+00
  0.00000000E+00  0.00000000E+00  0.00000000E+00
  0.00000000E+00  0.00000000E+00  0.00000000E+00
  0.00000000E+00  0.00000000E+00  0.00000000E+00
  0.00000000E+00  0.00000000E+00  0.00000000E+00
  0.00000000E+00  0.00000000E+00  0.00000000E+00
  0.00000000E+00  0.00000000E+00  0.00000000E+00
  0.00000000E+00  0.00000000E+00  0.00000000E+00
  0.00000000E+00  0.00000000E+00  0.00000000E+00
  0.00000000E+00  0.00000000E+00  0.00000000E+00
  0.00000000E+00  0.00000000E+00  0.00000000E+00
  0.00000000E+00  0.00000000E+00  0.00000000E+00
  0.00000000E+00  0.00000000E+00  0.00000000E+00
  0.00000000E+00  0.00000000E+00  0.00000000E+00
  0.00000000E+00  0.00000000E+00  0.00000000E+00
  0.00000000E+00  0.00000000E+00  0.00000000E+00
  0.00000000E+00  0.00000000E+00  0.00000000E+00
  0.00000000E+00  0.00000000E+00  0.00000000E+00
  0.00000000E+00  0.00000000E+00  0.00000000E+00
  0.00000000E+00  0.00000000E+00  0.00000000E+00
  0.00000000E+00  0.00000000E+00  0.00000000E+00
  0.00000000E+00  0.00000000E+00  0.00000000E+00
  0.00000000E+00  0.00000000E+00  0.00000000E+00
  0.00000000E+00  0.00000000E+00  0.00000000E+00
  0.00000000E+00  0.00000000E+00  0.00000000E+00
  0.00000000E+00  0.00000000E+00  0.00000000E+00
  0.00000000E+00  0.00000000E+00  0.00000000E+00
  0.00000000E+00  0.00000000E+00  0.00000000E+00
  0.00000000E+00  0.00000000E+00  0.00000000E+00
  0.00000000E+00  0.00000000E+00  0.00000000E+00
  0.00000000E+00  0.00000000E+00  0.00000000E+00
  0.00000000E+00  0.00000000E+00  0.00000000E+00
  0.00000000E+00  0.00000000E+00  0.00000000E+00
  0.00000000E+00  0.00000000E+00  0.00000000E+00
  0.00000000E+00  0.00000000E+00  0.00000000E+00
  0.00000000E+00  0.00000000E+00  0.00000000E+00
  0.00000000E+00  0.00000000E+00  0.00000000E+00
  0.00000000E+00  0.00000000E+00  0.00000000E+00
  0.00000000E+00  0.00000000E+00  0.00000000E+00
  0.00000000E+00  0.00000000E+00  0.00000000E+00
  0.00000000E+00  0.00000000E+00  0.00000000E+00
  0.00000000E+00  0.00000000E+00  0.00000000E+00
  0.00000000E+00  0.00000000E+00  0.00000000E+00
