H Mg Mn O                               
   1.00000000000000     
     8.4141216974800006    0.0000000000000000    0.0000000000000000
     0.0000000000000000    8.4141216974800006    0.0000000000000000
     0.0000000000000000    0.0000000000000000   23.4141216974799988
   H    Mg   Mn   O 
     1    32     1    32
Selective dynamics
Direct
  0.2499999495650016  0.0000000000000000  0.3354738209200287   T   T   T
  0.2500000000000000  0.0000000000000000  0.0025388518994499   T   T   T
  0.2500000000000000  0.5000000000000000  0.0031999892112828   T   T   T
  0.7500000000000000  0.0000000000000000  0.0031999892112828   T   T   T
  0.7500000000000000  0.5000000000000000  0.0037747985788017   T   T   T
  0.9997046876727044  0.2502953123272957  0.0034957292132527   T   T   T
  0.9997046876727044  0.7497046876727044  0.0034957292132527   T   T   T
  0.5002953123272956  0.2502953123272957  0.0034957292132527   T   T   T
  0.5002953123272956  0.7497046876727044  0.0034957292132527   T   T   T
  0.9987567803221207  0.0000000000000000  0.0924587826439735   T   T   T
 -0.0004591941188953  0.5000000000000000  0.0935611894569435   T   T   T
  0.5012432196778793  0.0000000000000000  0.0924587826439735   T   T   T
  0.5004591941188954  0.5000000000000000  0.0935611894569435   T   T   T
  0.2500000000000000  0.2512432196778794  0.0924587826439735   T   T   T
  0.2500000000000000  0.7487567803221207  0.0924587826439735   T   T   T
  0.7500000000000000  0.2504591941188953  0.0935611894569435   T   T   T
  0.7500000000000000  0.7495408058811046  0.0935611894569435   T   T   T
  0.2500000000000000  0.0000000000000000  0.1775303772692793   T   T   T
  0.2500000000000000  0.5000000000000000  0.1835508418319615   T   T   T
  0.7500000000000000  0.0000000000000000  0.1835508418319615   T   T   T
  0.7500000000000000  0.5000000000000000  0.1842057785899824   T   T   T
  0.9998560488933550  0.2501439511066452  0.1844767294046276   T   T   T
  0.9998560488933550  0.7498560488933550  0.1844767294046276   T   T   T
  0.5001439511066450  0.2501439511066452  0.1844767294046276   T   T   T
  0.5001439511066450  0.7498560488933550  0.1844767294046276   T   T   T
  0.9902752431603756  0.0000000000000000  0.2743256055898562   T   T   T
  0.0039627423279552  0.5000000000000000  0.2759793940352339   T   T   T
  0.5097247568396244  0.0000000000000000  0.2743253924858542   T   T   T
  0.4960372576720449  0.5000000000000000  0.2759793940352339   T   T   T
  0.2500000000000000  0.2597247568396241  0.2743253924858542   T   T   T
  0.2500000000000000  0.7402752431603756  0.2743253924858542   T   T   T
  0.7500000000000000  0.2460372576720449  0.2759793940352339   T   T   T
  0.7500000000000000  0.7539627423279550  0.2759793940352339   T   T   T
  0.7499998486940029  0.4999998991290013  0.3663806245212786   T   T   T
  0.9995819161638640  0.0000000000000000  0.0017607696796753   T   T   T
 -0.0001012520620315  0.5000000000000000  0.0023169512577870   T   T   T
  0.5004180838361360  0.0000000000000000  0.0017607696796753   T   T   T
  0.5001012520620314  0.5000000000000000  0.0023169512577870   T   T   T
  0.2500000000000000  0.2504180838361356  0.0017607696796753   T   T   T
  0.2500000000000000  0.7495819161638640  0.0017607696796753   T   T   T
  0.7500000000000000  0.2501012520620314  0.0023169512577870   T   T   T
  0.7500000000000000  0.7498987479379686  0.0023169512577870   T   T   T
  0.2500000000000000  0.0000000000000000  0.0920603533207879   T   T   T
  0.2500000000000000  0.5000000000000000  0.0943822471682689   T   T   T
  0.7500000000000000  0.0000000000000000  0.0943822471682689   T   T   T
  0.7500000000000000  0.5000000000000000  0.0943013930351626   T   T   T
  0.0003901883654586  0.2496098116345414  0.0941492021702517   T   T   T
  0.0003901883654586  0.7503901883654586  0.0941492021702517   T   T   T
  0.4996098116345415  0.2496098116345414  0.0941492021702517   T   T   T
  0.4996098116345415  0.7503901883654586  0.0941492021702517   T   T   T
  0.0046227318508512  0.0000000000000000  0.1846561008349067   T   T   T
  0.0002261227837930  0.5000000000000000  0.1845515792950443   T   T   T
  0.4953772681491489  0.0000000000000000  0.1846561008349067   T   T   T
  0.4997738772162070  0.5000000000000000  0.1845515792950443   T   T   T
  0.2500000000000000  0.2453772681491488  0.1846561008349067   T   T   T
  0.2500000000000000  0.7546227318508512  0.1846561008349067   T   T   T
  0.7500000000000000  0.2497738772162070  0.1845515792950443   T   T   T
  0.7500000000000000  0.7502261227837932  0.1845515792950443   T   T   T
  0.2499999495650016  0.0000000000000000  0.2932867834030946   T   T   T
  0.2500000000000000  0.5000000000000000  0.2743919064993109   T   T   T
  0.7500000000000000  0.0000000000000000  0.2743919064993109   T   T   T
  0.7499998486940029  0.4999998991290013  0.2762617977438599   T   T   T
  0.0037806541092761  0.2462193458907239  0.2744534588253515   T   T   T
  0.0037806541092761  0.7537806541092763  0.2744534588253515   T   T   T
  0.4962193458907238  0.2462193458907239  0.2744534588253515   T   T   T
  0.4962193458907238  0.7537806541092763  0.2744534588253515   T   T   T
 
  0.00000000E+00  0.00000000E+00  0.00000000E+00
  0.00000000E+00  0.00000000E+00  0.00000000E+00
  0.00000000E+00  0.00000000E+00  0.00000000E+00
  0.00000000E+00  0.00000000E+00  0.00000000E+00
  0.00000000E+00  0.00000000E+00  0.00000000E+00
  0.00000000E+00  0.00000000E+00  0.00000000E+00
  0.00000000E+00  0.00000000E+00  0.00000000E+00
  0.00000000E+00  0.00000000E+00  0.00000000E+00
  0.00000000E+00  0.00000000E+00  0.00000000E+00
  0.00000000E+00  0.00000000E+00  0.00000000E+00
  0.00000000E+00  0.00000000E+00  0.00000000E+00
  0.00000000E+00  0.00000000E+00  0.00000000E+00
  0.00000000E+00  0.00000000E+00  0.00000000E+00
  0.00000000E+00  0.00000000E+00  0.00000000E+00
  0.00000000E+00  0.00000000E+00  0.00000000E+00
  0.00000000E+00  0.00000000E+00  0.00000000E+00
  0.00000000E+00  0.00000000E+00  0.00000000E+00
  0.00000000E+00  0.00000000E+00  0.00000000E+00
  0.00000000E+00  0.00000000E+00  0.00000000E+00
  0.00000000E+00  0.00000000E+00  0.00000000E+00
  0.00000000E+00  0.00000000E+00  0.00000000E+00
  0.00000000E+00  0.00000000E+00  0.00000000E+00
  0.00000000E+00  0.00000000E+00  0.00000000E+00
  0.00000000E+00  0.00000000E+00  0.00000000E+00
  0.00000000E+00  0.00000000E+00  0.00000000E+00
  0.00000000E+00  0.00000000E+00  0.00000000E+00
  0.00000000E+00  0.00000000E+00  0.00000000E+00
  0.00000000E+00  0.00000000E+00  0.00000000E+00
  0.00000000E+00  0.00000000E+00  0.00000000E+00
  0.00000000E+00  0.00000000E+00  0.00000000E+00
  0.00000000E+00  0.00000000E+00  0.00000000E+00
  0.00000000E+00  0.00000000E+00  0.00000000E+00
  0.00000000E+00  0.00000000E+00  0.00000000E+00
  0.00000000E+00  0.00000000E+00  0.00000000E+00
  0.00000000E+00  0.00000000E+00  0.00000000E+00
  0.00000000E+00  0.00000000E+00  0.00000000E+00
  0.00000000E+00  0.00000000E+00  0.00000000E+00
  0.00000000E+00  0.00000000E+00  0.00000000E+00
  0.00000000E+00  0.00000000E+00  0.00000000E+00
  0.00000000E+00  0.00000000E+00  0.00000000E+00
  0.00000000E+00  0.00000000E+00  0.00000000E+00
  0.00000000E+00  0.00000000E+00  0.00000000E+00
  0.00000000E+00  0.00000000E+00  0.00000000E+00
  0.00000000E+00  0.00000000E+00  0.00000000E+00
  0.00000000E+00  0.00000000E+00  0.00000000E+00
  0.00000000E+00  0.00000000E+00  0.00000000E+00
  0.00000000E+00  0.00000000E+00  0.00000000E+00
  0.00000000E+00  0.00000000E+00  0.00000000E+00
  0.00000000E+00  0.00000000E+00  0.00000000E+00
  0.00000000E+00  0.00000000E+00  0.00000000E+00
  0.00000000E+00  0.00000000E+00  0.00000000E+00
  0.00000000E+00  0.00000000E+00  0.00000000E+00
  0.00000000E+00  0.00000000E+00  0.00000000E+00
  0.00000000E+00  0.00000000E+00  0.00000000E+00
  0.00000000E+00  0.00000000E+00  0.00000000E+00
  0.00000000E+00  0.00000000E+00  0.00000000E+00
  0.00000000E+00  0.00000000E+00  0.00000000E+00
  0.00000000E+00  0.00000000E+00  0.00000000E+00
  0.00000000E+00  0.00000000E+00  0.00000000E+00
  0.00000000E+00  0.00000000E+00  0.00000000E+00
  0.00000000E+00  0.00000000E+00  0.00000000E+00
  0.00000000E+00  0.00000000E+00  0.00000000E+00
  0.00000000E+00  0.00000000E+00  0.00000000E+00
  0.00000000E+00  0.00000000E+00  0.00000000E+00
  0.00000000E+00  0.00000000E+00  0.00000000E+00
  0.00000000E+00  0.00000000E+00  0.00000000E+00
