H Mg O V                                
   1.00000000000000     
     8.4141216974800006    0.0000000000000000    0.0000000000000000
     0.0000000000000000    8.4141216974800006    0.0000000000000000
     0.0000000000000000    0.0000000000000000   23.4141216974799988
   H    Mg   O    V 
     1    32    32     1
Selective dynamics
Direct
  0.2499999495650016 -0.0000000000000000  0.3351416349797701   T   T   T
  0.2500000000000000 -0.0000000000000000  0.0023829408896873   T   T   T
  0.2500000000000000  0.5000000000000000  0.0031576887070881   T   T   T
  0.7500000000000000 -0.0000000000000000  0.0031576887070881   T   T   T
  0.7500000000000000  0.5000000000000000  0.0037837862462093   T   T   T
  0.9995865521858164  0.2504134478141835  0.0034072968021520   T   T   T
  0.9995865521858164  0.7495865521858164  0.0034072968021520   T   T   T
  0.5004134478141836  0.2504134478141835  0.0034072968021520   T   T   T
  0.5004134478141836  0.7495865521858164  0.0034072968021520   T   T   T
  0.9987415251064173 -0.0000000000000000  0.0922480409367779   T   T   T
 -0.0005404677595006  0.5000000000000000  0.0934804235164225   T   T   T
  0.5012584748935827 -0.0000000000000000  0.0922480409367779   T   T   T
  0.5005404677595007  0.5000000000000000  0.0934804235164225   T   T   T
  0.2500000000000000  0.2512584748935823  0.0922480409367779   T   T   T
  0.2500000000000000  0.7487415251064173  0.0922480409367779   T   T   T
  0.7500000000000000  0.2505404677595007  0.0934804235164225   T   T   T
  0.7500000000000000  0.7494595322404993  0.0934804235164225   T   T   T
  0.2500000000000000 -0.0000000000000000  0.1768207065419667   T   T   T
  0.2500000000000000  0.5000000000000000  0.1834818824031163   T   T   T
  0.7500000000000000 -0.0000000000000000  0.1834818824031163   T   T   T
  0.7500000000000000  0.5000000000000000  0.1844829912435267   T   T   T
 -0.0007027936485694  0.2507027936485692  0.1843169485705644   T   T   T
 -0.0007027936485694  0.7492972063514303  0.1843169485705644   T   T   T
  0.5007027936485698  0.2507027936485692  0.1843169485705644   T   T   T
  0.5007027936485698  0.7492972063514303  0.1843169485705644   T   T   T
  0.9896250796500742 -0.0000000000000000  0.2733477701888505   T   T   T
  0.0024009429480097  0.5000000000000000  0.2771406351386173   T   T   T
  0.5103749203499258 -0.0000000000000000  0.2733475570848556   T   T   T
  0.4975990570519904  0.5000000000000000  0.2771406351386173   T   T   T
  0.2500000000000000  0.2603749203499257  0.2733475570848556   T   T   T
  0.2500000000000000  0.7396250796500742  0.2733475570848556   T   T   T
  0.7500000000000000  0.2475990570519903  0.2771406351386173   T   T   T
  0.7500000000000000  0.7524009429480100  0.2771406351386173   T   T   T
  0.9995113397589882 -0.0000000000000000  0.0011812435160795   T   T   T
 -0.0000642617710799  0.5000000000000000  0.0018472260684680   T   T   T
  0.5004886602410118 -0.0000000000000000  0.0011812435160795   T   T   T
  0.5000642617710800  0.5000000000000000  0.0018472260684680   T   T   T
  0.2500000000000000  0.2504886602410120  0.0011812435160795   T   T   T
  0.2500000000000000  0.7495113397589882  0.0011812435160795   T   T   T
  0.7500000000000000  0.2500642617710800  0.0018472260684680   T   T   T
  0.7500000000000000  0.7499357382289200  0.0018472260684680   T   T   T
  0.2500000000000000 -0.0000000000000000  0.0913600230724277   T   T   T
  0.2500000000000000  0.5000000000000000  0.0937834847224723   T   T   T
  0.7500000000000000 -0.0000000000000000  0.0937834847224723   T   T   T
  0.7500000000000000  0.5000000000000000  0.0938224820907701   T   T   T
  0.0003730914558106  0.2496269085441893  0.0935434072384999   T   T   T
  0.0003730914558106  0.7503730914558107  0.0935434072384999   T   T   T
  0.4996269085441895  0.2496269085441893  0.0935434072384999   T   T   T
  0.4996269085441895  0.7503730914558107  0.0935434072384999   T   T   T
  0.0048047853589197 -0.0000000000000000  0.1838613270454634   T   T   T
  0.0005203714083127  0.5000000000000000  0.1839790588000264   T   T   T
  0.4951952146410802 -0.0000000000000000  0.1838613270454634   T   T   T
  0.4994796285916870  0.5000000000000000  0.1839790588000264   T   T   T
  0.2500000000000000  0.2451952146410803  0.1838613270454634   T   T   T
  0.2500000000000000  0.7548047853589199  0.1838613270454634   T   T   T
  0.7500000000000000  0.2494796285916873  0.1839790588000264   T   T   T
  0.7500000000000000  0.7505203714083122  0.1839790588000264   T   T   T
  0.2499999495650016 -0.0000000000000000  0.2932600817510314   T   T   T
  0.2500000000000000  0.5000000000000000  0.2740199644707674   T   T   T
  0.7500000000000000 -0.0000000000000000  0.2740199644707674   T   T   T
  0.7499998486940029  0.4999998991290013  0.2752724311475575   T   T   T
  0.0051859581143449  0.2448140418856550  0.2737836741138196   T   T   T
  0.0051859581143449  0.7551859581143449  0.2737836741138196   T   T   T
  0.4948140418856550  0.2448140418856550  0.2737836741138196   T   T   T
  0.4948140418856550  0.7551859581143449  0.2737836741138196   T   T   T
  0.7499998486940029  0.4999998991290013  0.3667808126861858   T   T   T
 
  0.00000000E+00  0.00000000E+00  0.00000000E+00
  0.00000000E+00  0.00000000E+00  0.00000000E+00
  0.00000000E+00  0.00000000E+00  0.00000000E+00
  0.00000000E+00  0.00000000E+00  0.00000000E+00
  0.00000000E+00  0.00000000E+00  0.00000000E+00
  0.00000000E+00  0.00000000E+00  0.00000000E+00
  0.00000000E+00  0.00000000E+00  0.00000000E+00
  0.00000000E+00  0.00000000E+00  0.00000000E+00
  0.00000000E+00  0.00000000E+00  0.00000000E+00
  0.00000000E+00  0.00000000E+00  0.00000000E+00
  0.00000000E+00  0.00000000E+00  0.00000000E+00
  0.00000000E+00  0.00000000E+00  0.00000000E+00
  0.00000000E+00  0.00000000E+00  0.00000000E+00
  0.00000000E+00  0.00000000E+00  0.00000000E+00
  0.00000000E+00  0.00000000E+00  0.00000000E+00
  0.00000000E+00  0.00000000E+00  0.00000000E+00
  0.00000000E+00  0.00000000E+00  0.00000000E+00
  0.00000000E+00  0.00000000E+00  0.00000000E+00
  0.00000000E+00  0.00000000E+00  0.00000000E+00
  0.00000000E+00  0.00000000E+00  0.00000000E+00
  0.00000000E+00  0.00000000E+00  0.00000000E+00
  0.00000000E+00  0.00000000E+00  0.00000000E+00
  0.00000000E+00  0.00000000E+00  0.00000000E+00
  0.00000000E+00  0.00000000E+00  0.00000000E+00
  0.00000000E+00  0.00000000E+00  0.00000000E+00
  0.00000000E+00  0.00000000E+00  0.00000000E+00
  0.00000000E+00  0.00000000E+00  0.00000000E+00
  0.00000000E+00  0.00000000E+00  0.00000000E+00
  0.00000000E+00  0.00000000E+00  0.00000000E+00
  0.00000000E+00  0.00000000E+00  0.00000000E+00
  0.00000000E+00  0.00000000E+00  0.00000000E+00
  0.00000000E+00  0.00000000E+00  0.00000000E+00
  0.00000000E+00  0.00000000E+00  0.00000000E+00
  0.00000000E+00  0.00000000E+00  0.00000000E+00
  0.00000000E+00  0.00000000E+00  0.00000000E+00
  0.00000000E+00  0.00000000E+00  0.00000000E+00
  0.00000000E+00  0.00000000E+00  0.00000000E+00
  0.00000000E+00  0.00000000E+00  0.00000000E+00
  0.00000000E+00  0.00000000E+00  0.00000000E+00
  0.00000000E+00  0.00000000E+00  0.00000000E+00
  0.00000000E+00  0.00000000E+00  0.00000000E+00
  0.00000000E+00  0.00000000E+00  0.00000000E+00
  0.00000000E+00  0.00000000E+00  0.00000000E+00
  0.00000000E+00  0.00000000E+00  0.00000000E+00
  0.00000000E+00  0.00000000E+00  0.00000000E+00
  0.00000000E+00  0.00000000E+00  0.00000000E+00
  0.00000000E+00  0.00000000E+00  0.00000000E+00
  0.00000000E+00  0.00000000E+00  0.00000000E+00
  0.00000000E+00  0.00000000E+00  0.00000000E+00
  0.00000000E+00  0.00000000E+00  0.00000000E+00
  0.00000000E+00  0.00000000E+00  0.00000000E+00
  0.00000000E+00  0.00000000E+00  0.00000000E+00
  0.00000000E+00  0.00000000E+00  0.00000000E+00
  0.00000000E+00  0.00000000E+00  0.00000000E+00
  0.00000000E+00  0.00000000E+00  0.00000000E+00
  0.00000000E+00  0.00000000E+00  0.00000000E+00
  0.00000000E+00  0.00000000E+00  0.00000000E+00
  0.00000000E+00  0.00000000E+00  0.00000000E+00
  0.00000000E+00  0.00000000E+00  0.00000000E+00
  0.00000000E+00  0.00000000E+00  0.00000000E+00
  0.00000000E+00  0.00000000E+00  0.00000000E+00
  0.00000000E+00  0.00000000E+00  0.00000000E+00
  0.00000000E+00  0.00000000E+00  0.00000000E+00
  0.00000000E+00  0.00000000E+00  0.00000000E+00
  0.00000000E+00  0.00000000E+00  0.00000000E+00
  0.00000000E+00  0.00000000E+00  0.00000000E+00
