H Mg Ni O                               
   1.00000000000000     
     8.4141216974800006    0.0000000000000000    0.0000000000000000
     0.0000000000000000    8.4141216974800006    0.0000000000000000
     0.0000000000000000    0.0000000000000000   23.4141216974799988
   H    Mg   Ni   O 
     1    32     1    32
Selective dynamics
Direct
  0.2499999495650016  0.0000000000000000  0.3355954960471680   T   T   T
  0.2500000000000000  0.0000000000000000  0.0030244762810857   T   T   T
  0.2500000000000000  0.5000000000000000  0.0037070988972181   T   T   T
  0.7500000000000000  0.0000000000000000  0.0037070988972181   T   T   T
  0.7500000000000000  0.5000000000000000  0.0042810777657938   T   T   T
  0.9996895079146926  0.2503104920853073  0.0039836039230044   T   T   T
  0.9996895079146926  0.7496895079146926  0.0039836039230044   T   T   T
  0.5003104920853074  0.2503104920853073  0.0039836039230044   T   T   T
  0.5003104920853074  0.7496895079146926  0.0039836039230044   T   T   T
  0.9987084112479827  0.0000000000000000  0.0928677181666252   T   T   T
 -0.0000198103801846  0.5000000000000000  0.0938788961031189   T   T   T
  0.5012915887520173  0.0000000000000000  0.0928677181666252   T   T   T
  0.5000198103801845  0.5000000000000000  0.0938788961031189   T   T   T
  0.2500000000000000  0.2512915887520174  0.0928677181666252   T   T   T
  0.2500000000000000  0.7487084112479827  0.0928677181666252   T   T   T
  0.7500000000000000  0.2500198103801844  0.0938788961031189   T   T   T
  0.7500000000000000  0.7499801896198156  0.0938788961031189   T   T   T
  0.2500000000000000  0.0000000000000000  0.1773585588495471   T   T   T
  0.2500000000000000  0.5000000000000000  0.1841528247373825   T   T   T
  0.7500000000000000  0.0000000000000000  0.1841528247373825   T   T   T
  0.7500000000000000  0.5000000000000000  0.1836886513893863   T   T   T
 -0.0012951523915193  0.2512951523915193  0.1849849248852976   T   T   T
 -0.0012951523915193  0.7487048476084806  0.1849849248852976   T   T   T
  0.5012951523915196  0.2512951523915193  0.1849849248852976   T   T   T
  0.5012951523915196  0.7487048476084806  0.1849849248852976   T   T   T
  0.9890598310660819  0.0000000000000000  0.2736262895313378   T   T   T
  0.9991997092699155  0.5000000000000000  0.2787244527774780   T   T   T
  0.5109401689339181  0.0000000000000000  0.2736260764273429   T   T   T
  0.5008002907300845  0.5000000000000000  0.2787244527774780   T   T   T
  0.2500000000000000  0.2609401689339177  0.2736260764273429   T   T   T
  0.2500000000000000  0.7390598310660819  0.2736260764273429   T   T   T
  0.7500000000000000  0.2508002907300844  0.2787244527774780   T   T   T
  0.7500000000000000  0.7491997092699155  0.2787244527774780   T   T   T
  0.7499998486940029  0.4999998991290013  0.3563738225558685   T   T   T
  0.9996128173148494  0.0000000000000000  0.0014221485917419   T   T   T
 -0.0000222800073908  0.5000000000000000  0.0019847500168752   T   T   T
  0.5003871826851506  0.0000000000000000  0.0014221485917419   T   T   T
  0.5000222800073907  0.5000000000000000  0.0019847500168752   T   T   T
  0.2500000000000000  0.2503871826851506  0.0014221485917419   T   T   T
  0.2500000000000000  0.7496128173148494  0.0014221485917419   T   T   T
  0.7500000000000000  0.2500222800073908  0.0019847500168752   T   T   T
  0.7500000000000000  0.7499777199926091  0.0019847500168752   T   T   T
  0.2500000000000000  0.0000000000000000  0.0917987218121665   T   T   T
  0.2500000000000000  0.5000000000000000  0.0938737567535581   T   T   T
  0.7500000000000000  0.0000000000000000  0.0938737567535581   T   T   T
  0.7500000000000000  0.5000000000000000  0.0937981191856509   T   T   T
  0.0005633330864798  0.2494366669135203  0.0937592008863846   T   T   T
  0.0005633330864798  0.7505633330864798  0.0937592008863846   T   T   T
  0.4994366669135202  0.2494366669135203  0.0937592008863846   T   T   T
  0.4994366669135202  0.7505633330864798  0.0937592008863846   T   T   T
  0.0049521406828826  0.0000000000000000  0.1843961995047959   T   T   T
  0.0018572232381918  0.5000000000000000  0.1837506420145221   T   T   T
  0.4950478593171176  0.0000000000000000  0.1843961995047959   T   T   T
  0.4981427767618080  0.5000000000000000  0.1837506420145221   T   T   T
  0.2500000000000000  0.2450478593171174  0.1843961995047959   T   T   T
  0.2500000000000000  0.7549521406828826  0.1843961995047959   T   T   T
  0.7500000000000000  0.2481427767618082  0.1837506420145221   T   T   T
  0.7500000000000000  0.7518572232381918  0.1837506420145221   T   T   T
  0.2499999495650016  0.0000000000000000  0.2937973272153420   T   T   T
  0.2500000000000000  0.5000000000000000  0.2751656926572549   T   T   T
  0.7500000000000000  0.0000000000000000  0.2751656926572549   T   T   T
  0.7499998486940029  0.4999998991290013  0.2701816279323340   T   T   T
  0.0052471770209329  0.2447528229790671  0.2745835950672726   T   T   T
  0.0052471770209329  0.7552471770209332  0.2745835950672726   T   T   T
  0.4947528229790671  0.2447528229790671  0.2745835950672726   T   T   T
  0.4947528229790671  0.7552471770209332  0.2745835950672726   T   T   T
 
  0.00000000E+00  0.00000000E+00  0.00000000E+00
  0.00000000E+00  0.00000000E+00  0.00000000E+00
  0.00000000E+00  0.00000000E+00  0.00000000E+00
  0.00000000E+00  0.00000000E+00  0.00000000E+00
  0.00000000E+00  0.00000000E+00  0.00000000E+00
  0.00000000E+00  0.00000000E+00  0.00000000E+00
  0.00000000E+00  0.00000000E+00  0.00000000E+00
  0.00000000E+00  0.00000000E+00  0.00000000E+00
  0.00000000E+00  0.00000000E+00  0.00000000E+00
  0.00000000E+00  0.00000000E+00  0.00000000E+00
  0.00000000E+00  0.00000000E+00  0.00000000E+00
  0.00000000E+00  0.00000000E+00  0.00000000E+00
  0.00000000E+00  0.00000000E+00  0.00000000E+00
  0.00000000E+00  0.00000000E+00  0.00000000E+00
  0.00000000E+00  0.00000000E+00  0.00000000E+00
  0.00000000E+00  0.00000000E+00  0.00000000E+00
  0.00000000E+00  0.00000000E+00  0.00000000E+00
  0.00000000E+00  0.00000000E+00  0.00000000E+00
  0.00000000E+00  0.00000000E+00  0.00000000E+00
  0.00000000E+00  0.00000000E+00  0.00000000E+00
  0.00000000E+00  0.00000000E+00  0.00000000E+00
  0.00000000E+00  0.00000000E+00  0.00000000E+00
  0.00000000E+00  0.00000000E+00  0.00000000E+00
  0.00000000E+00  0.00000000E+00  0.00000000E+00
  0.00000000E+00  0.00000000E+00  0.00000000E+00
  0.00000000E+00  0.00000000E+00  0.00000000E+00
  0.00000000E+00  0.00000000E+00  0.00000000E+00
  0.00000000E+00  0.00000000E+00  0.00000000E+00
  0.00000000E+00  0.00000000E+00  0.00000000E+00
  0.00000000E+00  0.00000000E+00  0.00000000E+00
  0.00000000E+00  0.00000000E+00  0.00000000E+00
  0.00000000E+00  0.00000000E+00  0.00000000E+00
  0.00000000E+00  0.00000000E+00  0.00000000E+00
  0.00000000E+00  0.00000000E+00  0.00000000E+00
  0.00000000E+00  0.00000000E+00  0.00000000E+00
  0.00000000E+00  0.00000000E+00  0.00000000E+00
  0.00000000E+00  0.00000000E+00  0.00000000E+00
  0.00000000E+00  0.00000000E+00  0.00000000E+00
  0.00000000E+00  0.00000000E+00  0.00000000E+00
  0.00000000E+00  0.00000000E+00  0.00000000E+00
  0.00000000E+00  0.00000000E+00  0.00000000E+00
  0.00000000E+00  0.00000000E+00  0.00000000E+00
  0.00000000E+00  0.00000000E+00  0.00000000E+00
  0.00000000E+00  0.00000000E+00  0.00000000E+00
  0.00000000E+00  0.00000000E+00  0.00000000E+00
  0.00000000E+00  0.00000000E+00  0.00000000E+00
  0.00000000E+00  0.00000000E+00  0.00000000E+00
  0.00000000E+00  0.00000000E+00  0.00000000E+00
  0.00000000E+00  0.00000000E+00  0.00000000E+00
  0.00000000E+00  0.00000000E+00  0.00000000E+00
  0.00000000E+00  0.00000000E+00  0.00000000E+00
  0.00000000E+00  0.00000000E+00  0.00000000E+00
  0.00000000E+00  0.00000000E+00  0.00000000E+00
  0.00000000E+00  0.00000000E+00  0.00000000E+00
  0.00000000E+00  0.00000000E+00  0.00000000E+00
  0.00000000E+00  0.00000000E+00  0.00000000E+00
  0.00000000E+00  0.00000000E+00  0.00000000E+00
  0.00000000E+00  0.00000000E+00  0.00000000E+00
  0.00000000E+00  0.00000000E+00  0.00000000E+00
  0.00000000E+00  0.00000000E+00  0.00000000E+00
  0.00000000E+00  0.00000000E+00  0.00000000E+00
  0.00000000E+00  0.00000000E+00  0.00000000E+00
  0.00000000E+00  0.00000000E+00  0.00000000E+00
  0.00000000E+00  0.00000000E+00  0.00000000E+00
  0.00000000E+00  0.00000000E+00  0.00000000E+00
  0.00000000E+00  0.00000000E+00  0.00000000E+00
