Co H Mg O                               
   1.00000000000000     
     8.4141216974800006    0.0000000000000000    0.0000000000000000
     0.0000000000000000    8.4141216974800006    0.0000000000000000
     0.0000000000000000    0.0000000000000000   23.4141216974799988
   Co   H    Mg   O 
     1     1    32    32
Selective dynamics
Direct
  0.7499998486940029  0.4999998991290013  0.3656548306560459   T   T   T
  0.2499999495650016  0.0000000000000000  0.3356417515629256   T   T   T
  0.2500000000000000  0.0000000000000000  0.0029365712869929   T   T   T
  0.2500000000000000  0.5000000000000000  0.0035521731874917   T   T   T
  0.7500000000000000  0.0000000000000000  0.0035521731874917   T   T   T
  0.7500000000000000  0.5000000000000000  0.0041111341415660   T   T   T
  0.9997515535474299  0.2502484464525701  0.0038670838890727   T   T   T
  0.9997515535474299  0.7497515535474299  0.0038670838890727   T   T   T
  0.5002484464525701  0.2502484464525701  0.0038670838890727   T   T   T
  0.5002484464525701  0.7497515535474299  0.0038670838890727   T   T   T
  0.9987432561134034  0.0000000000000000  0.0927064757848018   T   T   T
 -0.0000052799777695  0.5000000000000000  0.0937208026938816   T   T   T
  0.5012567438865966  0.0000000000000000  0.0927064757848018   T   T   T
  0.5000052799777694  0.5000000000000000  0.0937208026938816   T   T   T
  0.2500000000000000  0.2512567438865964  0.0927064757848018   T   T   T
  0.2500000000000000  0.7487432561134034  0.0927064757848018   T   T   T
  0.7500000000000000  0.2500052799777694  0.0937208026938816   T   T   T
  0.7500000000000000  0.7499947200222304  0.0937208026938816   T   T   T
  0.2500000000000000  0.0000000000000000  0.1773243864297611   T   T   T
  0.2500000000000000  0.5000000000000000  0.1839538376239749   T   T   T
  0.7500000000000000  0.0000000000000000  0.1839538376239749   T   T   T
  0.7500000000000000  0.5000000000000000  0.1834304409381586   T   T   T
  0.9987546349951899  0.2512453650048099  0.1846794656378621   T   T   T
  0.9987546349951899  0.7487546349951899  0.1846794656378621   T   T   T
  0.5012453650048101  0.2512453650048099  0.1846794656378621   T   T   T
  0.5012453650048101  0.7487546349951899  0.1846794656378621   T   T   T
  0.9885083591283895  0.0000000000000000  0.2735076796065185   T   T   T
 -0.0025243420883668  0.5000000000000000  0.2780139219669305   T   T   T
  0.5114916408716105  0.0000000000000000  0.2735074665025164   T   T   T
  0.5025243420883666  0.5000000000000000  0.2780139219669305   T   T   T
  0.2500000000000000  0.2614916408716103  0.2735074665025164   T   T   T
  0.2500000000000000  0.7385083591283895  0.2735074665025164   T   T   T
  0.7500000000000000  0.2525243420883667  0.2780139219669305   T   T   T
  0.7500000000000000  0.7474756579116334  0.2780139219669305   T   T   T
  0.9996401333526690  0.0000000000000000  0.0013076676261460   T   T   T
  0.0000165237147534  0.5000000000000000  0.0018535579578303   T   T   T
  0.5003598666473310  0.0000000000000000  0.0013076676261460   T   T   T
  0.4999834762852467  0.5000000000000000  0.0018535579578303   T   T   T
  0.2500000000000000  0.2503598666473310  0.0013076676261460   T   T   T
  0.2500000000000000  0.7496401333526690  0.0013076676261460   T   T   T
  0.7500000000000000  0.2499834762852469  0.0018535579578303   T   T   T
  0.7500000000000000  0.7500165237147534  0.0018535579578303   T   T   T
  0.2500000000000000  0.0000000000000000  0.0917076590890460   T   T   T
  0.2500000000000000  0.5000000000000000  0.0937070170323518   T   T   T
  0.7500000000000000  0.0000000000000000  0.0937070170323518   T   T   T
  0.7500000000000000  0.5000000000000000  0.0934760425830430   T   T   T
  0.0006841547539961  0.2493158452460039  0.0935721114140075   T   T   T
  0.0006841547539961  0.7506841547539959  0.0935721114140075   T   T   T
  0.4993158452460038  0.2493158452460039  0.0935721114140075   T   T   T
  0.4993158452460038  0.7506841547539959  0.0935721114140075   T   T   T
  0.0050442745714648  0.0000000000000000  0.1843077814704553   T   T   T
  0.0020986325500735  0.5000000000000000  0.1833935617569777   T   T   T
  0.4949557254285352  0.0000000000000000  0.1843077814704553   T   T   T
  0.4979013674499264  0.5000000000000000  0.1833935617569777   T   T   T
  0.2500000000000000  0.2449557254285352  0.1843077814704553   T   T   T
  0.2500000000000000  0.7550442745714648  0.1843077814704553   T   T   T
  0.7500000000000000  0.2479013674499264  0.1833935617569777   T   T   T
  0.7500000000000000  0.7520986325500736  0.1833935617569777   T   T   T
  0.2499999495650016  0.0000000000000000  0.2938862524464274   T   T   T
  0.2500000000000000  0.5000000000000000  0.2748324776310280   T   T   T
  0.7500000000000000  0.0000000000000000  0.2748324776310280   T   T   T
  0.7499998486940029  0.4999998991290013  0.2694487632869212   T   T   T
  0.0048516275215824  0.2451483724784176  0.2744817528518690   T   T   T
  0.0048516275215824  0.7548516275215822  0.2744817528518690   T   T   T
  0.4951483724784175  0.2451483724784176  0.2744817528518690   T   T   T
  0.4951483724784175  0.7548516275215822  0.2744817528518690   T   T   T
 
  0.00000000E+00  0.00000000E+00  0.00000000E+00
  0.00000000E+00  0.00000000E+00  0.00000000E+00
  0.00000000E+00  0.00000000E+00  0.00000000E+00
  0.00000000E+00  0.00000000E+00  0.00000000E+00
  0.00000000E+00  0.00000000E+00  0.00000000E+00
  0.00000000E+00  0.00000000E+00  0.00000000E+00
  0.00000000E+00  0.00000000E+00  0.00000000E+00
  0.00000000E+00  0.00000000E+00  0.00000000E+00
  0.00000000E+00  0.00000000E+00  0.00000000E+00
  0.00000000E+00  0.00000000E+00  0.00000000E+00
  0.00000000E+00  0.00000000E+00  0.00000000E+00
  0.00000000E+00  0.00000000E+00  0.00000000E+00
  0.00000000E+00  0.00000000E+00  0.00000000E+00
  0.00000000E+00  0.00000000E+00  0.00000000E+00
  0.00000000E+00  0.00000000E+00  0.00000000E+00
  0.00000000E+00  0.00000000E+00  0.00000000E+00
  0.00000000E+00  0.00000000E+00  0.00000000E+00
  0.00000000E+00  0.00000000E+00  0.00000000E+00
  0.00000000E+00  0.00000000E+00  0.00000000E+00
  0.00000000E+00  0.00000000E+00  0.00000000E+00
  0.00000000E+00  0.00000000E+00  0.00000000E+00
  0.00000000E+00  0.00000000E+00  0.00000000E+00
  0.00000000E+00  0.00000000E+00  0.00000000E+00
  0.00000000E+00  0.00000000E+00  0.00000000E+00
  0.00000000E+00  0.00000000E+00  0.00000000E+00
  0.00000000E+00  0.00000000E+00  0.00000000E+00
  0.00000000E+00  0.00000000E+00  0.00000000E+00
  0.00000000E+00  0.00000000E+00  0.00000000E+00
  0.00000000E+00  0.00000000E+00  0.00000000E+00
  0.00000000E+00  0.00000000E+00  0.00000000E+00
  0.00000000E+00  0.00000000E+00  0.00000000E+00
  0.00000000E+00  0.00000000E+00  0.00000000E+00
  0.00000000E+00  0.00000000E+00  0.00000000E+00
  0.00000000E+00  0.00000000E+00  0.00000000E+00
  0.00000000E+00  0.00000000E+00  0.00000000E+00
  0.00000000E+00  0.00000000E+00  0.00000000E+00
  0.00000000E+00  0.00000000E+00  0.00000000E+00
  0.00000000E+00  0.00000000E+00  0.00000000E+00
  0.00000000E+00  0.00000000E+00  0.00000000E+00
  0.00000000E+00  0.00000000E+00  0.00000000E+00
  0.00000000E+00  0.00000000E+00  0.00000000E+00
  0.00000000E+00  0.00000000E+00  0.00000000E+00
  0.00000000E+00  0.00000000E+00  0.00000000E+00
  0.00000000E+00  0.00000000E+00  0.00000000E+00
  0.00000000E+00  0.00000000E+00  0.00000000E+00
  0.00000000E+00  0.00000000E+00  0.00000000E+00
  0.00000000E+00  0.00000000E+00  0.00000000E+00
  0.00000000E+00  0.00000000E+00  0.00000000E+00
  0.00000000E+00  0.00000000E+00  0.00000000E+00
  0.00000000E+00  0.00000000E+00  0.00000000E+00
  0.00000000E+00  0.00000000E+00  0.00000000E+00
  0.00000000E+00  0.00000000E+00  0.00000000E+00
  0.00000000E+00  0.00000000E+00  0.00000000E+00
  0.00000000E+00  0.00000000E+00  0.00000000E+00
  0.00000000E+00  0.00000000E+00  0.00000000E+00
  0.00000000E+00  0.00000000E+00  0.00000000E+00
  0.00000000E+00  0.00000000E+00  0.00000000E+00
  0.00000000E+00  0.00000000E+00  0.00000000E+00
  0.00000000E+00  0.00000000E+00  0.00000000E+00
  0.00000000E+00  0.00000000E+00  0.00000000E+00
  0.00000000E+00  0.00000000E+00  0.00000000E+00
  0.00000000E+00  0.00000000E+00  0.00000000E+00
  0.00000000E+00  0.00000000E+00  0.00000000E+00
  0.00000000E+00  0.00000000E+00  0.00000000E+00
  0.00000000E+00  0.00000000E+00  0.00000000E+00
  0.00000000E+00  0.00000000E+00  0.00000000E+00
