Fe H Mg O                               
   1.00000000000000     
     8.4141216974800006    0.0000000000000000    0.0000000000000000
     0.0000000000000000    8.4141216974800006    0.0000000000000000
     0.0000000000000000    0.0000000000000000   23.4141216974799988
   Fe   H    Mg   O 
     1     1    32    32
Selective dynamics
Direct
  0.7499998486940029  0.4999998991290013  0.3622116327094786   T   T   T
  0.2499999495650016 -0.0000000000000000  0.3356887874689499   T   T   T
  0.2500000000000000 -0.0000000000000000  0.0025634083455281   T   T   T
  0.2500000000000000  0.5000000000000000  0.0031973052882148   T   T   T
  0.7500000000000000 -0.0000000000000000  0.0031973052882148   T   T   T
  0.7500000000000000  0.5000000000000000  0.0038362732930934   T   T   T
  0.9996818658654849  0.2503181341345153  0.0035320755507528   T   T   T
  0.9996818658654849  0.7496818658654849  0.0035320755507528   T   T   T
  0.5003181341345151  0.2503181341345153  0.0035320755507528   T   T   T
  0.5003181341345151  0.7496818658654849  0.0035320755507528   T   T   T
  0.9987866133498499 -0.0000000000000000  0.0924494162461562   T   T   T
 -0.0002766786904122  0.5000000000000000  0.0935164227898069   T   T   T
  0.5012133866501501 -0.0000000000000000  0.0924494162461562   T   T   T
  0.5002766786904123  0.5000000000000000  0.0935164227898069   T   T   T
  0.2500000000000000  0.2512133866501499  0.0924494162461562   T   T   T
  0.2500000000000000  0.7487866133498499  0.0924494162461562   T   T   T
  0.7500000000000000  0.2502766786904122  0.0935164227898069   T   T   T
  0.7500000000000000  0.7497233213095877  0.0935164227898069   T   T   T
  0.2500000000000000 -0.0000000000000000  0.1771992003368605   T   T   T
  0.2500000000000000  0.5000000000000000  0.1836107256696137   T   T   T
  0.7500000000000000 -0.0000000000000000  0.1836107256696137   T   T   T
  0.7500000000000000  0.5000000000000000  0.1838134573620605   T   T   T
  0.9994736940361314  0.2505263059638687  0.1844978867451257   T   T   T
  0.9994736940361314  0.7494736940361314  0.1844978867451257   T   T   T
  0.5005263059638686  0.2505263059638687  0.1844978867451257   T   T   T
  0.5005263059638686  0.7494736940361314  0.1844978867451257   T   T   T
  0.9895703678218981 -0.0000000000000000  0.2737549991310325   T   T   T
  0.0021992541513804  0.5000000000000000  0.2767901838504886   T   T   T
  0.5104296321781019 -0.0000000000000000  0.2737547860270305   T   T   T
  0.4978007458486197  0.5000000000000000  0.2767901838504886   T   T   T
  0.2500000000000000  0.2604296321781018  0.2737547860270305   T   T   T
  0.2500000000000000  0.7395703678218981  0.2737547860270305   T   T   T
  0.7500000000000000  0.2478007458486195  0.2767901838504886   T   T   T
  0.7500000000000000  0.7521992541513806  0.2767901838504886   T   T   T
  0.9995590127277214 -0.0000000000000000  0.0017487546291527   T   T   T
 -0.0000335930267314  0.5000000000000000  0.0023076168099924   T   T   T
  0.5004409872722786 -0.0000000000000000  0.0017487546291527   T   T   T
  0.5000335930267313  0.5000000000000000  0.0023076168099924   T   T   T
  0.2500000000000000  0.2504409872722788  0.0017487546291527   T   T   T
  0.2500000000000000  0.7495590127277214  0.0017487546291527   T   T   T
  0.7500000000000000  0.2500335930267316  0.0023076168099924   T   T   T
  0.7500000000000000  0.7499664069732687  0.0023076168099924   T   T   T
  0.2500000000000000 -0.0000000000000000  0.0919468587214144   T   T   T
  0.2500000000000000  0.5000000000000000  0.0942231558691070   T   T   T
  0.7500000000000000 -0.0000000000000000  0.0942231558691070   T   T   T
  0.7500000000000000  0.5000000000000000  0.0941745804642555   T   T   T
  0.0005145726210643  0.2494854273789356  0.0940879509116266   T   T   T
  0.0005145726210643  0.7505145726210642  0.0940879509116266   T   T   T
  0.4994854273789358  0.2494854273789356  0.0940879509116266   T   T   T
  0.4994854273789358  0.7505145726210642  0.0940879509116266   T   T   T
  0.0049152540833773 -0.0000000000000000  0.1846187791512466   T   T   T
  0.0009802271476434  0.5000000000000000  0.1843403006142379   T   T   T
  0.4950847459166227 -0.0000000000000000  0.1846187791512466   T   T   T
  0.4990197728523565  0.5000000000000000  0.1843403006142379   T   T   T
  0.2500000000000000  0.2450847459166226  0.1846187791512466   T   T   T
  0.2500000000000000  0.7549152540833775  0.1846187791512466   T   T   T
  0.7500000000000000  0.2490197728523566  0.1843403006142379   T   T   T
  0.7500000000000000  0.7509802271476433  0.1843403006142379   T   T   T
  0.2499999495650016 -0.0000000000000000  0.2937313496477665   T   T   T
  0.2500000000000000  0.5000000000000000  0.2747000722250484   T   T   T
  0.7500000000000000 -0.0000000000000000  0.2747000722250484   T   T   T
  0.7499998486940029  0.4999998991290013  0.2733774081979859   T   T   T
  0.0045949507755431  0.2454050492244569  0.2745475037677876   T   T   T
  0.0045949507755431  0.7545949507755432  0.2745475037677876   T   T   T
  0.4954050492244569  0.2454050492244569  0.2745475037677876   T   T   T
  0.4954050492244569  0.7545949507755432  0.2745475037677876   T   T   T
 
  0.00000000E+00  0.00000000E+00  0.00000000E+00
  0.00000000E+00  0.00000000E+00  0.00000000E+00
  0.00000000E+00  0.00000000E+00  0.00000000E+00
  0.00000000E+00  0.00000000E+00  0.00000000E+00
  0.00000000E+00  0.00000000E+00  0.00000000E+00
  0.00000000E+00  0.00000000E+00  0.00000000E+00
  0.00000000E+00  0.00000000E+00  0.00000000E+00
  0.00000000E+00  0.00000000E+00  0.00000000E+00
  0.00000000E+00  0.00000000E+00  0.00000000E+00
  0.00000000E+00  0.00000000E+00  0.00000000E+00
  0.00000000E+00  0.00000000E+00  0.00000000E+00
  0.00000000E+00  0.00000000E+00  0.00000000E+00
  0.00000000E+00  0.00000000E+00  0.00000000E+00
  0.00000000E+00  0.00000000E+00  0.00000000E+00
  0.00000000E+00  0.00000000E+00  0.00000000E+00
  0.00000000E+00  0.00000000E+00  0.00000000E+00
  0.00000000E+00  0.00000000E+00  0.00000000E+00
  0.00000000E+00  0.00000000E+00  0.00000000E+00
  0.00000000E+00  0.00000000E+00  0.00000000E+00
  0.00000000E+00  0.00000000E+00  0.00000000E+00
  0.00000000E+00  0.00000000E+00  0.00000000E+00
  0.00000000E+00  0.00000000E+00  0.00000000E+00
  0.00000000E+00  0.00000000E+00  0.00000000E+00
  0.00000000E+00  0.00000000E+00  0.00000000E+00
  0.00000000E+00  0.00000000E+00  0.00000000E+00
  0.00000000E+00  0.00000000E+00  0.00000000E+00
  0.00000000E+00  0.00000000E+00  0.00000000E+00
  0.00000000E+00  0.00000000E+00  0.00000000E+00
  0.00000000E+00  0.00000000E+00  0.00000000E+00
  0.00000000E+00  0.00000000E+00  0.00000000E+00
  0.00000000E+00  0.00000000E+00  0.00000000E+00
  0.00000000E+00  0.00000000E+00  0.00000000E+00
  0.00000000E+00  0.00000000E+00  0.00000000E+00
  0.00000000E+00  0.00000000E+00  0.00000000E+00
  0.00000000E+00  0.00000000E+00  0.00000000E+00
  0.00000000E+00  0.00000000E+00  0.00000000E+00
  0.00000000E+00  0.00000000E+00  0.00000000E+00
  0.00000000E+00  0.00000000E+00  0.00000000E+00
  0.00000000E+00  0.00000000E+00  0.00000000E+00
  0.00000000E+00  0.00000000E+00  0.00000000E+00
  0.00000000E+00  0.00000000E+00  0.00000000E+00
  0.00000000E+00  0.00000000E+00  0.00000000E+00
  0.00000000E+00  0.00000000E+00  0.00000000E+00
  0.00000000E+00  0.00000000E+00  0.00000000E+00
  0.00000000E+00  0.00000000E+00  0.00000000E+00
  0.00000000E+00  0.00000000E+00  0.00000000E+00
  0.00000000E+00  0.00000000E+00  0.00000000E+00
  0.00000000E+00  0.00000000E+00  0.00000000E+00
  0.00000000E+00  0.00000000E+00  0.00000000E+00
  0.00000000E+00  0.00000000E+00  0.00000000E+00
  0.00000000E+00  0.00000000E+00  0.00000000E+00
  0.00000000E+00  0.00000000E+00  0.00000000E+00
  0.00000000E+00  0.00000000E+00  0.00000000E+00
  0.00000000E+00  0.00000000E+00  0.00000000E+00
  0.00000000E+00  0.00000000E+00  0.00000000E+00
  0.00000000E+00  0.00000000E+00  0.00000000E+00
  0.00000000E+00  0.00000000E+00  0.00000000E+00
  0.00000000E+00  0.00000000E+00  0.00000000E+00
  0.00000000E+00  0.00000000E+00  0.00000000E+00
  0.00000000E+00  0.00000000E+00  0.00000000E+00
  0.00000000E+00  0.00000000E+00  0.00000000E+00
  0.00000000E+00  0.00000000E+00  0.00000000E+00
  0.00000000E+00  0.00000000E+00  0.00000000E+00
  0.00000000E+00  0.00000000E+00  0.00000000E+00
  0.00000000E+00  0.00000000E+00  0.00000000E+00
  0.00000000E+00  0.00000000E+00  0.00000000E+00
