H Mg O Rh                               
   1.00000000000000     
     8.4141216974800006    0.0000000000000000    0.0000000000000000
     0.0000000000000000    8.4141216974800006    0.0000000000000000
     0.0000000000000000    0.0000000000000000   23.4141216974799988
   H    Mg   O    Rh
     1    32    32     1
Selective dynamics
Direct
  0.2499999495650016  0.0000000000000000  0.3356167414380705   T   T   T
  0.2500000000000000  0.0000000000000000  0.0030327874341120   T   T   T
  0.2500000000000000  0.5000000000000000  0.0037158070109009   T   T   T
  0.7500000000000000  0.0000000000000000  0.0037158070109009   T   T   T
  0.7500000000000000  0.5000000000000000  0.0042486298323005   T   T   T
  0.9996549683371825  0.2503450316628174  0.0039939772622382   T   T   T
  0.9996549683371825  0.7496549683371825  0.0039939772622382   T   T   T
  0.5003450316628175  0.2503450316628174  0.0039939772622382   T   T   T
  0.5003450316628175  0.7496549683371825  0.0039939772622382   T   T   T
  0.9986462817945608  0.0000000000000000  0.0928669495369651   T   T   T
  0.9999378548895830  0.5000000000000000  0.0939800715451078   T   T   T
  0.5013537182054392  0.0000000000000000  0.0928669495369651   T   T   T
  0.5000621451104170  0.5000000000000000  0.0939800715451078   T   T   T
  0.2500000000000000  0.2513537182054390  0.0928669495369651   T   T   T
  0.2500000000000000  0.7486462817945608  0.0928669495369651   T   T   T
  0.7500000000000000  0.2500621451104171  0.0939800715451078   T   T   T
  0.7500000000000000  0.7499378548895830  0.0939800715451078   T   T   T
  0.2500000000000000  0.0000000000000000  0.1772138640762047   T   T   T
  0.2500000000000000  0.5000000000000000  0.1842464332590611   T   T   T
  0.7500000000000000  0.0000000000000000  0.1842464332590611   T   T   T
  0.7500000000000000  0.5000000000000000  0.1837506378064739   T   T   T
  0.9984032164053929  0.2515967835946073  0.1851313254333787   T   T   T
  0.9984032164053929  0.7484032164053929  0.1851313254333787   T   T   T
  0.5015967835946071  0.2515967835946073  0.1851313254333787   T   T   T
  0.5015967835946071  0.7484032164053929  0.1851313254333787   T   T   T
  0.9893461871629697  0.0000000000000000  0.2732172453551664   T   T   T
  0.9999425971426603  0.5000000000000000  0.2798930775539707   T   T   T
  0.5106538128370303  0.0000000000000000  0.2732170322511644   T   T   T
  0.5000574028573397  0.5000000000000000  0.2798930775539707   T   T   T
  0.2500000000000000  0.2606538128370304  0.2732170322511644   T   T   T
  0.2500000000000000  0.7393461871629697  0.2732170322511644   T   T   T
  0.7500000000000000  0.2500574028573397  0.2798930775539707   T   T   T
  0.7500000000000000  0.7499425971426603  0.2798930775539707   T   T   T
  0.9995879195093480  0.0000000000000000  0.0014092637248486   T   T   T
 -0.0000141572593215  0.5000000000000000  0.0019777553631047   T   T   T
  0.5004120804906520  0.0000000000000000  0.0014092637248486   T   T   T
  0.5000141572593214  0.5000000000000000  0.0019777553631047   T   T   T
  0.2500000000000000  0.2504120804906518  0.0014092637248486   T   T   T
  0.2500000000000000  0.7495879195093480  0.0014092637248486   T   T   T
  0.7500000000000000  0.2500141572593216  0.0019777553631047   T   T   T
  0.7500000000000000  0.7499858427406786  0.0019777553631047   T   T   T
  0.2500000000000000  0.0000000000000000  0.0917599222976581   T   T   T
  0.2500000000000000  0.5000000000000000  0.0939396139020758   T   T   T
  0.7500000000000000  0.0000000000000000  0.0939396139020758   T   T   T
  0.7500000000000000  0.5000000000000000  0.0938347785020286   T   T   T
  0.0004713186705401  0.2495286813294599  0.0937730331331972   T   T   T
  0.0004713186705401  0.7504713186705401  0.0937730331331972   T   T   T
  0.4995286813294599  0.2495286813294599  0.0937730331331972   T   T   T
  0.4995286813294599  0.7504713186705401  0.0937730331331972   T   T   T
  0.0048267419960272  0.0000000000000000  0.1842382207193764   T   T   T
  0.0016303396748294  0.5000000000000000  0.1839723866121629   T   T   T
  0.4951732580039728  0.0000000000000000  0.1842382207193764   T   T   T
  0.4983696603251706  0.5000000000000000  0.1839723866121629   T   T   T
  0.2500000000000000  0.2451732580039728  0.1842382207193764   T   T   T
  0.2500000000000000  0.7548267419960273  0.1842382207193764   T   T   T
  0.7500000000000000  0.2483696603251706  0.1839723866121629   T   T   T
  0.7500000000000000  0.7516303396748294  0.1839723866121629   T   T   T
  0.2499999495650016  0.0000000000000000  0.2938543308235860   T   T   T
  0.2500000000000000  0.5000000000000000  0.2755759474698290   T   T   T
  0.7500000000000000  0.0000000000000000  0.2755759474698290   T   T   T
  0.7499998486940029  0.4999998991290013  0.2693008323177649   T   T   T
  0.0063543074754460  0.2436456925245540  0.2744535252638250   T   T   T
  0.0063543074754460  0.7563543074754460  0.2744535252638250   T   T   T
  0.4936456925245540  0.2436456925245540  0.2744535252638250   T   T   T
  0.4936456925245540  0.7563543074754460  0.2744535252638250   T   T   T
  0.7499998486940029  0.4999998991290013  0.3558485084216871   T   T   T
 
  0.00000000E+00  0.00000000E+00  0.00000000E+00
  0.00000000E+00  0.00000000E+00  0.00000000E+00
  0.00000000E+00  0.00000000E+00  0.00000000E+00
  0.00000000E+00  0.00000000E+00  0.00000000E+00
  0.00000000E+00  0.00000000E+00  0.00000000E+00
  0.00000000E+00  0.00000000E+00  0.00000000E+00
  0.00000000E+00  0.00000000E+00  0.00000000E+00
  0.00000000E+00  0.00000000E+00  0.00000000E+00
  0.00000000E+00  0.00000000E+00  0.00000000E+00
  0.00000000E+00  0.00000000E+00  0.00000000E+00
  0.00000000E+00  0.00000000E+00  0.00000000E+00
  0.00000000E+00  0.00000000E+00  0.00000000E+00
  0.00000000E+00  0.00000000E+00  0.00000000E+00
  0.00000000E+00  0.00000000E+00  0.00000000E+00
  0.00000000E+00  0.00000000E+00  0.00000000E+00
  0.00000000E+00  0.00000000E+00  0.00000000E+00
  0.00000000E+00  0.00000000E+00  0.00000000E+00
  0.00000000E+00  0.00000000E+00  0.00000000E+00
  0.00000000E+00  0.00000000E+00  0.00000000E+00
  0.00000000E+00  0.00000000E+00  0.00000000E+00
  0.00000000E+00  0.00000000E+00  0.00000000E+00
  0.00000000E+00  0.00000000E+00  0.00000000E+00
  0.00000000E+00  0.00000000E+00  0.00000000E+00
  0.00000000E+00  0.00000000E+00  0.00000000E+00
  0.00000000E+00  0.00000000E+00  0.00000000E+00
  0.00000000E+00  0.00000000E+00  0.00000000E+00
  0.00000000E+00  0.00000000E+00  0.00000000E+00
  0.00000000E+00  0.00000000E+00  0.00000000E+00
  0.00000000E+00  0.00000000E+00  0.00000000E+00
  0.00000000E+00  0.00000000E+00  0.00000000E+00
  0.00000000E+00  0.00000000E+00  0.00000000E+00
  0.00000000E+00  0.00000000E+00  0.00000000E+00
  0.00000000E+00  0.00000000E+00  0.00000000E+00
  0.00000000E+00  0.00000000E+00  0.00000000E+00
  0.00000000E+00  0.00000000E+00  0.00000000E+00
  0.00000000E+00  0.00000000E+00  0.00000000E+00
  0.00000000E+00  0.00000000E+00  0.00000000E+00
  0.00000000E+00  0.00000000E+00  0.00000000E+00
  0.00000000E+00  0.00000000E+00  0.00000000E+00
  0.00000000E+00  0.00000000E+00  0.00000000E+00
  0.00000000E+00  0.00000000E+00  0.00000000E+00
  0.00000000E+00  0.00000000E+00  0.00000000E+00
  0.00000000E+00  0.00000000E+00  0.00000000E+00
  0.00000000E+00  0.00000000E+00  0.00000000E+00
  0.00000000E+00  0.00000000E+00  0.00000000E+00
  0.00000000E+00  0.00000000E+00  0.00000000E+00
  0.00000000E+00  0.00000000E+00  0.00000000E+00
  0.00000000E+00  0.00000000E+00  0.00000000E+00
  0.00000000E+00  0.00000000E+00  0.00000000E+00
  0.00000000E+00  0.00000000E+00  0.00000000E+00
  0.00000000E+00  0.00000000E+00  0.00000000E+00
  0.00000000E+00  0.00000000E+00  0.00000000E+00
  0.00000000E+00  0.00000000E+00  0.00000000E+00
  0.00000000E+00  0.00000000E+00  0.00000000E+00
  0.00000000E+00  0.00000000E+00  0.00000000E+00
  0.00000000E+00  0.00000000E+00  0.00000000E+00
  0.00000000E+00  0.00000000E+00  0.00000000E+00
  0.00000000E+00  0.00000000E+00  0.00000000E+00
  0.00000000E+00  0.00000000E+00  0.00000000E+00
  0.00000000E+00  0.00000000E+00  0.00000000E+00
  0.00000000E+00  0.00000000E+00  0.00000000E+00
  0.00000000E+00  0.00000000E+00  0.00000000E+00
  0.00000000E+00  0.00000000E+00  0.00000000E+00
  0.00000000E+00  0.00000000E+00  0.00000000E+00
  0.00000000E+00  0.00000000E+00  0.00000000E+00
  0.00000000E+00  0.00000000E+00  0.00000000E+00
