H Mg O Pt                               
   1.00000000000000     
     8.4141216974800006    0.0000000000000000    0.0000000000000000
     0.0000000000000000    8.4141216974800006    0.0000000000000000
     0.0000000000000000    0.0000000000000000   23.4141216974799988
   H    Mg   O    Pt
     1    32    32     1
Selective dynamics
Direct
  0.2499999495650016  0.0000000000000000  0.3356182208987935   T   T   T
  0.2500000000000000  0.0000000000000000  0.0030184463312193   T   T   T
  0.2500000000000000  0.5000000000000000  0.0036596141440235   T   T   T
  0.7500000000000000  0.0000000000000000  0.0036596141440235   T   T   T
  0.7500000000000000  0.5000000000000000  0.0041863158262655   T   T   T
  0.9996779511586255  0.2503220488413747  0.0039771270633608   T   T   T
  0.9996779511586255  0.7496779511586255  0.0039771270633608   T   T   T
  0.5003220488413745  0.2503220488413747  0.0039771270633608   T   T   T
  0.5003220488413745  0.7496779511586255  0.0039771270633608   T   T   T
  0.9987241186648901  0.0000000000000000  0.0928469365423123   T   T   T
  0.0005531043130132  0.5000000000000000  0.0937277240858363   T   T   T
  0.5012758813351099  0.0000000000000000  0.0928469365423123   T   T   T
  0.4994468956869869  0.5000000000000000  0.0937277240858363   T   T   T
  0.2500000000000000  0.2512758813351100  0.0928469365423123   T   T   T
  0.2500000000000000  0.7487241186648901  0.0928469365423123   T   T   T
  0.7500000000000000  0.2494468956869869  0.0937277240858363   T   T   T
  0.7500000000000000  0.7505531043130133  0.0937277240858363   T   T   T
  0.2500000000000000  0.0000000000000000  0.1772446490204996   T   T   T
  0.2500000000000000  0.5000000000000000  0.1841996830091376   T   T   T
  0.7500000000000000  0.0000000000000000  0.1841996830091376   T   T   T
  0.7500000000000000  0.5000000000000000  0.1820489537214173   T   T   T
  0.9985420756598747  0.2514579243401254  0.1850336533975856   T   T   T
  0.9985420756598747  0.7485420756598747  0.1850336533975856   T   T   T
  0.5014579243401253  0.2514579243401254  0.1850336533975856   T   T   T
  0.5014579243401253  0.7485420756598747  0.1850336533975856   T   T   T
  0.9886409248273672  0.0000000000000000  0.2734413705455824   T   T   T
  0.9974401025391463  0.5000000000000000  0.2791304515674984   T   T   T
  0.5113590751726328  0.0000000000000000  0.2734411574415804   T   T   T
  0.5025598974608537  0.5000000000000000  0.2791304515674984   T   T   T
  0.2500000000000000  0.2613590751726327  0.2734411574415804   T   T   T
  0.2500000000000000  0.7386409248273672  0.2734411574415804   T   T   T
  0.7500000000000000  0.2525598974608536  0.2791304515674984   T   T   T
  0.7500000000000000  0.7474401025391463  0.2791304515674984   T   T   T
  0.9995968224154037  0.0000000000000000  0.0013981390052863   T   T   T
  0.9999881579032638  0.5000000000000000  0.0019629972421429   T   T   T
  0.5004031775845963  0.0000000000000000  0.0013981390052863   T   T   T
  0.5000118420967362  0.5000000000000000  0.0019629972421429   T   T   T
  0.2500000000000000  0.2504031775845962  0.0013981390052863   T   T   T
  0.2500000000000000  0.7495968224154037  0.0013981390052863   T   T   T
  0.7500000000000000  0.2500118420967362  0.0019629972421429   T   T   T
  0.7500000000000000  0.7499881579032638  0.0019629972421429   T   T   T
  0.2500000000000000  0.0000000000000000  0.0918054857854131   T   T   T
  0.2500000000000000  0.5000000000000000  0.0937505329100345   T   T   T
  0.7500000000000000  0.0000000000000000  0.0937505329100345   T   T   T
  0.7500000000000000  0.5000000000000000  0.0935002540292143   T   T   T
  0.0006129060319434  0.2493870939680566  0.0937422775943168   T   T   T
  0.0006129060319434  0.7506129060319434  0.0937422775943168   T   T   T
  0.4993870939680566  0.2493870939680566  0.0937422775943168   T   T   T
  0.4993870939680566  0.7506129060319434  0.0937422775943168   T   T   T
  0.0050970969899049  0.0000000000000000  0.1844358464791654   T   T   T
  0.0025258187627074  0.5000000000000000  0.1834122291936026   T   T   T
  0.4949029030100951  0.0000000000000000  0.1844358464791654   T   T   T
  0.4974741812372926  0.5000000000000000  0.1834122291936026   T   T   T
  0.2500000000000000  0.2449029030100951  0.1844358464791654   T   T   T
  0.2500000000000000  0.7550970969899049  0.1844358464791654   T   T   T
  0.7500000000000000  0.2474741812372926  0.1834122291936026   T   T   T
  0.7500000000000000  0.7525258187627075  0.1834122291936026   T   T   T
  0.2499999495650016  0.0000000000000000  0.2938901453201635   T   T   T
  0.2500000000000000  0.5000000000000000  0.2755284483388949   T   T   T
  0.7500000000000000  0.0000000000000000  0.2755284483388949   T   T   T
  0.7499998486940029  0.4999998991290013  0.2663852191095541   T   T   T
  0.0052334124409424  0.2447665875590576  0.2746169261996434   T   T   T
  0.0052334124409424  0.7552334124409426  0.2746169261996434   T   T   T
  0.4947665875590576  0.2447665875590576  0.2746169261996434   T   T   T
  0.4947665875590576  0.7552334124409426  0.2746169261996434   T   T   T
  0.7499998486940029  0.4999998991290013  0.3618960729289326   T   T   T
 
  0.00000000E+00  0.00000000E+00  0.00000000E+00
  0.00000000E+00  0.00000000E+00  0.00000000E+00
  0.00000000E+00  0.00000000E+00  0.00000000E+00
  0.00000000E+00  0.00000000E+00  0.00000000E+00
  0.00000000E+00  0.00000000E+00  0.00000000E+00
  0.00000000E+00  0.00000000E+00  0.00000000E+00
  0.00000000E+00  0.00000000E+00  0.00000000E+00
  0.00000000E+00  0.00000000E+00  0.00000000E+00
  0.00000000E+00  0.00000000E+00  0.00000000E+00
  0.00000000E+00  0.00000000E+00  0.00000000E+00
  0.00000000E+00  0.00000000E+00  0.00000000E+00
  0.00000000E+00  0.00000000E+00  0.00000000E+00
  0.00000000E+00  0.00000000E+00  0.00000000E+00
  0.00000000E+00  0.00000000E+00  0.00000000E+00
  0.00000000E+00  0.00000000E+00  0.00000000E+00
  0.00000000E+00  0.00000000E+00  0.00000000E+00
  0.00000000E+00  0.00000000E+00  0.00000000E+00
  0.00000000E+00  0.00000000E+00  0.00000000E+00
  0.00000000E+00  0.00000000E+00  0.00000000E+00
  0.00000000E+00  0.00000000E+00  0.00000000E+00
  0.00000000E+00  0.00000000E+00  0.00000000E+00
  0.00000000E+00  0.00000000E+00  0.00000000E+00
  0.00000000E+00  0.00000000E+00  0.00000000E+00
  0.00000000E+00  0.00000000E+00  0.00000000E+00
  0.00000000E+00  0.00000000E+00  0.00000000E+00
  0.00000000E+00  0.00000000E+00  0.00000000E+00
  0.00000000E+00  0.00000000E+00  0.00000000E+00
  0.00000000E+00  0.00000000E+00  0.00000000E+00
  0.00000000E+00  0.00000000E+00  0.00000000E+00
  0.00000000E+00  0.00000000E+00  0.00000000E+00
  0.00000000E+00  0.00000000E+00  0.00000000E+00
  0.00000000E+00  0.00000000E+00  0.00000000E+00
  0.00000000E+00  0.00000000E+00  0.00000000E+00
  0.00000000E+00  0.00000000E+00  0.00000000E+00
  0.00000000E+00  0.00000000E+00  0.00000000E+00
  0.00000000E+00  0.00000000E+00  0.00000000E+00
  0.00000000E+00  0.00000000E+00  0.00000000E+00
  0.00000000E+00  0.00000000E+00  0.00000000E+00
  0.00000000E+00  0.00000000E+00  0.00000000E+00
  0.00000000E+00  0.00000000E+00  0.00000000E+00
  0.00000000E+00  0.00000000E+00  0.00000000E+00
  0.00000000E+00  0.00000000E+00  0.00000000E+00
  0.00000000E+00  0.00000000E+00  0.00000000E+00
  0.00000000E+00  0.00000000E+00  0.00000000E+00
  0.00000000E+00  0.00000000E+00  0.00000000E+00
  0.00000000E+00  0.00000000E+00  0.00000000E+00
  0.00000000E+00  0.00000000E+00  0.00000000E+00
  0.00000000E+00  0.00000000E+00  0.00000000E+00
  0.00000000E+00  0.00000000E+00  0.00000000E+00
  0.00000000E+00  0.00000000E+00  0.00000000E+00
  0.00000000E+00  0.00000000E+00  0.00000000E+00
  0.00000000E+00  0.00000000E+00  0.00000000E+00
  0.00000000E+00  0.00000000E+00  0.00000000E+00
  0.00000000E+00  0.00000000E+00  0.00000000E+00
  0.00000000E+00  0.00000000E+00  0.00000000E+00
  0.00000000E+00  0.00000000E+00  0.00000000E+00
  0.00000000E+00  0.00000000E+00  0.00000000E+00
  0.00000000E+00  0.00000000E+00  0.00000000E+00
  0.00000000E+00  0.00000000E+00  0.00000000E+00
  0.00000000E+00  0.00000000E+00  0.00000000E+00
  0.00000000E+00  0.00000000E+00  0.00000000E+00
  0.00000000E+00  0.00000000E+00  0.00000000E+00
  0.00000000E+00  0.00000000E+00  0.00000000E+00
  0.00000000E+00  0.00000000E+00  0.00000000E+00
  0.00000000E+00  0.00000000E+00  0.00000000E+00
  0.00000000E+00  0.00000000E+00  0.00000000E+00
