Mo H Mg O                               
   1.00000000000000     
     8.4141216974800006    0.0000000000000000    0.0000000000000000
     0.0000000000000000    8.4141216974800006    0.0000000000000000
     0.0000000000000000    0.0000000000000000   23.4141216974799988
   Mo   H    Mg   O 
     1     1    32    32
Selective dynamics
Direct
  0.7499998486940029  0.4999998991290013  0.3871350952410363   T   T   T
  0.2499999495650016 -0.0000000000000000  0.3356844138288903   T   T   T
  0.2500000000000000 -0.0000000000000000  0.0029636208099280   T   T   T
  0.2500000000000000  0.5000000000000000  0.0034564054823651   T   T   T
  0.7500000000000000 -0.0000000000000000  0.0034564054823651   T   T   T
  0.7500000000000000  0.5000000000000000  0.0039505093672465   T   T   T
  0.9998181245267475  0.2501818754732526  0.0037765532315774   T   T   T
  0.9998181245267475  0.7498181245267475  0.0037765532315774   T   T   T
  0.5001818754732525  0.2501818754732526  0.0037765532315774   T   T   T
  0.5001818754732525  0.7498181245267475  0.0037765532315774   T   T   T
  0.9988833334641793 -0.0000000000000000  0.0927712041054377   T   T   T
 -0.0002397024623715  0.5000000000000000  0.0935636011207903   T   T   T
  0.5011166665358207 -0.0000000000000000  0.0927712041054377   T   T   T
  0.5002397024623714  0.5000000000000000  0.0935636011207903   T   T   T
  0.2500000000000000  0.2511166665358206  0.0927712041054377   T   T   T
  0.2500000000000000  0.7488833334641793  0.0927712041054377   T   T   T
  0.7500000000000000  0.2502397024623715  0.0935636011207903   T   T   T
  0.7500000000000000  0.7497602975376286  0.0935636011207903   T   T   T
  0.2500000000000000 -0.0000000000000000  0.1776336764505893   T   T   T
  0.2500000000000000  0.5000000000000000  0.1838644204292279   T   T   T
  0.7500000000000000 -0.0000000000000000  0.1838644204292279   T   T   T
  0.7500000000000000  0.5000000000000000  0.1839620416381381   T   T   T
  0.9993069017636504  0.2506930982363495  0.1846473837309356   T   T   T
  0.9993069017636504  0.7493069017636504  0.1846473837309356   T   T   T
  0.5006930982363496  0.2506930982363495  0.1846473837309356   T   T   T
  0.5006930982363496  0.7493069017636504  0.1846473837309356   T   T   T
  0.9885871274737947 -0.0000000000000000  0.2741363008208682   T   T   T
  0.9987939601911827  0.5000000000000000  0.2769137230704454   T   T   T
  0.5114128725262053 -0.0000000000000000  0.2741360877168662   T   T   T
  0.5012060398088173  0.5000000000000000  0.2769137230704454   T   T   T
  0.2500000000000000  0.2614128725262053  0.2741360877168662   T   T   T
  0.2500000000000000  0.7385871274737947  0.2741360877168662   T   T   T
  0.7500000000000000  0.2512060398088174  0.2769137230704454   T   T   T
  0.7500000000000000  0.7487939601911827  0.2769137230704454   T   T   T
  0.9997111373057352 -0.0000000000000000  0.0012742647200830   T   T   T
  0.0000965293705825  0.5000000000000000  0.0016995326390063   T   T   T
  0.5002888626942648 -0.0000000000000000  0.0012742647200830   T   T   T
  0.4999034706294174  0.5000000000000000  0.0016995326390063   T   T   T
  0.2500000000000000  0.2502888626942647  0.0012742647200830   T   T   T
  0.2500000000000000  0.7497111373057352  0.0012742647200830   T   T   T
  0.7500000000000000  0.2499034706294175  0.0016995326390063   T   T   T
  0.7500000000000000  0.7500965293705827  0.0016995326390063   T   T   T
  0.2500000000000000 -0.0000000000000000  0.0918818118646882   T   T   T
  0.2500000000000000  0.5000000000000000  0.0936658152538782   T   T   T
  0.7500000000000000 -0.0000000000000000  0.0936658152538782   T   T   T
  0.7500000000000000  0.5000000000000000  0.0934871879647045   T   T   T
  0.0006824283080978  0.2493175716919023  0.0935653120531141   T   T   T
  0.0006824283080978  0.7506824283080981  0.0935653120531141   T   T   T
  0.4993175716919023  0.2493175716919023  0.0935653120531141   T   T   T
  0.4993175716919023  0.7506824283080981  0.0935653120531141   T   T   T
  0.0049753890773880 -0.0000000000000000  0.1843951730298652   T   T   T
  0.0015711559922397  0.5000000000000000  0.1834534085322911   T   T   T
  0.4950246109226120 -0.0000000000000000  0.1843951730298652   T   T   T
  0.4984288440077603  0.5000000000000000  0.1834534085322911   T   T   T
  0.2500000000000000  0.2450246109226121  0.1843951730298652   T   T   T
  0.2500000000000000  0.7549753890773881  0.1843951730298652   T   T   T
  0.7500000000000000  0.2484288440077603  0.1834534085322911   T   T   T
  0.7500000000000000  0.7515711559922396  0.1834534085322911   T   T   T
  0.2499999495650016 -0.0000000000000000  0.2938140818202284   T   T   T
  0.2500000000000000  0.5000000000000000  0.2744112848258165   T   T   T
  0.7500000000000000 -0.0000000000000000  0.2744112848258165   T   T   T
  0.7499998486940029  0.4999998991290013  0.2715856729856984   T   T   T
  0.0045317585933438  0.2454682414066562  0.2743306912831737   T   T   T
  0.0045317585933438  0.7545317585933438  0.2743306912831737   T   T   T
  0.4954682414066563  0.2454682414066562  0.2743306912831737   T   T   T
  0.4954682414066563  0.7545317585933438  0.2743306912831737   T   T   T
 
  0.00000000E+00  0.00000000E+00  0.00000000E+00
  0.00000000E+00  0.00000000E+00  0.00000000E+00
  0.00000000E+00  0.00000000E+00  0.00000000E+00
  0.00000000E+00  0.00000000E+00  0.00000000E+00
  0.00000000E+00  0.00000000E+00  0.00000000E+00
  0.00000000E+00  0.00000000E+00  0.00000000E+00
  0.00000000E+00  0.00000000E+00  0.00000000E+00
  0.00000000E+00  0.00000000E+00  0.00000000E+00
  0.00000000E+00  0.00000000E+00  0.00000000E+00
  0.00000000E+00  0.00000000E+00  0.00000000E+00
  0.00000000E+00  0.00000000E+00  0.00000000E+00
  0.00000000E+00  0.00000000E+00  0.00000000E+00
  0.00000000E+00  0.00000000E+00  0.00000000E+00
  0.00000000E+00  0.00000000E+00  0.00000000E+00
  0.00000000E+00  0.00000000E+00  0.00000000E+00
  0.00000000E+00  0.00000000E+00  0.00000000E+00
  0.00000000E+00  0.00000000E+00  0.00000000E+00
  0.00000000E+00  0.00000000E+00  0.00000000E+00
  0.00000000E+00  0.00000000E+00  0.00000000E+00
  0.00000000E+00  0.00000000E+00  0.00000000E+00
  0.00000000E+00  0.00000000E+00  0.00000000E+00
  0.00000000E+00  0.00000000E+00  0.00000000E+00
  0.00000000E+00  0.00000000E+00  0.00000000E+00
  0.00000000E+00  0.00000000E+00  0.00000000E+00
  0.00000000E+00  0.00000000E+00  0.00000000E+00
  0.00000000E+00  0.00000000E+00  0.00000000E+00
  0.00000000E+00  0.00000000E+00  0.00000000E+00
  0.00000000E+00  0.00000000E+00  0.00000000E+00
  0.00000000E+00  0.00000000E+00  0.00000000E+00
  0.00000000E+00  0.00000000E+00  0.00000000E+00
  0.00000000E+00  0.00000000E+00  0.00000000E+00
  0.00000000E+00  0.00000000E+00  0.00000000E+00
  0.00000000E+00  0.00000000E+00  0.00000000E+00
  0.00000000E+00  0.00000000E+00  0.00000000E+00
  0.00000000E+00  0.00000000E+00  0.00000000E+00
  0.00000000E+00  0.00000000E+00  0.00000000E+00
  0.00000000E+00  0.00000000E+00  0.00000000E+00
  0.00000000E+00  0.00000000E+00  0.00000000E+00
  0.00000000E+00  0.00000000E+00  0.00000000E+00
  0.00000000E+00  0.00000000E+00  0.00000000E+00
  0.00000000E+00  0.00000000E+00  0.00000000E+00
  0.00000000E+00  0.00000000E+00  0.00000000E+00
  0.00000000E+00  0.00000000E+00  0.00000000E+00
  0.00000000E+00  0.00000000E+00  0.00000000E+00
  0.00000000E+00  0.00000000E+00  0.00000000E+00
  0.00000000E+00  0.00000000E+00  0.00000000E+00
  0.00000000E+00  0.00000000E+00  0.00000000E+00
  0.00000000E+00  0.00000000E+00  0.00000000E+00
  0.00000000E+00  0.00000000E+00  0.00000000E+00
  0.00000000E+00  0.00000000E+00  0.00000000E+00
  0.00000000E+00  0.00000000E+00  0.00000000E+00
  0.00000000E+00  0.00000000E+00  0.00000000E+00
  0.00000000E+00  0.00000000E+00  0.00000000E+00
  0.00000000E+00  0.00000000E+00  0.00000000E+00
  0.00000000E+00  0.00000000E+00  0.00000000E+00
  0.00000000E+00  0.00000000E+00  0.00000000E+00
  0.00000000E+00  0.00000000E+00  0.00000000E+00
  0.00000000E+00  0.00000000E+00  0.00000000E+00
  0.00000000E+00  0.00000000E+00  0.00000000E+00
  0.00000000E+00  0.00000000E+00  0.00000000E+00
  0.00000000E+00  0.00000000E+00  0.00000000E+00
  0.00000000E+00  0.00000000E+00  0.00000000E+00
  0.00000000E+00  0.00000000E+00  0.00000000E+00
  0.00000000E+00  0.00000000E+00  0.00000000E+00
  0.00000000E+00  0.00000000E+00  0.00000000E+00
  0.00000000E+00  0.00000000E+00  0.00000000E+00
