H Mg O Ru                               
   1.00000000000000     
     8.4141216974800006    0.0000000000000000    0.0000000000000000
     0.0000000000000000    8.4141216974800006    0.0000000000000000
     0.0000000000000000    0.0000000000000000   23.4141216974799988
   H    Mg   O    Ru
     1    32    32     1
Selective dynamics
Direct
  0.2499999495650016  0.0000000000000000  0.3352873504881105   T   T   T
  0.2500000000000000  0.0000000000000000  0.0029758257907194   T   T   T
  0.2500000000000000  0.5000000000000000  0.0036843685575250   T   T   T
  0.7500000000000000  0.0000000000000000  0.0036843685575250   T   T   T
  0.7500000000000000  0.5000000000000000  0.0042611229206229   T   T   T
  0.9996476099963950  0.2503523900036050  0.0039484515259833   T   T   T
  0.9996476099963950  0.7496476099963950  0.0039484515259833   T   T   T
  0.5003523900036050  0.2503523900036050  0.0039484515259833   T   T   T
  0.5003523900036050  0.7496476099963950  0.0039484515259833   T   T   T
  0.9986727178760512  0.0000000000000000  0.0928054990424454   T   T   T
  0.9998499739567657  0.5000000000000000  0.0939042332400414   T   T   T
  0.5013272821239488  0.0000000000000000  0.0928054990424454   T   T   T
  0.5001500260432343  0.5000000000000000  0.0939042332400414   T   T   T
  0.2500000000000000  0.2513272821239491  0.0928054990424454   T   T   T
  0.2500000000000000  0.7486727178760512  0.0928054990424454   T   T   T
  0.7500000000000000  0.2501500260432341  0.0939042332400414   T   T   T
  0.7500000000000000  0.7498499739567657  0.0939042332400414   T   T   T
  0.2500000000000000  0.0000000000000000  0.1771730024775562   T   T   T
  0.2500000000000000  0.5000000000000000  0.1840930883719961   T   T   T
  0.7500000000000000  0.0000000000000000  0.1840930883719961   T   T   T
  0.7500000000000000  0.5000000000000000  0.1839879859974792   T   T   T
 -0.0014009131986108  0.2514009131986107  0.1849967752903453   T   T   T
 -0.0014009131986108  0.7485990868013889  0.1849967752903453   T   T   T
  0.5014009131986111  0.2514009131986107  0.1849967752903453   T   T   T
  0.5014009131986111  0.7485990868013889  0.1849967752903453   T   T   T
  0.9890950288093384  0.0000000000000000  0.2732801108748146   T   T   T
  0.0001708420383211  0.5000000000000000  0.2790961187853813   T   T   T
  0.5109049711906616  0.0000000000000000  0.2732798977708197   T   T   T
  0.4998291579616789  0.5000000000000000  0.2790961187853813   T   T   T
  0.2500000000000000  0.2609049711906613  0.2732798977708197   T   T   T
  0.2500000000000000  0.7390950288093384  0.2732798977708197   T   T   T
  0.7500000000000000  0.2498291579616790  0.2790961187853813   T   T   T
  0.7500000000000000  0.7501708420383210  0.2790961187853813   T   T   T
  0.9995749860494896  0.0000000000000000  0.0013680365477765   T   T   T
 -0.0000412145574134  0.5000000000000000  0.0019450250549529   T   T   T
  0.5004250139505104  0.0000000000000000  0.0013680365477765   T   T   T
  0.5000412145574132  0.5000000000000000  0.0019450250549529   T   T   T
  0.2500000000000000  0.2504250139505106  0.0013680365477765   T   T   T
  0.2500000000000000  0.7495749860494896  0.0013680365477765   T   T   T
  0.7500000000000000  0.2500412145574135  0.0019450250549529   T   T   T
  0.7500000000000000  0.7499587854425868  0.0019450250549529   T   T   T
  0.2500000000000000  0.0000000000000000  0.0916782984079465   T   T   T
  0.2500000000000000  0.5000000000000000  0.0938601663227423   T   T   T
  0.7500000000000000  0.0000000000000000  0.0938601663227423   T   T   T
  0.7500000000000000  0.5000000000000000  0.0938411009617826   T   T   T
  0.0004899566117042  0.2495100433882957  0.0937177357547244   T   T   T
  0.0004899566117042  0.7504899566117045  0.0937177357547244   T   T   T
  0.4995100433882959  0.2495100433882957  0.0937177357547244   T   T   T
  0.4995100433882959  0.7504899566117045  0.0937177357547244   T   T   T
  0.0049087313986141  0.0000000000000000  0.1841770185817934   T   T   T
  0.0015822984951074  0.5000000000000000  0.1838615585396182   T   T   T
  0.4950912686013859  0.0000000000000000  0.1841770185817934   T   T   T
  0.4984177015048928  0.5000000000000000  0.1838615585396182   T   T   T
  0.2500000000000000  0.2450912686013859  0.1841770185817934   T   T   T
  0.2500000000000000  0.7549087313986144  0.1841770185817934   T   T   T
  0.7500000000000000  0.2484177015048925  0.1838615585396182   T   T   T
  0.7500000000000000  0.7515822984951072  0.1838615585396182   T   T   T
  0.2499999495650016  0.0000000000000000  0.2935409014237296   T   T   T
  0.2500000000000000  0.5000000000000000  0.2750333044098453   T   T   T
  0.7500000000000000  0.0000000000000000  0.2750333044098453   T   T   T
  0.7499998486940029  0.4999998991290013  0.2699971909741211   T   T   T
  0.0060600828496335  0.2439399171503665  0.2743401941625084   T   T   T
  0.0060600828496335  0.7560600828496334  0.2743401941625084   T   T   T
  0.4939399171503664  0.2439399171503665  0.2743401941625084   T   T   T
  0.4939399171503664  0.7560600828496334  0.2743401941625084   T   T   T
  0.7499998486940029  0.4999998991290013  0.3596986466311585   T   T   T
 
  0.00000000E+00  0.00000000E+00  0.00000000E+00
  0.00000000E+00  0.00000000E+00  0.00000000E+00
  0.00000000E+00  0.00000000E+00  0.00000000E+00
  0.00000000E+00  0.00000000E+00  0.00000000E+00
  0.00000000E+00  0.00000000E+00  0.00000000E+00
  0.00000000E+00  0.00000000E+00  0.00000000E+00
  0.00000000E+00  0.00000000E+00  0.00000000E+00
  0.00000000E+00  0.00000000E+00  0.00000000E+00
  0.00000000E+00  0.00000000E+00  0.00000000E+00
  0.00000000E+00  0.00000000E+00  0.00000000E+00
  0.00000000E+00  0.00000000E+00  0.00000000E+00
  0.00000000E+00  0.00000000E+00  0.00000000E+00
  0.00000000E+00  0.00000000E+00  0.00000000E+00
  0.00000000E+00  0.00000000E+00  0.00000000E+00
  0.00000000E+00  0.00000000E+00  0.00000000E+00
  0.00000000E+00  0.00000000E+00  0.00000000E+00
  0.00000000E+00  0.00000000E+00  0.00000000E+00
  0.00000000E+00  0.00000000E+00  0.00000000E+00
  0.00000000E+00  0.00000000E+00  0.00000000E+00
  0.00000000E+00  0.00000000E+00  0.00000000E+00
  0.00000000E+00  0.00000000E+00  0.00000000E+00
  0.00000000E+00  0.00000000E+00  0.00000000E+00
  0.00000000E+00  0.00000000E+00  0.00000000E+00
  0.00000000E+00  0.00000000E+00  0.00000000E+00
  0.00000000E+00  0.00000000E+00  0.00000000E+00
  0.00000000E+00  0.00000000E+00  0.00000000E+00
  0.00000000E+00  0.00000000E+00  0.00000000E+00
  0.00000000E+00  0.00000000E+00  0.00000000E+00
  0.00000000E+00  0.00000000E+00  0.00000000E+00
  0.00000000E+00  0.00000000E+00  0.00000000E+00
  0.00000000E+00  0.00000000E+00  0.00000000E+00
  0.00000000E+00  0.00000000E+00  0.00000000E+00
  0.00000000E+00  0.00000000E+00  0.00000000E+00
  0.00000000E+00  0.00000000E+00  0.00000000E+00
  0.00000000E+00  0.00000000E+00  0.00000000E+00
  0.00000000E+00  0.00000000E+00  0.00000000E+00
  0.00000000E+00  0.00000000E+00  0.00000000E+00
  0.00000000E+00  0.00000000E+00  0.00000000E+00
  0.00000000E+00  0.00000000E+00  0.00000000E+00
  0.00000000E+00  0.00000000E+00  0.00000000E+00
  0.00000000E+00  0.00000000E+00  0.00000000E+00
  0.00000000E+00  0.00000000E+00  0.00000000E+00
  0.00000000E+00  0.00000000E+00  0.00000000E+00
  0.00000000E+00  0.00000000E+00  0.00000000E+00
  0.00000000E+00  0.00000000E+00  0.00000000E+00
  0.00000000E+00  0.00000000E+00  0.00000000E+00
  0.00000000E+00  0.00000000E+00  0.00000000E+00
  0.00000000E+00  0.00000000E+00  0.00000000E+00
  0.00000000E+00  0.00000000E+00  0.00000000E+00
  0.00000000E+00  0.00000000E+00  0.00000000E+00
  0.00000000E+00  0.00000000E+00  0.00000000E+00
  0.00000000E+00  0.00000000E+00  0.00000000E+00
  0.00000000E+00  0.00000000E+00  0.00000000E+00
  0.00000000E+00  0.00000000E+00  0.00000000E+00
  0.00000000E+00  0.00000000E+00  0.00000000E+00
  0.00000000E+00  0.00000000E+00  0.00000000E+00
  0.00000000E+00  0.00000000E+00  0.00000000E+00
  0.00000000E+00  0.00000000E+00  0.00000000E+00
  0.00000000E+00  0.00000000E+00  0.00000000E+00
  0.00000000E+00  0.00000000E+00  0.00000000E+00
  0.00000000E+00  0.00000000E+00  0.00000000E+00
  0.00000000E+00  0.00000000E+00  0.00000000E+00
  0.00000000E+00  0.00000000E+00  0.00000000E+00
  0.00000000E+00  0.00000000E+00  0.00000000E+00
  0.00000000E+00  0.00000000E+00  0.00000000E+00
  0.00000000E+00  0.00000000E+00  0.00000000E+00
