Nb H Mg O                               
   1.00000000000000     
     8.4141216974800006    0.0000000000000000    0.0000000000000000
     0.0000000000000000    8.4141216974800006    0.0000000000000000
     0.0000000000000000    0.0000000000000000   23.4141216974799988
   Nb   H    Mg   O 
     1     1    32    32
Selective dynamics
Direct
  0.7499998486940029  0.4999998991290013  0.3715731114777151   T   T   T
  0.2499999495650016 -0.0000000000000000  0.3356152876975442   T   T   T
  0.2500000000000000 -0.0000000000000000  0.0028662719017003   T   T   T
  0.2500000000000000  0.5000000000000000  0.0036589058257546   T   T   T
  0.7500000000000000 -0.0000000000000000  0.0036589058257546   T   T   T
  0.7500000000000000  0.5000000000000000  0.0043533029563945   T   T   T
  0.9996148746741553  0.2503851253258450  0.0039351655606868   T   T   T
  0.9996148746741553  0.7496148746741553  0.0039351655606868   T   T   T
  0.5003851253258447  0.2503851253258450  0.0039351655606868   T   T   T
  0.5003851253258447  0.7496148746741553  0.0039351655606868   T   T   T
  0.9987146043791952 -0.0000000000000000  0.0927569269484499   T   T   T
 -0.0006839693106042  0.5000000000000000  0.0939936027893741   T   T   T
  0.5012853956208048 -0.0000000000000000  0.0927569269484499   T   T   T
  0.5006839693106042  0.5000000000000000  0.0939936027893741   T   T   T
  0.2500000000000000  0.2512853956208050  0.0927569269484499   T   T   T
  0.2500000000000000  0.7487146043791952  0.0927569269484499   T   T   T
  0.7500000000000000  0.2506839693106043  0.0939936027893741   T   T   T
  0.7500000000000000  0.7493160306893959  0.0939936027893741   T   T   T
  0.2500000000000000 -0.0000000000000000  0.1771435592497368   T   T   T
  0.2500000000000000  0.5000000000000000  0.1839811961114391   T   T   T
  0.7500000000000000 -0.0000000000000000  0.1839811961114391   T   T   T
  0.7500000000000000  0.5000000000000000  0.1854615955469949   T   T   T
  0.9991947951548634  0.2508052048451370  0.1848747838598595   T   T   T
  0.9991947951548634  0.7491947951548634  0.1848747838598595   T   T   T
  0.5008052048451366  0.2508052048451370  0.1848747838598595   T   T   T
  0.5008052048451366  0.7491947951548634  0.1848747838598595   T   T   T
  0.9899328081789693 -0.0000000000000000  0.2738709560215867   T   T   T
  0.0034969846480000  0.5000000000000000  0.2781373521931830   T   T   T
  0.5100671918210307 -0.0000000000000000  0.2738707429175847   T   T   T
  0.4965030153520000  0.5000000000000000  0.2781373521931830   T   T   T
  0.2500000000000000  0.2600671918210304  0.2738707429175847   T   T   T
  0.2500000000000000  0.7399328081789693  0.2738707429175847   T   T   T
  0.7500000000000000  0.2465030153520000  0.2781373521931830   T   T   T
  0.7500000000000000  0.7534969846480000  0.2781373521931830   T   T   T
  0.9995046638948865 -0.0000000000000000  0.0013218704918422   T   T   T
 -0.0000658274208997  0.5000000000000000  0.0019799051251172   T   T   T
  0.5004953361051135  0.0000000000000000  0.0013218704918422   T   T   T
  0.5000658274208994  0.5000000000000000  0.0019799051251172   T   T   T
  0.2500000000000000  0.2504953361051135  0.0013218704918422   T   T   T
  0.2500000000000000  0.7495046638948865  0.0013218704918422   T   T   T
  0.7500000000000000  0.2500658274208997  0.0019799051251172   T   T   T
  0.7500000000000000  0.7499341725791006  0.0019799051251172   T   T   T
  0.2500000000000000 -0.0000000000000000  0.0915823116587823   T   T   T
  0.2500000000000000  0.5000000000000000  0.0939746509804225   T   T   T
  0.7500000000000000 -0.0000000000000000  0.0939746509804225   T   T   T
  0.7500000000000000  0.5000000000000000  0.0940973076304127   T   T   T
  0.0003827142569485  0.2496172857430514  0.0937406184204252   T   T   T
  0.0003827142569485  0.7503827142569485  0.0937406184204252   T   T   T
  0.4996172857430513  0.2496172857430514  0.0937406184204252   T   T   T
  0.4996172857430513  0.7503827142569485  0.0937406184204252   T   T   T
  0.0047607116996393  0.0000000000000000  0.1840321942147188   T   T   T
  0.0004276564408560  0.5000000000000000  0.1843263835051492   T   T   T
  0.4952392883003608 -0.0000000000000000  0.1840321942147188   T   T   T
  0.4995723435591443  0.5000000000000000  0.1843263835051492   T   T   T
  0.2500000000000000  0.2452392883003607  0.1840321942147188   T   T   T
  0.2500000000000000  0.7547607116996394  0.1840321942147188   T   T   T
  0.7500000000000000  0.2495723435591439  0.1843263835051492   T   T   T
  0.7500000000000000  0.7504276564408557  0.1843263835051492   T   T   T
  0.2499999495650016 -0.0000000000000000  0.2937594163189736   T   T   T
  0.2500000000000000  0.5000000000000000  0.2742887421551158   T   T   T
  0.7500000000000000 -0.0000000000000000  0.2742887421551158   T   T   T
  0.7499998486940029  0.4999998991290013  0.2757288198220005   T   T   T
  0.0057241389899027  0.2442758610100973  0.2737838865941966   T   T   T
  0.0057241389899027  0.7557241389899026  0.2737838865941966   T   T   T
  0.4942758610100974  0.2442758610100973  0.2737838865941966   T   T   T
  0.4942758610100974  0.7557241389899026  0.2737838865941966   T   T   T
 
  0.00000000E+00  0.00000000E+00  0.00000000E+00
  0.00000000E+00  0.00000000E+00  0.00000000E+00
  0.00000000E+00  0.00000000E+00  0.00000000E+00
  0.00000000E+00  0.00000000E+00  0.00000000E+00
  0.00000000E+00  0.00000000E+00  0.00000000E+00
  0.00000000E+00  0.00000000E+00  0.00000000E+00
  0.00000000E+00  0.00000000E+00  0.00000000E+00
  0.00000000E+00  0.00000000E+00  0.00000000E+00
  0.00000000E+00  0.00000000E+00  0.00000000E+00
  0.00000000E+00  0.00000000E+00  0.00000000E+00
  0.00000000E+00  0.00000000E+00  0.00000000E+00
  0.00000000E+00  0.00000000E+00  0.00000000E+00
  0.00000000E+00  0.00000000E+00  0.00000000E+00
  0.00000000E+00  0.00000000E+00  0.00000000E+00
  0.00000000E+00  0.00000000E+00  0.00000000E+00
  0.00000000E+00  0.00000000E+00  0.00000000E+00
  0.00000000E+00  0.00000000E+00  0.00000000E+00
  0.00000000E+00  0.00000000E+00  0.00000000E+00
  0.00000000E+00  0.00000000E+00  0.00000000E+00
  0.00000000E+00  0.00000000E+00  0.00000000E+00
  0.00000000E+00  0.00000000E+00  0.00000000E+00
  0.00000000E+00  0.00000000E+00  0.00000000E+00
  0.00000000E+00  0.00000000E+00  0.00000000E+00
  0.00000000E+00  0.00000000E+00  0.00000000E+00
  0.00000000E+00  0.00000000E+00  0.00000000E+00
  0.00000000E+00  0.00000000E+00  0.00000000E+00
  0.00000000E+00  0.00000000E+00  0.00000000E+00
  0.00000000E+00  0.00000000E+00  0.00000000E+00
  0.00000000E+00  0.00000000E+00  0.00000000E+00
  0.00000000E+00  0.00000000E+00  0.00000000E+00
  0.00000000E+00  0.00000000E+00  0.00000000E+00
  0.00000000E+00  0.00000000E+00  0.00000000E+00
  0.00000000E+00  0.00000000E+00  0.00000000E+00
  0.00000000E+00  0.00000000E+00  0.00000000E+00
  0.00000000E+00  0.00000000E+00  0.00000000E+00
  0.00000000E+00  0.00000000E+00  0.00000000E+00
  0.00000000E+00  0.00000000E+00  0.00000000E+00
  0.00000000E+00  0.00000000E+00  0.00000000E+00
  0.00000000E+00  0.00000000E+00  0.00000000E+00
  0.00000000E+00  0.00000000E+00  0.00000000E+00
  0.00000000E+00  0.00000000E+00  0.00000000E+00
  0.00000000E+00  0.00000000E+00  0.00000000E+00
  0.00000000E+00  0.00000000E+00  0.00000000E+00
  0.00000000E+00  0.00000000E+00  0.00000000E+00
  0.00000000E+00  0.00000000E+00  0.00000000E+00
  0.00000000E+00  0.00000000E+00  0.00000000E+00
  0.00000000E+00  0.00000000E+00  0.00000000E+00
  0.00000000E+00  0.00000000E+00  0.00000000E+00
  0.00000000E+00  0.00000000E+00  0.00000000E+00
  0.00000000E+00  0.00000000E+00  0.00000000E+00
  0.00000000E+00  0.00000000E+00  0.00000000E+00
  0.00000000E+00  0.00000000E+00  0.00000000E+00
  0.00000000E+00  0.00000000E+00  0.00000000E+00
  0.00000000E+00  0.00000000E+00  0.00000000E+00
  0.00000000E+00  0.00000000E+00  0.00000000E+00
  0.00000000E+00  0.00000000E+00  0.00000000E+00
  0.00000000E+00  0.00000000E+00  0.00000000E+00
  0.00000000E+00  0.00000000E+00  0.00000000E+00
  0.00000000E+00  0.00000000E+00  0.00000000E+00
  0.00000000E+00  0.00000000E+00  0.00000000E+00
  0.00000000E+00  0.00000000E+00  0.00000000E+00
  0.00000000E+00  0.00000000E+00  0.00000000E+00
  0.00000000E+00  0.00000000E+00  0.00000000E+00
  0.00000000E+00  0.00000000E+00  0.00000000E+00
  0.00000000E+00  0.00000000E+00  0.00000000E+00
  0.00000000E+00  0.00000000E+00  0.00000000E+00
