Cu H Mg O                               
   1.00000000000000     
     8.4141216974800006    0.0000000000000000    0.0000000000000000
     0.0000000000000000    8.4141216974800006    0.0000000000000000
     0.0000000000000000    0.0000000000000000   23.4141216974799988
   Cu   H    Mg   O 
     1     1    32    32
Selective dynamics
Direct
  0.7499998486940029  0.4999998991290013  0.3787054387733407   T   T   T
  0.2499999495650016  0.0000000000000000  0.3356022150812225   T   T   T
  0.2500000000000000  0.0000000000000000  0.0028289162524238   T   T   T
  0.2500000000000000  0.5000000000000000  0.0033935204133498   T   T   T
  0.7500000000000000  0.0000000000000000  0.0033935204133498   T   T   T
  0.7500000000000000  0.5000000000000000  0.0038391489867462   T   T   T
  0.9997950117609732  0.2502049882390270  0.0036714684609004   T   T   T
  0.9997950117609732  0.7497950117609732  0.0036714684609004   T   T   T
  0.5002049882390268  0.2502049882390270  0.0036714684609004   T   T   T
  0.5002049882390268  0.7497950117609732  0.0036714684609004   T   T   T
  0.9986754171746475  0.0000000000000000  0.0926395586242636   T   T   T
  0.0002292989077139  0.5000000000000000  0.0934373169229470   T   T   T
  0.5013245828253525  0.0000000000000000  0.0926395586242636   T   T   T
  0.4997707010922858  0.5000000000000000  0.0934373169229470   T   T   T
  0.2500000000000000  0.2513245828253522  0.0926395586242636   T   T   T
  0.2500000000000000  0.7486754171746475  0.0926395586242636   T   T   T
  0.7500000000000000  0.2497707010922860  0.0934373169229470   T   T   T
  0.7500000000000000  0.7502292989077141  0.0934373169229470   T   T   T
  0.2500000000000000  0.0000000000000000  0.1773080953506051   T   T   T
  0.2500000000000000  0.5000000000000000  0.1839351099083948   T   T   T
  0.7500000000000000  0.0000000000000000  0.1839351099083948   T   T   T
  0.7500000000000000  0.5000000000000000  0.1825603008417432   T   T   T
  0.9985885714780538  0.2514114285219464  0.1846737218692668   T   T   T
  0.9985885714780538  0.7485885714780538  0.1846737218692668   T   T   T
  0.5014114285219462  0.2514114285219464  0.1846737218692668   T   T   T
  0.5014114285219462  0.7485885714780538  0.1846737218692668   T   T   T
  0.9880115705741735  0.0000000000000000  0.2735852011627537   T   T   T
  0.9949496170115792  0.5000000000000000  0.2778928674862106   T   T   T
  0.5119884294258265  0.0000000000000000  0.2735849880587517   T   T   T
  0.5050503829884208  0.5000000000000000  0.2778928674862106   T   T   T
  0.2500000000000000  0.2619884294258268  0.2735849880587517   T   T   T
  0.2500000000000000  0.7380115705741735  0.2735849880587517   T   T   T
  0.7500000000000000  0.2550503829884209  0.2778928674862106   T   T   T
  0.7500000000000000  0.7449496170115792  0.2778928674862106   T   T   T
  0.9996985711932499  0.0000000000000000  0.0011312102193531   T   T   T
 -0.0000169287562779  0.5000000000000000  0.0015751584149808   T   T   T
  0.5003014288067501  0.0000000000000000  0.0011312102193531   T   T   T
  0.5000169287562778  0.5000000000000000  0.0015751584149808   T   T   T
  0.2500000000000000  0.2503014288067504  0.0011312102193531   T   T   T
  0.2500000000000000  0.7496985711932499  0.0011312102193531   T   T   T
  0.7500000000000000  0.2500169287562776  0.0015751584149808   T   T   T
  0.7500000000000000  0.7499830712437222  0.0015751584149808   T   T   T
  0.2500000000000000  0.0000000000000000  0.0917237222666652   T   T   T
  0.2500000000000000  0.5000000000000000  0.0934240716659250   T   T   T
  0.7500000000000000  0.0000000000000000  0.0934240716659250   T   T   T
  0.7500000000000000  0.5000000000000000  0.0932046392766293   T   T   T
  0.0007606620723516  0.2492393379276484  0.0934309153505866   T   T   T
  0.0007606620723516  0.7507606620723518  0.0934309153505866   T   T   T
  0.4992393379276483  0.2492393379276484  0.0934309153505866   T   T   T
  0.4992393379276483  0.7507606620723518  0.0934309153505866   T   T   T
  0.0052059425244861  0.0000000000000000  0.1844776098882194   T   T   T
  0.0029098854696110  0.5000000000000000  0.1830335146291384   T   T   T
  0.4947940574755139  0.0000000000000000  0.1844776098882194   T   T   T
  0.4970901145303889  0.5000000000000000  0.1830335146291384   T   T   T
  0.2500000000000000  0.2447940574755139  0.1844776098882194   T   T   T
  0.2500000000000000  0.7552059425244860  0.1844776098882194   T   T   T
  0.7500000000000000  0.2470901145303890  0.1830335146291384   T   T   T
  0.7500000000000000  0.7529098854696107  0.1830335146291384   T   T   T
  0.2499999495650016  0.0000000000000000  0.2938066534892458   T   T   T
  0.2500000000000000  0.5000000000000000  0.2751246022573148   T   T   T
  0.7500000000000000  0.0000000000000000  0.2751246022573148   T   T   T
  0.7499998486940029  0.4999998991290013  0.2675607375203948   T   T   T
  0.0041436422792065  0.2458563577207935  0.2748481894298797   T   T   T
  0.0041436422792065  0.7541436422792062  0.2748481894298797   T   T   T
  0.4958563577207935  0.2458563577207935  0.2748481894298797   T   T   T
  0.4958563577207935  0.7541436422792062  0.2748481894298797   T   T   T
 
  0.00000000E+00  0.00000000E+00  0.00000000E+00
  0.00000000E+00  0.00000000E+00  0.00000000E+00
  0.00000000E+00  0.00000000E+00  0.00000000E+00
  0.00000000E+00  0.00000000E+00  0.00000000E+00
  0.00000000E+00  0.00000000E+00  0.00000000E+00
  0.00000000E+00  0.00000000E+00  0.00000000E+00
  0.00000000E+00  0.00000000E+00  0.00000000E+00
  0.00000000E+00  0.00000000E+00  0.00000000E+00
  0.00000000E+00  0.00000000E+00  0.00000000E+00
  0.00000000E+00  0.00000000E+00  0.00000000E+00
  0.00000000E+00  0.00000000E+00  0.00000000E+00
  0.00000000E+00  0.00000000E+00  0.00000000E+00
  0.00000000E+00  0.00000000E+00  0.00000000E+00
  0.00000000E+00  0.00000000E+00  0.00000000E+00
  0.00000000E+00  0.00000000E+00  0.00000000E+00
  0.00000000E+00  0.00000000E+00  0.00000000E+00
  0.00000000E+00  0.00000000E+00  0.00000000E+00
  0.00000000E+00  0.00000000E+00  0.00000000E+00
  0.00000000E+00  0.00000000E+00  0.00000000E+00
  0.00000000E+00  0.00000000E+00  0.00000000E+00
  0.00000000E+00  0.00000000E+00  0.00000000E+00
  0.00000000E+00  0.00000000E+00  0.00000000E+00
  0.00000000E+00  0.00000000E+00  0.00000000E+00
  0.00000000E+00  0.00000000E+00  0.00000000E+00
  0.00000000E+00  0.00000000E+00  0.00000000E+00
  0.00000000E+00  0.00000000E+00  0.00000000E+00
  0.00000000E+00  0.00000000E+00  0.00000000E+00
  0.00000000E+00  0.00000000E+00  0.00000000E+00
  0.00000000E+00  0.00000000E+00  0.00000000E+00
  0.00000000E+00  0.00000000E+00  0.00000000E+00
  0.00000000E+00  0.00000000E+00  0.00000000E+00
  0.00000000E+00  0.00000000E+00  0.00000000E+00
  0.00000000E+00  0.00000000E+00  0.00000000E+00
  0.00000000E+00  0.00000000E+00  0.00000000E+00
  0.00000000E+00  0.00000000E+00  0.00000000E+00
  0.00000000E+00  0.00000000E+00  0.00000000E+00
  0.00000000E+00  0.00000000E+00  0.00000000E+00
  0.00000000E+00  0.00000000E+00  0.00000000E+00
  0.00000000E+00  0.00000000E+00  0.00000000E+00
  0.00000000E+00  0.00000000E+00  0.00000000E+00
  0.00000000E+00  0.00000000E+00  0.00000000E+00
  0.00000000E+00  0.00000000E+00  0.00000000E+00
  0.00000000E+00  0.00000000E+00  0.00000000E+00
  0.00000000E+00  0.00000000E+00  0.00000000E+00
  0.00000000E+00  0.00000000E+00  0.00000000E+00
  0.00000000E+00  0.00000000E+00  0.00000000E+00
  0.00000000E+00  0.00000000E+00  0.00000000E+00
  0.00000000E+00  0.00000000E+00  0.00000000E+00
  0.00000000E+00  0.00000000E+00  0.00000000E+00
  0.00000000E+00  0.00000000E+00  0.00000000E+00
  0.00000000E+00  0.00000000E+00  0.00000000E+00
  0.00000000E+00  0.00000000E+00  0.00000000E+00
  0.00000000E+00  0.00000000E+00  0.00000000E+00
  0.00000000E+00  0.00000000E+00  0.00000000E+00
  0.00000000E+00  0.00000000E+00  0.00000000E+00
  0.00000000E+00  0.00000000E+00  0.00000000E+00
  0.00000000E+00  0.00000000E+00  0.00000000E+00
  0.00000000E+00  0.00000000E+00  0.00000000E+00
  0.00000000E+00  0.00000000E+00  0.00000000E+00
  0.00000000E+00  0.00000000E+00  0.00000000E+00
  0.00000000E+00  0.00000000E+00  0.00000000E+00
  0.00000000E+00  0.00000000E+00  0.00000000E+00
  0.00000000E+00  0.00000000E+00  0.00000000E+00
  0.00000000E+00  0.00000000E+00  0.00000000E+00
  0.00000000E+00  0.00000000E+00  0.00000000E+00
  0.00000000E+00  0.00000000E+00  0.00000000E+00
