Cr H Mg O                               
   1.00000000000000     
     8.4141216974800006    0.0000000000000000    0.0000000000000000
     0.0000000000000000    8.4141216974800006    0.0000000000000000
     0.0000000000000000    0.0000000000000000   23.4141216974799988
   Cr   H    Mg   O 
     1     1    32    32
Selective dynamics
Direct
  0.7499998486940029  0.4999998991290013  0.3837474645838528   T   T   T
  0.2499999495650016  0.0000000000000000  0.3350590347130885   T   T   T
  0.2500000000000000  0.0000000000000000  0.0029010548373058   T   T   T
  0.2500000000000000  0.5000000000000000  0.0036332651469804   T   T   T
  0.7500000000000000  0.0000000000000000  0.0036332651469804   T   T   T
  0.7500000000000000  0.5000000000000000  0.0042752836417963   T   T   T
  0.9997079456726565  0.2502920543273435  0.0039276841969985   T   T   T
  0.9997079456726565  0.7497079456726565  0.0039276841969985   T   T   T
  0.5002920543273435  0.2502920543273435  0.0039276841969985   T   T   T
  0.5002920543273435  0.7497079456726565  0.0039276841969985   T   T   T
  0.9986494299964572  0.0000000000000000  0.0926892682252493   T   T   T
  0.9997429955043385  0.5000000000000000  0.0937630536713352   T   T   T
  0.5013505700035428  0.0000000000000000  0.0926892682252493   T   T   T
  0.5002570044956615  0.5000000000000000  0.0937630536713352   T   T   T
  0.2500000000000000  0.2513505700035428  0.0926892682252493   T   T   T
  0.2500000000000000  0.7486494299964572  0.0926892682252493   T   T   T
  0.7500000000000000  0.2502570044956615  0.0937630536713352   T   T   T
  0.7500000000000000  0.7497429955043385  0.0937630536713352   T   T   T
  0.2500000000000000  0.0000000000000000  0.1772300315784897   T   T   T
  0.2500000000000000  0.5000000000000000  0.1839018444870349   T   T   T
  0.7500000000000000  0.0000000000000000  0.1839018444870349   T   T   T
  0.7500000000000000  0.5000000000000000  0.1841732707846976   T   T   T
 -0.0009554914869388  0.2509554914869390  0.1846468819133632   T   T   T
 -0.0009554914869388  0.7490445085130610  0.1846468819133632   T   T   T
  0.5009554914869390  0.2509554914869390  0.1846468819133632   T   T   T
  0.5009554914869390  0.7490445085130610  0.1846468819133632   T   T   T
  0.9886736506388618  0.0000000000000000  0.2737634376876513   T   T   T
 -0.0015747253062150  0.5000000000000000  0.2772953001020219   T   T   T
  0.5113263493611382  0.0000000000000000  0.2737632245836493   T   T   T
  0.5015747253062149  0.5000000000000000  0.2772953001020219   T   T   T
  0.2500000000000000  0.2613263493611380  0.2737632245836493   T   T   T
  0.2500000000000000  0.7386736506388618  0.2737632245836493   T   T   T
  0.7500000000000000  0.2515747253062151  0.2772953001020219   T   T   T
  0.7500000000000000  0.7484252746937849  0.2772953001020219   T   T   T
  0.9994743487940664  0.0000000000000000  0.0013710013076570   T   T   T
 -0.0001159899999500  0.5000000000000000  0.0019433279449416   T   T   T
  0.5005256512059336  0.0000000000000000  0.0013710013076570   T   T   T
  0.5001159899999500  0.5000000000000000  0.0019433279449416   T   T   T
  0.2500000000000000  0.2505256512059405  0.0013710013076570   T   T   T
  0.2500000000000000  0.7494743487940664  0.0013710013076570   T   T   T
  0.7500000000000000  0.2501159899999500  0.0019433279449416   T   T   T
  0.7500000000000000  0.7498840100000500  0.0019433279449416   T   T   T
  0.2500000000000000  0.0000000000000000  0.0917421191191567   T   T   T
  0.2500000000000000  0.5000000000000000  0.0937923318253849   T   T   T
  0.7500000000000000  0.0000000000000000  0.0937923318253849   T   T   T
  0.7500000000000000  0.5000000000000000  0.0937660699056452   T   T   T
  0.0005681416711538  0.2494318583288461  0.0936754198902685   T   T   T
  0.0005681416711538  0.7505681416711535  0.0936754198902685   T   T   T
  0.4994318583288462  0.2494318583288461  0.0936754198902685   T   T   T
  0.4994318583288462  0.7505681416711535  0.0936754198902685   T   T   T
  0.0050111049567266  0.0000000000000000  0.1842427342984218   T   T   T
  0.0016656757836076  0.5000000000000000  0.1835920506406566   T   T   T
  0.4949888950432734  0.0000000000000000  0.1842427342984218   T   T   T
  0.4983343242163924  0.5000000000000000  0.1835920506406566   T   T   T
  0.2500000000000000  0.2449888950432733  0.1842427342984218   T   T   T
  0.2500000000000000  0.7550111049567266  0.1842427342984218   T   T   T
  0.7500000000000000  0.2483343242163924  0.1835920506406566   T   T   T
  0.7500000000000000  0.7516656757836077  0.1835920506406566   T   T   T
  0.2499999495650016  0.0000000000000000  0.2931755465622711   T   T   T
  0.2500000000000000  0.5000000000000000  0.2745228318138724   T   T   T
  0.7500000000000000  0.0000000000000000  0.2745228318138724   T   T   T
  0.7499998486940029  0.4999998991290013  0.2720224254386108   T   T   T
  0.0043631964313088  0.2456368035686912  0.2743922675195964   T   T   T
  0.0043631964313088  0.7543631964313091  0.2743922675195964   T   T   T
  0.4956368035686912  0.2456368035686912  0.2743922675195964   T   T   T
  0.4956368035686912  0.7543631964313091  0.2743922675195964   T   T   T
 
  0.00000000E+00  0.00000000E+00  0.00000000E+00
  0.00000000E+00  0.00000000E+00  0.00000000E+00
  0.00000000E+00  0.00000000E+00  0.00000000E+00
  0.00000000E+00  0.00000000E+00  0.00000000E+00
  0.00000000E+00  0.00000000E+00  0.00000000E+00
  0.00000000E+00  0.00000000E+00  0.00000000E+00
  0.00000000E+00  0.00000000E+00  0.00000000E+00
  0.00000000E+00  0.00000000E+00  0.00000000E+00
  0.00000000E+00  0.00000000E+00  0.00000000E+00
  0.00000000E+00  0.00000000E+00  0.00000000E+00
  0.00000000E+00  0.00000000E+00  0.00000000E+00
  0.00000000E+00  0.00000000E+00  0.00000000E+00
  0.00000000E+00  0.00000000E+00  0.00000000E+00
  0.00000000E+00  0.00000000E+00  0.00000000E+00
  0.00000000E+00  0.00000000E+00  0.00000000E+00
  0.00000000E+00  0.00000000E+00  0.00000000E+00
  0.00000000E+00  0.00000000E+00  0.00000000E+00
  0.00000000E+00  0.00000000E+00  0.00000000E+00
  0.00000000E+00  0.00000000E+00  0.00000000E+00
  0.00000000E+00  0.00000000E+00  0.00000000E+00
  0.00000000E+00  0.00000000E+00  0.00000000E+00
  0.00000000E+00  0.00000000E+00  0.00000000E+00
  0.00000000E+00  0.00000000E+00  0.00000000E+00
  0.00000000E+00  0.00000000E+00  0.00000000E+00
  0.00000000E+00  0.00000000E+00  0.00000000E+00
  0.00000000E+00  0.00000000E+00  0.00000000E+00
  0.00000000E+00  0.00000000E+00  0.00000000E+00
  0.00000000E+00  0.00000000E+00  0.00000000E+00
  0.00000000E+00  0.00000000E+00  0.00000000E+00
  0.00000000E+00  0.00000000E+00  0.00000000E+00
  0.00000000E+00  0.00000000E+00  0.00000000E+00
  0.00000000E+00  0.00000000E+00  0.00000000E+00
  0.00000000E+00  0.00000000E+00  0.00000000E+00
  0.00000000E+00  0.00000000E+00  0.00000000E+00
  0.00000000E+00  0.00000000E+00  0.00000000E+00
  0.00000000E+00  0.00000000E+00  0.00000000E+00
  0.00000000E+00  0.00000000E+00  0.00000000E+00
  0.00000000E+00  0.00000000E+00  0.00000000E+00
  0.00000000E+00  0.00000000E+00  0.00000000E+00
  0.00000000E+00  0.00000000E+00  0.00000000E+00
  0.00000000E+00  0.00000000E+00  0.00000000E+00
  0.00000000E+00  0.00000000E+00  0.00000000E+00
  0.00000000E+00  0.00000000E+00  0.00000000E+00
  0.00000000E+00  0.00000000E+00  0.00000000E+00
  0.00000000E+00  0.00000000E+00  0.00000000E+00
  0.00000000E+00  0.00000000E+00  0.00000000E+00
  0.00000000E+00  0.00000000E+00  0.00000000E+00
  0.00000000E+00  0.00000000E+00  0.00000000E+00
  0.00000000E+00  0.00000000E+00  0.00000000E+00
  0.00000000E+00  0.00000000E+00  0.00000000E+00
  0.00000000E+00  0.00000000E+00  0.00000000E+00
  0.00000000E+00  0.00000000E+00  0.00000000E+00
  0.00000000E+00  0.00000000E+00  0.00000000E+00
  0.00000000E+00  0.00000000E+00  0.00000000E+00
  0.00000000E+00  0.00000000E+00  0.00000000E+00
  0.00000000E+00  0.00000000E+00  0.00000000E+00
  0.00000000E+00  0.00000000E+00  0.00000000E+00
  0.00000000E+00  0.00000000E+00  0.00000000E+00
  0.00000000E+00  0.00000000E+00  0.00000000E+00
  0.00000000E+00  0.00000000E+00  0.00000000E+00
  0.00000000E+00  0.00000000E+00  0.00000000E+00
  0.00000000E+00  0.00000000E+00  0.00000000E+00
  0.00000000E+00  0.00000000E+00  0.00000000E+00
  0.00000000E+00  0.00000000E+00  0.00000000E+00
  0.00000000E+00  0.00000000E+00  0.00000000E+00
  0.00000000E+00  0.00000000E+00  0.00000000E+00
