Zn H Mg O                               
   1.00000000000000     
     8.4141216974800006    0.0000000000000000    0.0000000000000000
     0.0000000000000000    8.4141216974800006    0.0000000000000000
     0.0000000000000000    0.0000000000000000   23.4141216974799988
   Zn   H    Mg   O 
     1     1    32    32
Selective dynamics
Direct
  0.7499998486940029  0.4999998991290013  0.4010676139175136   T   T   T
  0.2499999495650016 -0.0000000000000000  0.3309772926622749   T   T   T
  0.2500000000000000 -0.0000000000000000  0.0030095754713967   T   T   T
  0.2500000000000000  0.5000000000000000  0.0033377201174114   T   T   T
  0.7500000000000000 -0.0000000000000000  0.0033377201174114   T   T   T
  0.7500000000000000  0.5000000000000000  0.0036595532518299   T   T   T
 -0.0001514450198027  0.2501514450198026  0.0035639250575804   T   T   T
 -0.0001514450198027  0.7498485549801975  0.0035639250575804   T   T   T
  0.5001514450198025  0.2501514450198026  0.0035639250575804   T   T   T
  0.5001514450198025  0.7498485549801975  0.0035639250575804   T   T   T
  0.9993100677089942 -0.0000000000000000  0.0927027744531774   T   T   T
 -0.0002518212950678  0.5000000000000000  0.0932716676684404   T   T   T
  0.5006899322910058 -0.0000000000000000  0.0927027744531774   T   T   T
  0.5002518212950677  0.5000000000000000  0.0932716676684404   T   T   T
  0.2500000000000000  0.2506899322910061  0.0927027744531774   T   T   T
  0.2500000000000000  0.7493100677089942  0.0927027744531774   T   T   T
  0.7500000000000000  0.2502518212950679  0.0932716676684404   T   T   T
  0.7500000000000000  0.7497481787049322  0.0932716676684404   T   T   T
  0.2500000000000000 -0.0000000000000000  0.1792404805434653   T   T   T
  0.2500000000000000  0.5000000000000000  0.1836419600516989   T   T   T
  0.7500000000000000 -0.0000000000000000  0.1836419600516989   T   T   T
  0.7500000000000000  0.5000000000000000  0.1834313849131469   T   T   T
  0.0001595940973605  0.2498404059026392  0.1842600939819090   T   T   T
  0.0001595940973605  0.7501595940973603  0.1842600939819090   T   T   T
  0.4998404059026394  0.2498404059026392  0.1842600939819090   T   T   T
  0.4998404059026394  0.7501595940973603  0.1842600939819090   T   T   T
  0.9895791128712268 -0.0000000000000000  0.2752207088022733   T   T   T
 -0.0013825912890040  0.5000000000000000  0.2738716304246069   T   T   T
  0.5104208871287732 -0.0000000000000000  0.2752204956982713   T   T   T
  0.5013825912890041  0.5000000000000000  0.2738716304246069   T   T   T
  0.2500000000000000  0.2604208871287730  0.2752204956982713   T   T   T
  0.2500000000000000  0.7395791128712268  0.2752204956982713   T   T   T
  0.7500000000000000  0.2513825912890043  0.2738716304246069   T   T   T
  0.7500000000000000  0.7486174087109959  0.2738716304246069   T   T   T
  0.9997433441375119 -0.0000000000000000  0.0015122978070228   T   T   T
  0.0000609689694930  0.5000000000000000  0.0018672668421295   T   T   T
  0.5002566558624881 -0.0000000000000000  0.0015122978070228   T   T   T
  0.4999390310305070  0.5000000000000000  0.0018672668421295   T   T   T
  0.2500000000000000  0.2502566558624881  0.0015122978070228   T   T   T
  0.2500000000000000  0.7497433441375119  0.0015122978070228   T   T   T
  0.7500000000000000  0.2499390310305070  0.0018672668421295   T   T   T
  0.7500000000000000  0.7500609689694930  0.0018672668421295   T   T   T
  0.2500000000000000 -0.0000000000000000  0.0925661055951917   T   T   T
  0.2500000000000000  0.5000000000000000  0.0938190551894394   T   T   T
  0.7500000000000000 -0.0000000000000000  0.0938190551894394   T   T   T
  0.7500000000000000  0.5000000000000000  0.0935645817611463   T   T   T
  0.0005471953859917  0.2494528046140083  0.0937195601246160   T   T   T
  0.0005471953859917  0.7505471953859919  0.0937195601246160   T   T   T
  0.4994528046140083  0.2494528046140083  0.0937195601246160   T   T   T
  0.4994528046140083  0.7505471953859919  0.0937195601246160   T   T   T
  0.0037710246951118 -0.0000000000000000  0.1846619294666656   T   T   T
  0.0008282463218542  0.5000000000000000  0.1833960056266419   T   T   T
  0.4962289753048880 -0.0000000000000000  0.1846619294666656   T   T   T
  0.4991717536781458  0.5000000000000000  0.1833960056266419   T   T   T
  0.2500000000000000  0.2462289753048881  0.1846619294666656   T   T   T
  0.2500000000000000  0.7537710246951118  0.1846619294666656   T   T   T
  0.7500000000000000  0.2491717536781458  0.1833960056266419   T   T   T
  0.7500000000000000  0.7508282463218540  0.1833960056266419   T   T   T
  0.2499999495650016 -0.0000000000000000  0.2878778074373689   T   T   T
  0.2500000000000000  0.5000000000000000  0.2745103681934052   T   T   T
  0.7500000000000000 -0.0000000000000000  0.2745103681934052   T   T   T
  0.7499998486940029  0.4999998991290013  0.2735635125014291   T   T   T
  0.0005805174913907  0.2494194825086093  0.2748087502812876   T   T   T
  0.0005805174913907  0.7505805174913903  0.2748087502812876   T   T   T
  0.4994194825086093  0.2494194825086093  0.2748087502812876   T   T   T
  0.4994194825086093  0.7505805174913903  0.2748087502812876   T   T   T
 
  0.00000000E+00  0.00000000E+00  0.00000000E+00
  0.00000000E+00  0.00000000E+00  0.00000000E+00
  0.00000000E+00  0.00000000E+00  0.00000000E+00
  0.00000000E+00  0.00000000E+00  0.00000000E+00
  0.00000000E+00  0.00000000E+00  0.00000000E+00
  0.00000000E+00  0.00000000E+00  0.00000000E+00
  0.00000000E+00  0.00000000E+00  0.00000000E+00
  0.00000000E+00  0.00000000E+00  0.00000000E+00
  0.00000000E+00  0.00000000E+00  0.00000000E+00
  0.00000000E+00  0.00000000E+00  0.00000000E+00
  0.00000000E+00  0.00000000E+00  0.00000000E+00
  0.00000000E+00  0.00000000E+00  0.00000000E+00
  0.00000000E+00  0.00000000E+00  0.00000000E+00
  0.00000000E+00  0.00000000E+00  0.00000000E+00
  0.00000000E+00  0.00000000E+00  0.00000000E+00
  0.00000000E+00  0.00000000E+00  0.00000000E+00
  0.00000000E+00  0.00000000E+00  0.00000000E+00
  0.00000000E+00  0.00000000E+00  0.00000000E+00
  0.00000000E+00  0.00000000E+00  0.00000000E+00
  0.00000000E+00  0.00000000E+00  0.00000000E+00
  0.00000000E+00  0.00000000E+00  0.00000000E+00
  0.00000000E+00  0.00000000E+00  0.00000000E+00
  0.00000000E+00  0.00000000E+00  0.00000000E+00
  0.00000000E+00  0.00000000E+00  0.00000000E+00
  0.00000000E+00  0.00000000E+00  0.00000000E+00
  0.00000000E+00  0.00000000E+00  0.00000000E+00
  0.00000000E+00  0.00000000E+00  0.00000000E+00
  0.00000000E+00  0.00000000E+00  0.00000000E+00
  0.00000000E+00  0.00000000E+00  0.00000000E+00
  0.00000000E+00  0.00000000E+00  0.00000000E+00
  0.00000000E+00  0.00000000E+00  0.00000000E+00
  0.00000000E+00  0.00000000E+00  0.00000000E+00
  0.00000000E+00  0.00000000E+00  0.00000000E+00
  0.00000000E+00  0.00000000E+00  0.00000000E+00
  0.00000000E+00  0.00000000E+00  0.00000000E+00
  0.00000000E+00  0.00000000E+00  0.00000000E+00
  0.00000000E+00  0.00000000E+00  0.00000000E+00
  0.00000000E+00  0.00000000E+00  0.00000000E+00
  0.00000000E+00  0.00000000E+00  0.00000000E+00
  0.00000000E+00  0.00000000E+00  0.00000000E+00
  0.00000000E+00  0.00000000E+00  0.00000000E+00
  0.00000000E+00  0.00000000E+00  0.00000000E+00
  0.00000000E+00  0.00000000E+00  0.00000000E+00
  0.00000000E+00  0.00000000E+00  0.00000000E+00
  0.00000000E+00  0.00000000E+00  0.00000000E+00
  0.00000000E+00  0.00000000E+00  0.00000000E+00
  0.00000000E+00  0.00000000E+00  0.00000000E+00
  0.00000000E+00  0.00000000E+00  0.00000000E+00
  0.00000000E+00  0.00000000E+00  0.00000000E+00
  0.00000000E+00  0.00000000E+00  0.00000000E+00
  0.00000000E+00  0.00000000E+00  0.00000000E+00
  0.00000000E+00  0.00000000E+00  0.00000000E+00
  0.00000000E+00  0.00000000E+00  0.00000000E+00
  0.00000000E+00  0.00000000E+00  0.00000000E+00
  0.00000000E+00  0.00000000E+00  0.00000000E+00
  0.00000000E+00  0.00000000E+00  0.00000000E+00
  0.00000000E+00  0.00000000E+00  0.00000000E+00
  0.00000000E+00  0.00000000E+00  0.00000000E+00
  0.00000000E+00  0.00000000E+00  0.00000000E+00
  0.00000000E+00  0.00000000E+00  0.00000000E+00
  0.00000000E+00  0.00000000E+00  0.00000000E+00
  0.00000000E+00  0.00000000E+00  0.00000000E+00
  0.00000000E+00  0.00000000E+00  0.00000000E+00
  0.00000000E+00  0.00000000E+00  0.00000000E+00
  0.00000000E+00  0.00000000E+00  0.00000000E+00
  0.00000000E+00  0.00000000E+00  0.00000000E+00
