Cd H Mg O                               
   1.00000000000000     
     8.4141216974800006    0.0000000000000000    0.0000000000000000
     0.0000000000000000    8.4141216974800006    0.0000000000000000
     0.0000000000000000    0.0000000000000000   23.4141216974799988
   Cd   H    Mg   O 
     1     1    32    32
Selective dynamics
Direct
  0.7499998486940029  0.4999998991290013  0.4076539242820002   T   T   T
  0.2499999495650016 -0.0000000000000000  0.3314107236765704   T   T   T
  0.2500000000000000 -0.0000000000000000  0.0027963033606879   T   T   T
  0.2500000000000000  0.5000000000000000  0.0032476525207846   T   T   T
  0.7500000000000000 -0.0000000000000000  0.0032476525207846   T   T   T
  0.7500000000000000  0.5000000000000000  0.0037835116567482   T   T   T
  0.0000441645248747  0.2499558354751255  0.0034997581168469   T   T   T
  0.0000441645248747  0.7500441645248747  0.0034997581168469   T   T   T
  0.4999558354751253  0.2499558354751255  0.0034997581168469   T   T   T
  0.4999558354751253  0.7500441645248747  0.0034997581168469   T   T   T
  0.9992347363572008 -0.0000000000000000  0.0926173971168008   T   T   T
 -0.0001538355415879  0.5000000000000000  0.0931844126364287   T   T   T
  0.5007652636427992 -0.0000000000000000  0.0926173971168008   T   T   T
  0.5001538355415880  0.5000000000000000  0.0931844126364287   T   T   T
  0.2500000000000000  0.2507652636427991  0.0926173971168008   T   T   T
  0.2500000000000000  0.7492347363572008  0.0926173971168008   T   T   T
  0.7500000000000000  0.2501538355415879  0.0931844126364287   T   T   T
  0.7500000000000000  0.7498461644584120  0.0931844126364287   T   T   T
  0.2500000000000000 -0.0000000000000000  0.1791047032802230   T   T   T
  0.2500000000000000  0.5000000000000000  0.1835170866927163   T   T   T
  0.7500000000000000 -0.0000000000000000  0.1835170866927163   T   T   T
  0.7500000000000000  0.5000000000000000  0.1831616965370469   T   T   T
  0.0000986417932608  0.2499013582067390  0.1841433354014266   T   T   T
  0.0000986417932608  0.7500986417932609  0.1841433354014266   T   T   T
  0.4999013582067390  0.2499013582067390  0.1841433354014266   T   T   T
  0.4999013582067390  0.7500986417932609  0.1841433354014266   T   T   T
  0.9896332359907097 -0.0000000000000000  0.2751694016652484   T   T   T
 -0.0015704454543783  0.5000000000000000  0.2736965773578390   T   T   T
  0.5103667640092903 -0.0000000000000000  0.2751691885612464   T   T   T
  0.5015704454543783  0.5000000000000000  0.2736965773578390   T   T   T
  0.2500000000000000  0.2603667640092905  0.2751691885612464   T   T   T
  0.2500000000000000  0.7396332359907097  0.2751691885612464   T   T   T
  0.7500000000000000  0.2515704454543783  0.2736965773578390   T   T   T
  0.7500000000000000  0.7484295545456215  0.2736965773578390   T   T   T
  0.9997157621014184 -0.0000000000000000  0.0014509386766418   T   T   T
 -0.0001374670670110  0.5000000000000000  0.0017826854901122   T   T   T
  0.5002842378985816 -0.0000000000000000  0.0014509386766418   T   T   T
  0.5001374670670110  0.5000000000000000  0.0017826854901122   T   T   T
  0.2500000000000000  0.2502842378985816  0.0014509386766418   T   T   T
  0.2500000000000000  0.7497157621014184  0.0014509386766418   T   T   T
  0.7500000000000000  0.2501374670670109  0.0017826854901122   T   T   T
  0.7500000000000000  0.7498625329329890  0.0017826854901122   T   T   T
  0.2500000000000000 -0.0000000000000000  0.0924043813377390   T   T   T
  0.2500000000000000  0.5000000000000000  0.0937533619540549   T   T   T
  0.7500000000000000 -0.0000000000000000  0.0937533619540549   T   T   T
  0.7500000000000000  0.5000000000000000  0.0933394012604466   T   T   T
  0.0006714345151838  0.2493285654848162  0.0936115235061796   T   T   T
  0.0006714345151838  0.7506714345151838  0.0936115235061796   T   T   T
  0.4993285654848161  0.2493285654848162  0.0936115235061796   T   T   T
  0.4993285654848161  0.7506714345151838  0.0936115235061796   T   T   T
  0.0037768218941947 -0.0000000000000000  0.1846137029359031   T   T   T
  0.0010030795967929  0.5000000000000000  0.1831280150975751   T   T   T
  0.4962231781058055 -0.0000000000000000  0.1846137029359031   T   T   T
  0.4989969204032070  0.5000000000000000  0.1831280150975751   T   T   T
  0.2500000000000000  0.2462231781058053  0.1846137029359031   T   T   T
  0.2500000000000000  0.7537768218941947  0.1846137029359031   T   T   T
  0.7500000000000000  0.2489969204032071  0.1831280150975751   T   T   T
  0.7500000000000000  0.7510030795967928  0.1831280150975751   T   T   T
  0.2499999495650016 -0.0000000000000000  0.2883781559926383   T   T   T
  0.2500000000000000  0.5000000000000000  0.2743779092109111   T   T   T
  0.7500000000000000 -0.0000000000000000  0.2743779092109111   T   T   T
  0.7499998486940029  0.4999998991290013  0.2729540014453608   T   T   T
  0.0005480297850714  0.2494519702149285  0.2746581854284176   T   T   T
  0.0005480297850714  0.7505480297850713  0.2746581854284176   T   T   T
  0.4994519702149286  0.2494519702149285  0.2746581854284176   T   T   T
  0.4994519702149286  0.7505480297850713  0.2746581854284176   T   T   T
 
  0.00000000E+00  0.00000000E+00  0.00000000E+00
  0.00000000E+00  0.00000000E+00  0.00000000E+00
  0.00000000E+00  0.00000000E+00  0.00000000E+00
  0.00000000E+00  0.00000000E+00  0.00000000E+00
  0.00000000E+00  0.00000000E+00  0.00000000E+00
  0.00000000E+00  0.00000000E+00  0.00000000E+00
  0.00000000E+00  0.00000000E+00  0.00000000E+00
  0.00000000E+00  0.00000000E+00  0.00000000E+00
  0.00000000E+00  0.00000000E+00  0.00000000E+00
  0.00000000E+00  0.00000000E+00  0.00000000E+00
  0.00000000E+00  0.00000000E+00  0.00000000E+00
  0.00000000E+00  0.00000000E+00  0.00000000E+00
  0.00000000E+00  0.00000000E+00  0.00000000E+00
  0.00000000E+00  0.00000000E+00  0.00000000E+00
  0.00000000E+00  0.00000000E+00  0.00000000E+00
  0.00000000E+00  0.00000000E+00  0.00000000E+00
  0.00000000E+00  0.00000000E+00  0.00000000E+00
  0.00000000E+00  0.00000000E+00  0.00000000E+00
  0.00000000E+00  0.00000000E+00  0.00000000E+00
  0.00000000E+00  0.00000000E+00  0.00000000E+00
  0.00000000E+00  0.00000000E+00  0.00000000E+00
  0.00000000E+00  0.00000000E+00  0.00000000E+00
  0.00000000E+00  0.00000000E+00  0.00000000E+00
  0.00000000E+00  0.00000000E+00  0.00000000E+00
  0.00000000E+00  0.00000000E+00  0.00000000E+00
  0.00000000E+00  0.00000000E+00  0.00000000E+00
  0.00000000E+00  0.00000000E+00  0.00000000E+00
  0.00000000E+00  0.00000000E+00  0.00000000E+00
  0.00000000E+00  0.00000000E+00  0.00000000E+00
  0.00000000E+00  0.00000000E+00  0.00000000E+00
  0.00000000E+00  0.00000000E+00  0.00000000E+00
  0.00000000E+00  0.00000000E+00  0.00000000E+00
  0.00000000E+00  0.00000000E+00  0.00000000E+00
  0.00000000E+00  0.00000000E+00  0.00000000E+00
  0.00000000E+00  0.00000000E+00  0.00000000E+00
  0.00000000E+00  0.00000000E+00  0.00000000E+00
  0.00000000E+00  0.00000000E+00  0.00000000E+00
  0.00000000E+00  0.00000000E+00  0.00000000E+00
  0.00000000E+00  0.00000000E+00  0.00000000E+00
  0.00000000E+00  0.00000000E+00  0.00000000E+00
  0.00000000E+00  0.00000000E+00  0.00000000E+00
  0.00000000E+00  0.00000000E+00  0.00000000E+00
  0.00000000E+00  0.00000000E+00  0.00000000E+00
  0.00000000E+00  0.00000000E+00  0.00000000E+00
  0.00000000E+00  0.00000000E+00  0.00000000E+00
  0.00000000E+00  0.00000000E+00  0.00000000E+00
  0.00000000E+00  0.00000000E+00  0.00000000E+00
  0.00000000E+00  0.00000000E+00  0.00000000E+00
  0.00000000E+00  0.00000000E+00  0.00000000E+00
  0.00000000E+00  0.00000000E+00  0.00000000E+00
  0.00000000E+00  0.00000000E+00  0.00000000E+00
  0.00000000E+00  0.00000000E+00  0.00000000E+00
  0.00000000E+00  0.00000000E+00  0.00000000E+00
  0.00000000E+00  0.00000000E+00  0.00000000E+00
  0.00000000E+00  0.00000000E+00  0.00000000E+00
  0.00000000E+00  0.00000000E+00  0.00000000E+00
  0.00000000E+00  0.00000000E+00  0.00000000E+00
  0.00000000E+00  0.00000000E+00  0.00000000E+00
  0.00000000E+00  0.00000000E+00  0.00000000E+00
  0.00000000E+00  0.00000000E+00  0.00000000E+00
  0.00000000E+00  0.00000000E+00  0.00000000E+00
  0.00000000E+00  0.00000000E+00  0.00000000E+00
  0.00000000E+00  0.00000000E+00  0.00000000E+00
  0.00000000E+00  0.00000000E+00  0.00000000E+00
  0.00000000E+00  0.00000000E+00  0.00000000E+00
  0.00000000E+00  0.00000000E+00  0.00000000E+00
