H Mg O Pd                               
   1.00000000000000     
     8.4141216974800006    0.0000000000000000    0.0000000000000000
     0.0000000000000000    8.4141216974800006    0.0000000000000000
     0.0000000000000000    0.0000000000000000   23.4141216974799988
   H    Mg   O    Pd
     1    32    32     1
Selective dynamics
Direct
  0.2499999495650016  0.0000000000000000  0.3355780288330653   T   T   T
  0.2500000000000000  0.0000000000000000  0.0028446839240641   T   T   T
  0.2500000000000000  0.5000000000000000  0.0035353103719900   T   T   T
  0.7500000000000000  0.0000000000000000  0.0035353103719900   T   T   T
  0.7500000000000000  0.5000000000000000  0.0041255402539773   T   T   T
  0.9996568309803873  0.2503431690196131  0.0038463224972619   T   T   T
  0.9996568309803873  0.7496568309803873  0.0038463224972619   T   T   T
  0.5003431690196127  0.2503431690196131  0.0038463224972619   T   T   T
  0.5003431690196127  0.7496568309803873  0.0038463224972619   T   T   T
  0.9987176140462574  0.0000000000000000  0.0927152822646211   T   T   T
  0.0001541516105380  0.5000000000000000  0.0937485262685830   T   T   T
  0.5012823859537426  0.0000000000000000  0.0927152822646211   T   T   T
  0.4998458483894622  0.5000000000000000  0.0937485262685830   T   T   T
  0.2500000000000000  0.2512823859537427  0.0927152822646211   T   T   T
  0.2500000000000000  0.7487176140462574  0.0927152822646211   T   T   T
  0.7500000000000000  0.2498458483894621  0.0937485262685830   T   T   T
  0.7500000000000000  0.7501541516105378  0.0937485262685830   T   T   T
  0.2500000000000000  0.0000000000000000  0.1772407021686501   T   T   T
  0.2500000000000000  0.5000000000000000  0.1841163897739951   T   T   T
  0.7500000000000000  0.0000000000000000  0.1841163897739951   T   T   T
  0.7500000000000000  0.5000000000000000  0.1831545028626130   T   T   T
 -0.0012983317542484  0.2512983317542484  0.1849291261002506   T   T   T
 -0.0012983317542484  0.7487016682457516  0.1849291261002506   T   T   T
  0.5012983317542485  0.2512983317542484  0.1849291261002506   T   T   T
  0.5012983317542485  0.7487016682457516  0.1849291261002506   T   T   T
  0.9887722694951196  0.0000000000000000  0.2736525654051821   T   T   T
  0.9980980313856679  0.5000000000000000  0.2785276173689159   T   T   T
  0.5112277305048804  0.0000000000000000  0.2736523523011872   T   T   T
  0.5019019686143321  0.5000000000000000  0.2785276173689159   T   T   T
  0.2500000000000000  0.2612277305048804  0.2736523523011872   T   T   T
  0.2500000000000000  0.7387722694951196  0.2736523523011872   T   T   T
  0.7500000000000000  0.2519019686143317  0.2785276173689159   T   T   T
  0.7500000000000000  0.7480980313856679  0.2785276173689159   T   T   T
  0.9996098231867709  0.0000000000000000  0.0012282443395199   T   T   T
 -0.0000274363038970  0.5000000000000000  0.0018622151292760   T   T   T
  0.5003901768132291  0.0000000000000000  0.0012282443395199   T   T   T
  0.5000274363038968  0.5000000000000000  0.0018622151292760   T   T   T
  0.2500000000000000  0.2503901768132291  0.0012282443395199   T   T   T
  0.2500000000000000  0.7496098231867709  0.0012282443395199   T   T   T
  0.7500000000000000  0.2500274363038970  0.0018622151292760   T   T   T
  0.7500000000000000  0.7499725636961030  0.0018622151292760   T   T   T
  0.2500000000000000  0.0000000000000000  0.0916645344206471   T   T   T
  0.2500000000000000  0.5000000000000000  0.0937121827025488   T   T   T
  0.7500000000000000  0.0000000000000000  0.0937121827025488   T   T   T
  0.7500000000000000  0.5000000000000000  0.0936244104845226   T   T   T
  0.0006197777451227  0.2493802222548773  0.0936411480381733   T   T   T
  0.0006197777451227  0.7506197777451228  0.0936411480381733   T   T   T
  0.4993802222548774  0.2493802222548773  0.0936411480381733   T   T   T
  0.4993802222548774  0.7506197777451228  0.0936411480381733   T   T   T
  0.0050135766456321  0.0000000000000000  0.1843884843907546   T   T   T
  0.0021903158396152  0.5000000000000000  0.1835629098004765   T   T   T
  0.4949864233543680  0.0000000000000000  0.1843884843907546   T   T   T
  0.4978096841603847  0.5000000000000000  0.1835629098004765   T   T   T
  0.2500000000000000  0.2449864233543679  0.1843884843907546   T   T   T
  0.2500000000000000  0.7550135766456318  0.1843884843907546   T   T   T
  0.7500000000000000  0.2478096841603847  0.1835629098004765   T   T   T
  0.7500000000000000  0.7521903158396148  0.1835629098004765   T   T   T
  0.2499999495650016  0.0000000000000000  0.2937888804356569   T   T   T
  0.2500000000000000  0.5000000000000000  0.2752281657735054   T   T   T
  0.7500000000000000  0.0000000000000000  0.2752281657735054   T   T   T
  0.7499998486940029  0.4999998991290013  0.2686586461551858   T   T   T
  0.0049655363435864  0.2450344636564135  0.2746250341532812   T   T   T
  0.0049655363435864  0.7549655363435868  0.2746250341532812   T   T   T
  0.4950344636564135  0.2450344636564135  0.2746250341532812   T   T   T
  0.4950344636564135  0.7549655363435868  0.2746250341532812   T   T   T
  0.7499998486940029  0.4999998991290013  0.3647723811913383   T   T   T
 
  0.00000000E+00  0.00000000E+00  0.00000000E+00
  0.00000000E+00  0.00000000E+00  0.00000000E+00
  0.00000000E+00  0.00000000E+00  0.00000000E+00
  0.00000000E+00  0.00000000E+00  0.00000000E+00
  0.00000000E+00  0.00000000E+00  0.00000000E+00
  0.00000000E+00  0.00000000E+00  0.00000000E+00
  0.00000000E+00  0.00000000E+00  0.00000000E+00
  0.00000000E+00  0.00000000E+00  0.00000000E+00
  0.00000000E+00  0.00000000E+00  0.00000000E+00
  0.00000000E+00  0.00000000E+00  0.00000000E+00
  0.00000000E+00  0.00000000E+00  0.00000000E+00
  0.00000000E+00  0.00000000E+00  0.00000000E+00
  0.00000000E+00  0.00000000E+00  0.00000000E+00
  0.00000000E+00  0.00000000E+00  0.00000000E+00
  0.00000000E+00  0.00000000E+00  0.00000000E+00
  0.00000000E+00  0.00000000E+00  0.00000000E+00
  0.00000000E+00  0.00000000E+00  0.00000000E+00
  0.00000000E+00  0.00000000E+00  0.00000000E+00
  0.00000000E+00  0.00000000E+00  0.00000000E+00
  0.00000000E+00  0.00000000E+00  0.00000000E+00
  0.00000000E+00  0.00000000E+00  0.00000000E+00
  0.00000000E+00  0.00000000E+00  0.00000000E+00
  0.00000000E+00  0.00000000E+00  0.00000000E+00
  0.00000000E+00  0.00000000E+00  0.00000000E+00
  0.00000000E+00  0.00000000E+00  0.00000000E+00
  0.00000000E+00  0.00000000E+00  0.00000000E+00
  0.00000000E+00  0.00000000E+00  0.00000000E+00
  0.00000000E+00  0.00000000E+00  0.00000000E+00
  0.00000000E+00  0.00000000E+00  0.00000000E+00
  0.00000000E+00  0.00000000E+00  0.00000000E+00
  0.00000000E+00  0.00000000E+00  0.00000000E+00
  0.00000000E+00  0.00000000E+00  0.00000000E+00
  0.00000000E+00  0.00000000E+00  0.00000000E+00
  0.00000000E+00  0.00000000E+00  0.00000000E+00
  0.00000000E+00  0.00000000E+00  0.00000000E+00
  0.00000000E+00  0.00000000E+00  0.00000000E+00
  0.00000000E+00  0.00000000E+00  0.00000000E+00
  0.00000000E+00  0.00000000E+00  0.00000000E+00
  0.00000000E+00  0.00000000E+00  0.00000000E+00
  0.00000000E+00  0.00000000E+00  0.00000000E+00
  0.00000000E+00  0.00000000E+00  0.00000000E+00
  0.00000000E+00  0.00000000E+00  0.00000000E+00
  0.00000000E+00  0.00000000E+00  0.00000000E+00
  0.00000000E+00  0.00000000E+00  0.00000000E+00
  0.00000000E+00  0.00000000E+00  0.00000000E+00
  0.00000000E+00  0.00000000E+00  0.00000000E+00
  0.00000000E+00  0.00000000E+00  0.00000000E+00
  0.00000000E+00  0.00000000E+00  0.00000000E+00
  0.00000000E+00  0.00000000E+00  0.00000000E+00
  0.00000000E+00  0.00000000E+00  0.00000000E+00
  0.00000000E+00  0.00000000E+00  0.00000000E+00
  0.00000000E+00  0.00000000E+00  0.00000000E+00
  0.00000000E+00  0.00000000E+00  0.00000000E+00
  0.00000000E+00  0.00000000E+00  0.00000000E+00
  0.00000000E+00  0.00000000E+00  0.00000000E+00
  0.00000000E+00  0.00000000E+00  0.00000000E+00
  0.00000000E+00  0.00000000E+00  0.00000000E+00
  0.00000000E+00  0.00000000E+00  0.00000000E+00
  0.00000000E+00  0.00000000E+00  0.00000000E+00
  0.00000000E+00  0.00000000E+00  0.00000000E+00
  0.00000000E+00  0.00000000E+00  0.00000000E+00
  0.00000000E+00  0.00000000E+00  0.00000000E+00
  0.00000000E+00  0.00000000E+00  0.00000000E+00
  0.00000000E+00  0.00000000E+00  0.00000000E+00
  0.00000000E+00  0.00000000E+00  0.00000000E+00
  0.00000000E+00  0.00000000E+00  0.00000000E+00
