H Mg O                                  
   1.00000000000000     
     8.4141216974800006    0.0000000000000000    0.0000000000000000
     0.0000000000000000    8.4141216974800006    0.0000000000000000
     0.0000000000000000    0.0000000000000000   23.4141216974799988
   H    Mg   O 
     1    32    32
Selective dynamics
Direct
  0.2499999495650016  0.0000000000000000  0.3286474671283461   T   T   T
  0.2500000000000000  0.0000000000000000  0.0034722935326071   T   T   T
  0.2500000000000000  0.5000000000000000  0.0037676262960063   T   T   T
  0.7500000000000000  0.0000000000000000  0.0037676262960063   T   T   T
  0.7500000000000000  0.5000000000000000  0.0040105234511643   T   T   T
 -0.0001230654793822  0.2501230654793823  0.0039277949273180   T   T   T
 -0.0001230654793822  0.7498769345206177  0.0039277949273180   T   T   T
  0.5001230654793823  0.2501230654793823  0.0039277949273180   T   T   T
  0.5001230654793823  0.7498769345206177  0.0039277949273180   T   T   T
 -0.0006644207263302  0.0000000000000000  0.0931391198084563   T   T   T
 -0.0002316285856100  0.5000000000000000  0.0936179579834689   T   T   T
  0.5006644207263300  0.0000000000000000  0.0931391198084563   T   T   T
  0.5002316285856103  0.5000000000000000  0.0936179579834689   T   T   T
  0.2500000000000000  0.2506644207263302  0.0931391198084563   T   T   T
  0.2500000000000000  0.7493355792736700  0.0931391198084563   T   T   T
  0.7500000000000000  0.2502316285856098  0.0936179579834689   T   T   T
  0.7500000000000000  0.7497683714143897  0.0936179579834689   T   T   T
  0.2500000000000000  0.0000000000000000  0.1802337471979880   T   T   T
  0.2500000000000000  0.5000000000000000  0.1839326899155876   T   T   T
  0.7500000000000000  0.0000000000000000  0.1839326899155876   T   T   T
  0.7500000000000000  0.5000000000000000  0.1839678651936921   T   T   T
  0.0001861912962653  0.2498138087037347  0.1845429180637841   T   T   T
  0.0001861912962653  0.7501861912962654  0.1845429180637841   T   T   T
  0.4998138087037347  0.2498138087037347  0.1845429180637841   T   T   T
  0.4998138087037347  0.7501861912962654  0.1845429180637841   T   T   T
 -0.0103462934471021  0.0000000000000000  0.2754047449466122   T   T   T
 -0.0019435944465190  0.5000000000000000  0.2741036572882161   T   T   T
  0.5103462934471020  0.0000000000000000  0.2754045318426102   T   T   T
  0.5019435944465189  0.5000000000000000  0.2741036572882161   T   T   T
  0.2500000000000000  0.2603462934471020  0.2754045318426102   T   T   T
  0.2500000000000000  0.7396537065528980  0.2754045318426102   T   T   T
  0.7500000000000000  0.2519435944465190  0.2741036572882161   T   T   T
  0.7500000000000000  0.7480564055534811  0.2741036572882161   T   T   T
 -0.0001982890115198  0.0000000000000000  0.0018589533149574   T   T   T
  0.0000408961410974  0.5000000000000000  0.0020992605930323   T   T   T
  0.5001982890115200  0.0000000000000000  0.0018589533149574   T   T   T
  0.4999591038589024  0.5000000000000000  0.0020992605930323   T   T   T
  0.2500000000000000  0.2501982890115199  0.0018589533149574   T   T   T
  0.2500000000000000  0.7498017109884801  0.0018589533149574   T   T   T
  0.7500000000000000  0.2499591038589027  0.0020992605930323   T   T   T
  0.7500000000000000  0.7500408961410974  0.0020992605930323   T   T   T
  0.2500000000000000  0.0000000000000000  0.0930290122639876   T   T   T
  0.2500000000000000  0.5000000000000000  0.0941151137846468   T   T   T
  0.7500000000000000  0.0000000000000000  0.0941151137846468   T   T   T
  0.7500000000000000  0.5000000000000000  0.0938643082744227   T   T   T
  0.0004657394629090  0.2495342605370909  0.0939826888605938   T   T   T
  0.0004657394629090  0.7504657394629094  0.0939826888605938   T   T   T
  0.4995342605370912  0.2495342605370909  0.0939826888605938   T   T   T
  0.4995342605370912  0.7504657394629094  0.0939826888605938   T   T   T
  0.0032349891546698  0.0000000000000000  0.1848189118037104   T   T   T
  0.0005379927962367  0.5000000000000000  0.1836874886903128   T   T   T
  0.4967650108453304  0.0000000000000000  0.1848189118037104   T   T   T
  0.4994620072037634  0.5000000000000000  0.1836874886903128   T   T   T
  0.2500000000000000  0.2467650108453302  0.1848189118037104   T   T   T
  0.2500000000000000  0.7532349891546698  0.1848189118037104   T   T   T
  0.7500000000000000  0.2494620072037633  0.1836874886903128   T   T   T
  0.7500000000000000  0.7505379927962367  0.1836874886903128   T   T   T
  0.2499999495650016  0.0000000000000000  0.2853315769539186   T   T   T
  0.2500000000000000  0.5000000000000000  0.2748986704313602   T   T   T
  0.7500000000000000  0.0000000000000000  0.2748986704313602   T   T   T
  0.7500000000000000  0.5000000000000000  0.2751738109873725   T   T   T
  0.0002460507352216  0.2497539492647785  0.2751298959953679   T   T   T
  0.0002460507352216  0.7502460507352218  0.2751298959953679   T   T   T
  0.4997539492647785  0.2497539492647785  0.2751298959953679   T   T   T
  0.4997539492647785  0.7502460507352218  0.2751298959953679   T   T   T
 
  0.00000000E+00  0.00000000E+00  0.00000000E+00
  0.00000000E+00  0.00000000E+00  0.00000000E+00
  0.00000000E+00  0.00000000E+00  0.00000000E+00
  0.00000000E+00  0.00000000E+00  0.00000000E+00
  0.00000000E+00  0.00000000E+00  0.00000000E+00
  0.00000000E+00  0.00000000E+00  0.00000000E+00
  0.00000000E+00  0.00000000E+00  0.00000000E+00
  0.00000000E+00  0.00000000E+00  0.00000000E+00
  0.00000000E+00  0.00000000E+00  0.00000000E+00
  0.00000000E+00  0.00000000E+00  0.00000000E+00
  0.00000000E+00  0.00000000E+00  0.00000000E+00
  0.00000000E+00  0.00000000E+00  0.00000000E+00
  0.00000000E+00  0.00000000E+00  0.00000000E+00
  0.00000000E+00  0.00000000E+00  0.00000000E+00
  0.00000000E+00  0.00000000E+00  0.00000000E+00
  0.00000000E+00  0.00000000E+00  0.00000000E+00
  0.00000000E+00  0.00000000E+00  0.00000000E+00
  0.00000000E+00  0.00000000E+00  0.00000000E+00
  0.00000000E+00  0.00000000E+00  0.00000000E+00
  0.00000000E+00  0.00000000E+00  0.00000000E+00
  0.00000000E+00  0.00000000E+00  0.00000000E+00
  0.00000000E+00  0.00000000E+00  0.00000000E+00
  0.00000000E+00  0.00000000E+00  0.00000000E+00
  0.00000000E+00  0.00000000E+00  0.00000000E+00
  0.00000000E+00  0.00000000E+00  0.00000000E+00
  0.00000000E+00  0.00000000E+00  0.00000000E+00
  0.00000000E+00  0.00000000E+00  0.00000000E+00
  0.00000000E+00  0.00000000E+00  0.00000000E+00
  0.00000000E+00  0.00000000E+00  0.00000000E+00
  0.00000000E+00  0.00000000E+00  0.00000000E+00
  0.00000000E+00  0.00000000E+00  0.00000000E+00
  0.00000000E+00  0.00000000E+00  0.00000000E+00
  0.00000000E+00  0.00000000E+00  0.00000000E+00
  0.00000000E+00  0.00000000E+00  0.00000000E+00
  0.00000000E+00  0.00000000E+00  0.00000000E+00
  0.00000000E+00  0.00000000E+00  0.00000000E+00
  0.00000000E+00  0.00000000E+00  0.00000000E+00
  0.00000000E+00  0.00000000E+00  0.00000000E+00
  0.00000000E+00  0.00000000E+00  0.00000000E+00
  0.00000000E+00  0.00000000E+00  0.00000000E+00
  0.00000000E+00  0.00000000E+00  0.00000000E+00
  0.00000000E+00  0.00000000E+00  0.00000000E+00
  0.00000000E+00  0.00000000E+00  0.00000000E+00
  0.00000000E+00  0.00000000E+00  0.00000000E+00
  0.00000000E+00  0.00000000E+00  0.00000000E+00
  0.00000000E+00  0.00000000E+00  0.00000000E+00
  0.00000000E+00  0.00000000E+00  0.00000000E+00
  0.00000000E+00  0.00000000E+00  0.00000000E+00
  0.00000000E+00  0.00000000E+00  0.00000000E+00
  0.00000000E+00  0.00000000E+00  0.00000000E+00
  0.00000000E+00  0.00000000E+00  0.00000000E+00
  0.00000000E+00  0.00000000E+00  0.00000000E+00
  0.00000000E+00  0.00000000E+00  0.00000000E+00
  0.00000000E+00  0.00000000E+00  0.00000000E+00
  0.00000000E+00  0.00000000E+00  0.00000000E+00
  0.00000000E+00  0.00000000E+00  0.00000000E+00
  0.00000000E+00  0.00000000E+00  0.00000000E+00
  0.00000000E+00  0.00000000E+00  0.00000000E+00
  0.00000000E+00  0.00000000E+00  0.00000000E+00
  0.00000000E+00  0.00000000E+00  0.00000000E+00
  0.00000000E+00  0.00000000E+00  0.00000000E+00
  0.00000000E+00  0.00000000E+00  0.00000000E+00
  0.00000000E+00  0.00000000E+00  0.00000000E+00
  0.00000000E+00  0.00000000E+00  0.00000000E+00
  0.00000000E+00  0.00000000E+00  0.00000000E+00
