B Ba O V                                
   1.00000000000000     
    11.1568587867069997    0.0000000000000000    0.0000000000000000
     0.0000000000000000   11.1568587867069997    0.0000000000000000
     0.0000000000000000    0.0000000000000000   26.1568587867070015
   B    Ba   O    V 
     1    31    32     1
Selective dynamics
Direct
  0.3004040630216231  0.1915963427344446  0.3848003741569079   T   T   T
  0.2475741977972112  0.9984770596455430  0.1064393747904595   T   T   T
  0.7477005624601877  0.9992733469959455  0.1061110380667759   T   T   T
  0.9965762723832200  0.2501187292839134  0.1062645881085783   T   T   T
  0.4986963920016220  0.2498565477780561  0.1070597007885489   T   T   T
  0.2470801999140124  0.5002913189870059  0.1065944252411461   T   T   T
  0.7473485310566947  0.5006654320345066  0.1074891292615286   T   T   T
  0.9965387701921800  0.7498205719271029  0.1064839301218771   T   T   T
  0.4980475671713044  0.7495710038584316  0.1058985035192901   T   T   T
  0.9955669514249658  0.9980167407118100  0.2122180790713701   T   T   T
  0.5009710731645448  0.9952867591789389  0.2119505604313105   T   T   T
  0.2464373579997398  0.2499706072732863  0.2108994577884023   T   T   T
  0.7512801480552814  0.2503086753184410  0.2124377768215999   T   T   T
  0.9963251835646616  0.5018692225459321  0.2135690345770671   T   T   T
  0.4981158835662501  0.5035956059065746  0.2132492680594517   T   T   T
  0.2475218689403213  0.7455187824661963  0.2120622974511518   T   T   T
  0.7473063982547933  0.7493455118872823  0.2136915572084855   T   T   T
  0.2502203093661048  0.9844525183681391  0.3123350982244993   T   T   T
  0.7508117145896899  0.9968425679934239  0.3209620606679143   T   T   T
  0.9971179512806632  0.2502528882244202  0.3205724146973576   T   T   T
  0.5082009690147341  0.2501317896810342  0.3129307187299758   T   T   T
  0.2451465853562694  0.5008478728723360  0.3222219369507692   T   T   T
  0.7489158374094588  0.5017425476283676  0.3253161394945152   T   T   T
  0.9960805475334422  0.7479959402500705  0.3243635021737845   T   T   T
  0.5008067866987862  0.7443275407638668  0.3264964471055281   T   T   T
  0.0223550631964808  0.0254447057361178  0.4245955508015997   T   T   T
  0.4952120657193720  0.0040963128145178  0.4253344436764864   T   T   T
  0.7489694325869815  0.2361111197770489  0.4291821269712917   T   T   T
  0.0168505398921401  0.4709332503801851  0.4334139818782073   T   T   T
  0.4557863881118775  0.4701353950618388  0.4305084491671451   T   T   T
  0.2399074383947707  0.7492743677307365  0.4292950564217576   T   T   T
  0.7648423588909017  0.7725172666308914  0.4333496890689408   T   T   T
  0.9976849212766120  0.0009184802208195  0.1133580351150710   T   T   T
  0.4976505015289188  0.0003155745624111  0.1131863485576239   T   T   T
  0.2471635846109002  0.2504200563122800  0.1154748452854944   T   T   T
  0.7474500559889936  0.2510606169612080  0.1143468884006280   T   T   T
  0.9968317384660850  0.4997880886626931  0.1152134778959623   T   T   T
  0.4972153780456044  0.4996725436999900  0.1152048606655128   T   T   T
  0.2470729727907729  0.7485075465131661  0.1138776228976589   T   T   T
  0.7471423016290304  0.7488813137967824  0.1149529521601702   T   T   T
  0.2479237164167544  0.0017798920128833  0.2093882979951888   T   T   T
  0.7478444752277913  0.0002962007324917  0.2087261142285398   T   T   T
  0.9973842309519820  0.2512825790014451  0.2093618326956613   T   T   T
  0.4946761704268790  0.2508892058869844  0.2098048200094797   T   T   T
  0.2468571185972962  0.4989585243456727  0.2112022108973795   T   T   T
  0.7469755262346809  0.5003573768386251  0.2127864780769624   T   T   T
  0.9968718740342805  0.7506582073813682  0.2083476516416540   T   T   T
  0.4964372055944858  0.7498735584236236  0.2076793426645108   T   T   T
  0.0045985184093688  0.0054953580497779  0.3235398124337518   T   T   T
  0.4997577931610657  0.0029823416407831  0.3232086207771240   T   T   T
  0.2544058344105520  0.2363506104879181  0.3378174847896840   T   T   T
  0.7438508724775266  0.2503522739959972  0.3255801611080014   T   T   T
  0.9994737301626155  0.4958384126884625  0.3296436824591573   T   T   T
  0.4957854284041024  0.4938148744902148  0.3300090475512292   T   T   T
  0.2447677626907199  0.7468644049995421  0.3253056303146876   T   T   T
  0.7489361496332894  0.7488010797169352  0.3291725442170866   T   T   T
  0.2544363272390317  0.0845145623750961  0.4050864739509824   T   T   T
  0.7355744398872032  0.0052412862808405  0.4202518705845893   T   T   T
  0.9637187508940186  0.2506676523725478  0.4172946006503384   T   T   T
  0.4039917928795937  0.2431915714536222  0.4056136440651494   T   T   T
  0.2397261942665489  0.5324351036404329  0.4211416917328512   T   T   T
  0.7461417310408005  0.5033188532888400  0.4284342259048837   T   T   T
  0.9980499024057081  0.7890123129154596  0.4199088030335891   T   T   T
  0.4696825746645905  0.7819682359912276  0.4195437124621668   T   T   T
  0.7294787401359260  0.4980805680564280  0.4964922892135560   T   T   T
 
  0.00000000E+00  0.00000000E+00  0.00000000E+00
  0.00000000E+00  0.00000000E+00  0.00000000E+00
  0.00000000E+00  0.00000000E+00  0.00000000E+00
  0.00000000E+00  0.00000000E+00  0.00000000E+00
  0.00000000E+00  0.00000000E+00  0.00000000E+00
  0.00000000E+00  0.00000000E+00  0.00000000E+00
  0.00000000E+00  0.00000000E+00  0.00000000E+00
  0.00000000E+00  0.00000000E+00  0.00000000E+00
  0.00000000E+00  0.00000000E+00  0.00000000E+00
  0.00000000E+00  0.00000000E+00  0.00000000E+00
  0.00000000E+00  0.00000000E+00  0.00000000E+00
  0.00000000E+00  0.00000000E+00  0.00000000E+00
  0.00000000E+00  0.00000000E+00  0.00000000E+00
  0.00000000E+00  0.00000000E+00  0.00000000E+00
  0.00000000E+00  0.00000000E+00  0.00000000E+00
  0.00000000E+00  0.00000000E+00  0.00000000E+00
  0.00000000E+00  0.00000000E+00  0.00000000E+00
  0.00000000E+00  0.00000000E+00  0.00000000E+00
  0.00000000E+00  0.00000000E+00  0.00000000E+00
  0.00000000E+00  0.00000000E+00  0.00000000E+00
  0.00000000E+00  0.00000000E+00  0.00000000E+00
  0.00000000E+00  0.00000000E+00  0.00000000E+00
  0.00000000E+00  0.00000000E+00  0.00000000E+00
  0.00000000E+00  0.00000000E+00  0.00000000E+00
  0.00000000E+00  0.00000000E+00  0.00000000E+00
  0.00000000E+00  0.00000000E+00  0.00000000E+00
  0.00000000E+00  0.00000000E+00  0.00000000E+00
  0.00000000E+00  0.00000000E+00  0.00000000E+00
  0.00000000E+00  0.00000000E+00  0.00000000E+00
  0.00000000E+00  0.00000000E+00  0.00000000E+00
  0.00000000E+00  0.00000000E+00  0.00000000E+00
  0.00000000E+00  0.00000000E+00  0.00000000E+00
  0.00000000E+00  0.00000000E+00  0.00000000E+00
  0.00000000E+00  0.00000000E+00  0.00000000E+00
  0.00000000E+00  0.00000000E+00  0.00000000E+00
  0.00000000E+00  0.00000000E+00  0.00000000E+00
  0.00000000E+00  0.00000000E+00  0.00000000E+00
  0.00000000E+00  0.00000000E+00  0.00000000E+00
  0.00000000E+00  0.00000000E+00  0.00000000E+00
  0.00000000E+00  0.00000000E+00  0.00000000E+00
  0.00000000E+00  0.00000000E+00  0.00000000E+00
  0.00000000E+00  0.00000000E+00  0.00000000E+00
  0.00000000E+00  0.00000000E+00  0.00000000E+00
  0.00000000E+00  0.00000000E+00  0.00000000E+00
  0.00000000E+00  0.00000000E+00  0.00000000E+00
  0.00000000E+00  0.00000000E+00  0.00000000E+00
  0.00000000E+00  0.00000000E+00  0.00000000E+00
  0.00000000E+00  0.00000000E+00  0.00000000E+00
  0.00000000E+00  0.00000000E+00  0.00000000E+00
  0.00000000E+00  0.00000000E+00  0.00000000E+00
  0.00000000E+00  0.00000000E+00  0.00000000E+00
  0.00000000E+00  0.00000000E+00  0.00000000E+00
  0.00000000E+00  0.00000000E+00  0.00000000E+00
  0.00000000E+00  0.00000000E+00  0.00000000E+00
  0.00000000E+00  0.00000000E+00  0.00000000E+00
  0.00000000E+00  0.00000000E+00  0.00000000E+00
  0.00000000E+00  0.00000000E+00  0.00000000E+00
  0.00000000E+00  0.00000000E+00  0.00000000E+00
  0.00000000E+00  0.00000000E+00  0.00000000E+00
  0.00000000E+00  0.00000000E+00  0.00000000E+00
  0.00000000E+00  0.00000000E+00  0.00000000E+00
  0.00000000E+00  0.00000000E+00  0.00000000E+00
  0.00000000E+00  0.00000000E+00  0.00000000E+00
  0.00000000E+00  0.00000000E+00  0.00000000E+00
  0.00000000E+00  0.00000000E+00  0.00000000E+00
