B Ba O Rh                               
   1.00000000000000     
    11.1568587867069997    0.0000000000000000    0.0000000000000000
     0.0000000000000000   11.1568587867069997    0.0000000000000000
     0.0000000000000000    0.0000000000000000   26.1568587867070015
   B    Ba   O    Rh
     1    31    32     1
Selective dynamics
Direct
  0.3050048613524702  0.1892632211799439  0.3872155050498752   T   T   T
  0.2475544950365552  0.9981028110973749  0.1089994545155378   T   T   T
  0.7475629523954880  0.9992681423932731  0.1067944100280568   T   T   T
  0.9966348406247665  0.2500121694290318  0.1075012548468377   T   T   T
  0.4986709419041051  0.2500056750002973  0.1086111604760929   T   T   T
  0.2470582764273802  0.5004532471691537  0.1073586194916003   T   T   T
  0.7476662616359188  0.5006417988018002  0.1080071885117614   T   T   T
  0.9968103743319637  0.7497081696551290  0.1075803498241536   T   T   T
  0.4977373669246012  0.7496798464980363  0.1073476978023314   T   T   T
  0.9945118814713506  0.9982105330616742  0.2133682498076257   T   T   T
  0.5011062922971078  0.9966330764579220  0.2132095497195416   T   T   T
  0.2461351998528577  0.2513066577234072  0.2118457003673863   T   T   T
  0.7519857224656969  0.2496668206457874  0.2129988299401836   T   T   T
  0.9981480107298776  0.5009802866713895  0.2142512002089498   T   T   T
  0.4969077607683985  0.5025992661189868  0.2136155234563512   T   T   T
  0.2464199146845613  0.7433285748981423  0.2136846127120653   T   T   T
  0.7481685980945979  0.7499976481392663  0.2138666465867859   T   T   T
  0.2469070530946292  0.9865817932401527  0.3142214213719709   T   T   T
  0.7509231393110103  0.9971916075471099  0.3235009134651915   T   T   T
  0.9974646954577365  0.2512431428980150  0.3233417151356998   T   T   T
  0.5092294841655634  0.2521076531410119  0.3150189983580007   T   T   T
  0.2463255218775545  0.4950317753906550  0.3286094549220138   T   T   T
  0.7500647815893859  0.5018261018004775  0.3212214687786153   T   T   T
  0.9950669574494391  0.7459010455683945  0.3254784036368132   T   T   T
  0.5000706177360228  0.7450746215411804  0.3234875186722692   T   T   T
  0.0070809275191175  0.0216670669612863  0.4261929280718375   T   T   T
  0.4985170042430946  0.9984173287061873  0.4250564627051438   T   T   T
  0.7439265145995290  0.2519007863341438  0.4300598469546546   T   T   T
  0.0022738496329569  0.4788532226218404  0.4351863794599091   T   T   T
  0.4792527887065864  0.4995742015288255  0.4306012952827276   T   T   T
  0.2397222165035180  0.7523172651525891  0.4292757579148591   T   T   T
  0.7544206001988908  0.7525809673240946  0.4330588725599953   T   T   T
  0.9978409707271900  0.0007123862110941  0.1135595333455728   T   T   T
  0.4967249405259905  0.0004586628506555  0.1134499470797810   T   T   T
  0.2474296270626301  0.2496377260523654  0.1157364800899896   T   T   T
  0.7474466807004456  0.2500419627676842  0.1131750170659816   T   T   T
  0.9978880647710553  0.4994982084443845  0.1138346186016050   T   T   T
  0.4963486654724347  0.4994518940111461  0.1137428218927333   T   T   T
  0.2470010089259572  0.7492690151383665  0.1142069660550826   T   T   T
  0.7470583231814243  0.7500517627535933  0.1132588001823983   T   T   T
  0.2472959441251529  0.0025202624663985  0.2101270181041927   T   T   T
  0.7474277125717756  0.0004194421231857  0.2072409238106779   T   T   T
  0.9980602505754584  0.2505840090683556  0.2085360874801871   T   T   T
  0.4941201642612704  0.2503972680442405  0.2100048631461963   T   T   T
  0.2469951917808887  0.4988677937387567  0.2083257119910333   T   T   T
  0.7471649117092304  0.5000751980873598  0.2085890558129766   T   T   T
  0.9974983155364107  0.7508575618881479  0.2077063097621297   T   T   T
  0.4958374707902743  0.7502678742792935  0.2076393066787373   T   T   T
  0.0022158764549675  0.0041432923641395  0.3248489465356027   T   T   T
  0.4988521246524568  0.9995645979704886  0.3241889726399257   T   T   T
  0.2579137826350844  0.2350529929577744  0.3401000292868614   T   T   T
  0.7454213128091339  0.2495620648551782  0.3223584589535874   T   T   T
  0.0016119637152723  0.4956293432358950  0.3256555400609870   T   T   T
  0.4946941644498569  0.4968063035632280  0.3254402781597177   T   T   T
  0.2450934289972385  0.7495860047974717  0.3259719816436803   T   T   T
  0.7474084559625560  0.7503118141652559  0.3238070788942334   T   T   T
  0.2562981250922700  0.0827821368352463  0.4072192596423324   T   T   T
  0.7358715467059925  0.0074137644466738  0.4217371474331909   T   T   T
  0.9599969548135288  0.2540430419305051  0.4186142646121294   T   T   T
  0.4109839310751994  0.2384763687285287  0.4068246802645957   T   T   T
  0.2393259070332602  0.5382110025824384  0.4234441259646609   T   T   T
  0.7421727988419117  0.5038453015252041  0.4161814235389750   T   T   T
  0.9958296443879214  0.7816428692067854  0.4212662225284859   T   T   T
  0.4822319604306972  0.7633195087361409  0.4203119079953294   T   T   T
  0.7328835997363743  0.4976496497204150  0.4913816160416201   T   T   T
 
  0.00000000E+00  0.00000000E+00  0.00000000E+00
  0.00000000E+00  0.00000000E+00  0.00000000E+00
  0.00000000E+00  0.00000000E+00  0.00000000E+00
  0.00000000E+00  0.00000000E+00  0.00000000E+00
  0.00000000E+00  0.00000000E+00  0.00000000E+00
  0.00000000E+00  0.00000000E+00  0.00000000E+00
  0.00000000E+00  0.00000000E+00  0.00000000E+00
  0.00000000E+00  0.00000000E+00  0.00000000E+00
  0.00000000E+00  0.00000000E+00  0.00000000E+00
  0.00000000E+00  0.00000000E+00  0.00000000E+00
  0.00000000E+00  0.00000000E+00  0.00000000E+00
  0.00000000E+00  0.00000000E+00  0.00000000E+00
  0.00000000E+00  0.00000000E+00  0.00000000E+00
  0.00000000E+00  0.00000000E+00  0.00000000E+00
  0.00000000E+00  0.00000000E+00  0.00000000E+00
  0.00000000E+00  0.00000000E+00  0.00000000E+00
  0.00000000E+00  0.00000000E+00  0.00000000E+00
  0.00000000E+00  0.00000000E+00  0.00000000E+00
  0.00000000E+00  0.00000000E+00  0.00000000E+00
  0.00000000E+00  0.00000000E+00  0.00000000E+00
  0.00000000E+00  0.00000000E+00  0.00000000E+00
  0.00000000E+00  0.00000000E+00  0.00000000E+00
  0.00000000E+00  0.00000000E+00  0.00000000E+00
  0.00000000E+00  0.00000000E+00  0.00000000E+00
  0.00000000E+00  0.00000000E+00  0.00000000E+00
  0.00000000E+00  0.00000000E+00  0.00000000E+00
  0.00000000E+00  0.00000000E+00  0.00000000E+00
  0.00000000E+00  0.00000000E+00  0.00000000E+00
  0.00000000E+00  0.00000000E+00  0.00000000E+00
  0.00000000E+00  0.00000000E+00  0.00000000E+00
  0.00000000E+00  0.00000000E+00  0.00000000E+00
  0.00000000E+00  0.00000000E+00  0.00000000E+00
  0.00000000E+00  0.00000000E+00  0.00000000E+00
  0.00000000E+00  0.00000000E+00  0.00000000E+00
  0.00000000E+00  0.00000000E+00  0.00000000E+00
  0.00000000E+00  0.00000000E+00  0.00000000E+00
  0.00000000E+00  0.00000000E+00  0.00000000E+00
  0.00000000E+00  0.00000000E+00  0.00000000E+00
  0.00000000E+00  0.00000000E+00  0.00000000E+00
  0.00000000E+00  0.00000000E+00  0.00000000E+00
  0.00000000E+00  0.00000000E+00  0.00000000E+00
  0.00000000E+00  0.00000000E+00  0.00000000E+00
  0.00000000E+00  0.00000000E+00  0.00000000E+00
  0.00000000E+00  0.00000000E+00  0.00000000E+00
  0.00000000E+00  0.00000000E+00  0.00000000E+00
  0.00000000E+00  0.00000000E+00  0.00000000E+00
  0.00000000E+00  0.00000000E+00  0.00000000E+00
  0.00000000E+00  0.00000000E+00  0.00000000E+00
  0.00000000E+00  0.00000000E+00  0.00000000E+00
  0.00000000E+00  0.00000000E+00  0.00000000E+00
  0.00000000E+00  0.00000000E+00  0.00000000E+00
  0.00000000E+00  0.00000000E+00  0.00000000E+00
  0.00000000E+00  0.00000000E+00  0.00000000E+00
  0.00000000E+00  0.00000000E+00  0.00000000E+00
  0.00000000E+00  0.00000000E+00  0.00000000E+00
  0.00000000E+00  0.00000000E+00  0.00000000E+00
  0.00000000E+00  0.00000000E+00  0.00000000E+00
  0.00000000E+00  0.00000000E+00  0.00000000E+00
  0.00000000E+00  0.00000000E+00  0.00000000E+00
  0.00000000E+00  0.00000000E+00  0.00000000E+00
  0.00000000E+00  0.00000000E+00  0.00000000E+00
  0.00000000E+00  0.00000000E+00  0.00000000E+00
  0.00000000E+00  0.00000000E+00  0.00000000E+00
  0.00000000E+00  0.00000000E+00  0.00000000E+00
  0.00000000E+00  0.00000000E+00  0.00000000E+00
