B Ba O Co                               
   1.00000000000000     
    11.1568587867069997    0.0000000000000000    0.0000000000000000
     0.0000000000000000   11.1568587867069997    0.0000000000000000
     0.0000000000000000    0.0000000000000000   26.1568587867070015
   B    Ba   O    Co
     1    31    32     1
Selective dynamics
Direct
  0.3032217370810385  0.1913590904876261  0.3866677755921051   T   T   T
  0.2474109562956160  0.9983508686317748  0.1074528612505590   T   T   T
  0.7475282989404483  0.9992900093812142  0.1062843029974987   T   T   T
  0.9963961404720768  0.2499966370987116  0.1067380999643157   T   T   T
  0.4986233128946440  0.2497906232219465  0.1075341255259408   T   T   T
  0.2470082465314889  0.5004761206076013  0.1067100378692668   T   T   T
  0.7472618638112001  0.5006623888025172  0.1075173562527105   T   T   T
  0.9966193393862409  0.7499132176112755  0.1068921602781475   T   T   T
  0.4977340646981774  0.7498392806054520  0.1064386545997287   T   T   T
  0.9949849631563591  0.9981919435156473  0.2127502971603295   T   T   T
  0.5009433346300103  0.9960701482319008  0.2125254491897131   T   T   T
  0.2462826276857575  0.2505867723163088  0.2112145411141397   T   T   T
  0.7513437757793878  0.2499590175784785  0.2125478677093428   T   T   T
  0.9968743544821611  0.5014582281866440  0.2134924105509200   T   T   T
  0.4975559327778484  0.5029237716084656  0.2130771412192435   T   T   T
  0.2469034526279244  0.7448537378914539  0.2127646417145805   T   T   T
  0.7476878217958711  0.7497691873588017  0.2135013481299420   T   T   T
  0.2486082709782003  0.9864403510134070  0.3133347017788506   T   T   T
  0.7511763534322125  0.9971425411819959  0.3223722350843259   T   T   T
  0.9971872069306296  0.2508488556020512  0.3220230080548951   T   T   T
  0.5087367186812959  0.2509602543432588  0.3141330680834979   T   T   T
  0.2455610183081482  0.4982668935981507  0.3245455918881026   T   T   T
  0.7494970539049687  0.5015986288058251  0.3227035311466066   T   T   T
  0.9954027957108856  0.7469437849331154  0.3249770831015010   T   T   T
  0.5008348242279941  0.7446592596385387  0.3247080695380514   T   T   T
  0.0160426050784804  0.0233091979056332  0.4255542615524677   T   T   T
  0.4965933731575907  0.9999481810257485  0.4253266018310034   T   T   T
  0.7469123584576105  0.2439056302198190  0.4300160160284773   T   T   T
  0.0113721340470442  0.4753235019140988  0.4340038166453442   T   T   T
  0.4674277554644564  0.4839091258686701  0.4300892273396098   T   T   T
  0.2408312243187206  0.7510585377950989  0.4290218885078706   T   T   T
  0.7586802983778886  0.7614025643683157  0.4330636788406675   T   T   T
  0.9977435281667791  0.0008763834846644  0.1137873170793661   T   T   T
  0.4970528066993307  0.0004130002577075  0.1135806840896091   T   T   T
  0.2472375455679426  0.2502078540637252  0.1158122831695759   T   T   T
  0.7472866802789386  0.2503146708741445  0.1140035880298540   T   T   T
  0.9975930011976792  0.4995592154425610  0.1148622420211236   T   T   T
  0.4962652116327628  0.4993352190901858  0.1146014736104473   T   T   T
  0.2469757409360151  0.7489211139806086  0.1142504022133782   T   T   T
  0.7470124948256235  0.7497077143725939  0.1142991774935175   T   T   T
  0.2474842056793198  0.0022883930101153  0.2099791412331749   T   T   T
  0.7474967390737735  0.0004131336150400  0.2081317358091010   T   T   T
  0.9975681033192905  0.2510455088920696  0.2093320942058525   T   T   T
  0.4943578722434824  0.2506566832042005  0.2102884400829834   T   T   T
  0.2466482145028892  0.4990109093116178  0.2103713997465670   T   T   T
  0.7468371352222337  0.5003023447653251  0.2098979560913074   T   T   T
  0.9970009909474925  0.7506634897957660  0.2081901675622075   T   T   T
  0.4961414210302603  0.7500615069855294  0.2078006581961291   T   T   T
  0.0036671375301435  0.0048973455468526  0.3247354476156382   T   T   T
  0.4990268674651572  0.0010126085223613  0.3241046232923615   T   T   T
  0.2566413496747045  0.2363144530806547  0.3396046431846549   T   T   T
  0.7447934966726975  0.2498392755116578  0.3247910891242049   T   T   T
  0.0004327159442297  0.4955708451888051  0.3291986632920387   T   T   T
  0.4945318464107086  0.4952477378655467  0.3282153984216269   T   T   T
  0.2451452283712424  0.7488125410586929  0.3258150375511550   T   T   T
  0.7483086035727626  0.7499478603967578  0.3270875583244407   T   T   T
  0.2557863802141891  0.0842223344320597  0.4067378225456634   T   T   T
  0.7350945974302696  0.0057655934971380  0.4211926532991034   T   T   T
  0.9619919382937537  0.2524400442032447  0.4184976942142537   T   T   T
  0.4076861109734928  0.2423669114416816  0.4069633190428385   T   T   T
  0.2404312893042962  0.5349439598659318  0.4219008455843555   T   T   T
  0.7408338774428176  0.5041564969601423  0.4205816903090095   T   T   T
  0.9966923713216991  0.7846491256608201  0.4209305865521875   T   T   T
  0.4772958512872142  0.7712187640283685  0.4202654810236893   T   T   T
  0.7319681562384610  0.4968862204868649  0.4892596213788143   T   T   T
 
  0.00000000E+00  0.00000000E+00  0.00000000E+00
  0.00000000E+00  0.00000000E+00  0.00000000E+00
  0.00000000E+00  0.00000000E+00  0.00000000E+00
  0.00000000E+00  0.00000000E+00  0.00000000E+00
  0.00000000E+00  0.00000000E+00  0.00000000E+00
  0.00000000E+00  0.00000000E+00  0.00000000E+00
  0.00000000E+00  0.00000000E+00  0.00000000E+00
  0.00000000E+00  0.00000000E+00  0.00000000E+00
  0.00000000E+00  0.00000000E+00  0.00000000E+00
  0.00000000E+00  0.00000000E+00  0.00000000E+00
  0.00000000E+00  0.00000000E+00  0.00000000E+00
  0.00000000E+00  0.00000000E+00  0.00000000E+00
  0.00000000E+00  0.00000000E+00  0.00000000E+00
  0.00000000E+00  0.00000000E+00  0.00000000E+00
  0.00000000E+00  0.00000000E+00  0.00000000E+00
  0.00000000E+00  0.00000000E+00  0.00000000E+00
  0.00000000E+00  0.00000000E+00  0.00000000E+00
  0.00000000E+00  0.00000000E+00  0.00000000E+00
  0.00000000E+00  0.00000000E+00  0.00000000E+00
  0.00000000E+00  0.00000000E+00  0.00000000E+00
  0.00000000E+00  0.00000000E+00  0.00000000E+00
  0.00000000E+00  0.00000000E+00  0.00000000E+00
  0.00000000E+00  0.00000000E+00  0.00000000E+00
  0.00000000E+00  0.00000000E+00  0.00000000E+00
  0.00000000E+00  0.00000000E+00  0.00000000E+00
  0.00000000E+00  0.00000000E+00  0.00000000E+00
  0.00000000E+00  0.00000000E+00  0.00000000E+00
  0.00000000E+00  0.00000000E+00  0.00000000E+00
  0.00000000E+00  0.00000000E+00  0.00000000E+00
  0.00000000E+00  0.00000000E+00  0.00000000E+00
  0.00000000E+00  0.00000000E+00  0.00000000E+00
  0.00000000E+00  0.00000000E+00  0.00000000E+00
  0.00000000E+00  0.00000000E+00  0.00000000E+00
  0.00000000E+00  0.00000000E+00  0.00000000E+00
  0.00000000E+00  0.00000000E+00  0.00000000E+00
  0.00000000E+00  0.00000000E+00  0.00000000E+00
  0.00000000E+00  0.00000000E+00  0.00000000E+00
  0.00000000E+00  0.00000000E+00  0.00000000E+00
  0.00000000E+00  0.00000000E+00  0.00000000E+00
  0.00000000E+00  0.00000000E+00  0.00000000E+00
  0.00000000E+00  0.00000000E+00  0.00000000E+00
  0.00000000E+00  0.00000000E+00  0.00000000E+00
  0.00000000E+00  0.00000000E+00  0.00000000E+00
  0.00000000E+00  0.00000000E+00  0.00000000E+00
  0.00000000E+00  0.00000000E+00  0.00000000E+00
  0.00000000E+00  0.00000000E+00  0.00000000E+00
  0.00000000E+00  0.00000000E+00  0.00000000E+00
  0.00000000E+00  0.00000000E+00  0.00000000E+00
  0.00000000E+00  0.00000000E+00  0.00000000E+00
  0.00000000E+00  0.00000000E+00  0.00000000E+00
  0.00000000E+00  0.00000000E+00  0.00000000E+00
  0.00000000E+00  0.00000000E+00  0.00000000E+00
  0.00000000E+00  0.00000000E+00  0.00000000E+00
  0.00000000E+00  0.00000000E+00  0.00000000E+00
  0.00000000E+00  0.00000000E+00  0.00000000E+00
  0.00000000E+00  0.00000000E+00  0.00000000E+00
  0.00000000E+00  0.00000000E+00  0.00000000E+00
  0.00000000E+00  0.00000000E+00  0.00000000E+00
  0.00000000E+00  0.00000000E+00  0.00000000E+00
  0.00000000E+00  0.00000000E+00  0.00000000E+00
  0.00000000E+00  0.00000000E+00  0.00000000E+00
  0.00000000E+00  0.00000000E+00  0.00000000E+00
  0.00000000E+00  0.00000000E+00  0.00000000E+00
  0.00000000E+00  0.00000000E+00  0.00000000E+00
  0.00000000E+00  0.00000000E+00  0.00000000E+00
