B Ba O Fe                               
   1.00000000000000     
    11.1568587867069997    0.0000000000000000    0.0000000000000000
     0.0000000000000000   11.1568587867069997    0.0000000000000000
     0.0000000000000000    0.0000000000000000   26.1568587867070015
   B    Ba   O    Fe
     1    31    32     1
Selective dynamics
Direct
  0.3011545481364941  0.1927184013243920  0.3853168762090070   T   T   T
  0.2474857811372797  0.9982805037040293  0.1066402480683065   T   T   T
  0.7476889116155204  0.9991808057547342  0.1061537308252072   T   T   T
  0.9966982283491536  0.2499482928235027  0.1063308695611194   T   T   T
  0.4986535499592050  0.2496497990407679  0.1070556032541500   T   T   T
  0.2470191958957376  0.5002386518505603  0.1066151855598134   T   T   T
  0.7475338919064997  0.5005264286288721  0.1073255248310622   T   T   T
  0.9966962073952913  0.7496800982669980  0.1066307453996159   T   T   T
  0.4978939529330760  0.7495998012409285  0.1060169158668507   T   T   T
  0.9953815576992319  0.9980400105345071  0.2123333254364390   T   T   T
  0.5008596080314491  0.9954940639332169  0.2120449199125403   T   T   T
  0.2464307823128227  0.2500994135918834  0.2108745308420224   T   T   T
  0.7513352572832588  0.2502024467258273  0.2122778270062109   T   T   T
  0.9965127564927511  0.5016100046117964  0.2134901801296301   T   T   T
  0.4979564890945884  0.5032349237099006  0.2129235922119672   T   T   T
  0.2471909853060154  0.7452476254818169  0.2122828578632340   T   T   T
  0.7474147738281728  0.7494053091788750  0.2134947199543797   T   T   T
  0.2497090857866474  0.9854504285608412  0.3123673529710451   T   T   T
  0.7505071084530534  0.9969042792975559  0.3213944030998342   T   T   T
  0.9971310456680987  0.2502791001812395  0.3206903049290776   T   T   T
  0.5083480287631933  0.2504515490271147  0.3129702582284558   T   T   T
  0.2451822711025021  0.4997780722583932  0.3226791016912883   T   T   T
  0.7487625084742678  0.5020977382856411  0.3242254221784577   T   T   T
  0.9956910343159157  0.7479406547568642  0.3245161622711866   T   T   T
  0.5002993167194298  0.7444051008683314  0.3256051875421955   T   T   T
  0.0202749565572298  0.0241495906402479  0.4246770497555954   T   T   T
  0.4952598251148564  0.0028369600432606  0.4249505717415371   T   T   T
  0.7485944961798091  0.2397832519878080  0.4288837381783044   T   T   T
  0.0120019952574289  0.4738517783909897  0.4325875449092476   T   T   T
  0.4589782664180220  0.4750582629332695  0.4301667382392078   T   T   T
  0.2402279851071817  0.7495734175716831  0.4289900256805677   T   T   T
  0.7608155954559483  0.7668242073965320  0.4326520598984113   T   T   T
  0.9978102808486563  0.0007749985734277  0.1136992514534624   T   T   T
  0.4976146471776761  0.0002064194284667  0.1134579217104535   T   T   T
  0.2471399065028101  0.2503107032804952  0.1156093033517559   T   T   T
  0.7474732201017530  0.2508048351893957  0.1143474471377463   T   T   T
  0.9972470694626827  0.4996362773230656  0.1151720679670769   T   T   T
  0.4969599863910873  0.4995487918206912  0.1151363412327925   T   T   T
  0.2470689072038139  0.7484857819231738  0.1141984762280022   T   T   T
  0.7471254601008457  0.7491614342524620  0.1149882982099621   T   T   T
  0.2478700349073550  0.0017618021802584  0.2096861025672575   T   T   T
  0.7477613891580378  0.0003097790130777  0.2088771806311010   T   T   T
  0.9974628734580140  0.2508716417218620  0.2095835780868897   T   T   T
  0.4947992491535815  0.2506619407275211  0.2100537274884083   T   T   T
  0.2471430679857557  0.4988633926449404  0.2113181932867498   T   T   T
  0.7471781236623579  0.5004076411017487  0.2118431317141458   T   T   T
  0.9969035721374904  0.7504464829563615  0.2086781073763563   T   T   T
  0.4964553922950382  0.7496792633131699  0.2080351259663104   T   T   T
  0.0041719404686260  0.0046193939044382  0.3244718374928747   T   T   T
  0.4990340684005376  0.0020537669010488  0.3237939421742757   T   T   T
  0.2556860672714686  0.2370978755416756  0.3380488341601692   T   T   T
  0.7440655527781176  0.2510029549359818  0.3260903435527504   T   T   T
  0.0004738775885512  0.4954444573393668  0.3294271161908041   T   T   T
  0.4964320144624884  0.4941480917030249  0.3304787520412160   T   T   T
  0.2448854818610114  0.7478150790664877  0.3259624642367964   T   T   T
  0.7483685277119524  0.7497584327553719  0.3295287771734302   T   T   T
  0.2542542602496993  0.0857763418212727  0.4055232548917964   T   T   T
  0.7342098708025498  0.0060772075643361  0.4207971853427679   T   T   T
  0.9630678970512118  0.2508739391810891  0.4179262661780284   T   T   T
  0.4049368786193294  0.2442550725900876  0.4060717064245915   T   T   T
  0.2402315827890708  0.5329766060537616  0.4214659783566566   T   T   T
  0.7560204323413928  0.5064976454490362  0.4251471438314831   T   T   T
  0.9967142474667716  0.7856816111542426  0.4211032847545695   T   T   T
  0.4729589471850532  0.7779111585236329  0.4202687767358430   T   T   T
  0.7250588992491112  0.4948158177056000  0.4930992937375300   T   T   T
 
  0.00000000E+00  0.00000000E+00  0.00000000E+00
  0.00000000E+00  0.00000000E+00  0.00000000E+00
  0.00000000E+00  0.00000000E+00  0.00000000E+00
  0.00000000E+00  0.00000000E+00  0.00000000E+00
  0.00000000E+00  0.00000000E+00  0.00000000E+00
  0.00000000E+00  0.00000000E+00  0.00000000E+00
  0.00000000E+00  0.00000000E+00  0.00000000E+00
  0.00000000E+00  0.00000000E+00  0.00000000E+00
  0.00000000E+00  0.00000000E+00  0.00000000E+00
  0.00000000E+00  0.00000000E+00  0.00000000E+00
  0.00000000E+00  0.00000000E+00  0.00000000E+00
  0.00000000E+00  0.00000000E+00  0.00000000E+00
  0.00000000E+00  0.00000000E+00  0.00000000E+00
  0.00000000E+00  0.00000000E+00  0.00000000E+00
  0.00000000E+00  0.00000000E+00  0.00000000E+00
  0.00000000E+00  0.00000000E+00  0.00000000E+00
  0.00000000E+00  0.00000000E+00  0.00000000E+00
  0.00000000E+00  0.00000000E+00  0.00000000E+00
  0.00000000E+00  0.00000000E+00  0.00000000E+00
  0.00000000E+00  0.00000000E+00  0.00000000E+00
  0.00000000E+00  0.00000000E+00  0.00000000E+00
  0.00000000E+00  0.00000000E+00  0.00000000E+00
  0.00000000E+00  0.00000000E+00  0.00000000E+00
  0.00000000E+00  0.00000000E+00  0.00000000E+00
  0.00000000E+00  0.00000000E+00  0.00000000E+00
  0.00000000E+00  0.00000000E+00  0.00000000E+00
  0.00000000E+00  0.00000000E+00  0.00000000E+00
  0.00000000E+00  0.00000000E+00  0.00000000E+00
  0.00000000E+00  0.00000000E+00  0.00000000E+00
  0.00000000E+00  0.00000000E+00  0.00000000E+00
  0.00000000E+00  0.00000000E+00  0.00000000E+00
  0.00000000E+00  0.00000000E+00  0.00000000E+00
  0.00000000E+00  0.00000000E+00  0.00000000E+00
  0.00000000E+00  0.00000000E+00  0.00000000E+00
  0.00000000E+00  0.00000000E+00  0.00000000E+00
  0.00000000E+00  0.00000000E+00  0.00000000E+00
  0.00000000E+00  0.00000000E+00  0.00000000E+00
  0.00000000E+00  0.00000000E+00  0.00000000E+00
  0.00000000E+00  0.00000000E+00  0.00000000E+00
  0.00000000E+00  0.00000000E+00  0.00000000E+00
  0.00000000E+00  0.00000000E+00  0.00000000E+00
  0.00000000E+00  0.00000000E+00  0.00000000E+00
  0.00000000E+00  0.00000000E+00  0.00000000E+00
  0.00000000E+00  0.00000000E+00  0.00000000E+00
  0.00000000E+00  0.00000000E+00  0.00000000E+00
  0.00000000E+00  0.00000000E+00  0.00000000E+00
  0.00000000E+00  0.00000000E+00  0.00000000E+00
  0.00000000E+00  0.00000000E+00  0.00000000E+00
  0.00000000E+00  0.00000000E+00  0.00000000E+00
  0.00000000E+00  0.00000000E+00  0.00000000E+00
  0.00000000E+00  0.00000000E+00  0.00000000E+00
  0.00000000E+00  0.00000000E+00  0.00000000E+00
  0.00000000E+00  0.00000000E+00  0.00000000E+00
  0.00000000E+00  0.00000000E+00  0.00000000E+00
  0.00000000E+00  0.00000000E+00  0.00000000E+00
  0.00000000E+00  0.00000000E+00  0.00000000E+00
  0.00000000E+00  0.00000000E+00  0.00000000E+00
  0.00000000E+00  0.00000000E+00  0.00000000E+00
  0.00000000E+00  0.00000000E+00  0.00000000E+00
  0.00000000E+00  0.00000000E+00  0.00000000E+00
  0.00000000E+00  0.00000000E+00  0.00000000E+00
  0.00000000E+00  0.00000000E+00  0.00000000E+00
  0.00000000E+00  0.00000000E+00  0.00000000E+00
  0.00000000E+00  0.00000000E+00  0.00000000E+00
  0.00000000E+00  0.00000000E+00  0.00000000E+00
