B Ba O Ir                               
   1.00000000000000     
    11.1568587867069997    0.0000000000000000    0.0000000000000000
     0.0000000000000000   11.1568587867069997    0.0000000000000000
     0.0000000000000000    0.0000000000000000   26.1568587867070015
   B    Ba   O    Ir
     1    31    32     1
Selective dynamics
Direct
  0.3054867809243694  0.1891623262192404  0.3872702170455714   T   T   T
  0.2473919931190714  0.9981749365354883  0.1088461119021316   T   T   T
  0.7474821270700293  0.9993530172380140  0.1069004233429584   T   T   T
  0.9964606178103355  0.2501922836087930  0.1075591265548096   T   T   T
  0.4987498531969941  0.2500594872500382  0.1085704011932425   T   T   T
  0.2469535467228473  0.5007034395950266  0.1074070305946038   T   T   T
  0.7476636129529317  0.5007334635606931  0.1082638546669153   T   T   T
  0.9966367958526550  0.7497825319393908  0.1076282039716198   T   T   T
  0.4977328184874568  0.7497582342769719  0.1072970915178218   T   T   T
  0.9945023558356696  0.9983417996349040  0.2135037517863858   T   T   T
  0.5009278949548613  0.9966000750389730  0.2132782329014752   T   T   T
  0.2460738115546746  0.2512658060534172  0.2117651172497116   T   T   T
  0.7520627721416966  0.2492772366896014  0.2130736047907034   T   T   T
  0.9985980262483324  0.5010455118716514  0.2143594349836900   T   T   T
  0.4964969296596924  0.5028054934152277  0.2135696938158785   T   T   T
  0.2463904238399646  0.7437790504302895  0.2137732438048060   T   T   T
  0.7481318205177425  0.7505653978347961  0.2139029034843384   T   T   T
  0.2465851852466492  0.9868170625353748  0.3141962869872289   T   T   T
  0.7509848293188798  0.9973552572229403  0.3236398306341345   T   T   T
  0.9972873772545575  0.2516353728025860  0.3239649384426816   T   T   T
  0.5092772215693964  0.2524452923901229  0.3150874216927383   T   T   T
  0.2463007027984521  0.4950930775371995  0.3285355188212466   T   T   T
  0.7499915607775952  0.5014720700791108  0.3199820387654842   T   T   T
  0.9942828564835235  0.7452983456424063  0.3256965604432713   T   T   T
  0.5006357178663484  0.7447384909687462  0.3236724993849452   T   T   T
  0.0065660008342876  0.0211113928459777  0.4263822725928892   T   T   T
  0.4983507956927200  0.9981026964647766  0.4251070409226910   T   T   T
  0.7440655965000694  0.2508747326277255  0.4307191384386717   T   T   T
  0.0024368391851994  0.4796086855697955  0.4359173858429893   T   T   T
  0.4783543014939665  0.4987922504212333  0.4311822578665187   T   T   T
  0.2398509373500786  0.7524528514015327  0.4290703879352998   T   T   T
  0.7539526836978721  0.7535817469142803  0.4337253309081615   T   T   T
  0.9975910544964363  0.0007658629581357  0.1135689066157016   T   T   T
  0.4967796809755868  0.0004957751726814  0.1133620294235343   T   T   T
  0.2473499323369757  0.2498642130374532  0.1155945640376458   T   T   T
  0.7472344672709975  0.2501475191456050  0.1131767115808148   T   T   T
  0.9977478662867373  0.4995712900286337  0.1138741816480273   T   T   T
  0.4963611896752874  0.4994173797126139  0.1136523438458043   T   T   T
  0.2469573940908843  0.7494314779338536  0.1140170883686035   T   T   T
  0.7469528112851473  0.7501019563148443  0.1132486742865879   T   T   T
  0.2471460053130053  0.0027346868864376  0.2100493296960297   T   T   T
  0.7473871166390834  0.0004914961035451  0.2073585218979369   T   T   T
  0.9980207129372817  0.2506250192295643  0.2084289488764662   T   T   T
  0.4940514372784089  0.2503927557857039  0.2100116659987562   T   T   T
  0.2469236986479180  0.4990005826688492  0.2084112572548451   T   T   T
  0.7470038156119089  0.5001363390281118  0.2089372474197644   T   T   T
  0.9973912664293669  0.7509233941962969  0.2076258308809786   T   T   T
  0.4958611926740021  0.7502533287661854  0.2074481214876367   T   T   T
  0.0019030301995780  0.0037229215209677  0.3251412701429185   T   T   T
  0.4988148061049969  0.9994633222745944  0.3241756864628574   T   T   T
  0.2583295178013926  0.2354383125968780  0.3403537615167403   T   T   T
  0.7457138608064452  0.2492512892759348  0.3222626052979327   T   T   T
  0.0017590558657440  0.4956340625943159  0.3254390751749325   T   T   T
  0.4942320874765641  0.4965645092322863  0.3252618434249605   T   T   T
  0.2451148049508315  0.7497694448926835  0.3257767952296266   T   T   T
  0.7475781302827368  0.7507063576155057  0.3235064885209516   T   T   T
  0.2567571124653937  0.0823817927556199  0.4072034368536900   T   T   T
  0.7371085713208215  0.0068859404937967  0.4221916229744999   T   T   T
  0.9601777119377272  0.2538727065898376  0.4189987819772905   T   T   T
  0.4113885055383349  0.2381382121210051  0.4071132826250096   T   T   T
  0.2397414717067099  0.5383852496146638  0.4235569467723487   T   T   T
  0.7422139992985212  0.5038598368705715  0.4145082475752251   T   T   T
  0.9957793746969212  0.7802797292288365  0.4214568896177325   T   T   T
  0.4825071079510539  0.7634987405070162  0.4203707790673169   T   T   T
  0.7337301462822728  0.4980926884736424  0.4891224960912468   T   T   T
 
  0.00000000E+00  0.00000000E+00  0.00000000E+00
  0.00000000E+00  0.00000000E+00  0.00000000E+00
  0.00000000E+00  0.00000000E+00  0.00000000E+00
  0.00000000E+00  0.00000000E+00  0.00000000E+00
  0.00000000E+00  0.00000000E+00  0.00000000E+00
  0.00000000E+00  0.00000000E+00  0.00000000E+00
  0.00000000E+00  0.00000000E+00  0.00000000E+00
  0.00000000E+00  0.00000000E+00  0.00000000E+00
  0.00000000E+00  0.00000000E+00  0.00000000E+00
  0.00000000E+00  0.00000000E+00  0.00000000E+00
  0.00000000E+00  0.00000000E+00  0.00000000E+00
  0.00000000E+00  0.00000000E+00  0.00000000E+00
  0.00000000E+00  0.00000000E+00  0.00000000E+00
  0.00000000E+00  0.00000000E+00  0.00000000E+00
  0.00000000E+00  0.00000000E+00  0.00000000E+00
  0.00000000E+00  0.00000000E+00  0.00000000E+00
  0.00000000E+00  0.00000000E+00  0.00000000E+00
  0.00000000E+00  0.00000000E+00  0.00000000E+00
  0.00000000E+00  0.00000000E+00  0.00000000E+00
  0.00000000E+00  0.00000000E+00  0.00000000E+00
  0.00000000E+00  0.00000000E+00  0.00000000E+00
  0.00000000E+00  0.00000000E+00  0.00000000E+00
  0.00000000E+00  0.00000000E+00  0.00000000E+00
  0.00000000E+00  0.00000000E+00  0.00000000E+00
  0.00000000E+00  0.00000000E+00  0.00000000E+00
  0.00000000E+00  0.00000000E+00  0.00000000E+00
  0.00000000E+00  0.00000000E+00  0.00000000E+00
  0.00000000E+00  0.00000000E+00  0.00000000E+00
  0.00000000E+00  0.00000000E+00  0.00000000E+00
  0.00000000E+00  0.00000000E+00  0.00000000E+00
  0.00000000E+00  0.00000000E+00  0.00000000E+00
  0.00000000E+00  0.00000000E+00  0.00000000E+00
  0.00000000E+00  0.00000000E+00  0.00000000E+00
  0.00000000E+00  0.00000000E+00  0.00000000E+00
  0.00000000E+00  0.00000000E+00  0.00000000E+00
  0.00000000E+00  0.00000000E+00  0.00000000E+00
  0.00000000E+00  0.00000000E+00  0.00000000E+00
  0.00000000E+00  0.00000000E+00  0.00000000E+00
  0.00000000E+00  0.00000000E+00  0.00000000E+00
  0.00000000E+00  0.00000000E+00  0.00000000E+00
  0.00000000E+00  0.00000000E+00  0.00000000E+00
  0.00000000E+00  0.00000000E+00  0.00000000E+00
  0.00000000E+00  0.00000000E+00  0.00000000E+00
  0.00000000E+00  0.00000000E+00  0.00000000E+00
  0.00000000E+00  0.00000000E+00  0.00000000E+00
  0.00000000E+00  0.00000000E+00  0.00000000E+00
  0.00000000E+00  0.00000000E+00  0.00000000E+00
  0.00000000E+00  0.00000000E+00  0.00000000E+00
  0.00000000E+00  0.00000000E+00  0.00000000E+00
  0.00000000E+00  0.00000000E+00  0.00000000E+00
  0.00000000E+00  0.00000000E+00  0.00000000E+00
  0.00000000E+00  0.00000000E+00  0.00000000E+00
  0.00000000E+00  0.00000000E+00  0.00000000E+00
  0.00000000E+00  0.00000000E+00  0.00000000E+00
  0.00000000E+00  0.00000000E+00  0.00000000E+00
  0.00000000E+00  0.00000000E+00  0.00000000E+00
  0.00000000E+00  0.00000000E+00  0.00000000E+00
  0.00000000E+00  0.00000000E+00  0.00000000E+00
  0.00000000E+00  0.00000000E+00  0.00000000E+00
  0.00000000E+00  0.00000000E+00  0.00000000E+00
  0.00000000E+00  0.00000000E+00  0.00000000E+00
  0.00000000E+00  0.00000000E+00  0.00000000E+00
  0.00000000E+00  0.00000000E+00  0.00000000E+00
  0.00000000E+00  0.00000000E+00  0.00000000E+00
  0.00000000E+00  0.00000000E+00  0.00000000E+00
