B Ba O Cu                               
   1.00000000000000     
    11.1568587867069997    0.0000000000000000    0.0000000000000000
     0.0000000000000000   11.1568587867069997    0.0000000000000000
     0.0000000000000000    0.0000000000000000   26.1568587867070015
   B    Ba   O    Cu
     1    31    32     1
Selective dynamics
Direct
  0.3061723351281154  0.1894311849813378  0.3873943728936169   T   T   T
  0.2472093416418129  0.9983747125395175  0.1079584203040214   T   T   T
  0.7473600084494090  0.9995022968872187  0.1066576000271826   T   T   T
  0.9961478806077475  0.2503945274471983  0.1071333780118748   T   T   T
  0.4988629344237868  0.2500607631102261  0.1078333230051140   T   T   T
  0.2468550433932943  0.5009386185425440  0.1071447893943389   T   T   T
  0.7473312251587124  0.5007504767446992  0.1070260899723890   T   T   T
  0.9963546385350190  0.7497734039575642  0.1071934368254245   T   T   T
  0.4978042058353638  0.7498238086776157  0.1067123672282847   T   T   T
  0.9944801986891162  0.9985660131327763  0.2129423863714457   T   T   T
  0.5007315141656813  0.9966604974467757  0.2126808747823190   T   T   T
  0.2461947303913183  0.2511809742887632  0.2110467307618539   T   T   T
  0.7517589202705691  0.2507476790228987  0.2127877791551825   T   T   T
  0.9965164453653326  0.5010501250860333  0.2138269275904954   T   T   T
  0.4982352160169443  0.5027312519465887  0.2129276096269209   T   T   T
  0.2465280978477483  0.7448294082245409  0.2130224211414373   T   T   T
  0.7479346924872267  0.7493015634187553  0.2135064517154862   T   T   T
  0.2468473168046961  0.9878066693823471  0.3140040818001764   T   T   T
  0.7506644601759974  0.9978784078121292  0.3227202620176911   T   T   T
  0.9982049360713044  0.2508672865204070  0.3239181304430058   T   T   T
  0.5089933583692229  0.2518859957937103  0.3146131390583667   T   T   T
  0.2469879816824833  0.4969628982272976  0.3253962301656830   T   T   T
  0.7499900533093963  0.5011221067330263  0.3232939703265989   T   T   T
  0.9946802185401186  0.7460970594756617  0.3249695104357708   T   T   T
  0.5008735209152297  0.7451177326864155  0.3232423146385050   T   T   T
  0.0038032141747694  0.0194382081656932  0.4267126383314103   T   T   T
  0.4991431401936346  0.9981711527818447  0.4251952533642598   T   T   T
  0.7453854700104345  0.2521542296899943  0.4308731632802151   T   T   T
  0.0098182543375120  0.4813970528544765  0.4342000345483526   T   T   T
  0.4761494507839553  0.4953830232818391  0.4299918067568724   T   T   T
  0.2411077466322833  0.7524834518318082  0.4284144896405326   T   T   T
  0.7533400800986961  0.7509595136270378  0.4327404786298775   T   T   T
  0.9977185774528123  0.0008881179095454  0.1137249894153821   T   T   T
  0.4967020583986650  0.0004722066576237  0.1132498656654851   T   T   T
  0.2470967981475222  0.2501296837511642  0.1153763810574288   T   T   T
  0.7472730844083518  0.2500189871388162  0.1134919058125385   T   T   T
  0.9980480158549543  0.4994488150978542  0.1142838406483047   T   T   T
  0.4959476010811615  0.4993898907358806  0.1136343070905318   T   T   T
  0.2469066459065544  0.7497050817239331  0.1138305396211690   T   T   T
  0.7470203522855996  0.7504081430290207  0.1136348456814379   T   T   T
  0.2469255139224511  0.0030303114298508  0.2097674984203758   T   T   T
  0.7473226370575276  0.0007699972757305  0.2075068248264468   T   T   T
  0.9977386812956348  0.2507575863028452  0.2087799614694436   T   T   T
  0.4940707544375866  0.2503458072029880  0.2097375738603946   T   T   T
  0.2463668181331521  0.4994469273565107  0.2091091345175437   T   T   T
  0.7465941485998899  0.5003987037225491  0.2071508843649814   T   T   T
  0.9970375631073832  0.7507777421537757  0.2076395960197583   T   T   T
  0.4960926477257593  0.7500924017687679  0.2073440965537395   T   T   T
  0.0017372980419960  0.0031021432877146  0.3259209092951630   T   T   T
  0.4986826408085007  0.9987962614627368  0.3240787688662324   T   T   T
  0.2586970402443119  0.2363220904161676  0.3405011906262992   T   T   T
  0.7455009020523921  0.2501311862461334  0.3238852840563021   T   T   T
  0.0018637900226598  0.4952206776863242  0.3277782738211552   T   T   T
  0.4935613030657202  0.4956069722009942  0.3258460361005322   T   T   T
  0.2458527138927604  0.7509518907026080  0.3253173810683059   T   T   T
  0.7481687362512226  0.7504932870934296  0.3254173517103329   T   T   T
  0.2577875694503899  0.0824518928464338  0.4070759292622586   T   T   T
  0.7388317433504421  0.0085768347337015  0.4209413765475657   T   T   T
  0.9600065201906944  0.2547736721682303  0.4192095812278175   T   T   T
  0.4124253152662827  0.2384852956769705  0.4070383413466359   T   T   T
  0.2409639837462465  0.5380239656819907  0.4210892394377115   T   T   T
  0.7330751842589355  0.5051093117181555  0.4180281452350374   T   T   T
  0.9948843626530847  0.7747202687476966  0.4211525755489651   T   T   T
  0.4833769810510579  0.7624972908687035  0.4201059780742654   T   T   T
  0.7335291109253228  0.4980920711294212  0.4993237164357877   T   T   T
 
  0.00000000E+00  0.00000000E+00  0.00000000E+00
  0.00000000E+00  0.00000000E+00  0.00000000E+00
  0.00000000E+00  0.00000000E+00  0.00000000E+00
  0.00000000E+00  0.00000000E+00  0.00000000E+00
  0.00000000E+00  0.00000000E+00  0.00000000E+00
  0.00000000E+00  0.00000000E+00  0.00000000E+00
  0.00000000E+00  0.00000000E+00  0.00000000E+00
  0.00000000E+00  0.00000000E+00  0.00000000E+00
  0.00000000E+00  0.00000000E+00  0.00000000E+00
  0.00000000E+00  0.00000000E+00  0.00000000E+00
  0.00000000E+00  0.00000000E+00  0.00000000E+00
  0.00000000E+00  0.00000000E+00  0.00000000E+00
  0.00000000E+00  0.00000000E+00  0.00000000E+00
  0.00000000E+00  0.00000000E+00  0.00000000E+00
  0.00000000E+00  0.00000000E+00  0.00000000E+00
  0.00000000E+00  0.00000000E+00  0.00000000E+00
  0.00000000E+00  0.00000000E+00  0.00000000E+00
  0.00000000E+00  0.00000000E+00  0.00000000E+00
  0.00000000E+00  0.00000000E+00  0.00000000E+00
  0.00000000E+00  0.00000000E+00  0.00000000E+00
  0.00000000E+00  0.00000000E+00  0.00000000E+00
  0.00000000E+00  0.00000000E+00  0.00000000E+00
  0.00000000E+00  0.00000000E+00  0.00000000E+00
  0.00000000E+00  0.00000000E+00  0.00000000E+00
  0.00000000E+00  0.00000000E+00  0.00000000E+00
  0.00000000E+00  0.00000000E+00  0.00000000E+00
  0.00000000E+00  0.00000000E+00  0.00000000E+00
  0.00000000E+00  0.00000000E+00  0.00000000E+00
  0.00000000E+00  0.00000000E+00  0.00000000E+00
  0.00000000E+00  0.00000000E+00  0.00000000E+00
  0.00000000E+00  0.00000000E+00  0.00000000E+00
  0.00000000E+00  0.00000000E+00  0.00000000E+00
  0.00000000E+00  0.00000000E+00  0.00000000E+00
  0.00000000E+00  0.00000000E+00  0.00000000E+00
  0.00000000E+00  0.00000000E+00  0.00000000E+00
  0.00000000E+00  0.00000000E+00  0.00000000E+00
  0.00000000E+00  0.00000000E+00  0.00000000E+00
  0.00000000E+00  0.00000000E+00  0.00000000E+00
  0.00000000E+00  0.00000000E+00  0.00000000E+00
  0.00000000E+00  0.00000000E+00  0.00000000E+00
  0.00000000E+00  0.00000000E+00  0.00000000E+00
  0.00000000E+00  0.00000000E+00  0.00000000E+00
  0.00000000E+00  0.00000000E+00  0.00000000E+00
  0.00000000E+00  0.00000000E+00  0.00000000E+00
  0.00000000E+00  0.00000000E+00  0.00000000E+00
  0.00000000E+00  0.00000000E+00  0.00000000E+00
  0.00000000E+00  0.00000000E+00  0.00000000E+00
  0.00000000E+00  0.00000000E+00  0.00000000E+00
  0.00000000E+00  0.00000000E+00  0.00000000E+00
  0.00000000E+00  0.00000000E+00  0.00000000E+00
  0.00000000E+00  0.00000000E+00  0.00000000E+00
  0.00000000E+00  0.00000000E+00  0.00000000E+00
  0.00000000E+00  0.00000000E+00  0.00000000E+00
  0.00000000E+00  0.00000000E+00  0.00000000E+00
  0.00000000E+00  0.00000000E+00  0.00000000E+00
  0.00000000E+00  0.00000000E+00  0.00000000E+00
  0.00000000E+00  0.00000000E+00  0.00000000E+00
  0.00000000E+00  0.00000000E+00  0.00000000E+00
  0.00000000E+00  0.00000000E+00  0.00000000E+00
  0.00000000E+00  0.00000000E+00  0.00000000E+00
  0.00000000E+00  0.00000000E+00  0.00000000E+00
  0.00000000E+00  0.00000000E+00  0.00000000E+00
  0.00000000E+00  0.00000000E+00  0.00000000E+00
  0.00000000E+00  0.00000000E+00  0.00000000E+00
  0.00000000E+00  0.00000000E+00  0.00000000E+00
