B Ba O Ni                               
   1.00000000000000     
    11.1568587867069997    0.0000000000000000    0.0000000000000000
     0.0000000000000000   11.1568587867069997    0.0000000000000000
     0.0000000000000000    0.0000000000000000   26.1568587867070015
   B    Ba   O    Ni
     1    31    32     1
Selective dynamics
Direct
  0.3040411583633781  0.1906431149462434  0.3870369473646539   T   T   T
  0.2474397063946368  0.9982068257993538  0.1080700275501859   T   T   T
  0.7475012880489457  0.9992419567375733  0.1065889856554680   T   T   T
  0.9963787724493158  0.2500979165653853  0.1071374253511062   T   T   T
  0.4987937787292168  0.2499003870451189  0.1079876337457624   T   T   T
  0.2469924737278140  0.5005012677585023  0.1072172030358824   T   T   T
  0.7475269313226292  0.5006485293440415  0.1075111971834628   T   T   T
  0.9965609109626182  0.7497044972696059  0.1072128477102206   T   T   T
  0.4977949117495675  0.7496676766692927  0.1068705718114467   T   T   T
  0.9946448629859208  0.9981248015346875  0.2129767249183863   T   T   T
  0.5011109707758163  0.9962763253931174  0.2128366711850993   T   T   T
  0.2463038915637527  0.2508798832348560  0.2114008254459639   T   T   T
  0.7515535492221082  0.2502257995799472  0.2127204964818817   T   T   T
  0.9971339838435702  0.5013304378695983  0.2138662116874803   T   T   T
  0.4977958461591570  0.5028186443758965  0.2132215131469379   T   T   T
  0.2466955948530855  0.7442364809766503  0.2131793013722339   T   T   T
  0.7479839355564453  0.7495946935704150  0.2136495974283122   T   T   T
  0.2477767702054528  0.9868293198761864  0.3136509408548878   T   T   T
  0.7509588303595938  0.9975336193353231  0.3229294824322174   T   T   T
  0.9971782698714372  0.2507866241590136  0.3226180877137793   T   T   T
  0.5086117343505064  0.2515641304107498  0.3145081489489197   T   T   T
  0.2460773581361459  0.4969254125577197  0.3259737842047682   T   T   T
  0.7497849019136251  0.5018593573683130  0.3228298828772631   T   T   T
  0.9951424858941786  0.7463575266987080  0.3252347072871442   T   T   T
  0.5006061520570856  0.7449731788744453  0.3240650372379967   T   T   T
  0.0115958499064019  0.0223528181087840  0.4259789502264092   T   T   T
  0.4973863843055744  0.9988594140502884  0.4253517559456731   T   T   T
  0.7455356187982343  0.2478672889157587  0.4302167879813382   T   T   T
  0.0074041983261405  0.4778813850488214  0.4343563999847546   T   T   T
  0.4721614073527382  0.4921788818272571  0.4305510109116254   T   T   T
  0.2401668821209005  0.7515107047397132  0.4291205580111768   T   T   T
  0.7560225301180957  0.7567196943714956  0.4330393771843518   T   T   T
  0.9978332847517327  0.0007392144165054  0.1137246254339965   T   T   T
  0.4968986218793049  0.0004040713022940  0.1134992111634254   T   T   T
  0.2472613671055260  0.2498804802991915  0.1157525777280182   T   T   T
  0.7473134931506398  0.2500262302217028  0.1137259951789789   T   T   T
  0.9980260165301026  0.4993862147737718  0.1144673493440726   T   T   T
  0.4962481579218037  0.4993338259668046  0.1142613898639909   T   T   T
  0.2470333416839728  0.7491053337338021  0.1142080424239210   T   T   T
  0.7470519522694773  0.7499517475903921  0.1140084077515285   T   T   T
  0.2473123225907561  0.0024789669905985  0.2101656294084596   T   T   T
  0.7474426353995466  0.0004591549304354  0.2076986943374550   T   T   T
  0.9977421625764057  0.2507880842227774  0.2090412091300672   T   T   T
  0.4941588011716955  0.2505736202632749  0.2102040555200375   T   T   T
  0.2468325573848626  0.4988975362741043  0.2094666733145316   T   T   T
  0.7471047285400267  0.5002525181168531  0.2086905362459125   T   T   T
  0.9971119784706617  0.7506849059868130  0.2080401895371855   T   T   T
  0.4960825625078001  0.7499937863595489  0.2078083953499903   T   T   T
  0.0030054198300905  0.0042922520851821  0.3250408750530567   T   T   T
  0.4984821447714531  0.0000676246829059  0.3241098874713760   T   T   T
  0.2572505668024742  0.2360442392946427  0.3398778063253935   T   T   T
  0.7450870739879297  0.2498744153035089  0.3238856607201863   T   T   T
  0.0018002357334320  0.4954627560380439  0.3275027396825845   T   T   T
  0.4943841701942934  0.4958824355088096  0.3272438939188130   T   T   T
  0.2450855873948922  0.7496505593076292  0.3258733913672779   T   T   T
  0.7481078587059085  0.7507401944490690  0.3259198511156993   T   T   T
  0.2559201188595954  0.0836498142607549  0.4069831138815253   T   T   T
  0.7353283110157739  0.0069909528708168  0.4212267065422862   T   T   T
  0.9605979305250862  0.2533959556014147  0.4186936583537755   T   T   T
  0.4093704252574708  0.2406821293503529  0.4069739661846404   T   T   T
  0.2403375750327169  0.5367353693636772  0.4222599699408299   T   T   T
  0.7446069633770676  0.5054798345578666  0.4187272780825138   T   T   T
  0.9956611613176798  0.7815240013128750  0.4212891722437753   T   T   T
  0.4801034670126905  0.7659034818026338  0.4204435694206718   T   T   T
  0.7310287894169994  0.4956473079911097  0.4883291710172618   T   T   T
 
  0.00000000E+00  0.00000000E+00  0.00000000E+00
  0.00000000E+00  0.00000000E+00  0.00000000E+00
  0.00000000E+00  0.00000000E+00  0.00000000E+00
  0.00000000E+00  0.00000000E+00  0.00000000E+00
  0.00000000E+00  0.00000000E+00  0.00000000E+00
  0.00000000E+00  0.00000000E+00  0.00000000E+00
  0.00000000E+00  0.00000000E+00  0.00000000E+00
  0.00000000E+00  0.00000000E+00  0.00000000E+00
  0.00000000E+00  0.00000000E+00  0.00000000E+00
  0.00000000E+00  0.00000000E+00  0.00000000E+00
  0.00000000E+00  0.00000000E+00  0.00000000E+00
  0.00000000E+00  0.00000000E+00  0.00000000E+00
  0.00000000E+00  0.00000000E+00  0.00000000E+00
  0.00000000E+00  0.00000000E+00  0.00000000E+00
  0.00000000E+00  0.00000000E+00  0.00000000E+00
  0.00000000E+00  0.00000000E+00  0.00000000E+00
  0.00000000E+00  0.00000000E+00  0.00000000E+00
  0.00000000E+00  0.00000000E+00  0.00000000E+00
  0.00000000E+00  0.00000000E+00  0.00000000E+00
  0.00000000E+00  0.00000000E+00  0.00000000E+00
  0.00000000E+00  0.00000000E+00  0.00000000E+00
  0.00000000E+00  0.00000000E+00  0.00000000E+00
  0.00000000E+00  0.00000000E+00  0.00000000E+00
  0.00000000E+00  0.00000000E+00  0.00000000E+00
  0.00000000E+00  0.00000000E+00  0.00000000E+00
  0.00000000E+00  0.00000000E+00  0.00000000E+00
  0.00000000E+00  0.00000000E+00  0.00000000E+00
  0.00000000E+00  0.00000000E+00  0.00000000E+00
  0.00000000E+00  0.00000000E+00  0.00000000E+00
  0.00000000E+00  0.00000000E+00  0.00000000E+00
  0.00000000E+00  0.00000000E+00  0.00000000E+00
  0.00000000E+00  0.00000000E+00  0.00000000E+00
  0.00000000E+00  0.00000000E+00  0.00000000E+00
  0.00000000E+00  0.00000000E+00  0.00000000E+00
  0.00000000E+00  0.00000000E+00  0.00000000E+00
  0.00000000E+00  0.00000000E+00  0.00000000E+00
  0.00000000E+00  0.00000000E+00  0.00000000E+00
  0.00000000E+00  0.00000000E+00  0.00000000E+00
  0.00000000E+00  0.00000000E+00  0.00000000E+00
  0.00000000E+00  0.00000000E+00  0.00000000E+00
  0.00000000E+00  0.00000000E+00  0.00000000E+00
  0.00000000E+00  0.00000000E+00  0.00000000E+00
  0.00000000E+00  0.00000000E+00  0.00000000E+00
  0.00000000E+00  0.00000000E+00  0.00000000E+00
  0.00000000E+00  0.00000000E+00  0.00000000E+00
  0.00000000E+00  0.00000000E+00  0.00000000E+00
  0.00000000E+00  0.00000000E+00  0.00000000E+00
  0.00000000E+00  0.00000000E+00  0.00000000E+00
  0.00000000E+00  0.00000000E+00  0.00000000E+00
  0.00000000E+00  0.00000000E+00  0.00000000E+00
  0.00000000E+00  0.00000000E+00  0.00000000E+00
  0.00000000E+00  0.00000000E+00  0.00000000E+00
  0.00000000E+00  0.00000000E+00  0.00000000E+00
  0.00000000E+00  0.00000000E+00  0.00000000E+00
  0.00000000E+00  0.00000000E+00  0.00000000E+00
  0.00000000E+00  0.00000000E+00  0.00000000E+00
  0.00000000E+00  0.00000000E+00  0.00000000E+00
  0.00000000E+00  0.00000000E+00  0.00000000E+00
  0.00000000E+00  0.00000000E+00  0.00000000E+00
  0.00000000E+00  0.00000000E+00  0.00000000E+00
  0.00000000E+00  0.00000000E+00  0.00000000E+00
  0.00000000E+00  0.00000000E+00  0.00000000E+00
  0.00000000E+00  0.00000000E+00  0.00000000E+00
  0.00000000E+00  0.00000000E+00  0.00000000E+00
  0.00000000E+00  0.00000000E+00  0.00000000E+00
