B Ba O Au                               
   1.00000000000000     
    11.1568587867069997    0.0000000000000000    0.0000000000000000
     0.0000000000000000   11.1568587867069997    0.0000000000000000
     0.0000000000000000    0.0000000000000000   26.1568587867070015
   B    Ba   O    Au
     1    31    32     1
Selective dynamics
Direct
  0.3111738012166419  0.1911368553964129  0.3875518143243722   T   T   T
  0.2470810105909782  0.9982776039705167  0.1086992404995479   T   T   T
  0.7469636907860582  0.9991692096501383  0.1064505303030861   T   T   T
  0.9965435297498774  0.2497438837960568  0.1067839906397171   T   T   T
  0.4985215480342572  0.2497365285073962  0.1077389142563091   T   T   T
  0.2466109934398381  0.5010000701314624  0.1070439065646183   T   T   T
  0.7466404730303213  0.5006205404090954  0.1061566055562891   T   T   T
  0.9963809450051584  0.7498149892818980  0.1072860057228296   T   T   T
  0.4970272305603428  0.7499416921690086  0.1067722250034336   T   T   T
  0.9939462220332069  0.9985026649524618  0.2131923355338565   T   T   T
  0.4998619550131424  0.9963245551244024  0.2130330680716266   T   T   T
  0.2460724139786151  0.2512833527892982  0.2111781045412692   T   T   T
  0.7525114828469111  0.2498186258854995  0.2118422487559532   T   T   T
  0.9962628060565177  0.5006333447185669  0.2130266929975341   T   T   T
  0.4972201914048328  0.5028523761141562  0.2124617300269689   T   T   T
  0.2460753322397362  0.7455767827918024  0.2134786380043807   T   T   T
  0.7474385351726556  0.7499111474889949  0.2130527977429530   T   T   T
  0.2444451254043035  0.9895917568197727  0.3156325784347701   T   T   T
  0.7479991947584704  0.9982690977923158  0.3228436932619012   T   T   T
  0.9980352969143371  0.2499217059490485  0.3252705449689722   T   T   T
  0.5109412040855464  0.2530623498412574  0.3136401827295646   T   T   T
  0.2436256332365770  0.4988733075992863  0.3240011861337533   T   T   T
  0.7517419364356859  0.4996087588368666  0.3192566076398788   T   T   T
  0.9916547865861255  0.7464903874390270  0.3259615921109692   T   T   T
  0.5007719774852010  0.7433363764006344  0.3237075287552059   T   T   T
  0.9813746664457816  0.0140124407757959  0.4283452659030421   T   T   T
  0.5034602204730276 -0.0003559957217026  0.4249416090483993   T   T   T
  0.7463134573220357  0.2686324292126197  0.4318586923107202   T   T   T
  0.0179980547894680  0.4824839203741888  0.4357020306290570   T   T   T
  0.4721757084929699  0.4860327745327743  0.4270510909537629   T   T   T
  0.2414222308710215  0.7561035456597311  0.4279620630408673   T   T   T
  0.7432929825276600  0.7248457379579737  0.4332668460191965   T   T   T
  0.9974623099999409  0.0003274787260117  0.1135868843387714   T   T   T
  0.4958502848359105  0.0000416361860229  0.1129327845480820   T   T   T
  0.2474710084921379  0.2496544538802548  0.1152408714504616   T   T   T
  0.7476795671210641  0.2496932790736964  0.1119260381401181   T   T   T
  0.9972161284805593  0.4993444514181571  0.1132225859501036   T   T   T
  0.4946927312272943  0.4992658209075080  0.1119898943842906   T   T   T
  0.2469523717203423  0.7499808886053422  0.1139730072100254   T   T   T
  0.7470349103892937  0.7506470006262844  0.1127756732870020   T   T   T
  0.2462105067796484  0.0029554187705741  0.2102146044615817   T   T   T
  0.7471450217322454  0.0005282330336418  0.2068402373931663   T   T   T
  0.9984878629843347  0.2503350091520555  0.2075236546484464   T   T   T
  0.4944438624380775  0.2498108428645673  0.2090063042004855   T   T   T
  0.2440625326732095  0.4996568404517315  0.2082976385206867   T   T   T
  0.7450239305209174  0.5004953350920509  0.2055383111779385   T   T   T
  0.9970041520490044  0.7502491562302710  0.2071567043168886   T   T   T
  0.4959859714402163  0.7503442953699008  0.2070710795376127   T   T   T
  0.9973746642265457  0.0019712498894531  0.3267489125628645   T   T   T
  0.4985692519357650  0.9981149260305118  0.3233715905872140   T   T   T
  0.2617740770329050  0.2371339759248363  0.3409452595896710   T   T   T
  0.7481987460070331  0.2518429817661783  0.3209606162533611   T   T   T
  0.9989000717379795  0.4957827819183612  0.3273382257091558   T   T   T
  0.4833133195405042  0.4947151215527614  0.3207534967638182   T   T   T
  0.2453205210004139  0.7526085769753592  0.3259485215762443   T   T   T
  0.7468901124886164  0.7491191345047847  0.3247819642491808   T   T   T
  0.2683550787307674  0.0830127968771653  0.4075276496348207   T   T   T
  0.7409465869477684  0.0231724941198044  0.4209693583727558   T   T   T
  0.9601248125326709  0.2583895237122995  0.4193977336918875   T   T   T
  0.4164803447045344  0.2444910434655539  0.4069880379531020   T   T   T
  0.2403609006060269  0.5407661666590458  0.4206682582980419   T   T   T
  0.7007216208705923  0.5031087523717138  0.4103728357018255   T   T   T
  0.9922168603292799  0.7699445087715933  0.4220198125374550   T   T   T
  0.4879975837096154  0.7647478654843700  0.4213905183113743   T   T   T
  0.7984213813214682  0.4937727531844257  0.5263833600867945   T   T   T
 
  0.00000000E+00  0.00000000E+00  0.00000000E+00
  0.00000000E+00  0.00000000E+00  0.00000000E+00
  0.00000000E+00  0.00000000E+00  0.00000000E+00
  0.00000000E+00  0.00000000E+00  0.00000000E+00
  0.00000000E+00  0.00000000E+00  0.00000000E+00
  0.00000000E+00  0.00000000E+00  0.00000000E+00
  0.00000000E+00  0.00000000E+00  0.00000000E+00
  0.00000000E+00  0.00000000E+00  0.00000000E+00
  0.00000000E+00  0.00000000E+00  0.00000000E+00
  0.00000000E+00  0.00000000E+00  0.00000000E+00
  0.00000000E+00  0.00000000E+00  0.00000000E+00
  0.00000000E+00  0.00000000E+00  0.00000000E+00
  0.00000000E+00  0.00000000E+00  0.00000000E+00
  0.00000000E+00  0.00000000E+00  0.00000000E+00
  0.00000000E+00  0.00000000E+00  0.00000000E+00
  0.00000000E+00  0.00000000E+00  0.00000000E+00
  0.00000000E+00  0.00000000E+00  0.00000000E+00
  0.00000000E+00  0.00000000E+00  0.00000000E+00
  0.00000000E+00  0.00000000E+00  0.00000000E+00
  0.00000000E+00  0.00000000E+00  0.00000000E+00
  0.00000000E+00  0.00000000E+00  0.00000000E+00
  0.00000000E+00  0.00000000E+00  0.00000000E+00
  0.00000000E+00  0.00000000E+00  0.00000000E+00
  0.00000000E+00  0.00000000E+00  0.00000000E+00
  0.00000000E+00  0.00000000E+00  0.00000000E+00
  0.00000000E+00  0.00000000E+00  0.00000000E+00
  0.00000000E+00  0.00000000E+00  0.00000000E+00
  0.00000000E+00  0.00000000E+00  0.00000000E+00
  0.00000000E+00  0.00000000E+00  0.00000000E+00
  0.00000000E+00  0.00000000E+00  0.00000000E+00
  0.00000000E+00  0.00000000E+00  0.00000000E+00
  0.00000000E+00  0.00000000E+00  0.00000000E+00
  0.00000000E+00  0.00000000E+00  0.00000000E+00
  0.00000000E+00  0.00000000E+00  0.00000000E+00
  0.00000000E+00  0.00000000E+00  0.00000000E+00
  0.00000000E+00  0.00000000E+00  0.00000000E+00
  0.00000000E+00  0.00000000E+00  0.00000000E+00
  0.00000000E+00  0.00000000E+00  0.00000000E+00
  0.00000000E+00  0.00000000E+00  0.00000000E+00
  0.00000000E+00  0.00000000E+00  0.00000000E+00
  0.00000000E+00  0.00000000E+00  0.00000000E+00
  0.00000000E+00  0.00000000E+00  0.00000000E+00
  0.00000000E+00  0.00000000E+00  0.00000000E+00
  0.00000000E+00  0.00000000E+00  0.00000000E+00
  0.00000000E+00  0.00000000E+00  0.00000000E+00
  0.00000000E+00  0.00000000E+00  0.00000000E+00
  0.00000000E+00  0.00000000E+00  0.00000000E+00
  0.00000000E+00  0.00000000E+00  0.00000000E+00
  0.00000000E+00  0.00000000E+00  0.00000000E+00
  0.00000000E+00  0.00000000E+00  0.00000000E+00
  0.00000000E+00  0.00000000E+00  0.00000000E+00
  0.00000000E+00  0.00000000E+00  0.00000000E+00
  0.00000000E+00  0.00000000E+00  0.00000000E+00
  0.00000000E+00  0.00000000E+00  0.00000000E+00
  0.00000000E+00  0.00000000E+00  0.00000000E+00
  0.00000000E+00  0.00000000E+00  0.00000000E+00
  0.00000000E+00  0.00000000E+00  0.00000000E+00
  0.00000000E+00  0.00000000E+00  0.00000000E+00
  0.00000000E+00  0.00000000E+00  0.00000000E+00
  0.00000000E+00  0.00000000E+00  0.00000000E+00
  0.00000000E+00  0.00000000E+00  0.00000000E+00
  0.00000000E+00  0.00000000E+00  0.00000000E+00
  0.00000000E+00  0.00000000E+00  0.00000000E+00
  0.00000000E+00  0.00000000E+00  0.00000000E+00
  0.00000000E+00  0.00000000E+00  0.00000000E+00
