B Ba O Mn                               
   1.00000000000000     
    11.1568587867069997    0.0000000000000000    0.0000000000000000
     0.0000000000000000   11.1568587867069997    0.0000000000000000
     0.0000000000000000    0.0000000000000000   26.1568587867070015
   B    Ba   O    Mn
     1    31    32     1
Selective dynamics
Direct
  0.3005170694357182  0.1919692856426904  0.3848471477317035   T   T   T
  0.2475923202300708  0.9986756752993357  0.1062149549250007   T   T   T
  0.7477218011088121  0.9993981101726989  0.1060020269924112   T   T   T
  0.9969847978212310  0.2502224984266886  0.1057831096791633   T   T   T
  0.4985123762629889  0.2500103124965389  0.1065787802632324   T   T   T
  0.2470628430150464  0.4999372532141557  0.1058111350418425   T   T   T
  0.7477335823825519  0.5003960199837990  0.1067008470458699   T   T   T
  0.9968200788485161  0.7494428206269840  0.1063095646454002   T   T   T
  0.4978016941341350  0.7492353656411523  0.1056534451966107   T   T   T
  0.9954829288968063  0.9980380838528844  0.2119714249994180   T   T   T
  0.5008883794238872  0.9954537987749077  0.2116574811943281   T   T   T
  0.2464343195677666  0.2502868565347751  0.2108004797050713   T   T   T
  0.7514786936041430  0.2509186605683525  0.2121192696844049   T   T   T
  0.9960355452123949  0.5014885502238969  0.2134889825876658   T   T   T
  0.4986176623065339  0.5032422149448227  0.2128557505467962   T   T   T
  0.2473020254336419  0.7448977361530834  0.2118606636270180   T   T   T
  0.7473785779743799  0.7486397455564885  0.2133309734494786   T   T   T
  0.2496456623918293  0.9847987959520702  0.3121541791387131   T   T   T
  0.7506396372603094  0.9968795003178588  0.3208670976992619   T   T   T
  0.9973745990218830  0.2501311843279996  0.3205802381656080   T   T   T
  0.5082434520797406  0.2503882272605931  0.3127233346328530   T   T   T
  0.2449425283601082  0.5003036340446400  0.3222028721108512   T   T   T
  0.7487497163056819  0.5021070780649352  0.3265332790001376   T   T   T
  0.9957822558536240  0.7478369744479888  0.3242485126109247   T   T   T
  0.5002287040248050  0.7442493801431762  0.3256644228438305   T   T   T
  0.0195592532379389  0.0240222485036345  0.4245231421276779   T   T   T
  0.4957029311422216  0.0037149301885862  0.4247762902688251   T   T   T
  0.7488083511718938  0.2392310672878456  0.4285491938060689   T   T   T
  0.0128424645971561  0.4739705122921667  0.4324224551827528   T   T   T
  0.4562556338987850  0.4721076095936096  0.4301910808755185   T   T   T
  0.2404066778014817  0.7499890531845376  0.4289829014669250   T   T   T
  0.7617579436825528  0.7681785951830251  0.4324047561372120   T   T   T
  0.9976783721910065  0.0007766333857045  0.1133788561483601   T   T   T
  0.4975478640275383  0.0001725581258555  0.1130999998814696   T   T   T
  0.2470372992839457  0.2502910532577425  0.1156331982437152   T   T   T
  0.7475106672489771  0.2507775471539781  0.1142732887377662   T   T   T
  0.9972797293962157  0.4997560547149076  0.1153559673675295   T   T   T
  0.4970974743164256  0.4997753250177668  0.1152615896881678   T   T   T
  0.2470028501052573  0.7484576133776457  0.1139692415756150   T   T   T
  0.7470977829718842  0.7491750283042989  0.1148648614650967   T   T   T
  0.2478394392094714  0.0018113879026558  0.2095154178821624   T   T   T
  0.7477396228741365  0.0004460887748146  0.2087703532137810   T   T   T
  0.9973846387273819  0.2508962674008509  0.2097436653875344   T   T   T
  0.4947152268391123  0.2507885491818305  0.2099466246686531   T   T   T
  0.2471949953637181  0.4988853564389079  0.2116883019863671   T   T   T
  0.7471959300838589  0.5004208770570220  0.2116687470873236   T   T   T
  0.9968297164364454  0.7505974880349260  0.2087507531679356   T   T   T
  0.4962961252546197  0.7498636687862218  0.2079780732369952   T   T   T
  0.0039046077051506  0.0044905152272879  0.3242570301751939   T   T   T
  0.4992636550383875  0.0025490738184655  0.3235701525050895   T   T   T
  0.2550875895127003  0.2365448929075321  0.3376374108935906   T   T   T
  0.7436777326737009  0.2508042494879306  0.3263128724776809   T   T   T
  0.0007103295717071  0.4953161687362641  0.3296229830118745   T   T   T
  0.4963025399734632  0.4937686873058496  0.3310000858888976   T   T   T
  0.2446064048269710  0.7475389825794836  0.3259147730981598   T   T   T
  0.7482845165665535  0.7495052846463132  0.3297597193132988   T   T   T
  0.2537581177437085  0.0851362400281193  0.4051004488626572   T   T   T
  0.7359418123099231  0.0062209563518189  0.4203162122118232   T   T   T
  0.9630495243090361  0.2511780436207956  0.4178397588198864   T   T   T
  0.4038874846546199  0.2437793434000520  0.4057480519203313   T   T   T
  0.2403508094033948  0.5331487838678678  0.4212358706232122   T   T   T
  0.7578376986453522  0.5057362251052723  0.4282375411434413   T   T   T
  0.9968094155502278  0.7856449181389475  0.4207914847530383   T   T   T
  0.4724318159313009  0.7798527818290499  0.4199289156277585   T   T   T
  0.7256174283592315  0.4970091873709447  0.4990707414830746   T   T   T
 
  0.00000000E+00  0.00000000E+00  0.00000000E+00
  0.00000000E+00  0.00000000E+00  0.00000000E+00
  0.00000000E+00  0.00000000E+00  0.00000000E+00
  0.00000000E+00  0.00000000E+00  0.00000000E+00
  0.00000000E+00  0.00000000E+00  0.00000000E+00
  0.00000000E+00  0.00000000E+00  0.00000000E+00
  0.00000000E+00  0.00000000E+00  0.00000000E+00
  0.00000000E+00  0.00000000E+00  0.00000000E+00
  0.00000000E+00  0.00000000E+00  0.00000000E+00
  0.00000000E+00  0.00000000E+00  0.00000000E+00
  0.00000000E+00  0.00000000E+00  0.00000000E+00
  0.00000000E+00  0.00000000E+00  0.00000000E+00
  0.00000000E+00  0.00000000E+00  0.00000000E+00
  0.00000000E+00  0.00000000E+00  0.00000000E+00
  0.00000000E+00  0.00000000E+00  0.00000000E+00
  0.00000000E+00  0.00000000E+00  0.00000000E+00
  0.00000000E+00  0.00000000E+00  0.00000000E+00
  0.00000000E+00  0.00000000E+00  0.00000000E+00
  0.00000000E+00  0.00000000E+00  0.00000000E+00
  0.00000000E+00  0.00000000E+00  0.00000000E+00
  0.00000000E+00  0.00000000E+00  0.00000000E+00
  0.00000000E+00  0.00000000E+00  0.00000000E+00
  0.00000000E+00  0.00000000E+00  0.00000000E+00
  0.00000000E+00  0.00000000E+00  0.00000000E+00
  0.00000000E+00  0.00000000E+00  0.00000000E+00
  0.00000000E+00  0.00000000E+00  0.00000000E+00
  0.00000000E+00  0.00000000E+00  0.00000000E+00
  0.00000000E+00  0.00000000E+00  0.00000000E+00
  0.00000000E+00  0.00000000E+00  0.00000000E+00
  0.00000000E+00  0.00000000E+00  0.00000000E+00
  0.00000000E+00  0.00000000E+00  0.00000000E+00
  0.00000000E+00  0.00000000E+00  0.00000000E+00
  0.00000000E+00  0.00000000E+00  0.00000000E+00
  0.00000000E+00  0.00000000E+00  0.00000000E+00
  0.00000000E+00  0.00000000E+00  0.00000000E+00
  0.00000000E+00  0.00000000E+00  0.00000000E+00
  0.00000000E+00  0.00000000E+00  0.00000000E+00
  0.00000000E+00  0.00000000E+00  0.00000000E+00
  0.00000000E+00  0.00000000E+00  0.00000000E+00
  0.00000000E+00  0.00000000E+00  0.00000000E+00
  0.00000000E+00  0.00000000E+00  0.00000000E+00
  0.00000000E+00  0.00000000E+00  0.00000000E+00
  0.00000000E+00  0.00000000E+00  0.00000000E+00
  0.00000000E+00  0.00000000E+00  0.00000000E+00
  0.00000000E+00  0.00000000E+00  0.00000000E+00
  0.00000000E+00  0.00000000E+00  0.00000000E+00
  0.00000000E+00  0.00000000E+00  0.00000000E+00
  0.00000000E+00  0.00000000E+00  0.00000000E+00
  0.00000000E+00  0.00000000E+00  0.00000000E+00
  0.00000000E+00  0.00000000E+00  0.00000000E+00
  0.00000000E+00  0.00000000E+00  0.00000000E+00
  0.00000000E+00  0.00000000E+00  0.00000000E+00
  0.00000000E+00  0.00000000E+00  0.00000000E+00
  0.00000000E+00  0.00000000E+00  0.00000000E+00
  0.00000000E+00  0.00000000E+00  0.00000000E+00
  0.00000000E+00  0.00000000E+00  0.00000000E+00
  0.00000000E+00  0.00000000E+00  0.00000000E+00
  0.00000000E+00  0.00000000E+00  0.00000000E+00
  0.00000000E+00  0.00000000E+00  0.00000000E+00
  0.00000000E+00  0.00000000E+00  0.00000000E+00
  0.00000000E+00  0.00000000E+00  0.00000000E+00
  0.00000000E+00  0.00000000E+00  0.00000000E+00
  0.00000000E+00  0.00000000E+00  0.00000000E+00
  0.00000000E+00  0.00000000E+00  0.00000000E+00
  0.00000000E+00  0.00000000E+00  0.00000000E+00
