B Ba O Pd                               
   1.00000000000000     
    11.1568587867069997    0.0000000000000000    0.0000000000000000
     0.0000000000000000   11.1568587867069997    0.0000000000000000
     0.0000000000000000    0.0000000000000000   26.1568587867070015
   B    Ba   O    Pd
     1    31    32     1
Selective dynamics
Direct
  0.3062776050315596  0.1893542751689975  0.3873419967775180   T   T   T
  0.2472567315436150  0.9983529951918622  0.1081330871149460   T   T   T
  0.7474121290311082  0.9994552926278661  0.1066031702102091   T   T   T
  0.9962810303550993  0.2502766590619331  0.1071872871128659   T   T   T
  0.4987834801888304  0.2499999530050096  0.1079507889421354   T   T   T
  0.2468934148378207  0.5009147337898252  0.1070710322862817   T   T   T
  0.7474606188194343  0.5008079106797773  0.1073923605800486   T   T   T
  0.9965039249975949  0.7498548461790474  0.1072829808868714   T   T   T
  0.4977302056280304  0.7498749023849188  0.1068178374441760   T   T   T
  0.9944983143474486  0.9985149243561037  0.2130701485601834   T   T   T
  0.5007922503111769  0.9966374851382349  0.2127720327631612   T   T   T
  0.2460843593008700  0.2512097095178250  0.2111647624050093   T   T   T
  0.7518886404843014  0.2502996222379913  0.2128240343586967   T   T   T
  0.9971557494802508  0.5010507246066362  0.2139979297242705   T   T   T
  0.4976426190194707  0.5027725064558312  0.2130694227537635   T   T   T
  0.2464615637839483  0.7445929900397081  0.2132117667081245   T   T   T
  0.7480049251204661  0.7497041106740182  0.2136054938711559   T   T   T
  0.2467494977263353  0.9876005456496094  0.3141467694052734   T   T   T
  0.7508141748796072  0.9976695571436723  0.3230260389286447   T   T   T
  0.9979738160754612  0.2510274952424492  0.3239106873648830   T   T   T
  0.5090938133075082  0.2519347848014775  0.3146413979076385   T   T   T
  0.2468521225730683  0.4962693171082098  0.3262506584688614   T   T   T
  0.7496013488007823  0.5011839356842258  0.3222183951298497   T   T   T
  0.9945500910021716  0.7460090137915261  0.3250818419709744   T   T   T
  0.5007409516992190  0.7451458701268975  0.3231939862223738   T   T   T
  0.0037111074813531  0.0197926327561702  0.4267182902971834   T   T   T
  0.4992254804589880  0.9980493470904875  0.4252344168853565   T   T   T
  0.7449784121244187  0.2530635606881966  0.4307922173037924   T   T   T
  0.0065116053356573  0.4816034960030690  0.4343399098684058   T   T   T
  0.4773710729467103  0.4963132512556325  0.4302455895886639   T   T   T
  0.2409256366208329  0.7524073836054187  0.4286421209460163   T   T   T
  0.7531559451340913  0.7503683264005720  0.4329872953805465   T   T   T
  0.9976583767180186  0.0008415816135353  0.1136625917126974   T   T   T
  0.4967559258825591  0.0004649205819732  0.1132514728101715   T   T   T
  0.2471609643595733  0.2501019767295661  0.1153985371451084   T   T   T
  0.7472504736952215  0.2500700831672193  0.1133393245326813   T   T   T
  0.9979633753678514  0.4994751284509089  0.1141062224518672   T   T   T
  0.4961319445627386  0.4994145233695432  0.1135614213357041   T   T   T
  0.2469286071291825  0.7496188200802120  0.1138641595013211   T   T   T
  0.7469955846972208  0.7502865912587084  0.1134712455096910   T   T   T
  0.2470072721818355  0.0029891934078428  0.2098291968020942   T   T   T
  0.7473456793555362  0.0006945269368934  0.2074194720021795   T   T   T
  0.9978785063209252  0.2506959466086663  0.2086837368832267   T   T   T
  0.4940460484477417  0.2503599018337675  0.2098159282103653   T   T   T
  0.2466106036258213  0.4993309204981793  0.2088978666670592   T   T   T
  0.7468282063035104  0.5003681190165354  0.2079016689690887   T   T   T
  0.9971245951477303  0.7508354152955100  0.2076531030590563   T   T   T
  0.4960496272582735  0.7501660492346126  0.2073772350198425   T   T   T
  0.0016879497281229  0.0031463138728986  0.3258046647881994   T   T   T
  0.4988437869608154  0.9990121099433946  0.3241889509672040   T   T   T
  0.2587366151732355  0.2362215265212269  0.3405285484814012   T   T   T
  0.7454141656650524  0.2501978638478272  0.3235076008557604   T   T   T
  0.0015884835882571  0.4953635712789199  0.3272588157571485   T   T   T
  0.4942017110787247  0.4959602483548848  0.3257979737503006   T   T   T
  0.2456995024316923  0.7506361123893934  0.3255201079476290   T   T   T
  0.7479090596613059  0.7501553080970887  0.3250072371154655   T   T   T
  0.2577683856448273  0.0825370101238649  0.4071432009886518   T   T   T
  0.7384774378304755  0.0085815842267041  0.4213044676422830   T   T   T
  0.9599466268575416  0.2543953554000064  0.4191674559995745   T   T   T
  0.4124140774350771  0.2384774163633587  0.4070925706987512   T   T   T
  0.2408472206899747  0.5380594448889113  0.4217022413892834   T   T   T
  0.7370777305858128  0.5044265976987460  0.4164606519007460   T   T   T
  0.9949941738827091  0.7759154938033241  0.4212567919306238   T   T   T
  0.4835190787728908  0.7625531600051443  0.4201581396788275   T   T   T
  0.7320292881065088  0.4978126368804063  0.4979944352581361   T   T   T
 
  0.00000000E+00  0.00000000E+00  0.00000000E+00
  0.00000000E+00  0.00000000E+00  0.00000000E+00
  0.00000000E+00  0.00000000E+00  0.00000000E+00
  0.00000000E+00  0.00000000E+00  0.00000000E+00
  0.00000000E+00  0.00000000E+00  0.00000000E+00
  0.00000000E+00  0.00000000E+00  0.00000000E+00
  0.00000000E+00  0.00000000E+00  0.00000000E+00
  0.00000000E+00  0.00000000E+00  0.00000000E+00
  0.00000000E+00  0.00000000E+00  0.00000000E+00
  0.00000000E+00  0.00000000E+00  0.00000000E+00
  0.00000000E+00  0.00000000E+00  0.00000000E+00
  0.00000000E+00  0.00000000E+00  0.00000000E+00
  0.00000000E+00  0.00000000E+00  0.00000000E+00
  0.00000000E+00  0.00000000E+00  0.00000000E+00
  0.00000000E+00  0.00000000E+00  0.00000000E+00
  0.00000000E+00  0.00000000E+00  0.00000000E+00
  0.00000000E+00  0.00000000E+00  0.00000000E+00
  0.00000000E+00  0.00000000E+00  0.00000000E+00
  0.00000000E+00  0.00000000E+00  0.00000000E+00
  0.00000000E+00  0.00000000E+00  0.00000000E+00
  0.00000000E+00  0.00000000E+00  0.00000000E+00
  0.00000000E+00  0.00000000E+00  0.00000000E+00
  0.00000000E+00  0.00000000E+00  0.00000000E+00
  0.00000000E+00  0.00000000E+00  0.00000000E+00
  0.00000000E+00  0.00000000E+00  0.00000000E+00
  0.00000000E+00  0.00000000E+00  0.00000000E+00
  0.00000000E+00  0.00000000E+00  0.00000000E+00
  0.00000000E+00  0.00000000E+00  0.00000000E+00
  0.00000000E+00  0.00000000E+00  0.00000000E+00
  0.00000000E+00  0.00000000E+00  0.00000000E+00
  0.00000000E+00  0.00000000E+00  0.00000000E+00
  0.00000000E+00  0.00000000E+00  0.00000000E+00
  0.00000000E+00  0.00000000E+00  0.00000000E+00
  0.00000000E+00  0.00000000E+00  0.00000000E+00
  0.00000000E+00  0.00000000E+00  0.00000000E+00
  0.00000000E+00  0.00000000E+00  0.00000000E+00
  0.00000000E+00  0.00000000E+00  0.00000000E+00
  0.00000000E+00  0.00000000E+00  0.00000000E+00
  0.00000000E+00  0.00000000E+00  0.00000000E+00
  0.00000000E+00  0.00000000E+00  0.00000000E+00
  0.00000000E+00  0.00000000E+00  0.00000000E+00
  0.00000000E+00  0.00000000E+00  0.00000000E+00
  0.00000000E+00  0.00000000E+00  0.00000000E+00
  0.00000000E+00  0.00000000E+00  0.00000000E+00
  0.00000000E+00  0.00000000E+00  0.00000000E+00
  0.00000000E+00  0.00000000E+00  0.00000000E+00
  0.00000000E+00  0.00000000E+00  0.00000000E+00
  0.00000000E+00  0.00000000E+00  0.00000000E+00
  0.00000000E+00  0.00000000E+00  0.00000000E+00
  0.00000000E+00  0.00000000E+00  0.00000000E+00
  0.00000000E+00  0.00000000E+00  0.00000000E+00
  0.00000000E+00  0.00000000E+00  0.00000000E+00
  0.00000000E+00  0.00000000E+00  0.00000000E+00
  0.00000000E+00  0.00000000E+00  0.00000000E+00
  0.00000000E+00  0.00000000E+00  0.00000000E+00
  0.00000000E+00  0.00000000E+00  0.00000000E+00
  0.00000000E+00  0.00000000E+00  0.00000000E+00
  0.00000000E+00  0.00000000E+00  0.00000000E+00
  0.00000000E+00  0.00000000E+00  0.00000000E+00
  0.00000000E+00  0.00000000E+00  0.00000000E+00
  0.00000000E+00  0.00000000E+00  0.00000000E+00
  0.00000000E+00  0.00000000E+00  0.00000000E+00
  0.00000000E+00  0.00000000E+00  0.00000000E+00
  0.00000000E+00  0.00000000E+00  0.00000000E+00
  0.00000000E+00  0.00000000E+00  0.00000000E+00
