B Ba O Pt                               
   1.00000000000000     
    11.1568587867069997    0.0000000000000000    0.0000000000000000
     0.0000000000000000   11.1568587867069997    0.0000000000000000
     0.0000000000000000    0.0000000000000000   26.1568587867070015
   B    Ba   O    Pt
     1    31    32     1
Selective dynamics
Direct
  0.3062170628217941  0.1891935980468513  0.3874069326792344   T   T   T
  0.2473968707398293  0.9982015602702115  0.1088958522071374   T   T   T
  0.7475221446669891  0.9993199396614693  0.1065317691690761   T   T   T
  0.9966453915328733  0.2500366506866640  0.1074054104921371   T   T   T
  0.4986466059327898  0.2499315590219416  0.1084401910946777   T   T   T
  0.2469854013601415  0.5006935006847217  0.1070498235091617   T   T   T
  0.7475674102885278  0.5008557475856679  0.1075179710690726   T   T   T
  0.9968122416210455  0.7499596237836493  0.1074800402977121   T   T   T
  0.4976147486855817  0.7499098949749841  0.1070923598391526   T   T   T
  0.9944666183018471  0.9983614266754900  0.2134237455461342   T   T   T
  0.5009838360752663  0.9966779236936306  0.2131445561766354   T   T   T
  0.2460947321787621  0.2514000442245775  0.2117029039004423   T   T   T
  0.7520934311023511  0.2496255768720730  0.2126806339458175   T   T   T
  0.9980666981444805  0.5010310976395627  0.2139766121576137   T   T   T
  0.4968728270284289  0.5027011452741681  0.2132016573422812   T   T   T
  0.2464421833668144  0.7436331914711317  0.2136603187979274   T   T   T
  0.7481980440271969  0.7501822015417972  0.2135677302609640   T   T   T
  0.2465754587505051  0.9870366359890145  0.3144993362434091   T   T   T
  0.7507911015769546  0.9972318978232088  0.3234738851793051   T   T   T
  0.9973483169264569  0.2511460296290969  0.3240096751391959   T   T   T
  0.5093420259150052  0.2521970558648103  0.3149527988809192   T   T   T
  0.2464580444564089  0.4948945144245295  0.3282520447105537   T   T   T
  0.7501485416733029  0.5014328306019401  0.3203414607553595   T   T   T
  0.9946598644605904  0.7457482881980511  0.3255012879873788   T   T   T
  0.5004789603076713  0.7448871988434145  0.3233278340191468   T   T   T
  0.0035156517612340  0.0204856415942474  0.4268048900766304   T   T   T
  0.4991713807764434  0.9978722301118232  0.4252931352244773   T   T   T
  0.7437387518324542  0.2541441539178591  0.4304318282519059   T   T   T
  0.0022310667869490  0.4810938128484895  0.4353710001815410   T   T   T
  0.4805008125678611  0.4998332660557752  0.4307667985702918   T   T   T
  0.2402500139358475  0.7522659094620412  0.4292040848027484   T   T   T
  0.7531252375781381  0.7491012787398710  0.4333863891728254   T   T   T
  0.9977431699460616  0.0007388090335801  0.1135718720295724   T   T   T
  0.4966685440407159  0.0004384734436268  0.1133176992767757   T   T   T
  0.2474022737553890  0.2496876689080731  0.1155374788794317   T   T   T
  0.7473586646463453  0.2497363370165499  0.1128777583651583   T   T   T
  0.9981036719958244  0.4995370778697981  0.1136368382212803   T   T   T
  0.4960197919646336  0.4994583696389972  0.1133259805498154   T   T   T
  0.2470372056375017  0.7495512134608078  0.1140115364267502   T   T   T
  0.7470214261661272  0.7504960562733520  0.1129030744844341   T   T   T
  0.2470799178004801  0.0027078151031223  0.2100884506840488   T   T   T
  0.7474188825421975  0.0005438304652659  0.2070926333040784   T   T   T
  0.9980830860255155  0.2506189157967700  0.2085266315054958   T   T   T
  0.4941208578622547  0.2503462535947376  0.2099617319886248   T   T   T
  0.2467590896118008  0.4990338106972864  0.2081487742476907   T   T   T
  0.7468637050034221  0.5001574251410456  0.2075367117449321   T   T   T
  0.9974648323644353  0.7508653762489542  0.2076628738732038   T   T   T
  0.4959073751804551  0.7502223409403511  0.2074930719010998   T   T   T
  0.0015881539741153  0.0035368434449907  0.3255315259555678   T   T   T
  0.4988385195106543  0.9990988679741317  0.3244215166129296   T   T   T
  0.2587458536982994  0.2357030564657657  0.3404480943154720   T   T   T
  0.7459298769347920  0.2498303797812111  0.3225268188100145   T   T   T
  0.0016181842919038  0.4956192502733721  0.3260628793572191   T   T   T
  0.4938354905270950  0.4966182560050112  0.3253172709377105   T   T   T
  0.2454486354378871  0.7501262542199030  0.3260889002542413   T   T   T
  0.7476572825157617  0.7505892204852451  0.3234870920550434   T   T   T
  0.2576211645670796  0.0824821343402578  0.4072531583334524   T   T   T
  0.7373237984541073  0.0091121676688088  0.4215906415245972   T   T   T
  0.9593345072091246  0.2551435845482233  0.4191852438820580   T   T   T
  0.4124670933144797  0.2379698364024563  0.4069842423306245   T   T   T
  0.2400185035742682  0.5384185490575241  0.4229663952139985   T   T   T
  0.7398384971935501  0.5053137475685583  0.4140902223463904   T   T   T
  0.9944688599482460  0.7783981112214750  0.4215082540496722   T   T   T
  0.4843887281141577  0.7610206769131523  0.4205142124173689   T   T   T
  0.7331366026047701  0.4970714740278344  0.4965882423704171   T   T   T
 
  0.00000000E+00  0.00000000E+00  0.00000000E+00
  0.00000000E+00  0.00000000E+00  0.00000000E+00
  0.00000000E+00  0.00000000E+00  0.00000000E+00
  0.00000000E+00  0.00000000E+00  0.00000000E+00
  0.00000000E+00  0.00000000E+00  0.00000000E+00
  0.00000000E+00  0.00000000E+00  0.00000000E+00
  0.00000000E+00  0.00000000E+00  0.00000000E+00
  0.00000000E+00  0.00000000E+00  0.00000000E+00
  0.00000000E+00  0.00000000E+00  0.00000000E+00
  0.00000000E+00  0.00000000E+00  0.00000000E+00
  0.00000000E+00  0.00000000E+00  0.00000000E+00
  0.00000000E+00  0.00000000E+00  0.00000000E+00
  0.00000000E+00  0.00000000E+00  0.00000000E+00
  0.00000000E+00  0.00000000E+00  0.00000000E+00
  0.00000000E+00  0.00000000E+00  0.00000000E+00
  0.00000000E+00  0.00000000E+00  0.00000000E+00
  0.00000000E+00  0.00000000E+00  0.00000000E+00
  0.00000000E+00  0.00000000E+00  0.00000000E+00
  0.00000000E+00  0.00000000E+00  0.00000000E+00
  0.00000000E+00  0.00000000E+00  0.00000000E+00
  0.00000000E+00  0.00000000E+00  0.00000000E+00
  0.00000000E+00  0.00000000E+00  0.00000000E+00
  0.00000000E+00  0.00000000E+00  0.00000000E+00
  0.00000000E+00  0.00000000E+00  0.00000000E+00
  0.00000000E+00  0.00000000E+00  0.00000000E+00
  0.00000000E+00  0.00000000E+00  0.00000000E+00
  0.00000000E+00  0.00000000E+00  0.00000000E+00
  0.00000000E+00  0.00000000E+00  0.00000000E+00
  0.00000000E+00  0.00000000E+00  0.00000000E+00
  0.00000000E+00  0.00000000E+00  0.00000000E+00
  0.00000000E+00  0.00000000E+00  0.00000000E+00
  0.00000000E+00  0.00000000E+00  0.00000000E+00
  0.00000000E+00  0.00000000E+00  0.00000000E+00
  0.00000000E+00  0.00000000E+00  0.00000000E+00
  0.00000000E+00  0.00000000E+00  0.00000000E+00
  0.00000000E+00  0.00000000E+00  0.00000000E+00
  0.00000000E+00  0.00000000E+00  0.00000000E+00
  0.00000000E+00  0.00000000E+00  0.00000000E+00
  0.00000000E+00  0.00000000E+00  0.00000000E+00
  0.00000000E+00  0.00000000E+00  0.00000000E+00
  0.00000000E+00  0.00000000E+00  0.00000000E+00
  0.00000000E+00  0.00000000E+00  0.00000000E+00
  0.00000000E+00  0.00000000E+00  0.00000000E+00
  0.00000000E+00  0.00000000E+00  0.00000000E+00
  0.00000000E+00  0.00000000E+00  0.00000000E+00
  0.00000000E+00  0.00000000E+00  0.00000000E+00
  0.00000000E+00  0.00000000E+00  0.00000000E+00
  0.00000000E+00  0.00000000E+00  0.00000000E+00
  0.00000000E+00  0.00000000E+00  0.00000000E+00
  0.00000000E+00  0.00000000E+00  0.00000000E+00
  0.00000000E+00  0.00000000E+00  0.00000000E+00
  0.00000000E+00  0.00000000E+00  0.00000000E+00
  0.00000000E+00  0.00000000E+00  0.00000000E+00
  0.00000000E+00  0.00000000E+00  0.00000000E+00
  0.00000000E+00  0.00000000E+00  0.00000000E+00
  0.00000000E+00  0.00000000E+00  0.00000000E+00
  0.00000000E+00  0.00000000E+00  0.00000000E+00
  0.00000000E+00  0.00000000E+00  0.00000000E+00
  0.00000000E+00  0.00000000E+00  0.00000000E+00
  0.00000000E+00  0.00000000E+00  0.00000000E+00
  0.00000000E+00  0.00000000E+00  0.00000000E+00
  0.00000000E+00  0.00000000E+00  0.00000000E+00
  0.00000000E+00  0.00000000E+00  0.00000000E+00
  0.00000000E+00  0.00000000E+00  0.00000000E+00
  0.00000000E+00  0.00000000E+00  0.00000000E+00
