B Ba O Ru                               
   1.00000000000000     
    11.1568587867069997    0.0000000000000000    0.0000000000000000
     0.0000000000000000   11.1568587867069997    0.0000000000000000
     0.0000000000000000    0.0000000000000000   26.1568587867070015
   B    Ba   O    Ru
     1    31    32     1
Selective dynamics
Direct
  0.3028983664387698  0.1916402074463876  0.3862168298412716   T   T   T
  0.2475340162971680  0.9981973829570732  0.1081658374409873   T   T   T
  0.7476027010687772  0.9991415980141929  0.1067758370627049   T   T   T
  0.9963065097588577  0.2499959925700863  0.1072413034159682   T   T   T
  0.4989074190652613  0.2497453586219244  0.1082134409186558   T   T   T
  0.2470335386919136  0.5004711578375918  0.1075305637544084   T   T   T
  0.7475117628020643  0.5006411260039169  0.1082290249974165   T   T   T
  0.9964795104882419  0.7498527640705454  0.1072390759328154   T   T   T
  0.4979922007146769  0.7497548263916403  0.1069100185895682   T   T   T
  0.9945470193812348  0.9979652135417153  0.2130461140250011   T   T   T
  0.5016839639105731  0.9958490465914552  0.2129138385351339   T   T   T
  0.2463351493677253  0.2505339896221056  0.2113942622413051   T   T   T
  0.7516494903953532  0.2493925955938648  0.2129372730759142   T   T   T
  0.9974530801480942  0.5016132239013249  0.2139269108382653   T   T   T
  0.4973746515012054  0.5031645882398627  0.2134839722996704   T   T   T
  0.2469523824698964  0.7445237090037014  0.2131136069100341   T   T   T
  0.7478299755453713  0.7502155423229671  0.2140947905665221   T   T   T
  0.2487932944378467  0.9856440437086337  0.3135039755844022   T   T   T
  0.7514244482949164  0.9972902234594233  0.3240307666634036   T   T   T
  0.9965100511308688  0.2509520463024552  0.3221707468678153   T   T   T
  0.5095265746374269  0.2509274752865839  0.3143161291011638   T   T   T
  0.2454788438337812  0.4976294805943881  0.3257645303563038   T   T   T
  0.7498058195765820  0.5015489888279228  0.3216751169038977   T   T   T
  0.9945035687986334  0.7467634125238397  0.3254972963108155   T   T   T
  0.5015246287361605  0.7446982854681038  0.3252323665952213   T   T   T
  0.0148574354104566  0.0239058618082736  0.4255894506221680   T   T   T
  0.4974377817753079  0.0006863261018660  0.4255891061145080   T   T   T
  0.7464168045036534  0.2474754969141091  0.4317621701740992   T   T   T
  0.0100966954762063  0.4747649024482015  0.4349819138769780   T   T   T
  0.4670878696903231  0.4837515605172804  0.4305982854281697   T   T   T
  0.2401670528839605  0.7507616000176032  0.4293510607409784   T   T   T
  0.7587685498282086  0.7581427293360371  0.4351276564967954   T   T   T
  0.9980082285604852  0.0007972229370926  0.1133391983171945   T   T   T
  0.4969777101556064  0.0004953995705802  0.1132125450934405   T   T   T
  0.2473931795520534  0.2499866468355970  0.1155393994971892   T   T   T
  0.7471501000920575  0.2504808271532134  0.1134661245945146   T   T   T
  0.9976769747051799  0.4995980611521026  0.1143716057913353   T   T   T
  0.4966121009716518  0.4993553034180173  0.1142952170510870   T   T   T
  0.2470011028699106  0.7488949874517632  0.1138451626276222   T   T   T
  0.7470207025351017  0.7494536391299691  0.1138371270775983   T   T   T
  0.2475053011802582  0.0022546197694599  0.2098287559308636   T   T   T
  0.7475531605857438  0.0002525885753221  0.2073355316467340   T   T   T
  0.9977872419426717  0.2510727618709902  0.2084766945636493   T   T   T
  0.4941743682232809  0.2508142369889636  0.2100356815768834   T   T   T
  0.2467702592921256  0.4987687422547497  0.2095826897518144   T   T   T
  0.7469673351474871  0.5002180029309702  0.2099110008565246   T   T   T
  0.9971961780313734  0.7506491051054512  0.2075886521307704   T   T   T
  0.4959878231106180  0.7499695346017570  0.2072792895429221   T   T   T
  0.0040054493340091  0.0046709426307103  0.3240791146100718   T   T   T
  0.4988328787869785  0.0014125487261150  0.3233643399352832   T   T   T
  0.2568881681343956  0.2362340762508990  0.3389051395870250   T   T   T
  0.7455425331852565  0.2496646962315502  0.3224009842376511   T   T   T
  0.0004499757412503  0.4957123753819461  0.3273529573336907   T   T   T
  0.4954039633688803  0.4956053093046405  0.3273512640689650   T   T   T
  0.2446768291130520  0.7477881476577847  0.3252377510206301   T   T   T
  0.7479565893474396  0.7501558831459523  0.3248931925508800   T   T   T
  0.2550341763717667  0.0849031608755936  0.4064193000122894   T   T   T
  0.7338170744230511  0.0059475756973184  0.4221055154305487   T   T   T
  0.9621804900868949  0.2525710769204391  0.4180609443654817   T   T   T
  0.4071634353076729  0.2427995689091757  0.4065853508188336   T   T   T
  0.2396946981924021  0.5350019240443070  0.4228563572423346   T   T   T
  0.7435071939290090  0.5026094208167420  0.4189729772084281   T   T   T
  0.9973969487351823  0.7852441093596696  0.4210426298311272   T   T   T
  0.4753438242889039  0.7726767560389741  0.4201646874248099   T   T   T
  0.7321065712327137  0.4975776024600740  0.4906923319194212   T   T   T
 
  0.00000000E+00  0.00000000E+00  0.00000000E+00
  0.00000000E+00  0.00000000E+00  0.00000000E+00
  0.00000000E+00  0.00000000E+00  0.00000000E+00
  0.00000000E+00  0.00000000E+00  0.00000000E+00
  0.00000000E+00  0.00000000E+00  0.00000000E+00
  0.00000000E+00  0.00000000E+00  0.00000000E+00
  0.00000000E+00  0.00000000E+00  0.00000000E+00
  0.00000000E+00  0.00000000E+00  0.00000000E+00
  0.00000000E+00  0.00000000E+00  0.00000000E+00
  0.00000000E+00  0.00000000E+00  0.00000000E+00
  0.00000000E+00  0.00000000E+00  0.00000000E+00
  0.00000000E+00  0.00000000E+00  0.00000000E+00
  0.00000000E+00  0.00000000E+00  0.00000000E+00
  0.00000000E+00  0.00000000E+00  0.00000000E+00
  0.00000000E+00  0.00000000E+00  0.00000000E+00
  0.00000000E+00  0.00000000E+00  0.00000000E+00
  0.00000000E+00  0.00000000E+00  0.00000000E+00
  0.00000000E+00  0.00000000E+00  0.00000000E+00
  0.00000000E+00  0.00000000E+00  0.00000000E+00
  0.00000000E+00  0.00000000E+00  0.00000000E+00
  0.00000000E+00  0.00000000E+00  0.00000000E+00
  0.00000000E+00  0.00000000E+00  0.00000000E+00
  0.00000000E+00  0.00000000E+00  0.00000000E+00
  0.00000000E+00  0.00000000E+00  0.00000000E+00
  0.00000000E+00  0.00000000E+00  0.00000000E+00
  0.00000000E+00  0.00000000E+00  0.00000000E+00
  0.00000000E+00  0.00000000E+00  0.00000000E+00
  0.00000000E+00  0.00000000E+00  0.00000000E+00
  0.00000000E+00  0.00000000E+00  0.00000000E+00
  0.00000000E+00  0.00000000E+00  0.00000000E+00
  0.00000000E+00  0.00000000E+00  0.00000000E+00
  0.00000000E+00  0.00000000E+00  0.00000000E+00
  0.00000000E+00  0.00000000E+00  0.00000000E+00
  0.00000000E+00  0.00000000E+00  0.00000000E+00
  0.00000000E+00  0.00000000E+00  0.00000000E+00
  0.00000000E+00  0.00000000E+00  0.00000000E+00
  0.00000000E+00  0.00000000E+00  0.00000000E+00
  0.00000000E+00  0.00000000E+00  0.00000000E+00
  0.00000000E+00  0.00000000E+00  0.00000000E+00
  0.00000000E+00  0.00000000E+00  0.00000000E+00
  0.00000000E+00  0.00000000E+00  0.00000000E+00
  0.00000000E+00  0.00000000E+00  0.00000000E+00
  0.00000000E+00  0.00000000E+00  0.00000000E+00
  0.00000000E+00  0.00000000E+00  0.00000000E+00
  0.00000000E+00  0.00000000E+00  0.00000000E+00
  0.00000000E+00  0.00000000E+00  0.00000000E+00
  0.00000000E+00  0.00000000E+00  0.00000000E+00
  0.00000000E+00  0.00000000E+00  0.00000000E+00
  0.00000000E+00  0.00000000E+00  0.00000000E+00
  0.00000000E+00  0.00000000E+00  0.00000000E+00
  0.00000000E+00  0.00000000E+00  0.00000000E+00
  0.00000000E+00  0.00000000E+00  0.00000000E+00
  0.00000000E+00  0.00000000E+00  0.00000000E+00
  0.00000000E+00  0.00000000E+00  0.00000000E+00
  0.00000000E+00  0.00000000E+00  0.00000000E+00
  0.00000000E+00  0.00000000E+00  0.00000000E+00
  0.00000000E+00  0.00000000E+00  0.00000000E+00
  0.00000000E+00  0.00000000E+00  0.00000000E+00
  0.00000000E+00  0.00000000E+00  0.00000000E+00
  0.00000000E+00  0.00000000E+00  0.00000000E+00
  0.00000000E+00  0.00000000E+00  0.00000000E+00
  0.00000000E+00  0.00000000E+00  0.00000000E+00
  0.00000000E+00  0.00000000E+00  0.00000000E+00
  0.00000000E+00  0.00000000E+00  0.00000000E+00
  0.00000000E+00  0.00000000E+00  0.00000000E+00
