B Ba O Ag                               
   1.00000000000000     
    11.1568587867069997    0.0000000000000000    0.0000000000000000
     0.0000000000000000   11.1568587867069997    0.0000000000000000
     0.0000000000000000    0.0000000000000000   26.1568587867070015
   B    Ba   O    Ag
     1    31    32     1
Selective dynamics
Direct
  0.3085262596586939  0.1890871884459525  0.3871631666084174   T   T   T
  0.2474994868914381  0.9981377675789846  0.1084298748458834   T   T   T
  0.7474120002140595  0.9993586905361326  0.1061537509728741   T   T   T
  0.9967478337853913  0.2498211158017573  0.1068330981120923   T   T   T
  0.4987994581529402  0.2494998709402292  0.1075734505956053   T   T   T
  0.2473196811221106  0.5005668690767108  0.1067560696636444   T   T   T
  0.7473910931460630  0.5005476320724203  0.1060399179927379   T   T   T
  0.9970426359525536  0.7496773373603570  0.1068948548496020   T   T   T
  0.4977466203474737  0.7496361071847873  0.1066226028201679   T   T   T
  0.9942435014099646  0.9982751462375749  0.2128474370496707   T   T   T
  0.5006701495307303  0.9965502499127427  0.2127692040350002   T   T   T
  0.2465569551099941  0.2512648719014361  0.2110875404682296   T   T   T
  0.7520528878904842  0.2500521461797376  0.2118676175994146   T   T   T
  0.9972099308230592  0.5006250541112555  0.2129526142233800   T   T   T
  0.4980975247779887  0.5024127927363398  0.2122752520863856   T   T   T
  0.2466932606004930  0.7441462908004074  0.2132399400926155   T   T   T
  0.7484370675103782  0.7497745016429972  0.2126595545880276   T   T   T
  0.2455825289667323  0.9887110099616180  0.3142569356507144   T   T   T
  0.7495427144759947  0.9985434253571940  0.3228041681939445   T   T   T
  0.9974028383340726  0.2508046943248434  0.3242420043701195   T   T   T
  0.5102809582852552  0.2533973474984662  0.3143789126006101   T   T   T
  0.2478269264035734  0.4959904110503218  0.3259131933343729   T   T   T
  0.7515546008012742  0.5006661606004262  0.3197535541880857   T   T   T
  0.9938202031060602  0.7459464107519880  0.3252020703590177   T   T   T
  0.5016741480833316  0.7444155116991924  0.3227498270595510   T   T   T
 -0.0077555062242779  0.0180827745849842  0.4270097522461505   T   T   T
  0.5013156695458841  0.9984808879356548  0.4247137585446439   T   T   T
  0.7443321005547396  0.2639217712595862  0.4311626928003267   T   T   T
  0.0130457394512842  0.4833262087083828  0.4343158952283395   T   T   T
  0.4819866037488717  0.4998635351098636  0.4297563957158610   T   T   T
  0.2410258024978442  0.7543578295825761  0.4278241912712441   T   T   T
  0.7488504108947823  0.7355885812078126  0.4325312116094615   T   T   T
  0.9980549735365642  0.0006113159790331  0.1132604804905800   T   T   T
  0.4965787310256179  0.0001951322944925  0.1129064449800077   T   T   T
  0.2476624610225877  0.2494113126819258  0.1151201373058892   T   T   T
  0.7477111924157483  0.2494401586566836  0.1119692028551308   T   T   T
  0.9981333163430571  0.4992222305073236  0.1131162154806670   T   T   T
  0.4954739349694781  0.4991018217858590  0.1120918142054903   T   T   T
  0.2472831941347531  0.7494904448165959  0.1136465045128136   T   T   T
  0.7474525457813084  0.7506060188325624  0.1123586636340891   T   T   T
  0.2468946937150148  0.0028402244310692  0.2096312889418680   T   T   T
  0.7474834073001750  0.0007104245875373  0.2064860245586772   T   T   T
  0.9983188217094864  0.2506437021127414  0.2079198618575187   T   T   T
  0.4944401966252331  0.2497656201901494  0.2091648661831222   T   T   T
  0.2456783789661492  0.4990531011212240  0.2079160191692819   T   T   T
  0.7461385740585595  0.5005864882799236  0.2051661130757992   T   T   T
  0.9976141384104581  0.7504700854762529  0.2069596665211874   T   T   T
  0.4964365172213275  0.7500916054911927  0.2069555987710639   T   T   T
 -0.0002620241580410  0.0029518535251630  0.3259636382927089   T   T   T
  0.4986412907020626  0.9975469599005974  0.3237396111516818   T   T   T
  0.2604687541651243  0.2363923889669282  0.3404459644022322   T   T   T
  0.7478626652716823  0.2515859398696280  0.3214906276934510   T   T   T
  0.0022272306679119  0.4955172050084606  0.3274794790614209   T   T   T
  0.4901805931621157  0.4960148418844695  0.3221901524847422   T   T   T
  0.2466655667138722  0.7518959508843265  0.3256105124529351   T   T   T
  0.7490414767367616  0.7510430265891886  0.3239273138187193   T   T   T
  0.2608132962628997  0.0822246511880001  0.4069440114437320   T   T   T
  0.7394273424219585  0.0185643404917229  0.4205026452137283   T   T   T
  0.9588394116353701  0.2587311721725051  0.4194681807683180   T   T   T
  0.4150194189580849  0.2382840388565224  0.4066826512487550   T   T   T
  0.2396033003752251  0.5395516957470839  0.4212473813991264   T   T   T
  0.7176336915745199  0.5074262295116678  0.4121557670192406   T   T   T
  0.9931119401257406  0.7713606525802863  0.4215975172645274   T   T   T
  0.4880710751030464  0.7577475957725349  0.4206950589352286   T   T   T
  0.7386415307908889  0.4906691878965617  0.5354628609600677   T   T   T
 
  0.00000000E+00  0.00000000E+00  0.00000000E+00
  0.00000000E+00  0.00000000E+00  0.00000000E+00
  0.00000000E+00  0.00000000E+00  0.00000000E+00
  0.00000000E+00  0.00000000E+00  0.00000000E+00
  0.00000000E+00  0.00000000E+00  0.00000000E+00
  0.00000000E+00  0.00000000E+00  0.00000000E+00
  0.00000000E+00  0.00000000E+00  0.00000000E+00
  0.00000000E+00  0.00000000E+00  0.00000000E+00
  0.00000000E+00  0.00000000E+00  0.00000000E+00
  0.00000000E+00  0.00000000E+00  0.00000000E+00
  0.00000000E+00  0.00000000E+00  0.00000000E+00
  0.00000000E+00  0.00000000E+00  0.00000000E+00
  0.00000000E+00  0.00000000E+00  0.00000000E+00
  0.00000000E+00  0.00000000E+00  0.00000000E+00
  0.00000000E+00  0.00000000E+00  0.00000000E+00
  0.00000000E+00  0.00000000E+00  0.00000000E+00
  0.00000000E+00  0.00000000E+00  0.00000000E+00
  0.00000000E+00  0.00000000E+00  0.00000000E+00
  0.00000000E+00  0.00000000E+00  0.00000000E+00
  0.00000000E+00  0.00000000E+00  0.00000000E+00
  0.00000000E+00  0.00000000E+00  0.00000000E+00
  0.00000000E+00  0.00000000E+00  0.00000000E+00
  0.00000000E+00  0.00000000E+00  0.00000000E+00
  0.00000000E+00  0.00000000E+00  0.00000000E+00
  0.00000000E+00  0.00000000E+00  0.00000000E+00
  0.00000000E+00  0.00000000E+00  0.00000000E+00
  0.00000000E+00  0.00000000E+00  0.00000000E+00
  0.00000000E+00  0.00000000E+00  0.00000000E+00
  0.00000000E+00  0.00000000E+00  0.00000000E+00
  0.00000000E+00  0.00000000E+00  0.00000000E+00
  0.00000000E+00  0.00000000E+00  0.00000000E+00
  0.00000000E+00  0.00000000E+00  0.00000000E+00
  0.00000000E+00  0.00000000E+00  0.00000000E+00
  0.00000000E+00  0.00000000E+00  0.00000000E+00
  0.00000000E+00  0.00000000E+00  0.00000000E+00
  0.00000000E+00  0.00000000E+00  0.00000000E+00
  0.00000000E+00  0.00000000E+00  0.00000000E+00
  0.00000000E+00  0.00000000E+00  0.00000000E+00
  0.00000000E+00  0.00000000E+00  0.00000000E+00
  0.00000000E+00  0.00000000E+00  0.00000000E+00
  0.00000000E+00  0.00000000E+00  0.00000000E+00
  0.00000000E+00  0.00000000E+00  0.00000000E+00
  0.00000000E+00  0.00000000E+00  0.00000000E+00
  0.00000000E+00  0.00000000E+00  0.00000000E+00
  0.00000000E+00  0.00000000E+00  0.00000000E+00
  0.00000000E+00  0.00000000E+00  0.00000000E+00
  0.00000000E+00  0.00000000E+00  0.00000000E+00
  0.00000000E+00  0.00000000E+00  0.00000000E+00
  0.00000000E+00  0.00000000E+00  0.00000000E+00
  0.00000000E+00  0.00000000E+00  0.00000000E+00
  0.00000000E+00  0.00000000E+00  0.00000000E+00
  0.00000000E+00  0.00000000E+00  0.00000000E+00
  0.00000000E+00  0.00000000E+00  0.00000000E+00
  0.00000000E+00  0.00000000E+00  0.00000000E+00
  0.00000000E+00  0.00000000E+00  0.00000000E+00
  0.00000000E+00  0.00000000E+00  0.00000000E+00
  0.00000000E+00  0.00000000E+00  0.00000000E+00
  0.00000000E+00  0.00000000E+00  0.00000000E+00
  0.00000000E+00  0.00000000E+00  0.00000000E+00
  0.00000000E+00  0.00000000E+00  0.00000000E+00
  0.00000000E+00  0.00000000E+00  0.00000000E+00
  0.00000000E+00  0.00000000E+00  0.00000000E+00
  0.00000000E+00  0.00000000E+00  0.00000000E+00
  0.00000000E+00  0.00000000E+00  0.00000000E+00
  0.00000000E+00  0.00000000E+00  0.00000000E+00
