B Ba O                                  
   1.00000000000000     
    11.1568587867069997    0.0000000000000000    0.0000000000000000
     0.0000000000000000   11.1568587867069997    0.0000000000000000
     0.0000000000000000    0.0000000000000000   26.1568587867070015
   B    Ba   O 
     1    31    32
Selective dynamics
Direct
  0.3099728519264847  0.1893722177900444  0.3878587639753156   T   T   T
  0.2501081098748363  0.9984005338888035  0.1070084692010227   T   T   T
  0.7502036820185245  0.9995039709987986  0.1061843508429832   T   T   T
  0.9989803716612330  0.2502066698865023  0.1063776169041153   T   T   T
  0.5014896503590889  0.2497161789262957  0.1070597060917982   T   T   T
  0.2496668909668679  0.5008354587581985  0.1063561718199159   T   T   T
  0.7500568912546045  0.5004545865232558  0.1067683643268258   T   T   T
  0.9993765882617340  0.7497973018852752  0.1067277747904049   T   T   T
  0.5003906562202449  0.7496855861671913  0.1061448921645845   T   T   T
  0.9978297650936794  0.9988256037161966  0.2125003098541794   T   T   T
  0.5034394488463224  0.9963836509273429  0.2121334414347991   T   T   T
  0.2487628403413064  0.2510156041732495  0.2107118550889943   T   T   T
  0.7546520362456933  0.2503582389565687  0.2126319709022761   T   T   T
  0.9993029587936615  0.5004923424793197  0.2133759059316698   T   T   T
  0.5009882649784486  0.5019833185022690  0.2124949145040844   T   T   T
  0.2494778653183869  0.7451755864816560  0.2125354266822451   T   T   T
  0.7509399093459940  0.7489175609764547  0.2131427477047551   T   T   T
  0.2499628137173426  0.9886362017516489  0.3138824554807361   T   T   T
  0.7534860420951687  0.9969734803440026  0.3222636446103088   T   T   T
  0.0022719911479588  0.2492411608473358  0.3238376346499710   T   T   T
  0.5107196517241093  0.2497550256597993  0.3140168209175045   T   T   T
  0.2503289163736763  0.4977056391863047  0.3238298763872254   T   T   T
  0.7521116433721727  0.5007161835785050  0.3241101280375059   T   T   T
  0.9986826709718418  0.7475657654640382  0.3240284675099910   T   T   T
  0.5029116498158339  0.7460732529376203  0.3222519162518332   T   T   T
  0.0045323106237650  0.0191505372637376  0.4271088248939322   T   T   T
  0.5028344687235422 -0.0033505116196379  0.4250501231964630   T   T   T
  0.7472587355780396  0.2549418682713339  0.4281818909366339   T   T   T
  0.0133390866384705  0.4861480502313098  0.4304793413630956   T   T   T
  0.4804308102118769  0.4955115261159690  0.4272009070366281   T   T   T
  0.2445128165445173  0.7525699403733350  0.4281160444968742   T   T   T
  0.7545581632589649  0.7451819516087573  0.4304011332105688   T   T   T
  0.0005205428599747  0.0008192420563837  0.1143700154043201   T   T   T
  0.4998350900330953  0.0000339531593829  0.1137149486309850   T   T   T
  0.2495001462029876  0.2503528917057468  0.1154597090404270   T   T   T
  0.7504970309566733  0.2501911693675681  0.1142607982117434   T   T   T
  0.0007850099244370  0.4991135304025046  0.1149362576668724   T   T   T
  0.4990914317889107  0.4993869389736686  0.1143974156635315   T   T   T
  0.2497130512158733  0.7493796666263223  0.1141925702949811   T   T   T
  0.7500342035307613  0.7499108300796696  0.1143422243759197   T   T   T
  0.2497150124798616  0.0027243711989859  0.2100603459582379   T   T   T
  0.7502582378519805  0.0006480820069616  0.2083605237224486   T   T   T
  0.0003009426012420  0.2504596913296505  0.2102504448552919   T   T   T
  0.4970815906765177  0.2501207263565068  0.2100974202674783   T   T   T
  0.2494414517467494  0.4995102250646298  0.2102184276383404   T   T   T
  0.7495713166749207  0.5001965014878142  0.2086221493186005   T   T   T
 -0.0003167547791178  0.7502946337133097  0.2085507941070951   T   T   T
  0.4992507081192864  0.7495603059051587  0.2083549201981773   T   T   T
  0.0050141121824155  0.0021395444867163  0.3275906990890868   T   T   T
  0.5023168906469134 -0.0029205240125375  0.3246703023569003   T   T   T
  0.2626925047634817  0.2367714810359458  0.3411055611176056   T   T   T
  0.7482616804240682  0.2502065674000702  0.3257669907284000   T   T   T
  0.0047394665741258  0.4948919662352859  0.3296321525387583   T   T   T
  0.4975839270994935  0.4944613245319946  0.3277068887393378   T   T   T
  0.2493174937125178  0.7510830657850999  0.3256778506394169   T   T   T
  0.7510877299400833  0.7484705290095784  0.3278329448275102   T   T   T
  0.2612780544857652  0.0826579504713975  0.4074221164947198   T   T   T
  0.7414025934125142  0.0105039847411761  0.4206432093882232   T   T   T
  0.9618218687990974  0.2550157444525438  0.4202653705082930   T   T   T
  0.4166311039876173  0.2376484530498886  0.4075307266370608   T   T   T
  0.2446654209353352  0.5378725106731606  0.4202909018921911   T   T   T
  0.7353107660297756  0.5037161437873690  0.4218220183313132   T   T   T
 -0.0039732535348751  0.7648820962531222  0.4217385140605210   T   T   T
  0.4892114983971299  0.7578043049174399  0.4206317791430091   T   T   T
 
  0.00000000E+00  0.00000000E+00  0.00000000E+00
  0.00000000E+00  0.00000000E+00  0.00000000E+00
  0.00000000E+00  0.00000000E+00  0.00000000E+00
  0.00000000E+00  0.00000000E+00  0.00000000E+00
  0.00000000E+00  0.00000000E+00  0.00000000E+00
  0.00000000E+00  0.00000000E+00  0.00000000E+00
  0.00000000E+00  0.00000000E+00  0.00000000E+00
  0.00000000E+00  0.00000000E+00  0.00000000E+00
  0.00000000E+00  0.00000000E+00  0.00000000E+00
  0.00000000E+00  0.00000000E+00  0.00000000E+00
  0.00000000E+00  0.00000000E+00  0.00000000E+00
  0.00000000E+00  0.00000000E+00  0.00000000E+00
  0.00000000E+00  0.00000000E+00  0.00000000E+00
  0.00000000E+00  0.00000000E+00  0.00000000E+00
  0.00000000E+00  0.00000000E+00  0.00000000E+00
  0.00000000E+00  0.00000000E+00  0.00000000E+00
  0.00000000E+00  0.00000000E+00  0.00000000E+00
  0.00000000E+00  0.00000000E+00  0.00000000E+00
  0.00000000E+00  0.00000000E+00  0.00000000E+00
  0.00000000E+00  0.00000000E+00  0.00000000E+00
  0.00000000E+00  0.00000000E+00  0.00000000E+00
  0.00000000E+00  0.00000000E+00  0.00000000E+00
  0.00000000E+00  0.00000000E+00  0.00000000E+00
  0.00000000E+00  0.00000000E+00  0.00000000E+00
  0.00000000E+00  0.00000000E+00  0.00000000E+00
  0.00000000E+00  0.00000000E+00  0.00000000E+00
  0.00000000E+00  0.00000000E+00  0.00000000E+00
  0.00000000E+00  0.00000000E+00  0.00000000E+00
  0.00000000E+00  0.00000000E+00  0.00000000E+00
  0.00000000E+00  0.00000000E+00  0.00000000E+00
  0.00000000E+00  0.00000000E+00  0.00000000E+00
  0.00000000E+00  0.00000000E+00  0.00000000E+00
  0.00000000E+00  0.00000000E+00  0.00000000E+00
  0.00000000E+00  0.00000000E+00  0.00000000E+00
  0.00000000E+00  0.00000000E+00  0.00000000E+00
  0.00000000E+00  0.00000000E+00  0.00000000E+00
  0.00000000E+00  0.00000000E+00  0.00000000E+00
  0.00000000E+00  0.00000000E+00  0.00000000E+00
  0.00000000E+00  0.00000000E+00  0.00000000E+00
  0.00000000E+00  0.00000000E+00  0.00000000E+00
  0.00000000E+00  0.00000000E+00  0.00000000E+00
  0.00000000E+00  0.00000000E+00  0.00000000E+00
  0.00000000E+00  0.00000000E+00  0.00000000E+00
  0.00000000E+00  0.00000000E+00  0.00000000E+00
  0.00000000E+00  0.00000000E+00  0.00000000E+00
  0.00000000E+00  0.00000000E+00  0.00000000E+00
  0.00000000E+00  0.00000000E+00  0.00000000E+00
  0.00000000E+00  0.00000000E+00  0.00000000E+00
  0.00000000E+00  0.00000000E+00  0.00000000E+00
  0.00000000E+00  0.00000000E+00  0.00000000E+00
  0.00000000E+00  0.00000000E+00  0.00000000E+00
  0.00000000E+00  0.00000000E+00  0.00000000E+00
  0.00000000E+00  0.00000000E+00  0.00000000E+00
  0.00000000E+00  0.00000000E+00  0.00000000E+00
  0.00000000E+00  0.00000000E+00  0.00000000E+00
  0.00000000E+00  0.00000000E+00  0.00000000E+00
  0.00000000E+00  0.00000000E+00  0.00000000E+00
  0.00000000E+00  0.00000000E+00  0.00000000E+00
  0.00000000E+00  0.00000000E+00  0.00000000E+00
  0.00000000E+00  0.00000000E+00  0.00000000E+00
  0.00000000E+00  0.00000000E+00  0.00000000E+00
  0.00000000E+00  0.00000000E+00  0.00000000E+00
  0.00000000E+00  0.00000000E+00  0.00000000E+00
  0.00000000E+00  0.00000000E+00  0.00000000E+00
