Ba Na O Ni                              
   1.00000000000000     
    11.1568587867069997    0.0000000000000000    0.0000000000000000
     0.0000000000000000   11.1568587867069997    0.0000000000000000
     0.0000000000000000    0.0000000000000000   26.1568587867070015
   Ba   Na   O    Ni
    31     1    32     1
Selective dynamics
Direct
  0.2500000000000000  0.9998696027019925  0.1065182660821869   T   T   T
  0.7500000000000000  0.9998888290734845  0.1077643956114384   T   T   T
  0.0000255723388224  0.2496586849248791  0.1065679310565852   T   T   T
  0.4999744276611776  0.2496586849248791  0.1065679310565852   T   T   T
  0.2500000000000000  0.5001745407548319  0.1068606924830877   T   T   T
  0.7500000000000000  0.5000950149629215  0.1088889531785649   T   T   T
  0.0001520144917175  0.7503164716802778  0.1074744571688072   T   T   T
  0.4998479855082825  0.7503164716802778  0.1074744571688072   T   T   T
  0.0010919930249859  0.0001714256930861  0.2130373400521530   T   T   T
  0.4989080069750140  0.0001714256930861  0.2130373400521530   T   T   T
  0.2500000000000000  0.2491579674677332  0.2121207919327060   T   T   T
  0.7500000000000000  0.2490249775022790  0.2132262348056215   T   T   T
  0.0011895234447969  0.4997564848596355  0.2131472041217823   T   T   T
  0.4988104765552031  0.4997564848596355  0.2131472041217823   T   T   T
  0.2500000000000000  0.7509532447111938  0.2131971666166578   T   T   T
  0.7500000000000000  0.7509189704451219  0.2137107894070041   T   T   T
  0.2500000000000000  0.0026239838051139  0.3199317732900214   T   T   T
  0.7500000000000000  0.0006225944553344  0.3207242933857711   T   T   T
  0.0022075928338048  0.2501859868143816  0.3206877344906607   T   T   T
  0.4977924071661953  0.2501859868143816  0.3206877344906607   T   T   T
  0.2500000000000000  0.4977137017861794  0.3195531583397241   T   T   T
  0.7500000000000000  0.4993510371159754  0.3205005748995519   T   T   T
  0.0000346011440378  0.7497034209718719  0.3230152268941425   T   T   T
  0.4999653988559622  0.7497034209718719  0.3230152268941425   T   T   T
  0.0136767096737161  0.0098675958523655  0.4275131295595258   T   T   T
  0.4863232903262840  0.0098675958523655  0.4275131295595258   T   T   T
  0.7500000000000000  0.2359390120311347  0.4264820240144231   T   T   T
  0.0193519455013833  0.4877408025013192  0.4283758327467644   T   T   T
  0.4806480544986166  0.4877408025013192  0.4283758327467644   T   T   T
  0.2500000000000000  0.7523680144938453  0.4259778117556384   T   T   T
  0.7500000000000000  0.7657945392732060  0.4280715383516367   T   T   T
  0.2500000000000000  0.2460673071613063  0.4104459262009487   T   T   T
  0.9990842455717021  0.9995502083358695  0.1133186335427886   T   T   T
  0.5009157544282979  0.9995502083358695  0.1133186335427886   T   T   T
  0.2500000000000000  0.2505406727482544  0.1107089861221900   T   T   T
  0.7500000000000000  0.2513952509997220  0.1129172078632749   T   T   T
  0.9983029990797361  0.5004164656384236  0.1136524492639067   T   T   T
  0.5016970009202639  0.5004164656384236  0.1136524492639067   T   T   T
  0.2500000000000000  0.7494947979497457  0.1127036315407506   T   T   T
  0.7500000000000000  0.7486429031226938  0.1139134778889697   T   T   T
  0.2500000000000000  0.9989699416114666  0.2067427695605548   T   T   T
  0.7500000000000000  0.9996014518915473  0.2089214783605234   T   T   T
  0.9990771512078589  0.2500494152252584  0.2064657267054582   T   T   T
  0.5009228487921411  0.2500494152252584  0.2064657267054582   T   T   T
  0.2500000000000000  0.5009947200132779  0.2075742280641055   T   T   T
  0.7500000000000000  0.5003865839715962  0.2139427506371022   T   T   T
  0.9997404108427179  0.7499470036030109  0.2078922054768705   T   T   T
  0.5002595891572821  0.7499470036030109  0.2078922054768705   T   T   T
  0.0006131743064855  0.0010782231204352  0.3255925815565602   T   T   T
  0.4993868256935145  0.0010782231204352  0.3255925815565602   T   T   T
  0.2500000000000000  0.2511279549207621  0.3167724230430294   T   T   T
  0.7500000000000000  0.2513289773960291  0.3247642627981547   T   T   T
 -0.0011727836866400  0.4991080546002049  0.3270127794340303   T   T   T
  0.5011727836866401  0.4991080546002049  0.3270127794340303   T   T   T
  0.2500000000000000  0.7495793653327950  0.3239900322526585   T   T   T
  0.7500000000000000  0.7489579851565544  0.3271111398507663   T   T   T
  0.2500000000000000  0.9936799912380851  0.4181085796812262   T   T   T
  0.7500000000000000  0.0005330448263034  0.4210125429310775   T   T   T
  0.9935990891333194  0.2497123559734815  0.4186884030338079   T   T   T
  0.5064009108666806  0.2497123559734815  0.4186884030338079   T   T   T
  0.2500000000000000  0.5052212640292855  0.4186886795425158   T   T   T
  0.7499996334070005  0.5003482156017037  0.4311489263324397   T   T   T
  0.0010555295170917  0.7519423347286921  0.4216151135647532   T   T   T
  0.4989444704829084  0.7519423347286921  0.4216151135647532   T   T   T
  0.7499996334070005  0.5001038337191400  0.4961764934134691   T   T   T
 
  0.00000000E+00  0.00000000E+00  0.00000000E+00
  0.00000000E+00  0.00000000E+00  0.00000000E+00
  0.00000000E+00  0.00000000E+00  0.00000000E+00
  0.00000000E+00  0.00000000E+00  0.00000000E+00
  0.00000000E+00  0.00000000E+00  0.00000000E+00
  0.00000000E+00  0.00000000E+00  0.00000000E+00
  0.00000000E+00  0.00000000E+00  0.00000000E+00
  0.00000000E+00  0.00000000E+00  0.00000000E+00
  0.00000000E+00  0.00000000E+00  0.00000000E+00
  0.00000000E+00  0.00000000E+00  0.00000000E+00
  0.00000000E+00  0.00000000E+00  0.00000000E+00
  0.00000000E+00  0.00000000E+00  0.00000000E+00
  0.00000000E+00  0.00000000E+00  0.00000000E+00
  0.00000000E+00  0.00000000E+00  0.00000000E+00
  0.00000000E+00  0.00000000E+00  0.00000000E+00
  0.00000000E+00  0.00000000E+00  0.00000000E+00
  0.00000000E+00  0.00000000E+00  0.00000000E+00
  0.00000000E+00  0.00000000E+00  0.00000000E+00
  0.00000000E+00  0.00000000E+00  0.00000000E+00
  0.00000000E+00  0.00000000E+00  0.00000000E+00
  0.00000000E+00  0.00000000E+00  0.00000000E+00
  0.00000000E+00  0.00000000E+00  0.00000000E+00
  0.00000000E+00  0.00000000E+00  0.00000000E+00
  0.00000000E+00  0.00000000E+00  0.00000000E+00
  0.00000000E+00  0.00000000E+00  0.00000000E+00
  0.00000000E+00  0.00000000E+00  0.00000000E+00
  0.00000000E+00  0.00000000E+00  0.00000000E+00
  0.00000000E+00  0.00000000E+00  0.00000000E+00
  0.00000000E+00  0.00000000E+00  0.00000000E+00
  0.00000000E+00  0.00000000E+00  0.00000000E+00
  0.00000000E+00  0.00000000E+00  0.00000000E+00
  0.00000000E+00  0.00000000E+00  0.00000000E+00
  0.00000000E+00  0.00000000E+00  0.00000000E+00
  0.00000000E+00  0.00000000E+00  0.00000000E+00
  0.00000000E+00  0.00000000E+00  0.00000000E+00
  0.00000000E+00  0.00000000E+00  0.00000000E+00
  0.00000000E+00  0.00000000E+00  0.00000000E+00
  0.00000000E+00  0.00000000E+00  0.00000000E+00
  0.00000000E+00  0.00000000E+00  0.00000000E+00
  0.00000000E+00  0.00000000E+00  0.00000000E+00
  0.00000000E+00  0.00000000E+00  0.00000000E+00
  0.00000000E+00  0.00000000E+00  0.00000000E+00
  0.00000000E+00  0.00000000E+00  0.00000000E+00
  0.00000000E+00  0.00000000E+00  0.00000000E+00
  0.00000000E+00  0.00000000E+00  0.00000000E+00
  0.00000000E+00  0.00000000E+00  0.00000000E+00
  0.00000000E+00  0.00000000E+00  0.00000000E+00
  0.00000000E+00  0.00000000E+00  0.00000000E+00
  0.00000000E+00  0.00000000E+00  0.00000000E+00
  0.00000000E+00  0.00000000E+00  0.00000000E+00
  0.00000000E+00  0.00000000E+00  0.00000000E+00
  0.00000000E+00  0.00000000E+00  0.00000000E+00
  0.00000000E+00  0.00000000E+00  0.00000000E+00
  0.00000000E+00  0.00000000E+00  0.00000000E+00
  0.00000000E+00  0.00000000E+00  0.00000000E+00
  0.00000000E+00  0.00000000E+00  0.00000000E+00
  0.00000000E+00  0.00000000E+00  0.00000000E+00
  0.00000000E+00  0.00000000E+00  0.00000000E+00
  0.00000000E+00  0.00000000E+00  0.00000000E+00
  0.00000000E+00  0.00000000E+00  0.00000000E+00
  0.00000000E+00  0.00000000E+00  0.00000000E+00
  0.00000000E+00  0.00000000E+00  0.00000000E+00
  0.00000000E+00  0.00000000E+00  0.00000000E+00
  0.00000000E+00  0.00000000E+00  0.00000000E+00
  0.00000000E+00  0.00000000E+00  0.00000000E+00
