Ba Na O Rh                              
   1.00000000000000     
    11.1568587867069997    0.0000000000000000    0.0000000000000000
     0.0000000000000000   11.1568587867069997    0.0000000000000000
     0.0000000000000000    0.0000000000000000   26.1568587867070015
   Ba   Na   O    Rh
    31     1    32     1
Selective dynamics
Direct
  0.2500000000000000  0.9997854726309289  0.1064845671659226   T   T   T
  0.7500000000000000  0.9998331513399847  0.1077183369747139   T   T   T
 -0.0000223655793220  0.2496652735833439  0.1065223525011915   T   T   T
  0.5000223655793221  0.2496652735833439  0.1065223525011915   T   T   T
  0.2500000000000000  0.5002248659004573  0.1068434895383720   T   T   T
  0.7500000000000000  0.5001005065190265  0.1088285953823454   T   T   T
  0.0003142405517825  0.7502925913771604  0.1074102556225905   T   T   T
  0.4996857594482174  0.7502925913771604  0.1074102556225905   T   T   T
  0.0009689244542868 -0.0000799686518499  0.2129198021227711   T   T   T
  0.4990310755457131 -0.0000799686518499  0.2129198021227711   T   T   T
  0.2500000000000000  0.2491889335286017  0.2117752202582100   T   T   T
  0.7500000000000000  0.2484778980634637  0.2129447843142685   T   T   T
  0.0018129838805068  0.5000390409464208  0.2129676102167291   T   T   T
  0.4981870161194932  0.5000390409464208  0.2129676102167291   T   T   T
  0.2500000000000000  0.7506715842369862  0.2131445226882298   T   T   T
  0.7500000000000000  0.7514346364058526  0.2136177119434126   T   T   T
  0.2500000000000000  0.0021366737634406  0.3190411543064764   T   T   T
  0.7500000000000000  0.0005428507150619  0.3205149124504270   T   T   T
  0.0018101448064679  0.2502145782819197  0.3204629593957853   T   T   T
  0.4981898551935321  0.2502145782819197  0.3204629593957853   T   T   T
  0.2500000000000000  0.4975255718688249  0.3189938644850658   T   T   T
  0.7500000000000000  0.4992776493917595  0.3191774301123642   T   T   T
 -0.0004105344675595  0.7491736451571660  0.3233293589347400   T   T   T
  0.5004105344675597  0.7491736451571660  0.3233293589347400   T   T   T
  0.0142736262385719  0.0096291046523023  0.4272462192920937   T   T   T
  0.4857263737614282  0.0096291046523023  0.4272462192920937   T   T   T
  0.7500000000000000  0.2337564303852470  0.4269467072919884   T   T   T
  0.0221546131167475  0.4866807819825393  0.4289391106065518   T   T   T
  0.4778453868832527  0.4866807819825393  0.4289391106065518   T   T   T
  0.2500000000000000  0.7528797760106865  0.4258040961311652   T   T   T
  0.7500000000000000  0.7688362840731868  0.4288143612576407   T   T   T
  0.2500000000000000  0.2438395907126254  0.4096642192288175   T   T   T
  0.9990746260460847  0.9995922018459542  0.1131237722286239   T   T   T
  0.5009253739539153  0.9995922018459542  0.1131237722286239   T   T   T
  0.2500000000000000  0.2505886479971351  0.1104932719052807   T   T   T
  0.7500000000000000  0.2513987735258897  0.1129942818608174   T   T   T
  0.9982975802971579  0.5003739812648992  0.1137780221180430   T   T   T
  0.5017024197028421  0.5003739812648992  0.1137780221180430   T   T   T
  0.2500000000000000  0.7495247650855095  0.1125867573490682   T   T   T
  0.7500000000000000  0.7486259477469156  0.1140208390667128   T   T   T
  0.2500000000000000  0.9990331497349801  0.2064578632558476   T   T   T
  0.7500000000000000  0.9996564600059802  0.2089420593412706   T   T   T
  0.9988438325436263  0.2502112831476565  0.2063715589941950   T   T   T
  0.5011561674563737  0.2502112831476565  0.2063715589941950   T   T   T
  0.2500000000000000  0.5009915045130646  0.2075905448631583   T   T   T
  0.7500000000000000  0.5003190994633218  0.2140477657593058   T   T   T
  0.9995672135788887  0.7498354445115865  0.2076600070216880   T   T   T
  0.5004327864211113  0.7498354445115865  0.2076600070216880   T   T   T
  0.0004235024366012  0.0012245933456228  0.3252988665870145   T   T   T
  0.4995764975633989  0.0012245933456228  0.3252988665870145   T   T   T
  0.2500000000000000  0.2512674597101888  0.3164299616718397   T   T   T
  0.7500000000000000  0.2521227713124345  0.3249725423188170   T   T   T
 -0.0019948439750913  0.4989486082674134  0.3273207923365830   T   T   T
  0.5019948439750913  0.4989486082674134  0.3273207923365830   T   T   T
  0.2500000000000000  0.7491181384997490  0.3239644665968486   T   T   T
  0.7500000000000000  0.7482809681764446  0.3275580527803818   T   T   T
  0.2500000000000000  0.9944351286335188  0.4178394857477910   T   T   T
  0.7500000000000000  0.0009148346427634  0.4212968252345580   T   T   T
  0.9935733270054441  0.2497582973033305  0.4183101937234709   T   T   T
  0.5064266729945559  0.2497582973033305  0.4183101937234709   T   T   T
  0.2500000000000000  0.5049742910681662  0.4190363623818598   T   T   T
  0.7499996334070005  0.5007565626056242  0.4318319213749480   T   T   T
  0.0013779728843587  0.7538630398390690  0.4213165223554030   T   T   T
  0.4986220271156411  0.7538630398390690  0.4213165223554030   T   T   T
  0.7499996334070005  0.5005147893401117  0.5009537144221115   T   T   T
 
  0.00000000E+00  0.00000000E+00  0.00000000E+00
  0.00000000E+00  0.00000000E+00  0.00000000E+00
  0.00000000E+00  0.00000000E+00  0.00000000E+00
  0.00000000E+00  0.00000000E+00  0.00000000E+00
  0.00000000E+00  0.00000000E+00  0.00000000E+00
  0.00000000E+00  0.00000000E+00  0.00000000E+00
  0.00000000E+00  0.00000000E+00  0.00000000E+00
  0.00000000E+00  0.00000000E+00  0.00000000E+00
  0.00000000E+00  0.00000000E+00  0.00000000E+00
  0.00000000E+00  0.00000000E+00  0.00000000E+00
  0.00000000E+00  0.00000000E+00  0.00000000E+00
  0.00000000E+00  0.00000000E+00  0.00000000E+00
  0.00000000E+00  0.00000000E+00  0.00000000E+00
  0.00000000E+00  0.00000000E+00  0.00000000E+00
  0.00000000E+00  0.00000000E+00  0.00000000E+00
  0.00000000E+00  0.00000000E+00  0.00000000E+00
  0.00000000E+00  0.00000000E+00  0.00000000E+00
  0.00000000E+00  0.00000000E+00  0.00000000E+00
  0.00000000E+00  0.00000000E+00  0.00000000E+00
  0.00000000E+00  0.00000000E+00  0.00000000E+00
  0.00000000E+00  0.00000000E+00  0.00000000E+00
  0.00000000E+00  0.00000000E+00  0.00000000E+00
  0.00000000E+00  0.00000000E+00  0.00000000E+00
  0.00000000E+00  0.00000000E+00  0.00000000E+00
  0.00000000E+00  0.00000000E+00  0.00000000E+00
  0.00000000E+00  0.00000000E+00  0.00000000E+00
  0.00000000E+00  0.00000000E+00  0.00000000E+00
  0.00000000E+00  0.00000000E+00  0.00000000E+00
  0.00000000E+00  0.00000000E+00  0.00000000E+00
  0.00000000E+00  0.00000000E+00  0.00000000E+00
  0.00000000E+00  0.00000000E+00  0.00000000E+00
  0.00000000E+00  0.00000000E+00  0.00000000E+00
  0.00000000E+00  0.00000000E+00  0.00000000E+00
  0.00000000E+00  0.00000000E+00  0.00000000E+00
  0.00000000E+00  0.00000000E+00  0.00000000E+00
  0.00000000E+00  0.00000000E+00  0.00000000E+00
  0.00000000E+00  0.00000000E+00  0.00000000E+00
  0.00000000E+00  0.00000000E+00  0.00000000E+00
  0.00000000E+00  0.00000000E+00  0.00000000E+00
  0.00000000E+00  0.00000000E+00  0.00000000E+00
  0.00000000E+00  0.00000000E+00  0.00000000E+00
  0.00000000E+00  0.00000000E+00  0.00000000E+00
  0.00000000E+00  0.00000000E+00  0.00000000E+00
  0.00000000E+00  0.00000000E+00  0.00000000E+00
  0.00000000E+00  0.00000000E+00  0.00000000E+00
  0.00000000E+00  0.00000000E+00  0.00000000E+00
  0.00000000E+00  0.00000000E+00  0.00000000E+00
  0.00000000E+00  0.00000000E+00  0.00000000E+00
  0.00000000E+00  0.00000000E+00  0.00000000E+00
  0.00000000E+00  0.00000000E+00  0.00000000E+00
  0.00000000E+00  0.00000000E+00  0.00000000E+00
  0.00000000E+00  0.00000000E+00  0.00000000E+00
  0.00000000E+00  0.00000000E+00  0.00000000E+00
  0.00000000E+00  0.00000000E+00  0.00000000E+00
  0.00000000E+00  0.00000000E+00  0.00000000E+00
  0.00000000E+00  0.00000000E+00  0.00000000E+00
  0.00000000E+00  0.00000000E+00  0.00000000E+00
  0.00000000E+00  0.00000000E+00  0.00000000E+00
  0.00000000E+00  0.00000000E+00  0.00000000E+00
  0.00000000E+00  0.00000000E+00  0.00000000E+00
  0.00000000E+00  0.00000000E+00  0.00000000E+00
  0.00000000E+00  0.00000000E+00  0.00000000E+00
  0.00000000E+00  0.00000000E+00  0.00000000E+00
  0.00000000E+00  0.00000000E+00  0.00000000E+00
  0.00000000E+00  0.00000000E+00  0.00000000E+00
