Ba Na O Pd                              
   1.00000000000000     
    11.1568587867069997    0.0000000000000000    0.0000000000000000
     0.0000000000000000   11.1568587867069997    0.0000000000000000
     0.0000000000000000    0.0000000000000000   26.1568587867070015
   Ba   Na   O    Pd
    31     1    32     1
Selective dynamics
Direct
  0.2500000000000000  0.9995843513215221  0.1067466624649577   T   T   T
  0.7500000000000000  0.9997801663668298  0.1076732343195513   T   T   T
  0.9996618387493130  0.2498838786652303  0.1067095853603040   T   T   T
  0.5003381612506870  0.2498838786652303  0.1067095853603040   T   T   T
  0.2500000000000000  0.5003717059725119  0.1067602732931495   T   T   T
  0.7500000000000000  0.5001442632061359  0.1084151079428599   T   T   T
  0.9999100278226022  0.7501048589970941  0.1076528436307320   T   T   T
  0.5000899721773978  0.7501048589970941  0.1076528436307320   T   T   T
  0.0005823775001726  0.0002869747594571  0.2134415683153544   T   T   T
  0.4994176224998274  0.0002869747594571  0.2134415683153544   T   T   T
  0.2500000000000000  0.2494999467991197  0.2123128516682128   T   T   T
  0.7500000000000000  0.2495412674050778  0.2135786905340820   T   T   T
  0.0007347152492187  0.4997247464840610  0.2134294062525507   T   T   T
  0.4992652847507813  0.4997247464840610  0.2134294062525507   T   T   T
  0.2500000000000000  0.7504354548740670  0.2135549131854524   T   T   T
  0.7500000000000000  0.7504827484974138  0.2140197998737363   T   T   T
  0.2500000000000000  0.0027680888372480  0.3208737659771184   T   T   T
  0.7500000000000000  0.0007211201136140  0.3220426860680250   T   T   T
  0.0015705714971260  0.2507611631335411  0.3211187364147547   T   T   T
  0.4984294285028740  0.2507611631335411  0.3211187364147547   T   T   T
  0.2500000000000000  0.4978037771245832  0.3205889441202414   T   T   T
  0.7500000000000000  0.4994207302609154  0.3226000735291668   T   T   T
 -0.0003021934049298  0.7489846137263215  0.3228419684393460   T   T   T
  0.5003021934049299  0.7489846137263215  0.3228419684393460   T   T   T
  0.0117492915815929  0.0094921917756024  0.4280312576029581   T   T   T
  0.4882507084184071  0.0094921917756024  0.4280312576029581   T   T   T
  0.7500000000000000  0.2402743973132700  0.4279567878013868   T   T   T
  0.0156362574098756  0.4888261688575501  0.4293402546736557   T   T   T
  0.4843637425901244  0.4888261688575501  0.4293402546736557   T   T   T
  0.2500000000000000  0.7518636877106568  0.4265358261122356   T   T   T
  0.7500000000000000  0.7608126638980336  0.4286556259450470   T   T   T
  0.2500000000000000  0.2480181848248922  0.4119064889904343   T   T   T
  0.9994410358780584  0.9995875283303446  0.1131100847999419   T   T   T
  0.5005589641219416  0.9995875283303446  0.1131100847999419   T   T   T
  0.2500000000000000  0.2502420246078928  0.1103505791801386   T   T   T
  0.7500000000000000  0.2506930241531612  0.1123461787903628   T   T   T
  0.9989311331736602  0.5004117470611308  0.1131720968780186   T   T   T
  0.5010688668263398  0.5004117470611308  0.1131720968780186   T   T   T
  0.2500000000000000  0.7497889451202665  0.1123170559166406   T   T   T
  0.7500000000000000  0.7493606359341538  0.1132971911803385   T   T   T
  0.2500000000000000  0.9990380758346202  0.2065412775767278   T   T   T
  0.7500000000000000  0.9996767774793320  0.2081215543414899   T   T   T
  0.9991298697143191  0.2499377098836714  0.2062880010752060   T   T   T
  0.5008701302856809  0.2499377098836714  0.2062880010752060   T   T   T
  0.2500000000000000  0.5009145627306760  0.2068271779366281   T   T   T
  0.7500000000000000  0.5002774308236916  0.2107367850652720   T   T   T
  0.9997607249052144  0.7500638777391735  0.2077319006148904   T   T   T
  0.5002392750947856  0.7500638777391735  0.2077319006148904   T   T   T
  0.0002927604612902  0.0007389712070274  0.3257033103829040   T   T   T
  0.4997072395387098  0.0007389712070274  0.3257033103829040   T   T   T
  0.2500000000000000  0.2508660521808942  0.3170349746599243   T   T   T
  0.7500000000000000  0.2508356034314390  0.3236494937286482   T   T   T
 -0.0003694830846321  0.4993144948467076  0.3258820565034335   T   T   T
  0.5003694830846320  0.4993144948467076  0.3258820565034335   T   T   T
  0.2500000000000000  0.7494471363757670  0.3237222254714714   T   T   T
  0.7500000000000000  0.7492656544839960  0.3258013271367294   T   T   T
  0.2500000000000000  0.9922503387952738  0.4189363828739492   T   T   T
  0.7500000000000000 -0.0000822759030732  0.4215659082122926   T   T   T
  0.9937726215983349  0.2488847265072801  0.4186988502259267   T   T   T
  0.5062273784016651  0.2488847265072801  0.4186988502259267   T   T   T
  0.2500000000000000  0.5068803951748143  0.4193199505729189   T   T   T
  0.7499996334070005  0.5004398184297882  0.4239394711213502   T   T   T
  0.0014624668686879  0.7522344037565944  0.4215112280767163   T   T   T
  0.4985375331313121  0.7522344037565944  0.4215112280767163   T   T   T
  0.7499996334070005  0.4999872956768417  0.4992299334910608   T   T   T
 
  0.00000000E+00  0.00000000E+00  0.00000000E+00
  0.00000000E+00  0.00000000E+00  0.00000000E+00
  0.00000000E+00  0.00000000E+00  0.00000000E+00
  0.00000000E+00  0.00000000E+00  0.00000000E+00
  0.00000000E+00  0.00000000E+00  0.00000000E+00
  0.00000000E+00  0.00000000E+00  0.00000000E+00
  0.00000000E+00  0.00000000E+00  0.00000000E+00
  0.00000000E+00  0.00000000E+00  0.00000000E+00
  0.00000000E+00  0.00000000E+00  0.00000000E+00
  0.00000000E+00  0.00000000E+00  0.00000000E+00
  0.00000000E+00  0.00000000E+00  0.00000000E+00
  0.00000000E+00  0.00000000E+00  0.00000000E+00
  0.00000000E+00  0.00000000E+00  0.00000000E+00
  0.00000000E+00  0.00000000E+00  0.00000000E+00
  0.00000000E+00  0.00000000E+00  0.00000000E+00
  0.00000000E+00  0.00000000E+00  0.00000000E+00
  0.00000000E+00  0.00000000E+00  0.00000000E+00
  0.00000000E+00  0.00000000E+00  0.00000000E+00
  0.00000000E+00  0.00000000E+00  0.00000000E+00
  0.00000000E+00  0.00000000E+00  0.00000000E+00
  0.00000000E+00  0.00000000E+00  0.00000000E+00
  0.00000000E+00  0.00000000E+00  0.00000000E+00
  0.00000000E+00  0.00000000E+00  0.00000000E+00
  0.00000000E+00  0.00000000E+00  0.00000000E+00
  0.00000000E+00  0.00000000E+00  0.00000000E+00
  0.00000000E+00  0.00000000E+00  0.00000000E+00
  0.00000000E+00  0.00000000E+00  0.00000000E+00
  0.00000000E+00  0.00000000E+00  0.00000000E+00
  0.00000000E+00  0.00000000E+00  0.00000000E+00
  0.00000000E+00  0.00000000E+00  0.00000000E+00
  0.00000000E+00  0.00000000E+00  0.00000000E+00
  0.00000000E+00  0.00000000E+00  0.00000000E+00
  0.00000000E+00  0.00000000E+00  0.00000000E+00
  0.00000000E+00  0.00000000E+00  0.00000000E+00
  0.00000000E+00  0.00000000E+00  0.00000000E+00
  0.00000000E+00  0.00000000E+00  0.00000000E+00
  0.00000000E+00  0.00000000E+00  0.00000000E+00
  0.00000000E+00  0.00000000E+00  0.00000000E+00
  0.00000000E+00  0.00000000E+00  0.00000000E+00
  0.00000000E+00  0.00000000E+00  0.00000000E+00
  0.00000000E+00  0.00000000E+00  0.00000000E+00
  0.00000000E+00  0.00000000E+00  0.00000000E+00
  0.00000000E+00  0.00000000E+00  0.00000000E+00
  0.00000000E+00  0.00000000E+00  0.00000000E+00
  0.00000000E+00  0.00000000E+00  0.00000000E+00
  0.00000000E+00  0.00000000E+00  0.00000000E+00
  0.00000000E+00  0.00000000E+00  0.00000000E+00
  0.00000000E+00  0.00000000E+00  0.00000000E+00
  0.00000000E+00  0.00000000E+00  0.00000000E+00
  0.00000000E+00  0.00000000E+00  0.00000000E+00
  0.00000000E+00  0.00000000E+00  0.00000000E+00
  0.00000000E+00  0.00000000E+00  0.00000000E+00
  0.00000000E+00  0.00000000E+00  0.00000000E+00
  0.00000000E+00  0.00000000E+00  0.00000000E+00
  0.00000000E+00  0.00000000E+00  0.00000000E+00
  0.00000000E+00  0.00000000E+00  0.00000000E+00
  0.00000000E+00  0.00000000E+00  0.00000000E+00
  0.00000000E+00  0.00000000E+00  0.00000000E+00
  0.00000000E+00  0.00000000E+00  0.00000000E+00
  0.00000000E+00  0.00000000E+00  0.00000000E+00
  0.00000000E+00  0.00000000E+00  0.00000000E+00
  0.00000000E+00  0.00000000E+00  0.00000000E+00
  0.00000000E+00  0.00000000E+00  0.00000000E+00
  0.00000000E+00  0.00000000E+00  0.00000000E+00
  0.00000000E+00  0.00000000E+00  0.00000000E+00
