Ba Na O                                 
   1.00000000000000     
    11.1568587867069997    0.0000000000000000    0.0000000000000000
     0.0000000000000000   11.1568587867069997    0.0000000000000000
     0.0000000000000000    0.0000000000000000   26.1568587867070015
   Ba   Na   O 
    31     1    32
Selective dynamics
Direct
  0.2500000000000000 -0.0002631095016494  0.1067637211848718   T   T   T
  0.7500000000000000 -0.0000429378747682  0.1075399375587771   T   T   T
 -0.0002631095016494  0.2500000000000000  0.1067637211848718   T   T   T
  0.5002631095016494  0.2500000000000000  0.1067637211848718   T   T   T
  0.2500000000000000  0.5002631095016494  0.1067637211848718   T   T   T
  0.7500000000000000  0.5000429378747683  0.1075399375587771   T   T   T
 -0.0000429378747682  0.7500000000000000  0.1075399375587771   T   T   T
  0.5000429378747683  0.7500000000000000  0.1075399375587771   T   T   T
  0.0003086746940810  0.0003086746940810  0.2132073303814985   T   T   T
  0.4996913253059190  0.0003086746940810  0.2132073303814985   T   T   T
  0.2500000000000000  0.2500000000000000  0.2121412535426470   T   T   T
  0.7500000000000000  0.2500000000000000  0.2134193174174661   T   T   T
  0.0003086746940810  0.4996913253059190  0.2132073303814985   T   T   T
  0.4996913253059190  0.4996913253059190  0.2132073303814985   T   T   T
  0.2500000000000000  0.7500000000000000  0.2134193174174661   T   T   T
  0.7500000000000000  0.7500000000000000  0.2139545974671395   T   T   T
  0.2500000000000000  0.0033334500760282  0.3213047620881930   T   T   T
  0.7500000000000000  0.0006645198432212  0.3222757079842083   T   T   T
  0.0033334500760282  0.2500000000000000  0.3213047620881930   T   T   T
  0.4966665499239719  0.2500000000000000  0.3213047620881930   T   T   T
  0.2500000000000000  0.4966665499239719  0.3213047620881930   T   T   T
  0.7500000000000000  0.4993354801567789  0.3222757079842083   T   T   T
  0.0006645198432212  0.7500000000000000  0.3222757079842083   T   T   T
  0.4993354801567789  0.7500000000000000  0.3222757079842083   T   T   T
  0.0083208835955755  0.0083208835955755  0.4278823952791656   T   T   T
  0.4916791164044245  0.0083208835955755  0.4278823952791656   T   T   T
  0.7500000000000000  0.2500000000000000  0.4266297046560154   T   T   T
  0.0083208835955755  0.4916791164044245  0.4278823952791656   T   T   T
  0.4916791164044245  0.4916791164044245  0.4278823952791656   T   T   T
  0.2500000000000000  0.7500000000000000  0.4266297046560154   T   T   T
  0.7500000000000000  0.7500000000000000  0.4275095611993701   T   T   T
  0.2500000000000000  0.2500000000000000  0.4128807267678043   T   T   T
 -0.0002729916826138 -0.0002729916826138  0.1131496962722492   T   T   T
  0.5002729916826137 -0.0002729916826138  0.1131496962722492   T   T   T
  0.2500000000000000  0.2500000000000000  0.1102905149866970   T   T   T
  0.7500000000000000  0.2500000000000000  0.1122483677602153   T   T   T
 -0.0002729916826138  0.5002729916826137  0.1131496962722492   T   T   T
  0.5002729916826137  0.5002729916826137  0.1131496962722492   T   T   T
  0.2500000000000000  0.7500000000000000  0.1122483677602153   T   T   T
  0.7500000000000000  0.7500000000000000  0.1129730091431591   T   T   T
  0.2500000000000000 -0.0008159047753649  0.2066072983375604   T   T   T
  0.7500000000000000 -0.0004323320887578  0.2077903692612075   T   T   T
 -0.0008159047753649  0.2500000000000000  0.2066072983375604   T   T   T
  0.5008159047753650  0.2500000000000000  0.2066072983375604   T   T   T
  0.2500000000000000  0.5008159047753650  0.2066072983375604   T   T   T
  0.7500000000000000  0.5004323320887578  0.2077903692612075   T   T   T
 -0.0004323320887578  0.7500000000000000  0.2077903692612075   T   T   T
  0.5004323320887578  0.7500000000000000  0.2077903692612075   T   T   T
  0.0006074045348602  0.0006074045348602  0.3262374961702292   T   T   T
  0.4993925954651398  0.0006074045348602  0.3262374961702292   T   T   T
  0.2500000000000000  0.2500000000000000  0.3173980966990391   T   T   T
  0.7500000000000000  0.2500000000000000  0.3239668340733984   T   T   T
  0.0006074045348602  0.4993925954651398  0.3262374961702292   T   T   T
  0.4993925954651398  0.4993925954651398  0.3262374961702292   T   T   T
  0.2500000000000000  0.7500000000000000  0.3239668340733984   T   T   T
  0.7500000000000000  0.7500000000000000  0.3252913492361012   T   T   T
  0.2500000000000000 -0.0066319387890074  0.4196506253621879   T   T   T
  0.7500000000000000  0.0001202635489255  0.4217152194098538   T   T   T
 -0.0066319387890074  0.2500000000000000  0.4196506253621879   T   T   T
  0.5066319387890075  0.2500000000000000  0.4196506253621879   T   T   T
  0.2500000000000000  0.5066319387890075  0.4196506253621879   T   T   T
  0.7500000000000000  0.4998797364510746  0.4217152194098538   T   T   T
  0.0001202635489255  0.7500000000000000  0.4217152194098538   T   T   T
  0.4998797364510746  0.7500000000000000  0.4217152194098538   T   T   T
 
  0.00000000E+00  0.00000000E+00  0.00000000E+00
  0.00000000E+00  0.00000000E+00  0.00000000E+00
  0.00000000E+00  0.00000000E+00  0.00000000E+00
  0.00000000E+00  0.00000000E+00  0.00000000E+00
  0.00000000E+00  0.00000000E+00  0.00000000E+00
  0.00000000E+00  0.00000000E+00  0.00000000E+00
  0.00000000E+00  0.00000000E+00  0.00000000E+00
  0.00000000E+00  0.00000000E+00  0.00000000E+00
  0.00000000E+00  0.00000000E+00  0.00000000E+00
  0.00000000E+00  0.00000000E+00  0.00000000E+00
  0.00000000E+00  0.00000000E+00  0.00000000E+00
  0.00000000E+00  0.00000000E+00  0.00000000E+00
  0.00000000E+00  0.00000000E+00  0.00000000E+00
  0.00000000E+00  0.00000000E+00  0.00000000E+00
  0.00000000E+00  0.00000000E+00  0.00000000E+00
  0.00000000E+00  0.00000000E+00  0.00000000E+00
  0.00000000E+00  0.00000000E+00  0.00000000E+00
  0.00000000E+00  0.00000000E+00  0.00000000E+00
  0.00000000E+00  0.00000000E+00  0.00000000E+00
  0.00000000E+00  0.00000000E+00  0.00000000E+00
  0.00000000E+00  0.00000000E+00  0.00000000E+00
  0.00000000E+00  0.00000000E+00  0.00000000E+00
  0.00000000E+00  0.00000000E+00  0.00000000E+00
  0.00000000E+00  0.00000000E+00  0.00000000E+00
  0.00000000E+00  0.00000000E+00  0.00000000E+00
  0.00000000E+00  0.00000000E+00  0.00000000E+00
  0.00000000E+00  0.00000000E+00  0.00000000E+00
  0.00000000E+00  0.00000000E+00  0.00000000E+00
  0.00000000E+00  0.00000000E+00  0.00000000E+00
  0.00000000E+00  0.00000000E+00  0.00000000E+00
  0.00000000E+00  0.00000000E+00  0.00000000E+00
  0.00000000E+00  0.00000000E+00  0.00000000E+00
  0.00000000E+00  0.00000000E+00  0.00000000E+00
  0.00000000E+00  0.00000000E+00  0.00000000E+00
  0.00000000E+00  0.00000000E+00  0.00000000E+00
  0.00000000E+00  0.00000000E+00  0.00000000E+00
  0.00000000E+00  0.00000000E+00  0.00000000E+00
  0.00000000E+00  0.00000000E+00  0.00000000E+00
  0.00000000E+00  0.00000000E+00  0.00000000E+00
  0.00000000E+00  0.00000000E+00  0.00000000E+00
  0.00000000E+00  0.00000000E+00  0.00000000E+00
  0.00000000E+00  0.00000000E+00  0.00000000E+00
  0.00000000E+00  0.00000000E+00  0.00000000E+00
  0.00000000E+00  0.00000000E+00  0.00000000E+00
  0.00000000E+00  0.00000000E+00  0.00000000E+00
  0.00000000E+00  0.00000000E+00  0.00000000E+00
  0.00000000E+00  0.00000000E+00  0.00000000E+00
  0.00000000E+00  0.00000000E+00  0.00000000E+00
  0.00000000E+00  0.00000000E+00  0.00000000E+00
  0.00000000E+00  0.00000000E+00  0.00000000E+00
  0.00000000E+00  0.00000000E+00  0.00000000E+00
  0.00000000E+00  0.00000000E+00  0.00000000E+00
  0.00000000E+00  0.00000000E+00  0.00000000E+00
  0.00000000E+00  0.00000000E+00  0.00000000E+00
  0.00000000E+00  0.00000000E+00  0.00000000E+00
  0.00000000E+00  0.00000000E+00  0.00000000E+00
  0.00000000E+00  0.00000000E+00  0.00000000E+00
  0.00000000E+00  0.00000000E+00  0.00000000E+00
  0.00000000E+00  0.00000000E+00  0.00000000E+00
  0.00000000E+00  0.00000000E+00  0.00000000E+00
  0.00000000E+00  0.00000000E+00  0.00000000E+00
  0.00000000E+00  0.00000000E+00  0.00000000E+00
  0.00000000E+00  0.00000000E+00  0.00000000E+00
  0.00000000E+00  0.00000000E+00  0.00000000E+00
