Ba Na O Fe                              
   1.00000000000000     
    11.1568587867069997    0.0000000000000000    0.0000000000000000
     0.0000000000000000   11.1568587867069997    0.0000000000000000
     0.0000000000000000    0.0000000000000000   26.1568587867070015
   Ba   Na   O    Fe
    31     1    32     1
Selective dynamics
Direct
  0.2500000000000000  0.9997188211495909  0.1058514240038650   T   T   T
  0.7500000000000000  0.9997562176027489  0.1075459994804131   T   T   T
 -0.0001983732899928  0.2498488813626948  0.1065538649381797   T   T   T
  0.5001983732899929  0.2498488813626948  0.1065538649381797   T   T   T
  0.2500000000000000  0.5001442021866003  0.1066489607491266   T   T   T
  0.7500000000000000  0.5000975787814160  0.1089061240439623   T   T   T
  0.0001014870974061  0.7501060034595946  0.1073376674889496   T   T   T
  0.4998985129025937  0.7501060034595946  0.1073376674889496   T   T   T
  0.0009366653896651 -0.0004533576905152  0.2125782340045914   T   T   T
  0.4990633346103349 -0.0004533576905152  0.2125782340045914   T   T   T
  0.2500000000000000  0.2490507466302084  0.2113505685102509   T   T   T
  0.7500000000000000  0.2484694164112258  0.2129670858381370   T   T   T
  0.0017702280318295  0.5001823814234316  0.2129761525375016   T   T   T
  0.4982297719681705  0.5001823814234316  0.2129761525375016   T   T   T
  0.2500000000000000  0.7506897617765044  0.2127397720534792   T   T   T
  0.7500000000000000  0.7514343622745182  0.2136009667340778   T   T   T
  0.2500000000000000  0.0015210537030300  0.3186918195399518   T   T   T
  0.7500000000000000  0.0001736636890094  0.3201443742211167   T   T   T
  0.0024475918575353  0.2498919938666299  0.3199785755754656   T   T   T
  0.4975524081424648  0.2498919938666299  0.3199785755754656   T   T   T
  0.2500000000000000  0.4978427191921520  0.3186648555401660   T   T   T
  0.7500000000000000  0.4993803957776174  0.3192540640965464   T   T   T
 -0.0000187710608391  0.7493939991380906  0.3232664484035552   T   T   T
  0.5000187710608391  0.7493939991380906  0.3232664484035552   T   T   T
  0.0137412548000846  0.0092853024500576  0.4266614240808730   T   T   T
  0.4862587451999155  0.0092853024500576  0.4266614240808730   T   T   T
  0.7500000000000000  0.2335753066741894  0.4257392588219561   T   T   T
  0.0224943561397395  0.4877246493620551  0.4278452347597857   T   T   T
  0.4775056438602605  0.4877246493620551  0.4278452347597857   T   T   T
  0.2500000000000000  0.7532801369260419  0.4256714219872326   T   T   T
  0.7500000000000000  0.7694340510514749  0.4281864829867865   T   T   T
  0.2500000000000000  0.2414829537440726  0.4089689097602121   T   T   T
  0.9987925159583366  0.9996419570527482  0.1129239424481823   T   T   T
  0.5012074840416634  0.9996419570527482  0.1129239424481823   T   T   T
  0.2500000000000000  0.2510264434362640  0.1103142963468931   T   T   T
  0.7500000000000000  0.2519270355823480  0.1132518770495566   T   T   T
  0.9977545496424333  0.5003835284921055  0.1139673048565998   T   T   T
  0.5022454503575667  0.5003835284921055  0.1139673048565998   T   T   T
  0.2500000000000000  0.7492979765105888  0.1124464712511962   T   T   T
  0.7500000000000000  0.7480920267250686  0.1142693758547677   T   T   T
  0.2500000000000000  0.9989809374516825  0.2062097610101318   T   T   T
  0.7500000000000000  0.9996296903034967  0.2088724794547762   T   T   T
  0.9986607886648374  0.2502569913601874  0.2065789322130377   T   T   T
  0.5013392113351626  0.2502569913601874  0.2065789322130377   T   T   T
  0.2500000000000000  0.5011749892141638  0.2075499332362662   T   T   T
  0.7500000000000000  0.5004165470986910  0.2154195679617032   T   T   T
  0.9994345078733959  0.7497390964338730  0.2075526169776659   T   T   T
  0.5005654921266041  0.7497390964338730  0.2075526169776659   T   T   T
  0.0002317586410364  0.0012141681122979  0.3249890083737813   T   T   T
  0.4997682413589637  0.0012141681122979  0.3249890083737813   T   T   T
  0.2500000000000000  0.2512505714906391  0.3160630145106865   T   T   T
  0.7500000000000000  0.2525386684058782  0.3247636285839244   T   T   T
 -0.0022527737242964  0.4987872715839961  0.3272946662378978   T   T   T
  0.5022527737242963  0.4987872715839961  0.3272946662378978   T   T   T
  0.2500000000000000  0.7491675440901527  0.3237581496114862   T   T   T
  0.7500000000000000  0.7478850831112897  0.3276261399013773   T   T   T
  0.2500000000000000  0.9954478393165822  0.4171533057866553   T   T   T
  0.7500000000000000  0.0010477055659747  0.4206586642589317   T   T   T
  0.9924508328140672  0.2505041257427807  0.4181091411722931   T   T   T
  0.5075491671859328  0.2505041257427807  0.4181091411722931   T   T   T
  0.2500000000000000  0.5066035216110212  0.4183636885504820   T   T   T
  0.7499996334070005  0.4999735669868394  0.4408211995658127   T   T   T
  0.0001472547720805  0.7526145379904465  0.4211038503436388   T   T   T
  0.4998527452279194  0.7526145379904465  0.4211038503436388   T   T   T
  0.7499996334070005  0.5011255665649718  0.5053777274490608   T   T   T
 
  0.00000000E+00  0.00000000E+00  0.00000000E+00
  0.00000000E+00  0.00000000E+00  0.00000000E+00
  0.00000000E+00  0.00000000E+00  0.00000000E+00
  0.00000000E+00  0.00000000E+00  0.00000000E+00
  0.00000000E+00  0.00000000E+00  0.00000000E+00
  0.00000000E+00  0.00000000E+00  0.00000000E+00
  0.00000000E+00  0.00000000E+00  0.00000000E+00
  0.00000000E+00  0.00000000E+00  0.00000000E+00
  0.00000000E+00  0.00000000E+00  0.00000000E+00
  0.00000000E+00  0.00000000E+00  0.00000000E+00
  0.00000000E+00  0.00000000E+00  0.00000000E+00
  0.00000000E+00  0.00000000E+00  0.00000000E+00
  0.00000000E+00  0.00000000E+00  0.00000000E+00
  0.00000000E+00  0.00000000E+00  0.00000000E+00
  0.00000000E+00  0.00000000E+00  0.00000000E+00
  0.00000000E+00  0.00000000E+00  0.00000000E+00
  0.00000000E+00  0.00000000E+00  0.00000000E+00
  0.00000000E+00  0.00000000E+00  0.00000000E+00
  0.00000000E+00  0.00000000E+00  0.00000000E+00
  0.00000000E+00  0.00000000E+00  0.00000000E+00
  0.00000000E+00  0.00000000E+00  0.00000000E+00
  0.00000000E+00  0.00000000E+00  0.00000000E+00
  0.00000000E+00  0.00000000E+00  0.00000000E+00
  0.00000000E+00  0.00000000E+00  0.00000000E+00
  0.00000000E+00  0.00000000E+00  0.00000000E+00
  0.00000000E+00  0.00000000E+00  0.00000000E+00
  0.00000000E+00  0.00000000E+00  0.00000000E+00
  0.00000000E+00  0.00000000E+00  0.00000000E+00
  0.00000000E+00  0.00000000E+00  0.00000000E+00
  0.00000000E+00  0.00000000E+00  0.00000000E+00
  0.00000000E+00  0.00000000E+00  0.00000000E+00
  0.00000000E+00  0.00000000E+00  0.00000000E+00
  0.00000000E+00  0.00000000E+00  0.00000000E+00
  0.00000000E+00  0.00000000E+00  0.00000000E+00
  0.00000000E+00  0.00000000E+00  0.00000000E+00
  0.00000000E+00  0.00000000E+00  0.00000000E+00
  0.00000000E+00  0.00000000E+00  0.00000000E+00
  0.00000000E+00  0.00000000E+00  0.00000000E+00
  0.00000000E+00  0.00000000E+00  0.00000000E+00
  0.00000000E+00  0.00000000E+00  0.00000000E+00
  0.00000000E+00  0.00000000E+00  0.00000000E+00
  0.00000000E+00  0.00000000E+00  0.00000000E+00
  0.00000000E+00  0.00000000E+00  0.00000000E+00
  0.00000000E+00  0.00000000E+00  0.00000000E+00
  0.00000000E+00  0.00000000E+00  0.00000000E+00
  0.00000000E+00  0.00000000E+00  0.00000000E+00
  0.00000000E+00  0.00000000E+00  0.00000000E+00
  0.00000000E+00  0.00000000E+00  0.00000000E+00
  0.00000000E+00  0.00000000E+00  0.00000000E+00
  0.00000000E+00  0.00000000E+00  0.00000000E+00
  0.00000000E+00  0.00000000E+00  0.00000000E+00
  0.00000000E+00  0.00000000E+00  0.00000000E+00
  0.00000000E+00  0.00000000E+00  0.00000000E+00
  0.00000000E+00  0.00000000E+00  0.00000000E+00
  0.00000000E+00  0.00000000E+00  0.00000000E+00
  0.00000000E+00  0.00000000E+00  0.00000000E+00
  0.00000000E+00  0.00000000E+00  0.00000000E+00
  0.00000000E+00  0.00000000E+00  0.00000000E+00
  0.00000000E+00  0.00000000E+00  0.00000000E+00
  0.00000000E+00  0.00000000E+00  0.00000000E+00
  0.00000000E+00  0.00000000E+00  0.00000000E+00
  0.00000000E+00  0.00000000E+00  0.00000000E+00
  0.00000000E+00  0.00000000E+00  0.00000000E+00
  0.00000000E+00  0.00000000E+00  0.00000000E+00
  0.00000000E+00  0.00000000E+00  0.00000000E+00
