Ba Na O Cu                              
   1.00000000000000     
    11.1568587867069997    0.0000000000000000    0.0000000000000000
     0.0000000000000000   11.1568587867069997    0.0000000000000000
     0.0000000000000000    0.0000000000000000   26.1568587867070015
   Ba   Na   O    Cu
    31     1    32     1
Selective dynamics
Direct
  0.2500000000000000  0.9999115450131696  0.1064401174328652   T   T   T
  0.7500000000000000  0.9998724800159268  0.1077414241499386   T   T   T
  0.0001579981393180  0.2497152110445143  0.1066744338580288   T   T   T
  0.4998420018606820  0.2497152110445143  0.1066744338580288   T   T   T
  0.2500000000000000  0.5000543845546497  0.1069031874112018   T   T   T
  0.7500000000000000  0.5000188550288364  0.1087524792068036   T   T   T
  0.0002922579621262  0.7502478334186344  0.1075349802877835   T   T   T
  0.4997077420378738  0.7502478334186344  0.1075349802877835   T   T   T
  0.0010386718206201  0.0000050927866498  0.2130123618558406   T   T   T
  0.4989613281793799  0.0000050927866498  0.2130123618558406   T   T   T
  0.2500000000000000  0.2492197590707368  0.2120669943764116   T   T   T
  0.7500000000000000  0.2488214412954037  0.2130458221937082   T   T   T
  0.0015210482727453  0.4998071759157077  0.2130549145666056   T   T   T
  0.4984789517272548  0.4998071759157077  0.2130549145666056   T   T   T
  0.2500000000000000  0.7508887732529101  0.2131129441396049   T   T   T
  0.7500000000000000  0.7510701678409955  0.2136066736758030   T   T   T
  0.2500000000000000  0.0026537961591330  0.3199515154517792   T   T   T
  0.7500000000000000  0.0004950983015127  0.3202499932847819   T   T   T
  0.0030449293442044  0.2496047358366666  0.3206928392206790   T   T   T
  0.4969550706557957  0.2496047358366666  0.3206928392206790   T   T   T
  0.2500000000000000  0.4979947958737658  0.3189549139746178   T   T   T
  0.7500000000000000  0.4994539438874142  0.3209533925655875   T   T   T
  0.0007713667373159  0.7502765383554841  0.3229974906756612   T   T   T
  0.4992286332626841  0.7502765383554841  0.3229974906756612   T   T   T
  0.0131881492887873  0.0096386351750106  0.4274154268942142   T   T   T
  0.4868118507112127  0.0096386351750106  0.4274154268942142   T   T   T
  0.7500000000000000  0.2353312002143554  0.4255596282818624   T   T   T
  0.0198044659087131  0.4886520781377766  0.4274341296386249   T   T   T
  0.4801955340912870  0.4886520781377766  0.4274341296386249   T   T   T
  0.2500000000000000  0.7519323523481165  0.4259983590036597   T   T   T
  0.7500000000000000  0.7665799336810464  0.4272914732864398   T   T   T
  0.2500000000000000  0.2461887520896469  0.4104787297365260   T   T   T
  0.9991459524472426  0.9996236142595185  0.1133094907715560   T   T   T
  0.5008540475527574  0.9996236142595185  0.1133094907715560   T   T   T
  0.2500000000000000  0.2505096230589423  0.1107930792048201   T   T   T
  0.7500000000000000  0.2516040201532582  0.1130495135700274   T   T   T
  0.9980290479996666  0.5003529648634786  0.1137010929715358   T   T   T
  0.5019709520003334  0.5003529648634786  0.1137010929715358   T   T   T
  0.2500000000000000  0.7495625616804639  0.1127505695712620   T   T   T
  0.7500000000000000  0.7484078666708888  0.1139880704853936   T   T   T
  0.2500000000000000  0.9990222632683389  0.2067104284938278   T   T   T
  0.7500000000000000  0.9996460418952229  0.2088577925275124   T   T   T
  0.9989950928791971  0.2500286491107559  0.2066032845780968   T   T   T
  0.5010049071208029  0.2500286491107559  0.2066032845780968   T   T   T
  0.2500000000000000  0.5009815688450190  0.2074939429947046   T   T   T
  0.7500000000000000  0.5003795203231539  0.2147930676969282   T   T   T
  0.9996814141928789  0.7499343174114600  0.2078710101373920   T   T   T
  0.5003185858071211  0.7499343174114600  0.2078710101373920   T   T   T
  0.0006773232190689  0.0011346721179148  0.3257969347856964   T   T   T
  0.4993226767809313  0.0011346721179148  0.3257969347856964   T   T   T
  0.2500000000000000  0.2510650686131580  0.3168809466328950   T   T   T
  0.7500000000000000  0.2512975641429464  0.3246188744573086   T   T   T
 -0.0012862037625757  0.4989420539858019  0.3268558913713964   T   T   T
  0.5012862037625756  0.4989420539858019  0.3268558913713964   T   T   T
  0.2500000000000000  0.7498312113605876  0.3241996662651682   T   T   T
  0.7500000000000000  0.7489449399931852  0.3268599289329410   T   T   T
  0.2500000000000000  0.9936985537934082  0.4181358450924266   T   T   T
  0.7500000000000000  0.0003167957770491  0.4201366842445505   T   T   T
  0.9935826128439111  0.2496050830816698  0.4188733806716631   T   T   T
  0.5064173871560889  0.2496050830816698  0.4188733806716631   T   T   T
  0.2500000000000000  0.5057279578012099  0.4178700674882767   T   T   T
  0.7499996334070005  0.5000304595266367  0.4324805272517020   T   T   T
  0.0008317473517666  0.7512635457951052  0.4216024867339536   T   T   T
  0.4991682526482333  0.7512635457951052  0.4216024867339536   T   T   T
  0.7499996334070005  0.5007024631936149  0.4996985464561932   T   T   T
 
  0.00000000E+00  0.00000000E+00  0.00000000E+00
  0.00000000E+00  0.00000000E+00  0.00000000E+00
  0.00000000E+00  0.00000000E+00  0.00000000E+00
  0.00000000E+00  0.00000000E+00  0.00000000E+00
  0.00000000E+00  0.00000000E+00  0.00000000E+00
  0.00000000E+00  0.00000000E+00  0.00000000E+00
  0.00000000E+00  0.00000000E+00  0.00000000E+00
  0.00000000E+00  0.00000000E+00  0.00000000E+00
  0.00000000E+00  0.00000000E+00  0.00000000E+00
  0.00000000E+00  0.00000000E+00  0.00000000E+00
  0.00000000E+00  0.00000000E+00  0.00000000E+00
  0.00000000E+00  0.00000000E+00  0.00000000E+00
  0.00000000E+00  0.00000000E+00  0.00000000E+00
  0.00000000E+00  0.00000000E+00  0.00000000E+00
  0.00000000E+00  0.00000000E+00  0.00000000E+00
  0.00000000E+00  0.00000000E+00  0.00000000E+00
  0.00000000E+00  0.00000000E+00  0.00000000E+00
  0.00000000E+00  0.00000000E+00  0.00000000E+00
  0.00000000E+00  0.00000000E+00  0.00000000E+00
  0.00000000E+00  0.00000000E+00  0.00000000E+00
  0.00000000E+00  0.00000000E+00  0.00000000E+00
  0.00000000E+00  0.00000000E+00  0.00000000E+00
  0.00000000E+00  0.00000000E+00  0.00000000E+00
  0.00000000E+00  0.00000000E+00  0.00000000E+00
  0.00000000E+00  0.00000000E+00  0.00000000E+00
  0.00000000E+00  0.00000000E+00  0.00000000E+00
  0.00000000E+00  0.00000000E+00  0.00000000E+00
  0.00000000E+00  0.00000000E+00  0.00000000E+00
  0.00000000E+00  0.00000000E+00  0.00000000E+00
  0.00000000E+00  0.00000000E+00  0.00000000E+00
  0.00000000E+00  0.00000000E+00  0.00000000E+00
  0.00000000E+00  0.00000000E+00  0.00000000E+00
  0.00000000E+00  0.00000000E+00  0.00000000E+00
  0.00000000E+00  0.00000000E+00  0.00000000E+00
  0.00000000E+00  0.00000000E+00  0.00000000E+00
  0.00000000E+00  0.00000000E+00  0.00000000E+00
  0.00000000E+00  0.00000000E+00  0.00000000E+00
  0.00000000E+00  0.00000000E+00  0.00000000E+00
  0.00000000E+00  0.00000000E+00  0.00000000E+00
  0.00000000E+00  0.00000000E+00  0.00000000E+00
  0.00000000E+00  0.00000000E+00  0.00000000E+00
  0.00000000E+00  0.00000000E+00  0.00000000E+00
  0.00000000E+00  0.00000000E+00  0.00000000E+00
  0.00000000E+00  0.00000000E+00  0.00000000E+00
  0.00000000E+00  0.00000000E+00  0.00000000E+00
  0.00000000E+00  0.00000000E+00  0.00000000E+00
  0.00000000E+00  0.00000000E+00  0.00000000E+00
  0.00000000E+00  0.00000000E+00  0.00000000E+00
  0.00000000E+00  0.00000000E+00  0.00000000E+00
  0.00000000E+00  0.00000000E+00  0.00000000E+00
  0.00000000E+00  0.00000000E+00  0.00000000E+00
  0.00000000E+00  0.00000000E+00  0.00000000E+00
  0.00000000E+00  0.00000000E+00  0.00000000E+00
  0.00000000E+00  0.00000000E+00  0.00000000E+00
  0.00000000E+00  0.00000000E+00  0.00000000E+00
  0.00000000E+00  0.00000000E+00  0.00000000E+00
  0.00000000E+00  0.00000000E+00  0.00000000E+00
  0.00000000E+00  0.00000000E+00  0.00000000E+00
  0.00000000E+00  0.00000000E+00  0.00000000E+00
  0.00000000E+00  0.00000000E+00  0.00000000E+00
  0.00000000E+00  0.00000000E+00  0.00000000E+00
  0.00000000E+00  0.00000000E+00  0.00000000E+00
  0.00000000E+00  0.00000000E+00  0.00000000E+00
  0.00000000E+00  0.00000000E+00  0.00000000E+00
  0.00000000E+00  0.00000000E+00  0.00000000E+00
