Ba Na O Ru                              
   1.00000000000000     
    11.1568587867069997    0.0000000000000000    0.0000000000000000
     0.0000000000000000   11.1568587867069997    0.0000000000000000
     0.0000000000000000    0.0000000000000000   26.1568587867070015
   Ba   Na   O    Ru
    31     1    32     1
Selective dynamics
Direct
  0.2500000000000000  0.9998072899568978  0.1064295906432801   T   T   T
  0.7500000000000000  0.9997666209968746  0.1077571990634099   T   T   T
  0.0000699218325535  0.2496153125158709  0.1064362269279502   T   T   T
  0.4999300781674466  0.2496153125158709  0.1064362269279502   T   T   T
  0.2500000000000000  0.5001702646041054  0.1068662276488718   T   T   T
  0.7500000000000000  0.5001050377418033  0.1088856187137870   T   T   T
  0.0003555114692597  0.7502536475455160  0.1072824994575115   T   T   T
  0.4996444885307404  0.7502536475455160  0.1072824994575115   T   T   T
  0.0010225636878417 -0.0002964534826853  0.2126759615531235   T   T   T
  0.4989774363121583 -0.0002964534826853  0.2126759615531235   T   T   T
  0.2500000000000000  0.2491538147453781  0.2115719018319879   T   T   T
  0.7500000000000000  0.2487841600088182  0.2129785096389676   T   T   T
  0.0014983871855541  0.5001855526886977  0.2130151957102312   T   T   T
  0.4985016128144459  0.5001855526886977  0.2130151957102312   T   T   T
  0.2500000000000000  0.7507554665943693  0.2129602367459549   T   T   T
  0.7500000000000000  0.7510596474179637  0.2136645293504688   T   T   T
  0.2500000000000000  0.0017075181948054  0.3186871768237886   T   T   T
  0.7500000000000000  0.0004281968646929  0.3200934526847883   T   T   T
  0.0020138622085167  0.2500713564565162  0.3200877976187860   T   T   T
  0.4979861377914832  0.2500713564565162  0.3200877976187860   T   T   T
  0.2500000000000000  0.4975250849801236  0.3186324379019013   T   T   T
  0.7500000000000000  0.4993726920466676  0.3196496195624808   T   T   T
 -0.0002941479542125  0.7493063473741151  0.3232391902672869   T   T   T
  0.5002941479542125  0.7493063473741151  0.3232391902672869   T   T   T
  0.0145795974739653  0.0095234807141200  0.4270480269669648   T   T   T
  0.4854204025260346  0.0095234807141200  0.4270480269669648   T   T   T
  0.7500000000000000  0.2327195694566958  0.4263908197248429   T   T   T
  0.0233427308672687  0.4864981298479666  0.4285973657102536   T   T   T
  0.4766572691327313  0.4864981298479666  0.4285973657102536   T   T   T
  0.2500000000000000  0.7525329755468486  0.4257229286467860   T   T   T
  0.7500000000000000  0.7705995523313657  0.4286033463396546   T   T   T
  0.2500000000000000  0.2425919523249458  0.4089487094758224   T   T   T
  0.9990535214012223  0.9996275065867085  0.1132081300817789   T   T   T
  0.5009464785987777  0.9996275065867085  0.1132081300817789   T   T   T
  0.2500000000000000  0.2507098814066247  0.1105963806716845   T   T   T
  0.7500000000000000  0.2517610680163714  0.1130282039861405   T   T   T
  0.9979333140572292  0.5003116485904674  0.1138577824825916   T   T   T
  0.5020666859427708  0.5003116485904674  0.1138577824825916   T   T   T
  0.2500000000000000  0.7494841811008086  0.1126566853423861   T   T   T
  0.7500000000000000  0.7482614936418089  0.1140881963607907   T   T   T
  0.2500000000000000  0.9990019894708976  0.2064394250154611   T   T   T
  0.7500000000000000  0.9996519992241011  0.2089266314011491   T   T   T
  0.9989214047685935  0.2501171765017416  0.2065395545367486   T   T   T
  0.5010785952314065  0.2501171765017416  0.2065395545367486   T   T   T
  0.2500000000000000  0.5010546808022524  0.2075665717517765   T   T   T
  0.7500000000000000  0.5003543065435713  0.2152119145249298   T   T   T
  0.9996152352327273  0.7498405893784879  0.2076654465103361   T   T   T
  0.5003847647672727  0.7498405893784879  0.2076654465103361   T   T   T
  0.0007863587638038  0.0013407447970201  0.3250732946886124   T   T   T
  0.4992136412361964  0.0013407447970201  0.3250732946886124   T   T   T
  0.2500000000000000  0.2511696732154814  0.3161883635582228   T   T   T
  0.7500000000000000  0.2521583416270702  0.3247721343000290   T   T   T
 -0.0021129184904681  0.4988083900214795  0.3270695335178501   T   T   T
  0.5021129184904680  0.4988083900214795  0.3270695335178501   T   T   T
  0.2500000000000000  0.7494608661011917  0.3238207828818634   T   T   T
  0.7500000000000000  0.7484154489448712  0.3273834313864659   T   T   T
  0.2500000000000000  0.9952271270256650  0.4173533250499686   T   T   T
  0.7500000000000000  0.0013618562203263  0.4205281739252505   T   T   T
  0.9934502247997541  0.2501691929579345  0.4181278142749568   T   T   T
  0.5065497752002459  0.2501691929579345  0.4181278142749568   T   T   T
  0.2500000000000000  0.5055869038499006  0.4182754763167242   T   T   T
  0.7499996334070005  0.5004949735579980  0.4358506985662668   T   T   T
  0.0006419093327269  0.7530485123568089  0.4211942927219530   T   T   T
  0.4993580906672732  0.7530485123568089  0.4211942927219530   T   T   T
  0.7499996334070005  0.5018032570541738  0.5045205716852134   T   T   T
 
  0.00000000E+00  0.00000000E+00  0.00000000E+00
  0.00000000E+00  0.00000000E+00  0.00000000E+00
  0.00000000E+00  0.00000000E+00  0.00000000E+00
  0.00000000E+00  0.00000000E+00  0.00000000E+00
  0.00000000E+00  0.00000000E+00  0.00000000E+00
  0.00000000E+00  0.00000000E+00  0.00000000E+00
  0.00000000E+00  0.00000000E+00  0.00000000E+00
  0.00000000E+00  0.00000000E+00  0.00000000E+00
  0.00000000E+00  0.00000000E+00  0.00000000E+00
  0.00000000E+00  0.00000000E+00  0.00000000E+00
  0.00000000E+00  0.00000000E+00  0.00000000E+00
  0.00000000E+00  0.00000000E+00  0.00000000E+00
  0.00000000E+00  0.00000000E+00  0.00000000E+00
  0.00000000E+00  0.00000000E+00  0.00000000E+00
  0.00000000E+00  0.00000000E+00  0.00000000E+00
  0.00000000E+00  0.00000000E+00  0.00000000E+00
  0.00000000E+00  0.00000000E+00  0.00000000E+00
  0.00000000E+00  0.00000000E+00  0.00000000E+00
  0.00000000E+00  0.00000000E+00  0.00000000E+00
  0.00000000E+00  0.00000000E+00  0.00000000E+00
  0.00000000E+00  0.00000000E+00  0.00000000E+00
  0.00000000E+00  0.00000000E+00  0.00000000E+00
  0.00000000E+00  0.00000000E+00  0.00000000E+00
  0.00000000E+00  0.00000000E+00  0.00000000E+00
  0.00000000E+00  0.00000000E+00  0.00000000E+00
  0.00000000E+00  0.00000000E+00  0.00000000E+00
  0.00000000E+00  0.00000000E+00  0.00000000E+00
  0.00000000E+00  0.00000000E+00  0.00000000E+00
  0.00000000E+00  0.00000000E+00  0.00000000E+00
  0.00000000E+00  0.00000000E+00  0.00000000E+00
  0.00000000E+00  0.00000000E+00  0.00000000E+00
  0.00000000E+00  0.00000000E+00  0.00000000E+00
  0.00000000E+00  0.00000000E+00  0.00000000E+00
  0.00000000E+00  0.00000000E+00  0.00000000E+00
  0.00000000E+00  0.00000000E+00  0.00000000E+00
  0.00000000E+00  0.00000000E+00  0.00000000E+00
  0.00000000E+00  0.00000000E+00  0.00000000E+00
  0.00000000E+00  0.00000000E+00  0.00000000E+00
  0.00000000E+00  0.00000000E+00  0.00000000E+00
  0.00000000E+00  0.00000000E+00  0.00000000E+00
  0.00000000E+00  0.00000000E+00  0.00000000E+00
  0.00000000E+00  0.00000000E+00  0.00000000E+00
  0.00000000E+00  0.00000000E+00  0.00000000E+00
  0.00000000E+00  0.00000000E+00  0.00000000E+00
  0.00000000E+00  0.00000000E+00  0.00000000E+00
  0.00000000E+00  0.00000000E+00  0.00000000E+00
  0.00000000E+00  0.00000000E+00  0.00000000E+00
  0.00000000E+00  0.00000000E+00  0.00000000E+00
  0.00000000E+00  0.00000000E+00  0.00000000E+00
  0.00000000E+00  0.00000000E+00  0.00000000E+00
  0.00000000E+00  0.00000000E+00  0.00000000E+00
  0.00000000E+00  0.00000000E+00  0.00000000E+00
  0.00000000E+00  0.00000000E+00  0.00000000E+00
  0.00000000E+00  0.00000000E+00  0.00000000E+00
  0.00000000E+00  0.00000000E+00  0.00000000E+00
  0.00000000E+00  0.00000000E+00  0.00000000E+00
  0.00000000E+00  0.00000000E+00  0.00000000E+00
  0.00000000E+00  0.00000000E+00  0.00000000E+00
  0.00000000E+00  0.00000000E+00  0.00000000E+00
  0.00000000E+00  0.00000000E+00  0.00000000E+00
  0.00000000E+00  0.00000000E+00  0.00000000E+00
  0.00000000E+00  0.00000000E+00  0.00000000E+00
  0.00000000E+00  0.00000000E+00  0.00000000E+00
  0.00000000E+00  0.00000000E+00  0.00000000E+00
  0.00000000E+00  0.00000000E+00  0.00000000E+00
