Ba Na O Ag                              
   1.00000000000000     
    11.1568587867069997    0.0000000000000000    0.0000000000000000
     0.0000000000000000   11.1568587867069997    0.0000000000000000
     0.0000000000000000    0.0000000000000000   26.1568587867070015
   Ba   Na   O    Ag
    31     1    32     1
Selective dynamics
Direct
  0.2500000000000000  0.9999104908213363  0.1064329001094784   T   T   T
  0.7500000000000000  0.9998488361053703  0.1079951281421419   T   T   T
  0.9997654015889625  0.2499065539959778  0.1066534878303956   T   T   T
  0.5002345984110375  0.2499065539959778  0.1066534878303956   T   T   T
  0.2500000000000000  0.5002628819950030  0.1070939232555300   T   T   T
  0.7500000000000000  0.5001082962606165  0.1088417548671377   T   T   T
 -0.0000204389871522  0.7500460660510502  0.1075822710630067   T   T   T
  0.5000204389871522  0.7500460660510502  0.1075822710630067   T   T   T
  0.0009238049380420 -0.0000155468118124  0.2127860077187724   T   T   T
  0.4990761950619581 -0.0000155468118124  0.2127860077187724   T   T   T
  0.2500000000000000  0.2493758162798118  0.2117785448140154   T   T   T
  0.7500000000000000  0.2495787296778030  0.2135212096015654   T   T   T
  0.0008067643280633  0.4999624999303293  0.2134672782763840   T   T   T
  0.4991932356719368  0.4999624999303293  0.2134672782763840   T   T   T
  0.2500000000000000  0.7506974634330451  0.2130179880771440   T   T   T
  0.7500000000000000  0.7504137193183326  0.2141090857797077   T   T   T
  0.2500000000000000  0.0020380041853172  0.3196441003384570   T   T   T
  0.7500000000000000  0.0005146394642799  0.3205017966090061   T   T   T
  0.0032990942460003  0.2491983954367832  0.3202710072385720   T   T   T
  0.4967009057539997  0.2491983954367832  0.3202710072385720   T   T   T
  0.2500000000000000  0.4977255654807993  0.3189178557867817   T   T   T
  0.7500000000000000  0.4995547775674085  0.3226847364262624   T   T   T
  0.0009319773271597  0.7506782507662351  0.3227995876195819   T   T   T
  0.4990680226728402  0.7506782507662351  0.3227995876195819   T   T   T
  0.0128553741058551  0.0092958257193208  0.4271895062906313   T   T   T
  0.4871446258941449  0.0092958257193208  0.4271895062906313   T   T   T
  0.7500000000000000  0.2371893617732220  0.4252499598621375   T   T   T
  0.0187098283328374  0.4883128391550682  0.4271294840647720   T   T   T
  0.4812901716671626  0.4883128391550682  0.4271294840647720   T   T   T
  0.2500000000000000  0.7516888360478440  0.4259074976995943   T   T   T
  0.7500000000000000  0.7645518904248352  0.4270743104250980   T   T   T
  0.2500000000000000  0.2456371084281022  0.4098556331999079   T   T   T
  0.9992563418965096  0.9995535863932012  0.1131564411711299   T   T   T
  0.5007436581034904  0.9995535863932012  0.1131564411711299   T   T   T
  0.2500000000000000  0.2504126913004359  0.1105043695655852   T   T   T
  0.7500000000000000  0.2516948146808883  0.1131030468602534   T   T   T
  0.9980371852515956  0.5003686533802439  0.1138640351079391   T   T   T
  0.5019628147484044  0.5003686533802439  0.1138640351079391   T   T   T
  0.2500000000000000  0.7496696656406275  0.1125547852864619   T   T   T
  0.7500000000000000  0.7483358249347588  0.1141457704569785   T   T   T
  0.2500000000000000  0.9990930820761749  0.2063961695537952   T   T   T
  0.7500000000000000  0.9996996609226226  0.2086010078638859   T   T   T
  0.9990218998135265  0.2500496700462402  0.2066392196834171   T   T   T
  0.5009781001864735  0.2500496700462402  0.2066392196834171   T   T   T
  0.2500000000000000  0.5011649649108706  0.2072398011168703   T   T   T
  0.7500000000000000  0.5004210641417436  0.2139485733895415   T   T   T
  0.9996678919362290  0.7499254105222632  0.2080745954533990   T   T   T
  0.5003321080637710  0.7499254105222632  0.2080745954533990   T   T   T
  0.0010764761845026  0.0009283772402862  0.3252507310378048   T   T   T
  0.4989235238154975  0.0009283772402862  0.3252507310378048   T   T   T
  0.2500000000000000  0.2506113299535164  0.3163662142680729   T   T   T
  0.7500000000000000  0.2511257602683942  0.3243315187051599   T   T   T
  0.9990970974020873  0.4990064118966208  0.3265129171122752   T   T   T
  0.5009029025979127  0.4990064118966208  0.3265129171122752   T   T   T
  0.2500000000000000  0.7501062064660725  0.3237321420885626   T   T   T
  0.7500000000000000  0.7491347398726870  0.3266855479803289   T   T   T
  0.2500000000000000  0.9939774964198937  0.4179401173811019   T   T   T
  0.7500000000000000  0.0004387657468408  0.4199421117094465   T   T   T
  0.9934496331099064  0.2501717346644280  0.4184449337894733   T   T   T
  0.5065503668900936  0.2501717346644280  0.4184449337894733   T   T   T
  0.2500000000000000  0.5063993839504719  0.4176266982674716   T   T   T
  0.7499996334070005  0.4996615214644287  0.4301991865453518   T   T   T
  0.0004369065347695  0.7514266778642935  0.4215742037949965   T   T   T
  0.4995630934652305  0.7514266778642935  0.4215742037949965   T   T   T
  0.7499996334070005  0.5012059588023610  0.5085505970370575   T   T   T
 
  0.00000000E+00  0.00000000E+00  0.00000000E+00
  0.00000000E+00  0.00000000E+00  0.00000000E+00
  0.00000000E+00  0.00000000E+00  0.00000000E+00
  0.00000000E+00  0.00000000E+00  0.00000000E+00
  0.00000000E+00  0.00000000E+00  0.00000000E+00
  0.00000000E+00  0.00000000E+00  0.00000000E+00
  0.00000000E+00  0.00000000E+00  0.00000000E+00
  0.00000000E+00  0.00000000E+00  0.00000000E+00
  0.00000000E+00  0.00000000E+00  0.00000000E+00
  0.00000000E+00  0.00000000E+00  0.00000000E+00
  0.00000000E+00  0.00000000E+00  0.00000000E+00
  0.00000000E+00  0.00000000E+00  0.00000000E+00
  0.00000000E+00  0.00000000E+00  0.00000000E+00
  0.00000000E+00  0.00000000E+00  0.00000000E+00
  0.00000000E+00  0.00000000E+00  0.00000000E+00
  0.00000000E+00  0.00000000E+00  0.00000000E+00
  0.00000000E+00  0.00000000E+00  0.00000000E+00
  0.00000000E+00  0.00000000E+00  0.00000000E+00
  0.00000000E+00  0.00000000E+00  0.00000000E+00
  0.00000000E+00  0.00000000E+00  0.00000000E+00
  0.00000000E+00  0.00000000E+00  0.00000000E+00
  0.00000000E+00  0.00000000E+00  0.00000000E+00
  0.00000000E+00  0.00000000E+00  0.00000000E+00
  0.00000000E+00  0.00000000E+00  0.00000000E+00
  0.00000000E+00  0.00000000E+00  0.00000000E+00
  0.00000000E+00  0.00000000E+00  0.00000000E+00
  0.00000000E+00  0.00000000E+00  0.00000000E+00
  0.00000000E+00  0.00000000E+00  0.00000000E+00
  0.00000000E+00  0.00000000E+00  0.00000000E+00
  0.00000000E+00  0.00000000E+00  0.00000000E+00
  0.00000000E+00  0.00000000E+00  0.00000000E+00
  0.00000000E+00  0.00000000E+00  0.00000000E+00
  0.00000000E+00  0.00000000E+00  0.00000000E+00
  0.00000000E+00  0.00000000E+00  0.00000000E+00
  0.00000000E+00  0.00000000E+00  0.00000000E+00
  0.00000000E+00  0.00000000E+00  0.00000000E+00
  0.00000000E+00  0.00000000E+00  0.00000000E+00
  0.00000000E+00  0.00000000E+00  0.00000000E+00
  0.00000000E+00  0.00000000E+00  0.00000000E+00
  0.00000000E+00  0.00000000E+00  0.00000000E+00
  0.00000000E+00  0.00000000E+00  0.00000000E+00
  0.00000000E+00  0.00000000E+00  0.00000000E+00
  0.00000000E+00  0.00000000E+00  0.00000000E+00
  0.00000000E+00  0.00000000E+00  0.00000000E+00
  0.00000000E+00  0.00000000E+00  0.00000000E+00
  0.00000000E+00  0.00000000E+00  0.00000000E+00
  0.00000000E+00  0.00000000E+00  0.00000000E+00
  0.00000000E+00  0.00000000E+00  0.00000000E+00
  0.00000000E+00  0.00000000E+00  0.00000000E+00
  0.00000000E+00  0.00000000E+00  0.00000000E+00
  0.00000000E+00  0.00000000E+00  0.00000000E+00
  0.00000000E+00  0.00000000E+00  0.00000000E+00
  0.00000000E+00  0.00000000E+00  0.00000000E+00
  0.00000000E+00  0.00000000E+00  0.00000000E+00
  0.00000000E+00  0.00000000E+00  0.00000000E+00
  0.00000000E+00  0.00000000E+00  0.00000000E+00
  0.00000000E+00  0.00000000E+00  0.00000000E+00
  0.00000000E+00  0.00000000E+00  0.00000000E+00
  0.00000000E+00  0.00000000E+00  0.00000000E+00
  0.00000000E+00  0.00000000E+00  0.00000000E+00
  0.00000000E+00  0.00000000E+00  0.00000000E+00
  0.00000000E+00  0.00000000E+00  0.00000000E+00
  0.00000000E+00  0.00000000E+00  0.00000000E+00
  0.00000000E+00  0.00000000E+00  0.00000000E+00
  0.00000000E+00  0.00000000E+00  0.00000000E+00
