Ba Na O Ir                              
   1.00000000000000     
    11.1568587867069997    0.0000000000000000    0.0000000000000000
     0.0000000000000000   11.1568587867069997    0.0000000000000000
     0.0000000000000000    0.0000000000000000   26.1568587867070015
   Ba   Na   O    Ir
    31     1    32     1
Selective dynamics
Direct
  0.2500000000000000  0.9998935966281571  0.1063933793557999   T   T   T
  0.7500000000000000  0.9998526059034398  0.1074930140780752   T   T   T
  0.0003094735251615  0.2495361352915787  0.1064870719239670   T   T   T
  0.4996905264748385  0.2495361352915787  0.1064870719239670   T   T   T
  0.2500000000000000  0.5000202680629313  0.1066698420021766   T   T   T
  0.7500000000000000  0.5000144801688736  0.1087050971078024   T   T   T
  0.0004767317017801  0.7504220962241719  0.1073364158511161   T   T   T
  0.4995232682982201  0.7504220962241719  0.1073364158511161   T   T   T
  0.0014057712064373 -0.0000156046437959  0.2131804083892397   T   T   T
  0.4985942287935627 -0.0000156046437959  0.2131804083892397   T   T   T
  0.2500000000000000  0.2489215660376242  0.2122265337643531   T   T   T
  0.7500000000000000  0.2477491747862219  0.2124363856460048   T   T   T
  0.0025823801450946  0.4998367929044101  0.2125004973134812   T   T   T
  0.4974176198549055  0.4998367929044101  0.2125004973134812   T   T   T
  0.2500000000000000  0.7511498674906774  0.2133008962038736   T   T   T
  0.7500000000000000  0.7522877594489655  0.2130510449622939   T   T   T
  0.2500000000000000  0.0028549711283293  0.3194635104117469   T   T   T
  0.7500000000000000  0.0007370192317061  0.3204092773763809   T   T   T
  0.0012916342985947  0.2508131829860775  0.3211125530708577   T   T   T
  0.4987083657014051  0.2508131829860775  0.3211125530708577   T   T   T
  0.2500000000000000  0.4979568920544388  0.3192457252575738   T   T   T
  0.7500000000000000  0.4991668461166394  0.3178217631727708   T   T   T
 -0.0008554756445921  0.7487514861881749  0.3235210498787647   T   T   T
  0.5008554756445921  0.7487514861881749  0.3235210498787647   T   T   T
  0.0146947576274080  0.0101461266124367  0.4273902242197197   T   T   T
  0.4853052423725921  0.0101461266124367  0.4273902242197197   T   T   T
  0.7500000000000000  0.2315693160022756  0.4276895548930920   T   T   T
  0.0235391882197160  0.4866596226738900  0.4294379884425754   T   T   T
  0.4764608117802842  0.4866596226738900  0.4294379884425754   T   T   T
  0.2500000000000000  0.7527186633602391  0.4257761015577843   T   T   T
  0.7500000000000000  0.7708463637439985  0.4292508912699784   T   T   T
  0.2500000000000000  0.2446422188586452  0.4100617729387697   T   T   T
  0.9989959431451898  0.9996263770561344  0.1132654838732845   T   T   T
  0.5010040568548102  0.9996263770561344  0.1132654838732845   T   T   T
  0.2500000000000000  0.2506674733911297  0.1107793146719134   T   T   T
  0.7500000000000000  0.2513513592147532  0.1128737233494850   T   T   T
  0.9982725300525229  0.5003579314612160  0.1135771302920920   T   T   T
  0.5017274699474771  0.5003579314612160  0.1135771302920920   T   T   T
  0.2500000000000000  0.7494537177945610  0.1127402750776595   T   T   T
  0.7500000000000000  0.7486567800267241  0.1138414659043956   T   T   T
  0.2500000000000000  0.9989895019424044  0.2067670301861533   T   T   T
  0.7500000000000000  0.9996042813180444  0.2090728472764120   T   T   T
  0.9988447812534057  0.2501601993523059  0.2061565591769148   T   T   T
  0.5011552187465943  0.2501601993523059  0.2061565591769148   T   T   T
  0.2500000000000000  0.5009516101374518  0.2077155809276184   T   T   T
  0.7500000000000000  0.5003138037333257  0.2143334751873920   T   T   T
  0.9995347401242314  0.7498041244544086  0.2073540463524193   T   T   T
  0.5004652598757686  0.7498041244544086  0.2073540463524193   T   T   T
  0.0004490554292510  0.0013127684429188  0.3256465602834128   T   T   T
  0.4995509445707491  0.0013127684429188  0.3256465602834128   T   T   T
  0.2500000000000000  0.2514724932017837  0.3168450660951254   T   T   T
  0.7500000000000000  0.2517889410096044  0.3248886403212609   T   T   T
 -0.0018707522081059  0.4988369802416575  0.3273918957667357   T   T   T
  0.5018707522081060  0.4988369802416575  0.3273918957667357   T   T   T
  0.2500000000000000  0.7493060018733759  0.3241868402580163   T   T   T
  0.7500000000000000  0.7485135406101898  0.3273495923707532   T   T   T
  0.2500000000000000  0.9942778009754436  0.4179232953459674   T   T   T
  0.7500000000000000  0.0008704937400344  0.4210232372283138   T   T   T
  0.9941389732408471  0.2493956953771974  0.4187847685345237   T   T   T
  0.5058610267591529  0.2493956953771974  0.4187847685345237   T   T   T
  0.2500000000000000  0.5039964677293424  0.4188851372003596   T   T   T
  0.7499996334070005  0.5015342178973470  0.4304188382624087   T   T   T
  0.0018814855051945  0.7531936534312833  0.4214550194363698   T   T   T
  0.4981185144948053  0.7531936534312833  0.4214550194363698   T   T   T
  0.7499996334070005  0.5000749315901956  0.4984510023023271   T   T   T
 
  0.00000000E+00  0.00000000E+00  0.00000000E+00
  0.00000000E+00  0.00000000E+00  0.00000000E+00
  0.00000000E+00  0.00000000E+00  0.00000000E+00
  0.00000000E+00  0.00000000E+00  0.00000000E+00
  0.00000000E+00  0.00000000E+00  0.00000000E+00
  0.00000000E+00  0.00000000E+00  0.00000000E+00
  0.00000000E+00  0.00000000E+00  0.00000000E+00
  0.00000000E+00  0.00000000E+00  0.00000000E+00
  0.00000000E+00  0.00000000E+00  0.00000000E+00
  0.00000000E+00  0.00000000E+00  0.00000000E+00
  0.00000000E+00  0.00000000E+00  0.00000000E+00
  0.00000000E+00  0.00000000E+00  0.00000000E+00
  0.00000000E+00  0.00000000E+00  0.00000000E+00
  0.00000000E+00  0.00000000E+00  0.00000000E+00
  0.00000000E+00  0.00000000E+00  0.00000000E+00
  0.00000000E+00  0.00000000E+00  0.00000000E+00
  0.00000000E+00  0.00000000E+00  0.00000000E+00
  0.00000000E+00  0.00000000E+00  0.00000000E+00
  0.00000000E+00  0.00000000E+00  0.00000000E+00
  0.00000000E+00  0.00000000E+00  0.00000000E+00
  0.00000000E+00  0.00000000E+00  0.00000000E+00
  0.00000000E+00  0.00000000E+00  0.00000000E+00
  0.00000000E+00  0.00000000E+00  0.00000000E+00
  0.00000000E+00  0.00000000E+00  0.00000000E+00
  0.00000000E+00  0.00000000E+00  0.00000000E+00
  0.00000000E+00  0.00000000E+00  0.00000000E+00
  0.00000000E+00  0.00000000E+00  0.00000000E+00
  0.00000000E+00  0.00000000E+00  0.00000000E+00
  0.00000000E+00  0.00000000E+00  0.00000000E+00
  0.00000000E+00  0.00000000E+00  0.00000000E+00
  0.00000000E+00  0.00000000E+00  0.00000000E+00
  0.00000000E+00  0.00000000E+00  0.00000000E+00
  0.00000000E+00  0.00000000E+00  0.00000000E+00
  0.00000000E+00  0.00000000E+00  0.00000000E+00
  0.00000000E+00  0.00000000E+00  0.00000000E+00
  0.00000000E+00  0.00000000E+00  0.00000000E+00
  0.00000000E+00  0.00000000E+00  0.00000000E+00
  0.00000000E+00  0.00000000E+00  0.00000000E+00
  0.00000000E+00  0.00000000E+00  0.00000000E+00
  0.00000000E+00  0.00000000E+00  0.00000000E+00
  0.00000000E+00  0.00000000E+00  0.00000000E+00
  0.00000000E+00  0.00000000E+00  0.00000000E+00
  0.00000000E+00  0.00000000E+00  0.00000000E+00
  0.00000000E+00  0.00000000E+00  0.00000000E+00
  0.00000000E+00  0.00000000E+00  0.00000000E+00
  0.00000000E+00  0.00000000E+00  0.00000000E+00
  0.00000000E+00  0.00000000E+00  0.00000000E+00
  0.00000000E+00  0.00000000E+00  0.00000000E+00
  0.00000000E+00  0.00000000E+00  0.00000000E+00
  0.00000000E+00  0.00000000E+00  0.00000000E+00
  0.00000000E+00  0.00000000E+00  0.00000000E+00
  0.00000000E+00  0.00000000E+00  0.00000000E+00
  0.00000000E+00  0.00000000E+00  0.00000000E+00
  0.00000000E+00  0.00000000E+00  0.00000000E+00
  0.00000000E+00  0.00000000E+00  0.00000000E+00
  0.00000000E+00  0.00000000E+00  0.00000000E+00
  0.00000000E+00  0.00000000E+00  0.00000000E+00
  0.00000000E+00  0.00000000E+00  0.00000000E+00
  0.00000000E+00  0.00000000E+00  0.00000000E+00
  0.00000000E+00  0.00000000E+00  0.00000000E+00
  0.00000000E+00  0.00000000E+00  0.00000000E+00
  0.00000000E+00  0.00000000E+00  0.00000000E+00
  0.00000000E+00  0.00000000E+00  0.00000000E+00
  0.00000000E+00  0.00000000E+00  0.00000000E+00
  0.00000000E+00  0.00000000E+00  0.00000000E+00
