Ba Na O Mn                              
   1.00000000000000     
    11.1568587867069997    0.0000000000000000    0.0000000000000000
     0.0000000000000000   11.1568587867069997    0.0000000000000000
     0.0000000000000000    0.0000000000000000   26.1568587867070015
   Ba   Na   O    Mn
    31     1    32     1
Selective dynamics
Direct
  0.2500000000000000  0.9996602518000380  0.1055067727728472   T   T   T
  0.7500000000000000  0.9997327729217238  0.1073655656960196   T   T   T
 -0.0003208389572361  0.2499456603602692  0.1064179572254895   T   T   T
  0.5003208389572361  0.2499456603602692  0.1064179572254895   T   T   T
  0.2500000000000000  0.5001558847507597  0.1064760246910146   T   T   T
  0.7500000000000000  0.5000880240432644  0.1088004430064123   T   T   T
 -0.0000103995987238  0.7499421888953893  0.1071703867787060   T   T   T
  0.5000103995987240  0.7499421888953893  0.1071703867787060   T   T   T
  0.0009018773932786 -0.0005496462411929  0.2123352026435070   T   T   T
  0.4990981226067214 -0.0005496462411929  0.2123352026435070   T   T   T
  0.2500000000000000  0.2490263972552606  0.2110477660539393   T   T   T
  0.7500000000000000  0.2482543676068895  0.2128537858495405   T   T   T
  0.0019923915342678  0.5002733485400744  0.2128667510653463   T   T   T
  0.4980076084657322  0.5002733485400744  0.2128667510653463   T   T   T
  0.2500000000000000  0.7506315986629972  0.2124831607239147   T   T   T
  0.7500000000000000  0.7516692362273308  0.2134910180521272   T   T   T
  0.2500000000000000  0.0012334153388560  0.3183066873902005   T   T   T
  0.7500000000000000  0.0000861764739219  0.3201331084081549   T   T   T
  0.0023615194316228  0.2497960851888880  0.3196218425970005   T   T   T
  0.4976384805683772  0.2497960851888880  0.3196218425970005   T   T   T
  0.2500000000000000  0.4977556252643942  0.3185697449603239   T   T   T
  0.7500000000000000  0.4993189641604650  0.3189471181348856   T   T   T
 -0.0000857946525622  0.7493091363260140  0.3231621493451183   T   T   T
  0.5000857946525621  0.7493091363260140  0.3231621493451183   T   T   T
  0.0135733860156017  0.0092672044715527  0.4263423058576734   T   T   T
  0.4864266139843983  0.0092672044715527  0.4263423058576734   T   T   T
  0.7500000000000000  0.2338880207315670  0.4255902411068722   T   T   T
  0.0226469618026809  0.4874398395336291  0.4277269061818199   T   T   T
  0.4773530381973191  0.4874398395336291  0.4277269061818199   T   T   T
  0.2500000000000000  0.7535977314166429  0.4254255526827366   T   T   T
  0.7500000000000000  0.7695077014749990  0.4282176281193043   T   T   T
  0.2500000000000000  0.2402834227953715  0.4084631036655661   T   T   T
  0.9986763267203275  0.9996106823968923  0.1126183327609885   T   T   T
  0.5013236732796725  0.9996106823968923  0.1126183327609885   T   T   T
  0.2500000000000000  0.2511246211828519  0.1099716251259307   T   T   T
  0.7500000000000000  0.2521276284253389  0.1132334166659871   T   T   T
  0.9974958330763782  0.5004283033948079  0.1139674492497172   T   T   T
  0.5025041669236218  0.5004283033948079  0.1139674492497172   T   T   T
  0.2500000000000000  0.7492478155308055  0.1122028107073299   T   T   T
  0.7500000000000000  0.7478902000412271  0.1143144015204209   T   T   T
  0.2500000000000000  0.9989519220068864  0.2058104394841681   T   T   T
  0.7500000000000000  0.9996370708968889  0.2087468321532684   T   T   T
  0.9985271757427475  0.2503255872089754  0.2063912497038081   T   T   T
  0.5014728242572525  0.2503255872089754  0.2063912497038081   T   T   T
  0.2500000000000000  0.5012433144658527  0.2074029786842572   T   T   T
  0.7500000000000000  0.5004995194619057  0.2158370624012844   T   T   T
  0.9993257688033295  0.7496356761969618  0.2073605612927059   T   T   T
  0.5006742311966705  0.7496356761969618  0.2073605612927059   T   T   T
  0.0000237367430678  0.0010531199938953  0.3245517732479594   T   T   T
  0.4999762632569321  0.0010531199938953  0.3245517732479594   T   T   T
  0.2500000000000000  0.2513079241015522  0.3156483629607873   T   T   T
  0.7500000000000000  0.2528774821101807  0.3246740433527461   T   T   T
 -0.0024845446129328  0.4988098356771801  0.3273460820239120   T   T   T
  0.5024845446129327  0.4988098356771801  0.3273460820239120   T   T   T
  0.2500000000000000  0.7489622659428995  0.3235009131987289   T   T   T
  0.7500000000000000  0.7475390992391814  0.3278295595574440   T   T   T
  0.2500000000000000  0.9959229055073429  0.4167101063351356   T   T   T
  0.7500000000000000  0.0011620369392829  0.4205920670819269   T   T   T
  0.9922225106865443  0.2506164075038437  0.4176069095186494   T   T   T
  0.5077774893134557  0.2506164075038437  0.4176069095186494   T   T   T
  0.2500000000000000  0.5070311733547314  0.4182552809804992   T   T   T
  0.7499996334070005  0.4996189530798087  0.4464497296226620   T   T   T
  0.0001301490470894  0.7533974808765878  0.4207824659754806   T   T   T
  0.4998698509529104  0.7533974808765878  0.4207824659754806   T   T   T
  0.7499996334070005  0.5012448174582456  0.5118914954927858   T   T   T
 
  0.00000000E+00  0.00000000E+00  0.00000000E+00
  0.00000000E+00  0.00000000E+00  0.00000000E+00
  0.00000000E+00  0.00000000E+00  0.00000000E+00
  0.00000000E+00  0.00000000E+00  0.00000000E+00
  0.00000000E+00  0.00000000E+00  0.00000000E+00
  0.00000000E+00  0.00000000E+00  0.00000000E+00
  0.00000000E+00  0.00000000E+00  0.00000000E+00
  0.00000000E+00  0.00000000E+00  0.00000000E+00
  0.00000000E+00  0.00000000E+00  0.00000000E+00
  0.00000000E+00  0.00000000E+00  0.00000000E+00
  0.00000000E+00  0.00000000E+00  0.00000000E+00
  0.00000000E+00  0.00000000E+00  0.00000000E+00
  0.00000000E+00  0.00000000E+00  0.00000000E+00
  0.00000000E+00  0.00000000E+00  0.00000000E+00
  0.00000000E+00  0.00000000E+00  0.00000000E+00
  0.00000000E+00  0.00000000E+00  0.00000000E+00
  0.00000000E+00  0.00000000E+00  0.00000000E+00
  0.00000000E+00  0.00000000E+00  0.00000000E+00
  0.00000000E+00  0.00000000E+00  0.00000000E+00
  0.00000000E+00  0.00000000E+00  0.00000000E+00
  0.00000000E+00  0.00000000E+00  0.00000000E+00
  0.00000000E+00  0.00000000E+00  0.00000000E+00
  0.00000000E+00  0.00000000E+00  0.00000000E+00
  0.00000000E+00  0.00000000E+00  0.00000000E+00
  0.00000000E+00  0.00000000E+00  0.00000000E+00
  0.00000000E+00  0.00000000E+00  0.00000000E+00
  0.00000000E+00  0.00000000E+00  0.00000000E+00
  0.00000000E+00  0.00000000E+00  0.00000000E+00
  0.00000000E+00  0.00000000E+00  0.00000000E+00
  0.00000000E+00  0.00000000E+00  0.00000000E+00
  0.00000000E+00  0.00000000E+00  0.00000000E+00
  0.00000000E+00  0.00000000E+00  0.00000000E+00
  0.00000000E+00  0.00000000E+00  0.00000000E+00
  0.00000000E+00  0.00000000E+00  0.00000000E+00
  0.00000000E+00  0.00000000E+00  0.00000000E+00
  0.00000000E+00  0.00000000E+00  0.00000000E+00
  0.00000000E+00  0.00000000E+00  0.00000000E+00
  0.00000000E+00  0.00000000E+00  0.00000000E+00
  0.00000000E+00  0.00000000E+00  0.00000000E+00
  0.00000000E+00  0.00000000E+00  0.00000000E+00
  0.00000000E+00  0.00000000E+00  0.00000000E+00
  0.00000000E+00  0.00000000E+00  0.00000000E+00
  0.00000000E+00  0.00000000E+00  0.00000000E+00
  0.00000000E+00  0.00000000E+00  0.00000000E+00
  0.00000000E+00  0.00000000E+00  0.00000000E+00
  0.00000000E+00  0.00000000E+00  0.00000000E+00
  0.00000000E+00  0.00000000E+00  0.00000000E+00
  0.00000000E+00  0.00000000E+00  0.00000000E+00
  0.00000000E+00  0.00000000E+00  0.00000000E+00
  0.00000000E+00  0.00000000E+00  0.00000000E+00
  0.00000000E+00  0.00000000E+00  0.00000000E+00
  0.00000000E+00  0.00000000E+00  0.00000000E+00
  0.00000000E+00  0.00000000E+00  0.00000000E+00
  0.00000000E+00  0.00000000E+00  0.00000000E+00
  0.00000000E+00  0.00000000E+00  0.00000000E+00
  0.00000000E+00  0.00000000E+00  0.00000000E+00
  0.00000000E+00  0.00000000E+00  0.00000000E+00
  0.00000000E+00  0.00000000E+00  0.00000000E+00
  0.00000000E+00  0.00000000E+00  0.00000000E+00
  0.00000000E+00  0.00000000E+00  0.00000000E+00
  0.00000000E+00  0.00000000E+00  0.00000000E+00
  0.00000000E+00  0.00000000E+00  0.00000000E+00
  0.00000000E+00  0.00000000E+00  0.00000000E+00
  0.00000000E+00  0.00000000E+00  0.00000000E+00
  0.00000000E+00  0.00000000E+00  0.00000000E+00
