Ba Na O V                               
   1.00000000000000     
    11.1568587867069997    0.0000000000000000    0.0000000000000000
     0.0000000000000000   11.1568587867069997    0.0000000000000000
     0.0000000000000000    0.0000000000000000   26.1568587867070015
   Ba   Na   O    V 
    31     1    32     1
Selective dynamics
Direct
  0.2500000000000000  0.9997154790431951  0.1056659004926028   T   T   T
  0.7500000000000000  0.9997436178895504  0.1071320999480773   T   T   T
  0.9998787690694984  0.2497218571329630  0.1062639873370988   T   T   T
  0.5001212309305016  0.2497218571329630  0.1062639873370988   T   T   T
  0.2500000000000000  0.5000756052456112  0.1062799124874692   T   T   T
  0.7500000000000000  0.5000727096265413  0.1085398478949605   T   T   T
  0.0002171415524275  0.7501678049984889  0.1070351111174351   T   T   T
  0.4997828584475724  0.7501678049984889  0.1070351111174351   T   T   T
  0.0011067987508696  0.9995131660944714  0.2123633617137812   T   T   T
  0.4988932012491304  0.9995131660944714  0.2123633617137812   T   T   T
  0.2500000000000000  0.2489023999959912  0.2111955763527434   T   T   T
  0.7500000000000000  0.2481012752658371  0.2124675888143318   T   T   T
  0.0021951920150341  0.5001970405591378  0.2125043079154152   T   T   T
  0.4978048079849659  0.5001970405591378  0.2125043079154152   T   T   T
  0.2500000000000000  0.7507596999776085  0.2125506550710365   T   T   T
  0.7500000000000000  0.7516872536639709  0.2130937353687586   T   T   T
  0.2500000000000000  0.0014856270553718  0.3183529362422994   T   T   T
  0.7500000000000000  0.0000619030946410  0.3198405286120909   T   T   T
  0.0020393197422325  0.2503091831810120  0.3199559790971356   T   T   T
  0.4979606802577675  0.2503091831810120  0.3199559790971356   T   T   T
  0.2500000000000000  0.4977397822651877  0.3187087036851025   T   T   T
  0.7500000000000000  0.4993127513268544  0.3184549600659143   T   T   T
  0.9995940820694164  0.7487582571428926  0.3232898772195840   T   T   T
  0.5004059179305836  0.7487582571428926  0.3232898772195840   T   T   T
  0.0140232579172487  0.0091954565325566  0.4265580443226342   T   T   T
  0.4859767420827513  0.0091954565325566  0.4265580443226342   T   T   T
  0.7500000000000000  0.2336579026894580  0.4257003748091486   T   T   T
  0.0231599825286279  0.4870117670291537  0.4283291150094448   T   T   T
  0.4768400174713721  0.4870117670291537  0.4283291150094448   T   T   T
  0.2500000000000000  0.7535824695687835  0.4256319778560392   T   T   T
  0.7500000000000000  0.7698398241637304  0.4282766966208127   T   T   T
  0.2500000000000000  0.2397158989293733  0.4089054908457513   T   T   T
  0.9986879218842234  0.9995909165227364  0.1126949797139697   T   T   T
  0.5013120781157766  0.9995909165227364  0.1126949797139697   T   T   T
  0.2500000000000000  0.2509797439286607  0.1100657378576110   T   T   T
  0.7500000000000000  0.2517816653632753  0.1128985439532582   T   T   T
  0.9979101028054184  0.5003966261882807  0.1136464249600544   T   T   T
  0.5020898971945816  0.5003966261882807  0.1136464249600544   T   T   T
  0.2500000000000000  0.7493013575625702  0.1122174885356995   T   T   T
  0.7500000000000000  0.7483506334001226  0.1139117949680698   T   T   T
  0.2500000000000000  0.9989725542860655  0.2059538609135830   T   T   T
  0.7500000000000000  0.9996121937903500  0.2086884184407895   T   T   T
  0.9986442352505314  0.2502778043322312  0.2062091215302515   T   T   T
  0.5013557647494686  0.2502778043322312  0.2062091215302515   T   T   T
  0.2500000000000000  0.5010851123196803  0.2073073927618498   T   T   T
  0.7500000000000000  0.5005358557609588  0.2147194417615259   T   T   T
  0.9993331719188066  0.7497618652936880  0.2071741295910591   T   T   T
  0.5006668280811934  0.7497618652936880  0.2071741295910591   T   T   T
  0.9998919564197596  0.0012476935347939  0.3248784716796744   T   T   T
  0.5001080435802404  0.0012476935347939  0.3248784716796744   T   T   T
  0.2500000000000000  0.2510182912605782  0.3159560044748016   T   T   T
  0.7500000000000000  0.2523873342485405  0.3248249349935521   T   T   T
  0.9976322371102868  0.4986957784555578  0.3274856030482933   T   T   T
  0.5023677628897132  0.4986957784555578  0.3274856030482933   T   T   T
  0.2500000000000000  0.7489351026764322  0.3236901202236259   T   T   T
  0.7500000000000000  0.7477587868390609  0.3279095811395302   T   T   T
  0.2500000000000000  0.9961294332870825  0.4169696900501931   T   T   T
  0.7500000000000000  0.0014001413487174  0.4206649745074864   T   T   T
  0.9921447431280186  0.2506580205460457  0.4180239531593547   T   T   T
  0.5078552568719814  0.2506580205460457  0.4180239531593547   T   T   T
  0.2500000000000000  0.5064743424815571  0.4183134381800035   T   T   T
  0.7499996334070005  0.5006492317239418  0.4457519090422403   T   T   T
  0.0000753654315037  0.7542946769487830  0.4209542365322166   T   T   T
  0.4999246345684963  0.7542946769487830  0.4209542365322166   T   T   T
  0.7499996334070005  0.5004583522520936  0.5119117727092644   T   T   T
 
  0.00000000E+00  0.00000000E+00  0.00000000E+00
  0.00000000E+00  0.00000000E+00  0.00000000E+00
  0.00000000E+00  0.00000000E+00  0.00000000E+00
  0.00000000E+00  0.00000000E+00  0.00000000E+00
  0.00000000E+00  0.00000000E+00  0.00000000E+00
  0.00000000E+00  0.00000000E+00  0.00000000E+00
  0.00000000E+00  0.00000000E+00  0.00000000E+00
  0.00000000E+00  0.00000000E+00  0.00000000E+00
  0.00000000E+00  0.00000000E+00  0.00000000E+00
  0.00000000E+00  0.00000000E+00  0.00000000E+00
  0.00000000E+00  0.00000000E+00  0.00000000E+00
  0.00000000E+00  0.00000000E+00  0.00000000E+00
  0.00000000E+00  0.00000000E+00  0.00000000E+00
  0.00000000E+00  0.00000000E+00  0.00000000E+00
  0.00000000E+00  0.00000000E+00  0.00000000E+00
  0.00000000E+00  0.00000000E+00  0.00000000E+00
  0.00000000E+00  0.00000000E+00  0.00000000E+00
  0.00000000E+00  0.00000000E+00  0.00000000E+00
  0.00000000E+00  0.00000000E+00  0.00000000E+00
  0.00000000E+00  0.00000000E+00  0.00000000E+00
  0.00000000E+00  0.00000000E+00  0.00000000E+00
  0.00000000E+00  0.00000000E+00  0.00000000E+00
  0.00000000E+00  0.00000000E+00  0.00000000E+00
  0.00000000E+00  0.00000000E+00  0.00000000E+00
  0.00000000E+00  0.00000000E+00  0.00000000E+00
  0.00000000E+00  0.00000000E+00  0.00000000E+00
  0.00000000E+00  0.00000000E+00  0.00000000E+00
  0.00000000E+00  0.00000000E+00  0.00000000E+00
  0.00000000E+00  0.00000000E+00  0.00000000E+00
  0.00000000E+00  0.00000000E+00  0.00000000E+00
  0.00000000E+00  0.00000000E+00  0.00000000E+00
  0.00000000E+00  0.00000000E+00  0.00000000E+00
  0.00000000E+00  0.00000000E+00  0.00000000E+00
  0.00000000E+00  0.00000000E+00  0.00000000E+00
  0.00000000E+00  0.00000000E+00  0.00000000E+00
  0.00000000E+00  0.00000000E+00  0.00000000E+00
  0.00000000E+00  0.00000000E+00  0.00000000E+00
  0.00000000E+00  0.00000000E+00  0.00000000E+00
  0.00000000E+00  0.00000000E+00  0.00000000E+00
  0.00000000E+00  0.00000000E+00  0.00000000E+00
  0.00000000E+00  0.00000000E+00  0.00000000E+00
  0.00000000E+00  0.00000000E+00  0.00000000E+00
  0.00000000E+00  0.00000000E+00  0.00000000E+00
  0.00000000E+00  0.00000000E+00  0.00000000E+00
  0.00000000E+00  0.00000000E+00  0.00000000E+00
  0.00000000E+00  0.00000000E+00  0.00000000E+00
  0.00000000E+00  0.00000000E+00  0.00000000E+00
  0.00000000E+00  0.00000000E+00  0.00000000E+00
  0.00000000E+00  0.00000000E+00  0.00000000E+00
  0.00000000E+00  0.00000000E+00  0.00000000E+00
  0.00000000E+00  0.00000000E+00  0.00000000E+00
  0.00000000E+00  0.00000000E+00  0.00000000E+00
  0.00000000E+00  0.00000000E+00  0.00000000E+00
  0.00000000E+00  0.00000000E+00  0.00000000E+00
  0.00000000E+00  0.00000000E+00  0.00000000E+00
  0.00000000E+00  0.00000000E+00  0.00000000E+00
  0.00000000E+00  0.00000000E+00  0.00000000E+00
  0.00000000E+00  0.00000000E+00  0.00000000E+00
  0.00000000E+00  0.00000000E+00  0.00000000E+00
  0.00000000E+00  0.00000000E+00  0.00000000E+00
  0.00000000E+00  0.00000000E+00  0.00000000E+00
  0.00000000E+00  0.00000000E+00  0.00000000E+00
  0.00000000E+00  0.00000000E+00  0.00000000E+00
  0.00000000E+00  0.00000000E+00  0.00000000E+00
  0.00000000E+00  0.00000000E+00  0.00000000E+00
