Ba Na O Pt                              
   1.00000000000000     
    11.1568587867069997    0.0000000000000000    0.0000000000000000
     0.0000000000000000   11.1568587867069997    0.0000000000000000
     0.0000000000000000    0.0000000000000000   26.1568587867070015
   Ba   Na   O    Pt
    31     1    32     1
Selective dynamics
Direct
  0.2500000000000000  0.9996122957642790  0.1068514112611170   T   T   T
  0.7500000000000000  0.9997997378278134  0.1078806056838578   T   T   T
  0.9996821414019419  0.2498427720400114  0.1066937116347509   T   T   T
  0.5003178585980581  0.2498427720400114  0.1066937116347509   T   T   T
  0.2500000000000000  0.5004494246726021  0.1069563821593330   T   T   T
  0.7500000000000000  0.5002313330285780  0.1090160076202842   T   T   T
  0.9998381400251739  0.7501499359155401  0.1076262632731016   T   T   T
  0.5001618599748261  0.7501499359155401  0.1076262632731016   T   T   T
  0.0005911910332386  0.0001134854311571  0.2134436892489528   T   T   T
  0.4994088089667612  0.0001134854311571  0.2134436892489528   T   T   T
  0.2500000000000000  0.2495674433776233  0.2122904683167804   T   T   T
  0.7500000000000000  0.2490204613876628  0.2136584299408801   T   T   T
  0.0012401209393958  0.4998624231039322  0.2135654948743192   T   T   T
  0.4987598790606041  0.4998624231039322  0.2135654948743192   T   T   T
  0.2500000000000000  0.7505120190828125  0.2136226231426628   T   T   T
  0.7500000000000000  0.7509365072104709  0.2142328907997512   T   T   T
  0.2500000000000000  0.0023015307515353  0.3200255540835957   T   T   T
  0.7500000000000000  0.0006697779452946  0.3223420494510944   T   T   T
  0.0014334905410610  0.2505489072918085  0.3210669272083488   T   T   T
  0.4985665094589390  0.2505489072918085  0.3210669272083488   T   T   T
  0.2500000000000000  0.4975339170125619  0.3208226731502797   T   T   T
  0.7500000000000000  0.4992139383200217  0.3212614003317509   T   T   T
 -0.0004232101149455  0.7490784460364740  0.3233309318108792   T   T   T
  0.5004232101149457  0.7490784460364740  0.3233309318108792   T   T   T
  0.0130484919860975  0.0096603795286822  0.4279995353698413   T   T   T
  0.4869515080139026  0.0096603795286822  0.4279995353698413   T   T   T
  0.7500000000000000  0.2379305821164560  0.4287865289862270   T   T   T
  0.0176237772424312  0.4867052791649772  0.4302749092039342   T   T   T
  0.4823762227575687  0.4867052791649772  0.4302749092039342   T   T   T
  0.2500000000000000  0.7515209711985578  0.4264622719038009   T   T   T
  0.7500000000000000  0.7634352544133310  0.4298668709990625   T   T   T
  0.2500000000000000  0.2457939990354153  0.4107929117476101   T   T   T
  0.9992473444363043  0.9995733858083671  0.1130411952110283   T   T   T
  0.5007526555636957  0.9995733858083671  0.1130411952110283   T   T   T
  0.2500000000000000  0.2504332955017882  0.1103101651484882   T   T   T
  0.7500000000000000  0.2510027064361384  0.1126547774950619   T   T   T
  0.9986653114476470  0.5003946827723926  0.1135130468706973   T   T   T
  0.5013346885523530  0.5003946827723926  0.1135130468706973   T   T   T
  0.2500000000000000  0.7496483331135485  0.1123350890034448   T   T   T
  0.7500000000000000  0.7489958235622248  0.1137444481225569   T   T   T
  0.2500000000000000  0.9990281306126109  0.2065021603972614   T   T   T
  0.7500000000000000  0.9996415877825263  0.2083381171841015   T   T   T
  0.9990402058431056  0.2500861388856248  0.2062350501085984   T   T   T
  0.5009597941568944  0.2500861388856248  0.2062350501085984   T   T   T
  0.2500000000000000  0.5009497543285305  0.2070348065331149   T   T   T
  0.7500000000000000  0.5003871739380159  0.2122345581876464   T   T   T
  0.9996387201301240  0.7499398855933265  0.2076985461931852   T   T   T
  0.5003612798698760  0.7499398855933265  0.2076985461931852   T   T   T
  0.0008677408101455  0.0009077465674689  0.3251684674015493   T   T   T
  0.4991322591898545  0.0009077465674689  0.3251684674015493   T   T   T
  0.2500000000000000  0.2506804344896856  0.3167431483373845   T   T   T
  0.7500000000000000  0.2506860237637940  0.3238994824492280   T   T   T
 -0.0002757389636037  0.4991247890080593  0.3261698559755528   T   T   T
  0.5002757389636033  0.4991247890080593  0.3261698559755528   T   T   T
  0.2500000000000000  0.7495058524084901  0.3235042127527502   T   T   T
  0.7500000000000000  0.7497414391910865  0.3263123834081910   T   T   T
  0.2500000000000000  0.9935545646505198  0.4181154694548362   T   T   T
  0.7500000000000000  0.0003666513698487  0.4215784874615114   T   T   T
  0.9945778337656873  0.2491820307032114  0.4186052104886412   T   T   T
  0.5054221662343127  0.2491820307032114  0.4186052104886412   T   T   T
  0.2500000000000000  0.5065971699900227  0.4193561348677478   T   T   T
  0.7499996334070005  0.5007510195476259  0.4221269319857232   T   T   T
  0.0022905083124749  0.7545995438190000  0.4217977499667619   T   T   T
  0.4977094916875252  0.7545995438190000  0.4217977499667619   T   T   T
  0.7499996334070005  0.4998413441454615  0.4951648755275636   T   T   T
 
  0.00000000E+00  0.00000000E+00  0.00000000E+00
  0.00000000E+00  0.00000000E+00  0.00000000E+00
  0.00000000E+00  0.00000000E+00  0.00000000E+00
  0.00000000E+00  0.00000000E+00  0.00000000E+00
  0.00000000E+00  0.00000000E+00  0.00000000E+00
  0.00000000E+00  0.00000000E+00  0.00000000E+00
  0.00000000E+00  0.00000000E+00  0.00000000E+00
  0.00000000E+00  0.00000000E+00  0.00000000E+00
  0.00000000E+00  0.00000000E+00  0.00000000E+00
  0.00000000E+00  0.00000000E+00  0.00000000E+00
  0.00000000E+00  0.00000000E+00  0.00000000E+00
  0.00000000E+00  0.00000000E+00  0.00000000E+00
  0.00000000E+00  0.00000000E+00  0.00000000E+00
  0.00000000E+00  0.00000000E+00  0.00000000E+00
  0.00000000E+00  0.00000000E+00  0.00000000E+00
  0.00000000E+00  0.00000000E+00  0.00000000E+00
  0.00000000E+00  0.00000000E+00  0.00000000E+00
  0.00000000E+00  0.00000000E+00  0.00000000E+00
  0.00000000E+00  0.00000000E+00  0.00000000E+00
  0.00000000E+00  0.00000000E+00  0.00000000E+00
  0.00000000E+00  0.00000000E+00  0.00000000E+00
  0.00000000E+00  0.00000000E+00  0.00000000E+00
  0.00000000E+00  0.00000000E+00  0.00000000E+00
  0.00000000E+00  0.00000000E+00  0.00000000E+00
  0.00000000E+00  0.00000000E+00  0.00000000E+00
  0.00000000E+00  0.00000000E+00  0.00000000E+00
  0.00000000E+00  0.00000000E+00  0.00000000E+00
  0.00000000E+00  0.00000000E+00  0.00000000E+00
  0.00000000E+00  0.00000000E+00  0.00000000E+00
  0.00000000E+00  0.00000000E+00  0.00000000E+00
  0.00000000E+00  0.00000000E+00  0.00000000E+00
  0.00000000E+00  0.00000000E+00  0.00000000E+00
  0.00000000E+00  0.00000000E+00  0.00000000E+00
  0.00000000E+00  0.00000000E+00  0.00000000E+00
  0.00000000E+00  0.00000000E+00  0.00000000E+00
  0.00000000E+00  0.00000000E+00  0.00000000E+00
  0.00000000E+00  0.00000000E+00  0.00000000E+00
  0.00000000E+00  0.00000000E+00  0.00000000E+00
  0.00000000E+00  0.00000000E+00  0.00000000E+00
  0.00000000E+00  0.00000000E+00  0.00000000E+00
  0.00000000E+00  0.00000000E+00  0.00000000E+00
  0.00000000E+00  0.00000000E+00  0.00000000E+00
  0.00000000E+00  0.00000000E+00  0.00000000E+00
  0.00000000E+00  0.00000000E+00  0.00000000E+00
  0.00000000E+00  0.00000000E+00  0.00000000E+00
  0.00000000E+00  0.00000000E+00  0.00000000E+00
  0.00000000E+00  0.00000000E+00  0.00000000E+00
  0.00000000E+00  0.00000000E+00  0.00000000E+00
  0.00000000E+00  0.00000000E+00  0.00000000E+00
  0.00000000E+00  0.00000000E+00  0.00000000E+00
  0.00000000E+00  0.00000000E+00  0.00000000E+00
  0.00000000E+00  0.00000000E+00  0.00000000E+00
  0.00000000E+00  0.00000000E+00  0.00000000E+00
  0.00000000E+00  0.00000000E+00  0.00000000E+00
  0.00000000E+00  0.00000000E+00  0.00000000E+00
  0.00000000E+00  0.00000000E+00  0.00000000E+00
  0.00000000E+00  0.00000000E+00  0.00000000E+00
  0.00000000E+00  0.00000000E+00  0.00000000E+00
  0.00000000E+00  0.00000000E+00  0.00000000E+00
  0.00000000E+00  0.00000000E+00  0.00000000E+00
  0.00000000E+00  0.00000000E+00  0.00000000E+00
  0.00000000E+00  0.00000000E+00  0.00000000E+00
  0.00000000E+00  0.00000000E+00  0.00000000E+00
  0.00000000E+00  0.00000000E+00  0.00000000E+00
  0.00000000E+00  0.00000000E+00  0.00000000E+00
