Ba Na O Co                              
   1.00000000000000     
    11.1568587867069997    0.0000000000000000    0.0000000000000000
     0.0000000000000000   11.1568587867069997    0.0000000000000000
     0.0000000000000000    0.0000000000000000   26.1568587867070015
   Ba   Na   O    Co
    31     1    32     1
Selective dynamics
Direct
  0.2500000000000000  0.9998304286882156  0.1062862153692904   T   T   T
  0.7500000000000000  0.9998297718678022  0.1076963583896594   T   T   T
  0.0000028602876686  0.2497570091604697  0.1065889300730661   T   T   T
  0.4999971397123315  0.2497570091604697  0.1065889300730661   T   T   T
  0.2500000000000000  0.5001779472071624  0.1067878668552803   T   T   T
  0.7500000000000000  0.5000091684738408  0.1088499929751310   T   T   T
  0.0003160315014919  0.7502253461866333  0.1073488425952033   T   T   T
  0.4996839684985082  0.7502253461866333  0.1073488425952033   T   T   T
  0.0010041238275148 -0.0001980407382098  0.2126930040992304   T   T   T
  0.4989958761724853 -0.0001980407382098  0.2126930040992304   T   T   T
  0.2500000000000000  0.2491622277439055  0.2115590412396728   T   T   T
  0.7500000000000000  0.2484849664229925  0.2129709078400095   T   T   T
  0.0017336180050946  0.5001365220872589  0.2129560623750243   T   T   T
  0.4982663819949053  0.5001365220872589  0.2129560623750243   T   T   T
  0.2500000000000000  0.7506785303326038  0.2128665744699066   T   T   T
  0.7500000000000000  0.7513093772270178  0.2134752859245340   T   T   T
  0.2500000000000000  0.0019029204198646  0.3189880570643679   T   T   T
  0.7500000000000000 -0.0001782389877748  0.3201618999149691   T   T   T
  0.0025099619709559  0.2496706089911787  0.3203841965974732   T   T   T
  0.4974900380290441  0.2496706089911787  0.3203841965974732   T   T   T
  0.2500000000000000  0.4976600025413438  0.3187136867980717   T   T   T
  0.7500000000000000  0.4993789497342487  0.3193735335733950   T   T   T
  0.0002568876014386  0.7496553797462875  0.3233865219333193   T   T   T
  0.4997431123985614  0.7496553797462875  0.3233865219333193   T   T   T
  0.0138129218715784  0.0088513981901774  0.4269988414691359   T   T   T
  0.4861870781284217  0.0088513981901774  0.4269988414691359   T   T   T
  0.7500000000000000  0.2332656037444894  0.4258379350325356   T   T   T
  0.0217635432950001  0.4880233484445028  0.4280156708987956   T   T   T
  0.4782364567050000  0.4880233484445028  0.4280156708987956   T   T   T
  0.2500000000000000  0.7528246257400654  0.4258715520378994   T   T   T
  0.7500000000000000  0.7680366823877208  0.4282291801298011   T   T   T
  0.2500000000000000  0.2435416402247056  0.4095509518457858   T   T   T
 -0.0009832507163205  0.9996840386668432  0.1131696903955692   T   T   T
  0.5009832507163203  0.9996840386668432  0.1131696903955692   T   T   T
  0.2500000000000000  0.2507555376741362  0.1106497040688522   T   T   T
  0.7500000000000000  0.2516819732556891  0.1132731571943917   T   T   T
 -0.0020524866229296  0.5003465638718142  0.1139741082332993   T   T   T
  0.5020524866229296  0.5003465638718142  0.1139741082332993   T   T   T
  0.2500000000000000  0.7494645181901171  0.1126724088476110   T   T   T
  0.7500000000000000  0.7483266174075911  0.1142177705349476   T   T   T
  0.2500000000000000  0.9989979526512445  0.2064803479269368   T   T   T
  0.7500000000000000  0.9995966932932220  0.2089809537130940   T   T   T
  0.9987963592927566  0.2502411733127927  0.2067299166024651   T   T   T
  0.5012036407072434  0.2502411733127927  0.2067299166024651   T   T   T
  0.2500000000000000  0.5010963251334741  0.2076405970947331   T   T   T
  0.7500000000000000  0.5004314513632210  0.2149558715464462   T   T   T
  0.9995188324976457  0.7498669372888688  0.2076663241497744   T   T   T
  0.5004811675023543  0.7498669372888688  0.2076663241497744   T   T   T
  0.0003976839048683  0.0012555038116843  0.3253077142747901   T   T   T
  0.4996023160951316  0.0012555038116843  0.3253077142747901   T   T   T
  0.2500000000000000  0.2512462027898891  0.3164725554072560   T   T   T
  0.7500000000000000  0.2519375198575034  0.3249863364254821   T   T   T
  0.9979631984736534  0.4989231610242040  0.3273863931464939   T   T   T
  0.5020368015263466  0.4989231610242040  0.3273863931464939   T   T   T
  0.2500000000000000  0.7492327304453540  0.3239539137463510   T   T   T
  0.7500000000000000  0.7479595652020677  0.3276217106915375   T   T   T
  0.2500000000000000  0.9947667831925429  0.4176892201053594   T   T   T
  0.7500000000000000  0.0002590019903578  0.4208228648036871   T   T   T
  0.9922486608537890  0.2505000219300301  0.4185453735673690   T   T   T
  0.5077513391462110  0.2505000219300301  0.4185453735673690   T   T   T
  0.2500000000000000  0.5056156137945690  0.4186306670010347   T   T   T
  0.7499996334070005  0.5023933470103584  0.4362772805877889   T   T   T
  0.0006763926413558  0.7526964479325956  0.4211765698505987   T   T   T
  0.4993236073586441  0.7526964479325956  0.4211765698505987   T   T   T
  0.7499996334070005  0.5009328844831931  0.5000847778959585   T   T   T
 
  0.00000000E+00  0.00000000E+00  0.00000000E+00
  0.00000000E+00  0.00000000E+00  0.00000000E+00
  0.00000000E+00  0.00000000E+00  0.00000000E+00
  0.00000000E+00  0.00000000E+00  0.00000000E+00
  0.00000000E+00  0.00000000E+00  0.00000000E+00
  0.00000000E+00  0.00000000E+00  0.00000000E+00
  0.00000000E+00  0.00000000E+00  0.00000000E+00
  0.00000000E+00  0.00000000E+00  0.00000000E+00
  0.00000000E+00  0.00000000E+00  0.00000000E+00
  0.00000000E+00  0.00000000E+00  0.00000000E+00
  0.00000000E+00  0.00000000E+00  0.00000000E+00
  0.00000000E+00  0.00000000E+00  0.00000000E+00
  0.00000000E+00  0.00000000E+00  0.00000000E+00
  0.00000000E+00  0.00000000E+00  0.00000000E+00
  0.00000000E+00  0.00000000E+00  0.00000000E+00
  0.00000000E+00  0.00000000E+00  0.00000000E+00
  0.00000000E+00  0.00000000E+00  0.00000000E+00
  0.00000000E+00  0.00000000E+00  0.00000000E+00
  0.00000000E+00  0.00000000E+00  0.00000000E+00
  0.00000000E+00  0.00000000E+00  0.00000000E+00
  0.00000000E+00  0.00000000E+00  0.00000000E+00
  0.00000000E+00  0.00000000E+00  0.00000000E+00
  0.00000000E+00  0.00000000E+00  0.00000000E+00
  0.00000000E+00  0.00000000E+00  0.00000000E+00
  0.00000000E+00  0.00000000E+00  0.00000000E+00
  0.00000000E+00  0.00000000E+00  0.00000000E+00
  0.00000000E+00  0.00000000E+00  0.00000000E+00
  0.00000000E+00  0.00000000E+00  0.00000000E+00
  0.00000000E+00  0.00000000E+00  0.00000000E+00
  0.00000000E+00  0.00000000E+00  0.00000000E+00
  0.00000000E+00  0.00000000E+00  0.00000000E+00
  0.00000000E+00  0.00000000E+00  0.00000000E+00
  0.00000000E+00  0.00000000E+00  0.00000000E+00
  0.00000000E+00  0.00000000E+00  0.00000000E+00
  0.00000000E+00  0.00000000E+00  0.00000000E+00
  0.00000000E+00  0.00000000E+00  0.00000000E+00
  0.00000000E+00  0.00000000E+00  0.00000000E+00
  0.00000000E+00  0.00000000E+00  0.00000000E+00
  0.00000000E+00  0.00000000E+00  0.00000000E+00
  0.00000000E+00  0.00000000E+00  0.00000000E+00
  0.00000000E+00  0.00000000E+00  0.00000000E+00
  0.00000000E+00  0.00000000E+00  0.00000000E+00
  0.00000000E+00  0.00000000E+00  0.00000000E+00
  0.00000000E+00  0.00000000E+00  0.00000000E+00
  0.00000000E+00  0.00000000E+00  0.00000000E+00
  0.00000000E+00  0.00000000E+00  0.00000000E+00
  0.00000000E+00  0.00000000E+00  0.00000000E+00
  0.00000000E+00  0.00000000E+00  0.00000000E+00
  0.00000000E+00  0.00000000E+00  0.00000000E+00
  0.00000000E+00  0.00000000E+00  0.00000000E+00
  0.00000000E+00  0.00000000E+00  0.00000000E+00
  0.00000000E+00  0.00000000E+00  0.00000000E+00
  0.00000000E+00  0.00000000E+00  0.00000000E+00
  0.00000000E+00  0.00000000E+00  0.00000000E+00
  0.00000000E+00  0.00000000E+00  0.00000000E+00
  0.00000000E+00  0.00000000E+00  0.00000000E+00
  0.00000000E+00  0.00000000E+00  0.00000000E+00
  0.00000000E+00  0.00000000E+00  0.00000000E+00
  0.00000000E+00  0.00000000E+00  0.00000000E+00
  0.00000000E+00  0.00000000E+00  0.00000000E+00
  0.00000000E+00  0.00000000E+00  0.00000000E+00
  0.00000000E+00  0.00000000E+00  0.00000000E+00
  0.00000000E+00  0.00000000E+00  0.00000000E+00
  0.00000000E+00  0.00000000E+00  0.00000000E+00
  0.00000000E+00  0.00000000E+00  0.00000000E+00
