Ba Na O Au                              
   1.00000000000000     
    11.1568587867069997    0.0000000000000000    0.0000000000000000
     0.0000000000000000   11.1568587867069997    0.0000000000000000
     0.0000000000000000    0.0000000000000000   26.1568587867070015
   Ba   Na   O    Au
    31     1    32     1
Selective dynamics
Direct
  0.2500000000000000  0.9996896518465029  0.1065441088799243   T   T   T
  0.7500000000000000  0.9997691101447155  0.1077636425547635   T   T   T
  0.9998151224813139  0.2497745992838740  0.1066279956896533   T   T   T
  0.5001848775186861  0.2497745992838740  0.1066279956896533   T   T   T
  0.2500000000000000  0.5002982157755897  0.1068680144927426   T   T   T
  0.7500000000000000  0.5001467885156974  0.1088681875582109   T   T   T
  0.9999745584035523  0.7502177824748797  0.1076055124296608   T   T   T
  0.5000254415964477  0.7502177824748797  0.1076055124296608   T   T   T
  0.0007761076109204  0.0000716670313982  0.2131902686024379   T   T   T
  0.4992238923890797  0.0000716670313982  0.2131902686024379   T   T   T
  0.2500000000000000  0.2493796722657432  0.2121315440670477   T   T   T
  0.7500000000000000  0.2492264835897169  0.2133758511045531   T   T   T
  0.0011347269540393  0.4998034239136085  0.2132619092606263   T   T   T
  0.4988652730459607  0.4998034239136085  0.2132619092606263   T   T   T
  0.2500000000000000  0.7507370346606842  0.2133321113250952   T   T   T
  0.7500000000000000  0.7508099038828706  0.2139417814250562   T   T   T
  0.2500000000000000  0.0026533288050416  0.3200481346232470   T   T   T
  0.7500000000000000  0.0005887066943904  0.3208375691215229   T   T   T
  0.0021583658975172  0.2501112342913774  0.3207423571826271   T   T   T
  0.4978416341024828  0.2501112342913774  0.3207423571826271   T   T   T
  0.2500000000000000  0.4979615519634520  0.3193550844448649   T   T   T
  0.7500000000000000  0.4993878215083263  0.3226684423197492   T   T   T
  0.0001561306700615  0.7495609581325358  0.3229405971197147   T   T   T
  0.4998438693299385  0.7495609581325358  0.3229405971197147   T   T   T
  0.0133822422268521  0.0098828163748816  0.4277481673091549   T   T   T
  0.4866177577731479  0.0098828163748816  0.4277481673091549   T   T   T
  0.7500000000000000  0.2355170383388648  0.4266511893150132   T   T   T
  0.0196539084922035  0.4877968290410857  0.4283097688994911   T   T   T
  0.4803460915077965  0.4877968290410857  0.4283097688994911   T   T   T
  0.2500000000000000  0.7518891680063339  0.4262169964745221   T   T   T
  0.7500000000000000  0.7661973990542358  0.4280384281369888   T   T   T
  0.2500000000000000  0.2459784802569437  0.4106657127308208   T   T   T
  0.9992659587650091  0.9995771740163003  0.1131885372804244   T   T   T
  0.5007340412349909  0.9995771740163003  0.1131885372804244   T   T   T
  0.2500000000000000  0.2504558615478888  0.1104585865034341   T   T   T
  0.7500000000000000  0.2513722631323649  0.1127538925092590   T   T   T
  0.9982695799408172  0.5004115063360323  0.1135213717484817   T   T   T
  0.5017304200591828  0.5004115063360323  0.1135213717484817   T   T   T
  0.2500000000000000  0.7496926270110038  0.1125200948701609   T   T   T
  0.7500000000000000  0.7487099550943391  0.1138083661967051   T   T   T
  0.2500000000000000  0.9990422416118693  0.2065516620833985   T   T   T
  0.7500000000000000  0.9996826893001121  0.2084387125372807   T   T   T
  0.9990421303630816  0.2499584453374852  0.2063873080752883   T   T   T
  0.5009578696369184  0.2499584453374852  0.2063873080752883   T   T   T
  0.2500000000000000  0.5009766427090255  0.2071239168456630   T   T   T
  0.7500000000000000  0.5003278268067893  0.2134171814032318   T   T   T
  0.9997071677272679  0.7500304442155522  0.2078478426168664   T   T   T
  0.5002928322727321  0.7500304442155522  0.2078478426168664   T   T   T
  0.0008798694542341  0.0009113763700989  0.3255667550334631   T   T   T
  0.4991201305457659  0.0009113763700989  0.3255667550334631   T   T   T
  0.2500000000000000  0.2508614787384532  0.3168725344383564   T   T   T
  0.7500000000000000  0.2507507890388967  0.3242626360713471   T   T   T
  0.9995755396844719  0.4989433585627919  0.3264536105482265   T   T   T
  0.5004244603155281  0.4989433585627919  0.3264536105482265   T   T   T
  0.2500000000000000  0.7498393658510776  0.3238657115694079   T   T   T
  0.7500000000000000  0.7494925394629369  0.3265517161713906   T   T   T
  0.2500000000000000  0.9932170146929414  0.4182510582896667   T   T   T
  0.7500000000000000  0.0002307866304877  0.4203415211875627   T   T   T
  0.9938036418370011  0.2494323623720524  0.4186461930933926   T   T   T
  0.5061963581629989  0.2494323623720524  0.4186461930933926   T   T   T
  0.2500000000000000  0.5060489608718146  0.4181829106076362   T   T   T
  0.7499996334070005  0.5004399021616763  0.4257604983634741   T   T   T
  0.0013274660768930  0.7525434291005546  0.4216678764266160   T   T   T
  0.4986725339231070  0.7525434291005546  0.4216678764266160   T   T   T
  0.7499996334070005  0.5004540476372331  0.5034055567206384   T   T   T
 
  0.00000000E+00  0.00000000E+00  0.00000000E+00
  0.00000000E+00  0.00000000E+00  0.00000000E+00
  0.00000000E+00  0.00000000E+00  0.00000000E+00
  0.00000000E+00  0.00000000E+00  0.00000000E+00
  0.00000000E+00  0.00000000E+00  0.00000000E+00
  0.00000000E+00  0.00000000E+00  0.00000000E+00
  0.00000000E+00  0.00000000E+00  0.00000000E+00
  0.00000000E+00  0.00000000E+00  0.00000000E+00
  0.00000000E+00  0.00000000E+00  0.00000000E+00
  0.00000000E+00  0.00000000E+00  0.00000000E+00
  0.00000000E+00  0.00000000E+00  0.00000000E+00
  0.00000000E+00  0.00000000E+00  0.00000000E+00
  0.00000000E+00  0.00000000E+00  0.00000000E+00
  0.00000000E+00  0.00000000E+00  0.00000000E+00
  0.00000000E+00  0.00000000E+00  0.00000000E+00
  0.00000000E+00  0.00000000E+00  0.00000000E+00
  0.00000000E+00  0.00000000E+00  0.00000000E+00
  0.00000000E+00  0.00000000E+00  0.00000000E+00
  0.00000000E+00  0.00000000E+00  0.00000000E+00
  0.00000000E+00  0.00000000E+00  0.00000000E+00
  0.00000000E+00  0.00000000E+00  0.00000000E+00
  0.00000000E+00  0.00000000E+00  0.00000000E+00
  0.00000000E+00  0.00000000E+00  0.00000000E+00
  0.00000000E+00  0.00000000E+00  0.00000000E+00
  0.00000000E+00  0.00000000E+00  0.00000000E+00
  0.00000000E+00  0.00000000E+00  0.00000000E+00
  0.00000000E+00  0.00000000E+00  0.00000000E+00
  0.00000000E+00  0.00000000E+00  0.00000000E+00
  0.00000000E+00  0.00000000E+00  0.00000000E+00
  0.00000000E+00  0.00000000E+00  0.00000000E+00
  0.00000000E+00  0.00000000E+00  0.00000000E+00
  0.00000000E+00  0.00000000E+00  0.00000000E+00
  0.00000000E+00  0.00000000E+00  0.00000000E+00
  0.00000000E+00  0.00000000E+00  0.00000000E+00
  0.00000000E+00  0.00000000E+00  0.00000000E+00
  0.00000000E+00  0.00000000E+00  0.00000000E+00
  0.00000000E+00  0.00000000E+00  0.00000000E+00
  0.00000000E+00  0.00000000E+00  0.00000000E+00
  0.00000000E+00  0.00000000E+00  0.00000000E+00
  0.00000000E+00  0.00000000E+00  0.00000000E+00
  0.00000000E+00  0.00000000E+00  0.00000000E+00
  0.00000000E+00  0.00000000E+00  0.00000000E+00
  0.00000000E+00  0.00000000E+00  0.00000000E+00
  0.00000000E+00  0.00000000E+00  0.00000000E+00
  0.00000000E+00  0.00000000E+00  0.00000000E+00
  0.00000000E+00  0.00000000E+00  0.00000000E+00
  0.00000000E+00  0.00000000E+00  0.00000000E+00
  0.00000000E+00  0.00000000E+00  0.00000000E+00
  0.00000000E+00  0.00000000E+00  0.00000000E+00
  0.00000000E+00  0.00000000E+00  0.00000000E+00
  0.00000000E+00  0.00000000E+00  0.00000000E+00
  0.00000000E+00  0.00000000E+00  0.00000000E+00
  0.00000000E+00  0.00000000E+00  0.00000000E+00
  0.00000000E+00  0.00000000E+00  0.00000000E+00
  0.00000000E+00  0.00000000E+00  0.00000000E+00
  0.00000000E+00  0.00000000E+00  0.00000000E+00
  0.00000000E+00  0.00000000E+00  0.00000000E+00
  0.00000000E+00  0.00000000E+00  0.00000000E+00
  0.00000000E+00  0.00000000E+00  0.00000000E+00
  0.00000000E+00  0.00000000E+00  0.00000000E+00
  0.00000000E+00  0.00000000E+00  0.00000000E+00
  0.00000000E+00  0.00000000E+00  0.00000000E+00
  0.00000000E+00  0.00000000E+00  0.00000000E+00
  0.00000000E+00  0.00000000E+00  0.00000000E+00
  0.00000000E+00  0.00000000E+00  0.00000000E+00
