B O Rh Zn                               
   1.00000000000000     
     6.5625568183449996    0.0000000000000000    0.0000000000000000
     0.0000000000000000   10.5156600000000005    0.0000000000000000
     0.0000000000000000    0.0000000000000000   32.0500282661819966
   B    O    Rh   Zn
     1    40     1    39
Selective dynamics
Direct
  0.2543782443544549  0.3050359878429423  0.4394275033185260   T   T   T
  0.2499722563304266  0.0013364070811002  0.0886828740997991   T   T   T
  0.2499779396056906  0.5007569332902854  0.0888015823564570   T   T   T
  0.7500451058869597  0.0012242378354216  0.0885046032816825   T   T   T
  0.7500257147143098  0.5011852241886409  0.0886809476743174   T   T   T
  0.9995658293662439  0.2475956318951010  0.1197758055332902   T   T   T
  0.9999607055589417  0.7476236370649358  0.1195142397482014   T   T   T
  0.5004386182094741  0.2475900311361882  0.1197414886601307   T   T   T
  0.5000397502197909  0.7476164867911784  0.1194752852402677   T   T   T
  0.9996546795240863  0.9973735250630507  0.1765922117447639   T   T   T
  0.9999235468592921  0.4975704112840235  0.1768047945272938   T   T   T
  0.5004577083854163  0.9973967184902628  0.1766227859644928   T   T   T
  0.5000716963769196  0.4976167006912575  0.1768221086720656   T   T   T
  0.2500162889651952  0.2465009901506975  0.2081406007473621   T   T   T
  0.2500490616558787  0.7465279579654990  0.2083389677135756   T   T   T
  0.7500028423336730  0.2465550625062981  0.2089426396732569   T   T   T
  0.7499753896551146  0.7464648400123771  0.2085190250620255   T   T   T
  0.2495079865191475  0.9977614601094955  0.2653799086963018   T   T   T
  0.2496534953186812  0.4989475106200019  0.2659834724224993   T   T   T
  0.7510920224133008  0.9986091669745859  0.2657602486673334   T   T   T
  0.7504329338462064  0.4971762988497557  0.2658692155595069   T   T   T
  0.0036192581833586  0.2490826167985214  0.2978729366722477   T   T   T
  0.9998993194324280  0.7491390251419076  0.2975465491423902   T   T   T
  0.4967404105521797  0.2484635574512147  0.2974017850376585   T   T   T
  0.5003206882161682  0.7492016548125664  0.2974470749302403   T   T   T
  0.0058119697543950  0.0013420630977739  0.3545142868728312   T   T   T
  0.9965269144828099  0.5001401151362871  0.3549365831725149   T   T   T
  0.4972712067390974  0.0001893392716696  0.3538312999805063   T   T   T
  0.5048824101485250  0.4999691566542520  0.3543630590826168   T   T   T
  0.2530017999164265  0.2657331922689909  0.3920015991186418   T   T   T
  0.2513889228754209  0.7435485964121797  0.3861531544229787   T   T   T
  0.7507949681508038  0.2453837338314082  0.3827832806798054   T   T   T
  0.7504212136178920  0.7566672625663710  0.3873768722610140   T   T   T
  0.2441952792209636  0.9978192227981902  0.4396392161259338   T   T   T
  0.2593967622334802  0.4594572383911725  0.4406684185197812   T   T   T
  0.7539877866395587  0.0124089160434207  0.4436179002293482   T   T   T
  0.7455032129019323  0.4918392001393047  0.4429263189574502   T   T   T
  0.0567135990640008  0.2709634525969067  0.4584631781954161   T   T   T
  0.0025334545677530  0.7297970174447794  0.4710451688345934   T   T   T
  0.4410155801131713  0.2550468694366548  0.4592503048640010   T   T   T
  0.4976426374270213  0.7406846331781829  0.4708367400052886   T   T   T
  0.5001678041715528  0.8660673503850198  0.5190028313411608   T   T   T
  0.2499593393057588  0.3265838955083859  0.1003335899934757   T   T   T
  0.2499591698267661  0.8270038954731144  0.0999756193402395   T   T   T
  0.7500481537757434  0.3269475581261139  0.1000365569513000   T   T   T
  0.7500385677864003  0.8269592270955999  0.0999050701048412   T   T   T
  0.9997560886272832  0.0582362495020816  0.1145267147588695   T   T   T
  0.0000150167679539  0.5582265911116157  0.1145806259672606   T   T   T
  0.5002639723534013  0.0582185389239987  0.1144889949001936   T   T   T
  0.4999863743148503  0.5582045908339599  0.1145621224362992   T   T   T
  0.9990224491313155  0.3087339032975775  0.1803896911468627   T   T   T
  0.9997883189745727  0.8084348551408437  0.1802279515521030   T   T   T
  0.5009697159741505  0.3087504608621778  0.1803620329893690   T   T   T
  0.5002343506684334  0.8084120771959437  0.1801891670864362   T   T   T
  0.2499263626204090  0.0552940892744111  0.2054603448442203   T   T   T
  0.2499081193524708  0.5557620662157418  0.2056922647599267   T   T   T
  0.7501857893047565  0.0554756862233651  0.2056957970507310   T   T   T
  0.7500818350213266  0.5554938663049978  0.2058147085216075   T   T   T
  0.2495730447186546  0.3086942434498548  0.2668633279296246   T   T   T
  0.2499921871223851  0.8074843370737572  0.2674857545790173   T   T   T
  0.7506357723306909  0.3067283899758360  0.2681633249553302   T   T   T
  0.7501972747385484  0.8082249006270227  0.2676046948816780   T   T   T
  0.0010846985733428  0.0578544533291792  0.2949411512353252   T   T   T
  0.9990076167832838  0.5591376232110199  0.2947644389998373   T   T   T
  0.4995155216952941  0.0574105361043254  0.2941692098880349   T   T   T
  0.5010028863920490  0.5593416114888835  0.2943732483601145   T   T   T
  0.0023414057719664  0.3101640528267323  0.3567107657901414   T   T   T
  0.0032810304712500  0.8099446362639912  0.3568307831289764   T   T   T
  0.5006173539576471  0.3100981559163296  0.3558030337760831   T   T   T
  0.4983974947054287  0.8089874049011526  0.3569123932480506   T   T   T
  0.2555765932493206  0.0676611120252057  0.3825713463660239   T   T   T
  0.2516541908910868  0.5563547478600643  0.3811277798173922   T   T   T
  0.7484898063685854  0.0547674687421922  0.3823785345696906   T   T   T
  0.7496273699905341  0.5689869733772305  0.3827036001061331   T   T   T
  0.2367422789982455  0.8124765176814915  0.4463308994373111   T   T   T
  0.7284808397478951  0.3049769000545560  0.4408171987555742   T   T   T
  0.7634658820406509  0.8195025023637929  0.4494508483213195   T   T   T
  0.0086963414188926  0.0914660228027404  0.4579956222488413   T   T   T
  0.0127559522800336  0.5548421668559009  0.4592502087292067   T   T   T
  0.4826095930800465  0.0632812815122935  0.4742041403867662   T   T   T
  0.4902014648433827  0.5607091577636433  0.4629276676112339   T   T   T
 
  0.00000000E+00  0.00000000E+00  0.00000000E+00
  0.00000000E+00  0.00000000E+00  0.00000000E+00
  0.00000000E+00  0.00000000E+00  0.00000000E+00
  0.00000000E+00  0.00000000E+00  0.00000000E+00
  0.00000000E+00  0.00000000E+00  0.00000000E+00
  0.00000000E+00  0.00000000E+00  0.00000000E+00
  0.00000000E+00  0.00000000E+00  0.00000000E+00
  0.00000000E+00  0.00000000E+00  0.00000000E+00
  0.00000000E+00  0.00000000E+00  0.00000000E+00
  0.00000000E+00  0.00000000E+00  0.00000000E+00
  0.00000000E+00  0.00000000E+00  0.00000000E+00
  0.00000000E+00  0.00000000E+00  0.00000000E+00
  0.00000000E+00  0.00000000E+00  0.00000000E+00
  0.00000000E+00  0.00000000E+00  0.00000000E+00
  0.00000000E+00  0.00000000E+00  0.00000000E+00
  0.00000000E+00  0.00000000E+00  0.00000000E+00
  0.00000000E+00  0.00000000E+00  0.00000000E+00
  0.00000000E+00  0.00000000E+00  0.00000000E+00
  0.00000000E+00  0.00000000E+00  0.00000000E+00
  0.00000000E+00  0.00000000E+00  0.00000000E+00
  0.00000000E+00  0.00000000E+00  0.00000000E+00
  0.00000000E+00  0.00000000E+00  0.00000000E+00
  0.00000000E+00  0.00000000E+00  0.00000000E+00
  0.00000000E+00  0.00000000E+00  0.00000000E+00
  0.00000000E+00  0.00000000E+00  0.00000000E+00
  0.00000000E+00  0.00000000E+00  0.00000000E+00
  0.00000000E+00  0.00000000E+00  0.00000000E+00
  0.00000000E+00  0.00000000E+00  0.00000000E+00
  0.00000000E+00  0.00000000E+00  0.00000000E+00
  0.00000000E+00  0.00000000E+00  0.00000000E+00
  0.00000000E+00  0.00000000E+00  0.00000000E+00
  0.00000000E+00  0.00000000E+00  0.00000000E+00
  0.00000000E+00  0.00000000E+00  0.00000000E+00
  0.00000000E+00  0.00000000E+00  0.00000000E+00
  0.00000000E+00  0.00000000E+00  0.00000000E+00
  0.00000000E+00  0.00000000E+00  0.00000000E+00
  0.00000000E+00  0.00000000E+00  0.00000000E+00
  0.00000000E+00  0.00000000E+00  0.00000000E+00
  0.00000000E+00  0.00000000E+00  0.00000000E+00
  0.00000000E+00  0.00000000E+00  0.00000000E+00
  0.00000000E+00  0.00000000E+00  0.00000000E+00
  0.00000000E+00  0.00000000E+00  0.00000000E+00
  0.00000000E+00  0.00000000E+00  0.00000000E+00
  0.00000000E+00  0.00000000E+00  0.00000000E+00
  0.00000000E+00  0.00000000E+00  0.00000000E+00
  0.00000000E+00  0.00000000E+00  0.00000000E+00
  0.00000000E+00  0.00000000E+00  0.00000000E+00
  0.00000000E+00  0.00000000E+00  0.00000000E+00
  0.00000000E+00  0.00000000E+00  0.00000000E+00
  0.00000000E+00  0.00000000E+00  0.00000000E+00
  0.00000000E+00  0.00000000E+00  0.00000000E+00
  0.00000000E+00  0.00000000E+00  0.00000000E+00
  0.00000000E+00  0.00000000E+00  0.00000000E+00
  0.00000000E+00  0.00000000E+00  0.00000000E+00
  0.00000000E+00  0.00000000E+00  0.00000000E+00
  0.00000000E+00  0.00000000E+00  0.00000000E+00
  0.00000000E+00  0.00000000E+00  0.00000000E+00
  0.00000000E+00  0.00000000E+00  0.00000000E+00
  0.00000000E+00  0.00000000E+00  0.00000000E+00
  0.00000000E+00  0.00000000E+00  0.00000000E+00
  0.00000000E+00  0.00000000E+00  0.00000000E+00
  0.00000000E+00  0.00000000E+00  0.00000000E+00
  0.00000000E+00  0.00000000E+00  0.00000000E+00
  0.00000000E+00  0.00000000E+00  0.00000000E+00
  0.00000000E+00  0.00000000E+00  0.00000000E+00
  0.00000000E+00  0.00000000E+00  0.00000000E+00
  0.00000000E+00  0.00000000E+00  0.00000000E+00
  0.00000000E+00  0.00000000E+00  0.00000000E+00
  0.00000000E+00  0.00000000E+00  0.00000000E+00
  0.00000000E+00  0.00000000E+00  0.00000000E+00
  0.00000000E+00  0.00000000E+00  0.00000000E+00
  0.00000000E+00  0.00000000E+00  0.00000000E+00
  0.00000000E+00  0.00000000E+00  0.00000000E+00
  0.00000000E+00  0.00000000E+00  0.00000000E+00
  0.00000000E+00  0.00000000E+00  0.00000000E+00
  0.00000000E+00  0.00000000E+00  0.00000000E+00
  0.00000000E+00  0.00000000E+00  0.00000000E+00
  0.00000000E+00  0.00000000E+00  0.00000000E+00
  0.00000000E+00  0.00000000E+00  0.00000000E+00
  0.00000000E+00  0.00000000E+00  0.00000000E+00
  0.00000000E+00  0.00000000E+00  0.00000000E+00
