Ag B O Zn                               
   1.00000000000000     
     6.5625568183449996    0.0000000000000000    0.0000000000000000
     0.0000000000000000   10.5156600000000005    0.0000000000000000
     0.0000000000000000    0.0000000000000000   32.0500282661819966
   Ag   B    O    Zn
     1     1    40    39
Selective dynamics
Direct
  0.5037988002542769  0.9077088294156573  0.5283739404147143   T   T   T
  0.2512319270415176  0.3062931518540453  0.4381027581070897   T   T   T
  0.2499667988916279  0.0014256693750044  0.0887777693006943   T   T   T
  0.2499486023692350  0.5007640528035010  0.0888443275309092   T   T   T
  0.7500014309027717  0.0012968356685104  0.0885914639226092   T   T   T
  0.7500349420496525  0.5011407364360241  0.0887405920314373   T   T   T
  0.9995806977209170  0.2475969622036752  0.1198119211704213   T   T   T
  0.9999210575149959  0.7476375217653728  0.1194636729336085   T   T   T
  0.5003957638058928  0.2475943802662667  0.1197623578806216   T   T   T
  0.5000518343051690  0.7476559716668285  0.1194161973039329   T   T   T
  0.9996108807449456  0.9976524816071544  0.1767248661886156   T   T   T
  0.9999030914740874  0.4976336289605637  0.1767745786174581   T   T   T
  0.5004496548480386  0.9976988755685080  0.1767595644106514   T   T   T
  0.5000507733185274  0.4976407424642491  0.1767379686364775   T   T   T
  0.2500268725053833  0.2465920682898042  0.2081419095666591   T   T   T
  0.2500184927489313  0.7466899571088293  0.2081944317731613   T   T   T
  0.7498808249410515  0.2466285973197945  0.2088883739099712   T   T   T
  0.7499534942461253  0.7466618018599490  0.2083898901030784   T   T   T
  0.2496023925144480  0.9979439775327948  0.2655412300099707   T   T   T
  0.2499442034960013  0.4986855376306644  0.2657731143211569   T   T   T
  0.7508450439401803  0.9987813666171986  0.2659799400774421   T   T   T
  0.7499898150900853  0.4970315311114620  0.2656447910827336   T   T   T
  0.0030996863636294  0.2484003494885491  0.2973529290468555   T   T   T
 -0.0001112508888414  0.7492083308964427  0.2972125218131454   T   T   T
  0.4966651453000958  0.2482746966872667  0.2973221263659975   T   T   T
  0.5000974258695812  0.7487687576716082  0.2969597257471060   T   T   T
  0.0060843377896980  0.0009521961693371  0.3548964925871238   T   T   T
  0.9964090730414868  0.4981545170284452  0.3539030424660832   T   T   T
  0.4964244984194241 -0.0006358532006255  0.3540637238971591   T   T   T
  0.5038734763270387  0.4982722142331270  0.3539914966409787   T   T   T
  0.2504456795635745  0.2632610589143405  0.3910787708657872   T   T   T
  0.2507233760589657  0.7434233613967958  0.3857407567134220   T   T   T
  0.7499039113698714  0.2419711662975240  0.3822047378058096   T   T   T
  0.7497235919363747  0.7546418142406919  0.3863294825132277   T   T   T
  0.2530213035661218  0.9960168033576180  0.4417069081910114   T   T   T
  0.2510057950285948  0.4580012568133949  0.4388168982135589   T   T   T
  0.7492728788597555  0.0083838352746812  0.4449644883089878   T   T   T
  0.7501425933982967  0.4891233687867710  0.4412729384158782   T   T   T
  0.0560957770633351  0.2656270618532547  0.4575863788712826   T   T   T
  0.0026541171813143  0.7329033854949315  0.4702286090334962   T   T   T
  0.4422249123567969  0.2626287845257751  0.4575993977299411   T   T   T
  0.4982028781009707  0.7315525855475794  0.4720256356149803   T   T   T
  0.2499362992275084  0.3266544538746512  0.1004703084781563   T   T   T
  0.2499301124942803  0.8270821506706262  0.1000593111857525   T   T   T
  0.7500361934714265  0.3269549487301793  0.1001773162422928   T   T   T
  0.7500413174081912  0.8269928757324559  0.0999395975790068   T   T   T
  0.9997116692221996  0.0582090925659530  0.1146897739160541   T   T   T
  0.0000062094049027  0.5581556906474178  0.1146641812705394   T   T   T
  0.5002491350993985  0.0581942527974815  0.1146691414670681   T   T   T
  0.4999768551599288  0.5581594005485792  0.1146217250275957   T   T   T
  0.9990329035187493  0.3087646222856649  0.1805203025649663   T   T   T
  0.9997437635411851  0.8086781137133974  0.1802568779198025   T   T   T
  0.5008850129570230  0.3087644176443861  0.1804649559071816   T   T   T
  0.5002274115560972  0.8086934626067391  0.1802151050701341   T   T   T
  0.2498900952367660  0.0553665765314932  0.2057927652736866   T   T   T
  0.2500479782878838  0.5558166234954627  0.2057609968695560   T   T   T
  0.7501694688869343  0.0554890893131041  0.2060496189975811   T   T   T
  0.7499170068900181  0.5555785966516674  0.2058604194897895   T   T   T
  0.2497441222687677  0.3085567553182122  0.2670406208800436   T   T   T
  0.2498281723867440  0.8077232391454114  0.2675058745014126   T   T   T
  0.7499734748586943  0.3066932036451346  0.2682731063969219   T   T   T
  0.7501420590740983  0.8084292008844075  0.2676647383539162   T   T   T
  0.0010974988747798  0.0574946629579391  0.2953988753398524   T   T   T
  0.9989821946225560  0.5593392935765895  0.2944458560008874   T   T   T
  0.4993327558448178  0.0574468970486614  0.2947334556307977   T   T   T
  0.5009428496018431  0.5588995533601576  0.2945134228715863   T   T   T
  0.0004278859928194  0.3081970430075013  0.3563618338376945   T   T   T
  0.0031527279999386  0.8095252093774284  0.3570530881252170   T   T   T
  0.4994891124831519  0.3084359577909595  0.3562203061140662   T   T   T
  0.4973132321167907  0.8080599617586116  0.3567205030292991   T   T   T
  0.2554494080078483  0.0640793141836980  0.3840576028625235   T   T   T
  0.2498076750279652  0.5568431582284720  0.3804196737913838   T   T   T
  0.7478079771016042  0.0512222967759355  0.3835629042653733   T   T   T
  0.7503663166737329  0.5673048569266209  0.3819652540139537   T   T   T
  0.2505440815701436  0.8085348079210233  0.4478607493441138   T   T   T
  0.7420733983599991  0.3031554762302106  0.4403500847036116   T   T   T
  0.7506561852329140  0.8124606348012005  0.4496291292438810   T   T   T
  0.0088429564060459  0.0838720525947224  0.4593691154290012   T   T   T
  0.0108359826325213  0.5584575851545800  0.4589907291513641   T   T   T
  0.4825322582785805  0.0815553049068313  0.4751426965422004   T   T   T
  0.4896165090601619  0.5569199463540798  0.4595405928715143   T   T   T
 
  0.00000000E+00  0.00000000E+00  0.00000000E+00
  0.00000000E+00  0.00000000E+00  0.00000000E+00
  0.00000000E+00  0.00000000E+00  0.00000000E+00
  0.00000000E+00  0.00000000E+00  0.00000000E+00
  0.00000000E+00  0.00000000E+00  0.00000000E+00
  0.00000000E+00  0.00000000E+00  0.00000000E+00
  0.00000000E+00  0.00000000E+00  0.00000000E+00
  0.00000000E+00  0.00000000E+00  0.00000000E+00
  0.00000000E+00  0.00000000E+00  0.00000000E+00
  0.00000000E+00  0.00000000E+00  0.00000000E+00
  0.00000000E+00  0.00000000E+00  0.00000000E+00
  0.00000000E+00  0.00000000E+00  0.00000000E+00
  0.00000000E+00  0.00000000E+00  0.00000000E+00
  0.00000000E+00  0.00000000E+00  0.00000000E+00
  0.00000000E+00  0.00000000E+00  0.00000000E+00
  0.00000000E+00  0.00000000E+00  0.00000000E+00
  0.00000000E+00  0.00000000E+00  0.00000000E+00
  0.00000000E+00  0.00000000E+00  0.00000000E+00
  0.00000000E+00  0.00000000E+00  0.00000000E+00
  0.00000000E+00  0.00000000E+00  0.00000000E+00
  0.00000000E+00  0.00000000E+00  0.00000000E+00
  0.00000000E+00  0.00000000E+00  0.00000000E+00
  0.00000000E+00  0.00000000E+00  0.00000000E+00
  0.00000000E+00  0.00000000E+00  0.00000000E+00
  0.00000000E+00  0.00000000E+00  0.00000000E+00
  0.00000000E+00  0.00000000E+00  0.00000000E+00
  0.00000000E+00  0.00000000E+00  0.00000000E+00
  0.00000000E+00  0.00000000E+00  0.00000000E+00
  0.00000000E+00  0.00000000E+00  0.00000000E+00
  0.00000000E+00  0.00000000E+00  0.00000000E+00
  0.00000000E+00  0.00000000E+00  0.00000000E+00
  0.00000000E+00  0.00000000E+00  0.00000000E+00
  0.00000000E+00  0.00000000E+00  0.00000000E+00
  0.00000000E+00  0.00000000E+00  0.00000000E+00
  0.00000000E+00  0.00000000E+00  0.00000000E+00
  0.00000000E+00  0.00000000E+00  0.00000000E+00
  0.00000000E+00  0.00000000E+00  0.00000000E+00
  0.00000000E+00  0.00000000E+00  0.00000000E+00
  0.00000000E+00  0.00000000E+00  0.00000000E+00
  0.00000000E+00  0.00000000E+00  0.00000000E+00
  0.00000000E+00  0.00000000E+00  0.00000000E+00
  0.00000000E+00  0.00000000E+00  0.00000000E+00
  0.00000000E+00  0.00000000E+00  0.00000000E+00
  0.00000000E+00  0.00000000E+00  0.00000000E+00
  0.00000000E+00  0.00000000E+00  0.00000000E+00
  0.00000000E+00  0.00000000E+00  0.00000000E+00
  0.00000000E+00  0.00000000E+00  0.00000000E+00
  0.00000000E+00  0.00000000E+00  0.00000000E+00
  0.00000000E+00  0.00000000E+00  0.00000000E+00
  0.00000000E+00  0.00000000E+00  0.00000000E+00
  0.00000000E+00  0.00000000E+00  0.00000000E+00
  0.00000000E+00  0.00000000E+00  0.00000000E+00
  0.00000000E+00  0.00000000E+00  0.00000000E+00
  0.00000000E+00  0.00000000E+00  0.00000000E+00
  0.00000000E+00  0.00000000E+00  0.00000000E+00
  0.00000000E+00  0.00000000E+00  0.00000000E+00
  0.00000000E+00  0.00000000E+00  0.00000000E+00
  0.00000000E+00  0.00000000E+00  0.00000000E+00
  0.00000000E+00  0.00000000E+00  0.00000000E+00
  0.00000000E+00  0.00000000E+00  0.00000000E+00
  0.00000000E+00  0.00000000E+00  0.00000000E+00
  0.00000000E+00  0.00000000E+00  0.00000000E+00
  0.00000000E+00  0.00000000E+00  0.00000000E+00
  0.00000000E+00  0.00000000E+00  0.00000000E+00
  0.00000000E+00  0.00000000E+00  0.00000000E+00
  0.00000000E+00  0.00000000E+00  0.00000000E+00
  0.00000000E+00  0.00000000E+00  0.00000000E+00
  0.00000000E+00  0.00000000E+00  0.00000000E+00
  0.00000000E+00  0.00000000E+00  0.00000000E+00
  0.00000000E+00  0.00000000E+00  0.00000000E+00
  0.00000000E+00  0.00000000E+00  0.00000000E+00
  0.00000000E+00  0.00000000E+00  0.00000000E+00
  0.00000000E+00  0.00000000E+00  0.00000000E+00
  0.00000000E+00  0.00000000E+00  0.00000000E+00
  0.00000000E+00  0.00000000E+00  0.00000000E+00
  0.00000000E+00  0.00000000E+00  0.00000000E+00
  0.00000000E+00  0.00000000E+00  0.00000000E+00
  0.00000000E+00  0.00000000E+00  0.00000000E+00
  0.00000000E+00  0.00000000E+00  0.00000000E+00
  0.00000000E+00  0.00000000E+00  0.00000000E+00
  0.00000000E+00  0.00000000E+00  0.00000000E+00
