B O Ru Zn                               
   1.00000000000000     
     6.5625568183449996    0.0000000000000000    0.0000000000000000
     0.0000000000000000   10.5156600000000005    0.0000000000000000
     0.0000000000000000    0.0000000000000000   32.0500282661819966
   B    O    Ru   Zn
     1    40     1    39
Selective dynamics
Direct
  0.2471950091468783  0.3132864061257236  0.4352963101957446   T   T   T
  0.2501129615571083  0.0009801652078868  0.0885398206408239   T   T   T
  0.2499821005278870  0.5008850051802932  0.0887280556777693   T   T   T
  0.7499323848797804  0.0005298208371987  0.0884755134449635   T   T   T
  0.7499917688803571  0.5015330493863781  0.0888096516047075   T   T   T
  0.9995522124935340  0.2474444169845558  0.1192852326924153   T   T   T
  0.0002927490148518  0.7475210800132795  0.1196888854875584   T   T   T
  0.5003448533161976  0.2474194556930158  0.1192456256554680   T   T   T
  0.4999717367227078  0.7475518312091531  0.1197385784694260   T   T   T
  0.0001007688425504  0.9977064393691722  0.1767070645003854   T   T   T
  0.0004852214881038  0.4978176090493292  0.1770717617581932   T   T   T
  0.5003590313472412  0.9976599938244249  0.1767742872494145   T   T   T
  0.4994947057823890  0.4978955711121016  0.1770263984448348   T   T   T
  0.2503184286278132  0.2466611371441973  0.2079341693997777   T   T   T
  0.2499041848994838  0.7467929256935146  0.2086687103733536   T   T   T
  0.7498257565645721  0.2465528823731915  0.2084051404705869   T   T   T
  0.7502337221784047  0.7468108978069163  0.2085465256716030   T   T   T
  0.2510184025908918  0.9977054554117740  0.2658363827150256   T   T   T
  0.2503258611264333  0.4993300493893320  0.2666799389750744   T   T   T
  0.7508230125257884  0.9988737568043379  0.2660170731572391   T   T   T
  0.7500228333630389  0.4971324928447116  0.2657323510705674   T   T   T
  0.0037732440885989  0.2473327433727707  0.2965353636173451   T   T   T
  0.9986795148477301  0.7499245943093674  0.2978124794753699   T   T   T
  0.4981897482990646  0.2493358824433129  0.2976553210490875   T   T   T
  0.5007866208829442  0.7488227732814116  0.2972441347017403   T   T   T
  0.0055909111736500  0.9987850043749700  0.3552371440250223   T   T   T
  0.9923223822793685  0.5016319827921607  0.3546810736014872   T   T   T
  0.4998830940438875  0.9999261416516624  0.3544943312462681   T   T   T
  0.5098838603374282  0.5018526869252798  0.3555678903372820   T   T   T
  0.2522713515945654  0.2591067836609426  0.3900318319110044   T   T   T
  0.2507662903077129  0.7454500372216939  0.3856957654859842   T   T   T
  0.7551094545739578  0.2436513132685506  0.3826047820044319   T   T   T
  0.7444839708962129  0.7580962584244116  0.3889958913794358   T   T   T
  0.2656525169708234  0.0024621097710815  0.4424114345775824   T   T   T
  0.2345406297035259  0.4538927807268639  0.4343469825465457   T   T   T
  0.7494399724812623  0.0087869292442878  0.4469841322414668   T   T   T
  0.7691690104812451  0.5031036756020109  0.4473770201154936   T   T   T
  0.0669532180229595  0.2607889735100712  0.4578751565627746   T   T   T
  0.9988062075778469  0.7515244860182956  0.4725578308632551   T   T   T
  0.4460342197621479  0.2819258495922539  0.4573077036935719   T   T   T
  0.4813542240897002  0.7667547907634904  0.4795860445582305   T   T   T
  0.3690000240377355  0.6510224549099974  0.5175830647161604   T   T   T
  0.2499165267205792  0.3263797822210578  0.0997438633531569   T   T   T
  0.2501973282361497  0.8266969781589776  0.0999659706124923   T   T   T
  0.7499572498788326  0.3269375250053952  0.0995672453254783   T   T   T
  0.7501081402613375  0.8262732961587435  0.0999588928738824   T   T   T
  0.9997842691223333  0.0579290494329978  0.1143274797146279   T   T   T
  0.0003406301206117  0.5580320231581882  0.1147986977728910   T   T   T
  0.5002527596532306  0.0578838283907709  0.1144306846353618   T   T   T
  0.4996249707649073  0.5581067667751535  0.1147742110802973   T   T   T
  0.9994068954752764  0.3088233145177924  0.1799003914351684   T   T   T
  0.0002814925412736  0.8086787050169396  0.1802711784295838   T   T   T
  0.5006738432038819  0.3088981420433234  0.1797907393598992   T   T   T
  0.4998961750005013  0.8086414487262632  0.1803571700065974   T   T   T
  0.2501072287977684  0.0554899656480593  0.2056534328748128   T   T   T
  0.2500662623614702  0.5558546911012339  0.2063203337299270   T   T   T
  0.7503609650416817  0.0556178196612104  0.2056778952597350   T   T   T
  0.7498855923491575  0.5557768126351723  0.2058735232558762   T   T   T
  0.2519169779175626  0.3093810913092987  0.2664735182304078   T   T   T
  0.2496135059600688  0.8071749034480554  0.2677127573986596   T   T   T
  0.7499216378200187  0.3072283761637770  0.2673698324235592   T   T   T
  0.7500277573368537  0.8084770593758666  0.2674071659741393   T   T   T
  0.0014911660138156  0.0567026805430355  0.2947360595481409   T   T   T
  0.9973013742364174  0.5595977265785276  0.2949365210169657   T   T   T
  0.5003733643424140  0.0588598848361797  0.2943764559040729   T   T   T
  0.5030381784226701  0.5583510358641002  0.2954118420346627   T   T   T
  0.0047406388625678  0.3128174254906665  0.3538271092206899   T   T   T
  0.9970858571929299  0.8060726140912007  0.3571807999557844   T   T   T
  0.5033844058781453  0.3130845370089468  0.3559941683386712   T   T   T
  0.4989382868675120  0.8075158436045933  0.3561043852848286   T   T   T
  0.2536588479294201  0.0647092174741753  0.3817018704777615   T   T   T
  0.2508382572779707  0.5566767641555498  0.3822069711204643   T   T   T
  0.7518692446703160  0.0527682414975618  0.3824684655344964   T   T   T
  0.7514230371147090  0.5684812855544398  0.3871587078208917   T   T   T
  0.2388301670217766  0.8129214230912515  0.4438900333826002   T   T   T
  0.8074816528115681  0.3265762687589185  0.4355552471134208   T   T   T
  0.7424522289510248  0.8066236982151163  0.4510981107374072   T   T   T
  0.0124881177225826  0.0809520615606661  0.4582122578902533   T   T   T
  0.0423965217295557  0.5668022830416395  0.4738333744757098   T   T   T
  0.5029040966634465  0.1033017710093372  0.4579965769990270   T   T   T
  0.4939160912612571  0.4759491798674332  0.4749777309441670   T   T   T
 
  0.00000000E+00  0.00000000E+00  0.00000000E+00
  0.00000000E+00  0.00000000E+00  0.00000000E+00
  0.00000000E+00  0.00000000E+00  0.00000000E+00
  0.00000000E+00  0.00000000E+00  0.00000000E+00
  0.00000000E+00  0.00000000E+00  0.00000000E+00
  0.00000000E+00  0.00000000E+00  0.00000000E+00
  0.00000000E+00  0.00000000E+00  0.00000000E+00
  0.00000000E+00  0.00000000E+00  0.00000000E+00
  0.00000000E+00  0.00000000E+00  0.00000000E+00
  0.00000000E+00  0.00000000E+00  0.00000000E+00
  0.00000000E+00  0.00000000E+00  0.00000000E+00
  0.00000000E+00  0.00000000E+00  0.00000000E+00
  0.00000000E+00  0.00000000E+00  0.00000000E+00
  0.00000000E+00  0.00000000E+00  0.00000000E+00
  0.00000000E+00  0.00000000E+00  0.00000000E+00
  0.00000000E+00  0.00000000E+00  0.00000000E+00
  0.00000000E+00  0.00000000E+00  0.00000000E+00
  0.00000000E+00  0.00000000E+00  0.00000000E+00
  0.00000000E+00  0.00000000E+00  0.00000000E+00
  0.00000000E+00  0.00000000E+00  0.00000000E+00
  0.00000000E+00  0.00000000E+00  0.00000000E+00
  0.00000000E+00  0.00000000E+00  0.00000000E+00
  0.00000000E+00  0.00000000E+00  0.00000000E+00
  0.00000000E+00  0.00000000E+00  0.00000000E+00
  0.00000000E+00  0.00000000E+00  0.00000000E+00
  0.00000000E+00  0.00000000E+00  0.00000000E+00
  0.00000000E+00  0.00000000E+00  0.00000000E+00
  0.00000000E+00  0.00000000E+00  0.00000000E+00
  0.00000000E+00  0.00000000E+00  0.00000000E+00
  0.00000000E+00  0.00000000E+00  0.00000000E+00
  0.00000000E+00  0.00000000E+00  0.00000000E+00
  0.00000000E+00  0.00000000E+00  0.00000000E+00
  0.00000000E+00  0.00000000E+00  0.00000000E+00
  0.00000000E+00  0.00000000E+00  0.00000000E+00
  0.00000000E+00  0.00000000E+00  0.00000000E+00
  0.00000000E+00  0.00000000E+00  0.00000000E+00
  0.00000000E+00  0.00000000E+00  0.00000000E+00
  0.00000000E+00  0.00000000E+00  0.00000000E+00
  0.00000000E+00  0.00000000E+00  0.00000000E+00
  0.00000000E+00  0.00000000E+00  0.00000000E+00
  0.00000000E+00  0.00000000E+00  0.00000000E+00
  0.00000000E+00  0.00000000E+00  0.00000000E+00
  0.00000000E+00  0.00000000E+00  0.00000000E+00
  0.00000000E+00  0.00000000E+00  0.00000000E+00
  0.00000000E+00  0.00000000E+00  0.00000000E+00
  0.00000000E+00  0.00000000E+00  0.00000000E+00
  0.00000000E+00  0.00000000E+00  0.00000000E+00
  0.00000000E+00  0.00000000E+00  0.00000000E+00
  0.00000000E+00  0.00000000E+00  0.00000000E+00
  0.00000000E+00  0.00000000E+00  0.00000000E+00
  0.00000000E+00  0.00000000E+00  0.00000000E+00
  0.00000000E+00  0.00000000E+00  0.00000000E+00
  0.00000000E+00  0.00000000E+00  0.00000000E+00
  0.00000000E+00  0.00000000E+00  0.00000000E+00
  0.00000000E+00  0.00000000E+00  0.00000000E+00
  0.00000000E+00  0.00000000E+00  0.00000000E+00
  0.00000000E+00  0.00000000E+00  0.00000000E+00
  0.00000000E+00  0.00000000E+00  0.00000000E+00
  0.00000000E+00  0.00000000E+00  0.00000000E+00
  0.00000000E+00  0.00000000E+00  0.00000000E+00
  0.00000000E+00  0.00000000E+00  0.00000000E+00
  0.00000000E+00  0.00000000E+00  0.00000000E+00
  0.00000000E+00  0.00000000E+00  0.00000000E+00
  0.00000000E+00  0.00000000E+00  0.00000000E+00
  0.00000000E+00  0.00000000E+00  0.00000000E+00
  0.00000000E+00  0.00000000E+00  0.00000000E+00
  0.00000000E+00  0.00000000E+00  0.00000000E+00
  0.00000000E+00  0.00000000E+00  0.00000000E+00
  0.00000000E+00  0.00000000E+00  0.00000000E+00
  0.00000000E+00  0.00000000E+00  0.00000000E+00
  0.00000000E+00  0.00000000E+00  0.00000000E+00
  0.00000000E+00  0.00000000E+00  0.00000000E+00
  0.00000000E+00  0.00000000E+00  0.00000000E+00
  0.00000000E+00  0.00000000E+00  0.00000000E+00
  0.00000000E+00  0.00000000E+00  0.00000000E+00
  0.00000000E+00  0.00000000E+00  0.00000000E+00
  0.00000000E+00  0.00000000E+00  0.00000000E+00
  0.00000000E+00  0.00000000E+00  0.00000000E+00
  0.00000000E+00  0.00000000E+00  0.00000000E+00
  0.00000000E+00  0.00000000E+00  0.00000000E+00
  0.00000000E+00  0.00000000E+00  0.00000000E+00
