B Ni O Zn                               
   1.00000000000000     
     6.5625568183449996    0.0000000000000000    0.0000000000000000
     0.0000000000000000   10.5156600000000005    0.0000000000000000
     0.0000000000000000    0.0000000000000000   32.0500282661819966
   B    Ni   O    Zn
     1     1    40    39
Selective dynamics
Direct
  0.2499997575899968  0.3133266328572787  0.4369743466466915   T   T   T
  0.2500001212049980  0.6972254668245863  0.5039750455058413   T   T   T
  0.2499987879510002  0.0013038331663565  0.0888086323466955   T   T   T
  0.2499987879510002  0.5004150681348289  0.0885321964060583   T   T   T
  0.7499987879510002  0.0011022907902811  0.0886834725668266   T   T   T
  0.7499987879510002  0.5008914032835597  0.0885403700055102   T   T   T
  0.9996472756582204  0.2473389868664860  0.1197080451563016   T   T   T
  0.0001020288168356  0.7474111150314547  0.1192821274971880   T   T   T
  0.5003496166437802  0.2473389868664860  0.1197080451563016   T   T   T
  0.4998948634851579  0.7474111150314547  0.1192821274971880   T   T   T
  0.9999605948104788  0.9973899393078055  0.1770083783436654   T   T   T
  0.0005475013617061  0.4972094674258143  0.1767220739354415   T   T   T
  0.5000374659115279  0.9973899393078055  0.1770083783436654   T   T   T
  0.4994505593602936  0.4972094674258143  0.1767220739354415   T   T   T
  0.2499986885609999  0.2461659596788608  0.2085865668327687   T   T   T
  0.2499986885609999  0.7462794111087150  0.2083845126752707   T   T   T
  0.7499986885609999  0.2460584674645382  0.2089529046657330   T   T   T
  0.7499986885609999  0.7462385271238569  0.2081151711069322   T   T   T
  0.2499992727709994  0.9970756809454576  0.2662996190797388   T   T   T
  0.2499992727709994  0.4983858837135925  0.2663667061835587   T   T   T
  0.7499992727709994  0.9981864211852063  0.2664165656889963   T   T   T
  0.7499992727709994  0.4963078896094014  0.2654497885581094   T   T   T
  0.0025838920247048  0.2477414087367988  0.2979877136572823   T   T   T
 -0.0014276718239729  0.7484150683148946  0.2971531929035029   T   T   T
  0.4974139699172943  0.2477414087367988  0.2979877136572823   T   T   T
  0.5014255337659721  0.7484150683148946  0.2971531929035029   T   T   T
  0.0031584585304479  0.9996818216036751  0.3555150569575217   T   T   T
  0.9912975914597972  0.4998532816513458  0.3546281359549970   T   T   T
  0.4968405718295466  0.9996818216036751  0.3555150569575217   T   T   T
  0.5087014389002043  0.4998532816513458  0.3546281359549970   T   T   T
  0.2499991733809992  0.2616056167620834  0.3911985065928341   T   T   T
  0.2499991733809992  0.7429750698244735  0.3842988730997737   T   T   T
  0.7499991733809992  0.2430795374661149  0.3841680134162588   T   T   T
  0.7499991733809992  0.7580884138137746  0.3891019925390827   T   T   T
  0.2499997575899968  0.0006111823874599  0.4430669406476845   T   T   T
  0.2499997575899968  0.4579257067508745  0.4358585528346958   T   T   T
  0.7499997575899968  0.0072818172898054  0.4482693245243756   T   T   T
  0.7499997575899968  0.5020858203784047  0.4459068937226978   T   T   T
  0.0570502267747795  0.2725298976241596  0.4582874430423843   T   T   T
  0.0038002694611642  0.7409092314123894  0.4753245731373124   T   T   T
  0.4429486048052217  0.2725298976241596  0.4582874430423843   T   T   T
  0.4961985621188367  0.7409092314123894  0.4753245731373124   T   T   T
  0.2499987879510002  0.3262512766211651  0.1000923134049989   T   T   T
  0.2499987879510002  0.8266813477741539  0.0995692988859987   T   T   T
  0.7499987879510002  0.3265931536603280  0.0998595848240848   T   T   T
  0.7499987879510002  0.8265201023318250  0.0996102766845876   T   T   T
  0.9998045008888314  0.0580052811295156  0.1146647909120684   T   T   T
  0.0001885948129672  0.5579329047325523  0.1143391992731259   T   T   T
  0.5001923914131692  0.0580052811295156  0.1146647909120684   T   T   T
  0.4998082974890333  0.5579329047325523  0.1143391992731259   T   T   T
  0.9995070491375808  0.3081922135808606  0.1802603766420071   T   T   T
  0.0003482220436459  0.8082891269284194  0.1798651716863895   T   T   T
  0.5004910115844188  0.3081922135808606  0.1802603766420071   T   T   T
  0.4996498386783536  0.8082891269284194  0.1798651716863895   T   T   T
  0.2499986885609999  0.0550083535221049  0.2059942151471104   T   T   T
  0.2499986885609999  0.5552423026611923  0.2058330237436672   T   T   T
  0.7499986885609999  0.0551685200580884  0.2059235764181049   T   T   T
  0.7499986885609999  0.5551184046757410  0.2053705581167452   T   T   T
  0.2499992727709994  0.3082830878523676  0.2671800271823896   T   T   T
  0.2499992727709994  0.8066271148641451  0.2673547149691855   T   T   T
  0.7499992727709994  0.3062173817631705  0.2679157529305861   T   T   T
  0.7499992727709994  0.8078298876370129  0.2667943310865880   T   T   T
  0.0004427362535143  0.0572443587952646  0.2949830094332420   T   T   T
  0.9974205136402274  0.5580756908286061  0.2944881083451832   T   T   T
  0.4995551256884849  0.0572443587952646  0.2949830094332420   T   T   T
  0.5025773483017717  0.5580756908286061  0.2944881083451832   T   T   T
  0.9983868200240541  0.3104621832069472  0.3561000540979765   T   T   T
 -0.0025353670357534  0.8076803237478599  0.3558911354234217   T   T   T
  0.5016122103359403  0.3104621832069472  0.3561000540979765   T   T   T
  0.5025343973957547  0.8076803237478599  0.3558911354234217   T   T   T
  0.2499991733809992  0.0668196594293040  0.3822958559645666   T   T   T
  0.2499991733809992  0.5542516748969708  0.3801975763076023   T   T   T
  0.7499991733809992  0.0526972238957843  0.3833438915978611   T   T   T
  0.7499991733809992  0.5691376150229333  0.3847068222043412   T   T   T
  0.2499997575899968  0.8143904982225345  0.4405824511167931   T   T   T
  0.7499997575899968  0.3176987981485801  0.4403944946635110   T   T   T
  0.7499997575899968  0.8105480506890420  0.4515185657098635   T   T   T
  0.0067418358865713  0.0930743461121597  0.4593896020033807   T   T   T
  0.0204581497445321  0.5504131475715216  0.4674816570592626   T   T   T
  0.4932569956934297  0.0930743461121597  0.4593896020033807   T   T   T
  0.4795406818354689  0.5504131475715216  0.4674816570592626   T   T   T
 
  0.00000000E+00  0.00000000E+00  0.00000000E+00
  0.00000000E+00  0.00000000E+00  0.00000000E+00
  0.00000000E+00  0.00000000E+00  0.00000000E+00
  0.00000000E+00  0.00000000E+00  0.00000000E+00
  0.00000000E+00  0.00000000E+00  0.00000000E+00
  0.00000000E+00  0.00000000E+00  0.00000000E+00
  0.00000000E+00  0.00000000E+00  0.00000000E+00
  0.00000000E+00  0.00000000E+00  0.00000000E+00
  0.00000000E+00  0.00000000E+00  0.00000000E+00
  0.00000000E+00  0.00000000E+00  0.00000000E+00
  0.00000000E+00  0.00000000E+00  0.00000000E+00
  0.00000000E+00  0.00000000E+00  0.00000000E+00
  0.00000000E+00  0.00000000E+00  0.00000000E+00
  0.00000000E+00  0.00000000E+00  0.00000000E+00
  0.00000000E+00  0.00000000E+00  0.00000000E+00
  0.00000000E+00  0.00000000E+00  0.00000000E+00
  0.00000000E+00  0.00000000E+00  0.00000000E+00
  0.00000000E+00  0.00000000E+00  0.00000000E+00
  0.00000000E+00  0.00000000E+00  0.00000000E+00
  0.00000000E+00  0.00000000E+00  0.00000000E+00
  0.00000000E+00  0.00000000E+00  0.00000000E+00
  0.00000000E+00  0.00000000E+00  0.00000000E+00
  0.00000000E+00  0.00000000E+00  0.00000000E+00
  0.00000000E+00  0.00000000E+00  0.00000000E+00
  0.00000000E+00  0.00000000E+00  0.00000000E+00
  0.00000000E+00  0.00000000E+00  0.00000000E+00
  0.00000000E+00  0.00000000E+00  0.00000000E+00
  0.00000000E+00  0.00000000E+00  0.00000000E+00
  0.00000000E+00  0.00000000E+00  0.00000000E+00
  0.00000000E+00  0.00000000E+00  0.00000000E+00
  0.00000000E+00  0.00000000E+00  0.00000000E+00
  0.00000000E+00  0.00000000E+00  0.00000000E+00
  0.00000000E+00  0.00000000E+00  0.00000000E+00
  0.00000000E+00  0.00000000E+00  0.00000000E+00
  0.00000000E+00  0.00000000E+00  0.00000000E+00
  0.00000000E+00  0.00000000E+00  0.00000000E+00
  0.00000000E+00  0.00000000E+00  0.00000000E+00
  0.00000000E+00  0.00000000E+00  0.00000000E+00
  0.00000000E+00  0.00000000E+00  0.00000000E+00
  0.00000000E+00  0.00000000E+00  0.00000000E+00
  0.00000000E+00  0.00000000E+00  0.00000000E+00
  0.00000000E+00  0.00000000E+00  0.00000000E+00
  0.00000000E+00  0.00000000E+00  0.00000000E+00
  0.00000000E+00  0.00000000E+00  0.00000000E+00
  0.00000000E+00  0.00000000E+00  0.00000000E+00
  0.00000000E+00  0.00000000E+00  0.00000000E+00
  0.00000000E+00  0.00000000E+00  0.00000000E+00
  0.00000000E+00  0.00000000E+00  0.00000000E+00
  0.00000000E+00  0.00000000E+00  0.00000000E+00
  0.00000000E+00  0.00000000E+00  0.00000000E+00
  0.00000000E+00  0.00000000E+00  0.00000000E+00
  0.00000000E+00  0.00000000E+00  0.00000000E+00
  0.00000000E+00  0.00000000E+00  0.00000000E+00
  0.00000000E+00  0.00000000E+00  0.00000000E+00
  0.00000000E+00  0.00000000E+00  0.00000000E+00
  0.00000000E+00  0.00000000E+00  0.00000000E+00
  0.00000000E+00  0.00000000E+00  0.00000000E+00
  0.00000000E+00  0.00000000E+00  0.00000000E+00
  0.00000000E+00  0.00000000E+00  0.00000000E+00
  0.00000000E+00  0.00000000E+00  0.00000000E+00
  0.00000000E+00  0.00000000E+00  0.00000000E+00
  0.00000000E+00  0.00000000E+00  0.00000000E+00
  0.00000000E+00  0.00000000E+00  0.00000000E+00
  0.00000000E+00  0.00000000E+00  0.00000000E+00
  0.00000000E+00  0.00000000E+00  0.00000000E+00
  0.00000000E+00  0.00000000E+00  0.00000000E+00
  0.00000000E+00  0.00000000E+00  0.00000000E+00
  0.00000000E+00  0.00000000E+00  0.00000000E+00
  0.00000000E+00  0.00000000E+00  0.00000000E+00
  0.00000000E+00  0.00000000E+00  0.00000000E+00
  0.00000000E+00  0.00000000E+00  0.00000000E+00
  0.00000000E+00  0.00000000E+00  0.00000000E+00
  0.00000000E+00  0.00000000E+00  0.00000000E+00
  0.00000000E+00  0.00000000E+00  0.00000000E+00
  0.00000000E+00  0.00000000E+00  0.00000000E+00
  0.00000000E+00  0.00000000E+00  0.00000000E+00
  0.00000000E+00  0.00000000E+00  0.00000000E+00
  0.00000000E+00  0.00000000E+00  0.00000000E+00
  0.00000000E+00  0.00000000E+00  0.00000000E+00
  0.00000000E+00  0.00000000E+00  0.00000000E+00
  0.00000000E+00  0.00000000E+00  0.00000000E+00
