Pd B O Zn                               
   1.00000000000000     
     6.5625568183449996    0.0000000000000000    0.0000000000000000
     0.0000000000000000   10.5156600000000005    0.0000000000000000
     0.0000000000000000    0.0000000000000000   32.0500282661819966
   Pd   B    O    Zn
     1     1    40    39
Selective dynamics
Direct
  0.5037829154353257  0.8831337789755463  0.5204882497453713   T   T   T
  0.2531808891668321  0.3061292427970921  0.4390133028601432   T   T   T
  0.2499885051530839  0.0013587381641805  0.0887488319972032   T   T   T
  0.2499814816994205  0.5007477035477680  0.0888401077648638   T   T   T
  0.7499865625168329  0.0012335151305351  0.0885774150614382   T   T   T
  0.7499932479161626  0.5011582537527605  0.0887227978046760   T   T   T
  0.9995653891668603  0.2475835523232888  0.1198183230110093   T   T   T
  0.9999345441933118  0.7476417773273600  0.1195679032754711   T   T   T
  0.5004167565892629  0.2475847420104952  0.1198062085092165   T   T   T
  0.5000322658392108  0.7476456088267271  0.1195428447772267   T   T   T
  0.9996193673474720  0.9974602732530830  0.1767608777696102   T   T   T
  0.9999183771426808  0.4976021401127964  0.1768485537998283   T   T   T
  0.5004339564142233  0.9975056351629902  0.1768070203167879   T   T   T
  0.5000624598986637  0.4976294194706662  0.1768762797515363   T   T   T
  0.2499762434532800  0.2465077562020555  0.2082803914132920   T   T   T
  0.2500328937890203  0.7466128795085899  0.2084315071527108   T   T   T
  0.7500259036022188  0.2465363209738267  0.2090582467031377   T   T   T
  0.7499687411883013  0.7465406767105669  0.2086142285550575   T   T   T
  0.2496406806553168  0.9977606541417686  0.2655657493370414   T   T   T
  0.2497902291377823  0.4987714426957379  0.2660333593843068   T   T   T
  0.7507927717011403  0.9986384441445321  0.2659967616459102   T   T   T
  0.7503055108900701  0.4970655108022289  0.2658894721772125   T   T   T
  0.0034812004245096  0.2488118377841112  0.2978533065013519   T   T   T
 -0.0001465866535454  0.7491300277875190  0.2975039092047527   T   T   T
  0.4967700093206191  0.2482958275693405  0.2975155055602688   T   T   T
  0.5002739130570838  0.7491340232072379  0.2974578417558219   T   T   T
  0.0058256286838885  0.0011556595826713  0.3546636778799403   T   T   T
  0.9965086667795263  0.4992622887407268  0.3546684283198802   T   T   T
  0.4963661535754378  0.0000188859084409  0.3541046842646674   T   T   T
  0.5048537344705831  0.4990507552050338  0.3542343874027768   T   T   T
  0.2519208083181733  0.2646153939991572  0.3919437653249349   T   T   T
  0.2507941236156693  0.7434900866745504  0.3860634158036705   T   T   T
  0.7504492028796192  0.2438587909686604  0.3827943257384798   T   T   T
  0.7503765304655450  0.7560496290157855  0.3871949140497485   T   T   T
  0.2454678655865550  0.9962917685420067  0.4406006114854727   T   T   T
  0.2570300968802581  0.4584275889597663  0.4400846904536758   T   T   T
  0.7517155082567365  0.0102574942061853  0.4444088354000146   T   T   T
  0.7468454061496693  0.4912562561693448  0.4425032394184142   T   T   T
  0.0569939678758456  0.2692915320579471  0.4584785183242417   T   T   T
  0.0023766282557833  0.7296028797622202  0.4713769654242695   T   T   T
  0.4421673398298410  0.2577215163431540  0.4588454942603339   T   T   T
  0.4969099509695365  0.7397244575812196  0.4719228527287991   T   T   T
  0.2499736837696525  0.3265771718020457  0.1003781087523846   T   T   T
  0.2499536868286522  0.8270125639937691  0.1000467696438788   T   T   T
  0.7500075973689422  0.3269403616416107  0.1000934522540814   T   T   T
  0.7500114878590082  0.8269322927270993  0.0999513500667116   T   T   T
  0.9997402298976908  0.0581980851483510  0.1146294130837029   T   T   T
  0.9999976202993611  0.5581985122579551  0.1146349061820888   T   T   T
  0.5002333240494377  0.0581849943248093  0.1146295007227908   T   T   T
  0.4999748638100062  0.5581815686140082  0.1146318489677494   T   T   T
  0.9990449430303857  0.3086953245200629  0.1804627683687676   T   T   T
  0.9997684604006210  0.8084664866381341  0.1803027250764113   T   T   T
  0.5009384548613207  0.3086979661755146  0.1804631453252238   T   T   T
  0.5002267134085859  0.8084722033158883  0.1802735976249904   T   T   T
  0.2498954854208484  0.0552359075848664  0.2056927041278176   T   T   T
  0.2499078607985847  0.5557550223427307  0.2058105033186163   T   T   T
  0.7501682293920965  0.0553991721238215  0.2059265567900455   T   T   T
  0.7500612726701998  0.5554948346288697  0.2059099088916350   T   T   T
  0.2496853313299315  0.3086367277259512  0.2670262151220655   T   T   T
  0.2500251089070652  0.8075171536692781  0.2676027949030985   T   T   T
  0.7504653775221175  0.3067956010599629  0.2682823863235667   T   T   T
  0.7500756771070650  0.8082697571975240  0.2677209590293819   T   T   T
  0.0011296410045773  0.0579540953463867  0.2949636567073581   T   T   T
  0.9989975157216726  0.5592251682974269  0.2946957868868206   T   T   T
  0.4993290879691896  0.0575431220733157  0.2944187648874282   T   T   T
  0.5010663489804216  0.5592793672976065  0.2944491121938772   T   T   T
  0.0015946691722533  0.3095172489147356  0.3566585307330115   T   T   T
  0.0030899542370884  0.8096075326014596  0.3568756091524522   T   T   T
  0.5000609887987980  0.3094321546683413  0.3560212430023683   T   T   T
  0.4980399725201522  0.8086181381787103  0.3570021404238484   T   T   T
  0.2544356539642902  0.0665228429791758  0.3829861729163136   T   T   T
  0.2513543477840255  0.5565273040537438  0.3807804919128946   T   T   T
  0.7485237567550871  0.0533644868341855  0.3825506460380093   T   T   T
  0.7499302709570096  0.5684188254601049  0.3824092981580933   T   T   T
  0.2400299774341330  0.8093063834566768  0.4468719497524171   T   T   T
  0.7348444260988495  0.3053282698379955  0.4406664221977357   T   T   T
  0.7592377604103656  0.8149448486056755  0.4497189002437162   T   T   T
  0.0077729614971862  0.0890080633882379  0.4587915687432620   T   T   T
  0.0125123306677648  0.5548030814407716  0.4596265827792218   T   T   T
  0.4832630076526382  0.0714089828562722  0.4718819705831792   T   T   T
  0.4901489462740715  0.5616787588782615  0.4613790666934429   T   T   T
 
  0.00000000E+00  0.00000000E+00  0.00000000E+00
  0.00000000E+00  0.00000000E+00  0.00000000E+00
  0.00000000E+00  0.00000000E+00  0.00000000E+00
  0.00000000E+00  0.00000000E+00  0.00000000E+00
  0.00000000E+00  0.00000000E+00  0.00000000E+00
  0.00000000E+00  0.00000000E+00  0.00000000E+00
  0.00000000E+00  0.00000000E+00  0.00000000E+00
  0.00000000E+00  0.00000000E+00  0.00000000E+00
  0.00000000E+00  0.00000000E+00  0.00000000E+00
  0.00000000E+00  0.00000000E+00  0.00000000E+00
  0.00000000E+00  0.00000000E+00  0.00000000E+00
  0.00000000E+00  0.00000000E+00  0.00000000E+00
  0.00000000E+00  0.00000000E+00  0.00000000E+00
  0.00000000E+00  0.00000000E+00  0.00000000E+00
  0.00000000E+00  0.00000000E+00  0.00000000E+00
  0.00000000E+00  0.00000000E+00  0.00000000E+00
  0.00000000E+00  0.00000000E+00  0.00000000E+00
  0.00000000E+00  0.00000000E+00  0.00000000E+00
  0.00000000E+00  0.00000000E+00  0.00000000E+00
  0.00000000E+00  0.00000000E+00  0.00000000E+00
  0.00000000E+00  0.00000000E+00  0.00000000E+00
  0.00000000E+00  0.00000000E+00  0.00000000E+00
  0.00000000E+00  0.00000000E+00  0.00000000E+00
  0.00000000E+00  0.00000000E+00  0.00000000E+00
  0.00000000E+00  0.00000000E+00  0.00000000E+00
  0.00000000E+00  0.00000000E+00  0.00000000E+00
  0.00000000E+00  0.00000000E+00  0.00000000E+00
  0.00000000E+00  0.00000000E+00  0.00000000E+00
  0.00000000E+00  0.00000000E+00  0.00000000E+00
  0.00000000E+00  0.00000000E+00  0.00000000E+00
  0.00000000E+00  0.00000000E+00  0.00000000E+00
  0.00000000E+00  0.00000000E+00  0.00000000E+00
  0.00000000E+00  0.00000000E+00  0.00000000E+00
  0.00000000E+00  0.00000000E+00  0.00000000E+00
  0.00000000E+00  0.00000000E+00  0.00000000E+00
  0.00000000E+00  0.00000000E+00  0.00000000E+00
  0.00000000E+00  0.00000000E+00  0.00000000E+00
  0.00000000E+00  0.00000000E+00  0.00000000E+00
  0.00000000E+00  0.00000000E+00  0.00000000E+00
  0.00000000E+00  0.00000000E+00  0.00000000E+00
  0.00000000E+00  0.00000000E+00  0.00000000E+00
  0.00000000E+00  0.00000000E+00  0.00000000E+00
  0.00000000E+00  0.00000000E+00  0.00000000E+00
  0.00000000E+00  0.00000000E+00  0.00000000E+00
  0.00000000E+00  0.00000000E+00  0.00000000E+00
  0.00000000E+00  0.00000000E+00  0.00000000E+00
  0.00000000E+00  0.00000000E+00  0.00000000E+00
  0.00000000E+00  0.00000000E+00  0.00000000E+00
  0.00000000E+00  0.00000000E+00  0.00000000E+00
  0.00000000E+00  0.00000000E+00  0.00000000E+00
  0.00000000E+00  0.00000000E+00  0.00000000E+00
  0.00000000E+00  0.00000000E+00  0.00000000E+00
  0.00000000E+00  0.00000000E+00  0.00000000E+00
  0.00000000E+00  0.00000000E+00  0.00000000E+00
  0.00000000E+00  0.00000000E+00  0.00000000E+00
  0.00000000E+00  0.00000000E+00  0.00000000E+00
  0.00000000E+00  0.00000000E+00  0.00000000E+00
  0.00000000E+00  0.00000000E+00  0.00000000E+00
  0.00000000E+00  0.00000000E+00  0.00000000E+00
  0.00000000E+00  0.00000000E+00  0.00000000E+00
  0.00000000E+00  0.00000000E+00  0.00000000E+00
  0.00000000E+00  0.00000000E+00  0.00000000E+00
  0.00000000E+00  0.00000000E+00  0.00000000E+00
  0.00000000E+00  0.00000000E+00  0.00000000E+00
  0.00000000E+00  0.00000000E+00  0.00000000E+00
  0.00000000E+00  0.00000000E+00  0.00000000E+00
  0.00000000E+00  0.00000000E+00  0.00000000E+00
  0.00000000E+00  0.00000000E+00  0.00000000E+00
  0.00000000E+00  0.00000000E+00  0.00000000E+00
  0.00000000E+00  0.00000000E+00  0.00000000E+00
  0.00000000E+00  0.00000000E+00  0.00000000E+00
  0.00000000E+00  0.00000000E+00  0.00000000E+00
  0.00000000E+00  0.00000000E+00  0.00000000E+00
  0.00000000E+00  0.00000000E+00  0.00000000E+00
  0.00000000E+00  0.00000000E+00  0.00000000E+00
  0.00000000E+00  0.00000000E+00  0.00000000E+00
  0.00000000E+00  0.00000000E+00  0.00000000E+00
  0.00000000E+00  0.00000000E+00  0.00000000E+00
  0.00000000E+00  0.00000000E+00  0.00000000E+00
  0.00000000E+00  0.00000000E+00  0.00000000E+00
  0.00000000E+00  0.00000000E+00  0.00000000E+00
