B Ir O Zn                               
   1.00000000000000     
     6.5625568183449996    0.0000000000000000    0.0000000000000000
     0.0000000000000000   10.5156600000000005    0.0000000000000000
     0.0000000000000000    0.0000000000000000   32.0500282661819966
   B    Ir   O    Zn
     1     1    40    39
Selective dynamics
Direct
  0.2499997575899968  0.3147654997122730  0.4389777034137514   T   T   T
  0.7499973160219966  0.7217062001940252  0.4987794408726339   T   T   T
  0.2499987879510002  0.0008453838440638  0.0889645573650630   T   T   T
  0.2499987879510002  0.5002520762285486  0.0885913985775410   T   T   T
  0.7499987879510002  0.0013195898112548  0.0881579230620907   T   T   T
  0.7499987879510002  0.5007300140307009  0.0878565484398856   T   T   T
  0.9991193583605569  0.2472627496428252  0.1194103391976597   T   T   T
  0.9990152694762815  0.7472003148616461  0.1190406841121591   T   T   T
  0.5008775339414437  0.2472627496428252  0.1194103391976597   T   T   T
  0.5009816228257120  0.7472003148616461  0.1190406841121591   T   T   T
  0.9980849230346014  0.9974575461660923  0.1768202667674545   T   T   T
  0.9984161398126095  0.4972786382341630  0.1763403068280727   T   T   T
  0.5019131376874053  0.9974575461660923  0.1768202667674545   T   T   T
  0.5015819209093901  0.4972786382341630  0.1763403068280727   T   T   T
  0.2499986885609999  0.2466135312421842  0.2075247335069421   T   T   T
  0.2499986885609999  0.7464905154211413  0.2070960843113694   T   T   T
  0.7499986885609999  0.2465136114137368  0.2092321807218464   T   T   T
  0.7499986885609999  0.7470711912469162  0.2092155323659730   T   T   T
  0.2499992727709994  0.9988120081387989  0.2650514041596155   T   T   T
  0.2499992727709994  0.4987443633317575  0.2646179234041136   T   T   T
  0.7499992727709994  0.9992602196741404  0.2671085825152353   T   T   T
  0.7499992727709994  0.4981465297430690  0.2658767437760057   T   T   T
  0.0047344702393655  0.2495024472240377  0.2975079792413375   T   T   T
  0.0047385442658553  0.7505002576058473  0.2971691627948760   T   T   T
  0.4952633917026337  0.2495024472240377  0.2975079792413375   T   T   T
  0.4952593176761438  0.7505002576058473  0.2971691627948760   T   T   T
  0.0106269753296343  0.0009404752752950  0.3552684114969936   T   T   T
  0.0031723850131170  0.5038756095662011  0.3534642165722834   T   T   T
  0.4893720550303600  0.0009404752752950  0.3552684114969936   T   T   T
  0.4968266453468844  0.5038756095662011  0.3534642165722834   T   T   T
  0.2499991733809992  0.2648282851192801  0.3930175982673045   T   T   T
  0.2499991733809992  0.7477857007171856  0.3931514056415952   T   T   T
  0.7499991733809992  0.2491739330034678  0.3801399359370995   T   T   T
  0.7499991733809992  0.7572212818935171  0.3813600402531265   T   T   T
  0.2499997575899968  0.9891363704168764  0.4477384958068129   T   T   T
  0.2499997575899968  0.4624598662923919  0.4400947269350985   T   T   T
  0.7499997575899968  0.0275372238766941  0.4424212598439601   T   T   T
  0.7499997575899968  0.4875952611762542  0.4368583850541557   T   T   T
  0.0570772290146370  0.2731777560320863  0.4596961924060499   T   T   T
  0.0465273347069413  0.7073723301513810  0.4920501436357235   T   T   T
  0.4429216025653642  0.2731777560320863  0.4596961924060499   T   T   T
  0.4534714968730596  0.7073723301513810  0.4920501436357235   T   T   T
  0.2499987879510002  0.3259366668972504  0.1000076214401248   T   T   T
  0.2499987879510002  0.8261355812534227  0.0997099991497774   T   T   T
  0.7499987879510002  0.3264930023167645  0.0992997409590898   T   T   T
  0.7499987879510002  0.8267382803460476  0.0989190081691131   T   T   T
  0.9991658999988817  0.0578999467215553  0.1144924281839123   T   T   T
  0.9992908310482209  0.5576550664439804  0.1140379970534190   T   T   T
  0.5008309923031189  0.0578999467215553  0.1144924281839123   T   T   T
  0.5007060612537797  0.5576550664439804  0.1140379970534190   T   T   T
  0.9977680151557101  0.3082366212152336  0.1799084756296151   T   T   T
  0.9974690471840664  0.8083655404595046  0.1796152645471116   T   T   T
  0.5022300455662895  0.3082366212152336  0.1799084756296151   T   T   T
  0.5025290135379332  0.8083655404595046  0.1796152645471116   T   T   T
  0.2499986885609999  0.0557394082802581  0.2048290851324893   T   T   T
  0.2499986885609999  0.5555976249828769  0.2044024145844330   T   T   T
  0.7499986885609999  0.0554124707367879  0.2064936829313270   T   T   T
  0.7499986885609999  0.5559511682158274  0.2056204757501454   T   T   T
  0.2499992727709994  0.3088532776305625  0.2659857937386392   T   T   T
  0.2499992727709994  0.8090389276385000  0.2654615918018227   T   T   T
  0.7499992727709994  0.3077041364246285  0.2682401986498208   T   T   T
  0.7499992727709994  0.8088653420002154  0.2683423698229532   T   T   T
  0.0038693181317923  0.0591208234062430  0.2946104782192940   T   T   T
  0.0018225102428603  0.5603556317673206  0.2932962097262636   T   T   T
  0.4961285438102068  0.0591208234062430  0.2946104782192940   T   T   T
  0.4981753516991317  0.5603556317673206  0.2932962097262636   T   T   T
  0.0062627996828122  0.3146795527299490  0.3554720825162188   T   T   T
  0.0175169872613590  0.8093038079440609  0.3559335996627438   T   T   T
  0.4937362306771821  0.3146795527299490  0.3554720825162188   T   T   T
  0.4824820430986423  0.8093038079440609  0.3559335996627438   T   T   T
  0.2499991733809992  0.0637025140456811  0.3861457689703138   T   T   T
  0.2499991733809992  0.5608242229469065  0.3830036849251933   T   T   T
  0.7499991733809992  0.0625565884532028  0.3776666916751185   T   T   T
  0.7499991733809992  0.5671184033632082  0.3798345262897145   T   T   T
  0.2499997575899968  0.8001817723317826  0.4569854906930571   T   T   T
  0.7499997575899968  0.3036945031843730  0.4386381684571355   T   T   T
  0.7499997575899968  0.8385336187976324  0.4354510290296993   T   T   T
  0.0129193677442766  0.0917832270142997  0.4623143108367800   T   T   T
  0.9983467394688493  0.5429762856801780  0.4656593337364463   T   T   T
  0.4870794638357245  0.0917832270142997  0.4623143108367800   T   T   T
  0.5016520921111517  0.5429762856801780  0.4656593337364463   T   T   T
 
  0.00000000E+00  0.00000000E+00  0.00000000E+00
  0.00000000E+00  0.00000000E+00  0.00000000E+00
  0.00000000E+00  0.00000000E+00  0.00000000E+00
  0.00000000E+00  0.00000000E+00  0.00000000E+00
  0.00000000E+00  0.00000000E+00  0.00000000E+00
  0.00000000E+00  0.00000000E+00  0.00000000E+00
  0.00000000E+00  0.00000000E+00  0.00000000E+00
  0.00000000E+00  0.00000000E+00  0.00000000E+00
  0.00000000E+00  0.00000000E+00  0.00000000E+00
  0.00000000E+00  0.00000000E+00  0.00000000E+00
  0.00000000E+00  0.00000000E+00  0.00000000E+00
  0.00000000E+00  0.00000000E+00  0.00000000E+00
  0.00000000E+00  0.00000000E+00  0.00000000E+00
  0.00000000E+00  0.00000000E+00  0.00000000E+00
  0.00000000E+00  0.00000000E+00  0.00000000E+00
  0.00000000E+00  0.00000000E+00  0.00000000E+00
  0.00000000E+00  0.00000000E+00  0.00000000E+00
  0.00000000E+00  0.00000000E+00  0.00000000E+00
  0.00000000E+00  0.00000000E+00  0.00000000E+00
  0.00000000E+00  0.00000000E+00  0.00000000E+00
  0.00000000E+00  0.00000000E+00  0.00000000E+00
  0.00000000E+00  0.00000000E+00  0.00000000E+00
  0.00000000E+00  0.00000000E+00  0.00000000E+00
  0.00000000E+00  0.00000000E+00  0.00000000E+00
  0.00000000E+00  0.00000000E+00  0.00000000E+00
  0.00000000E+00  0.00000000E+00  0.00000000E+00
  0.00000000E+00  0.00000000E+00  0.00000000E+00
  0.00000000E+00  0.00000000E+00  0.00000000E+00
  0.00000000E+00  0.00000000E+00  0.00000000E+00
  0.00000000E+00  0.00000000E+00  0.00000000E+00
  0.00000000E+00  0.00000000E+00  0.00000000E+00
  0.00000000E+00  0.00000000E+00  0.00000000E+00
  0.00000000E+00  0.00000000E+00  0.00000000E+00
  0.00000000E+00  0.00000000E+00  0.00000000E+00
  0.00000000E+00  0.00000000E+00  0.00000000E+00
  0.00000000E+00  0.00000000E+00  0.00000000E+00
  0.00000000E+00  0.00000000E+00  0.00000000E+00
  0.00000000E+00  0.00000000E+00  0.00000000E+00
  0.00000000E+00  0.00000000E+00  0.00000000E+00
  0.00000000E+00  0.00000000E+00  0.00000000E+00
  0.00000000E+00  0.00000000E+00  0.00000000E+00
  0.00000000E+00  0.00000000E+00  0.00000000E+00
  0.00000000E+00  0.00000000E+00  0.00000000E+00
  0.00000000E+00  0.00000000E+00  0.00000000E+00
  0.00000000E+00  0.00000000E+00  0.00000000E+00
  0.00000000E+00  0.00000000E+00  0.00000000E+00
  0.00000000E+00  0.00000000E+00  0.00000000E+00
  0.00000000E+00  0.00000000E+00  0.00000000E+00
  0.00000000E+00  0.00000000E+00  0.00000000E+00
  0.00000000E+00  0.00000000E+00  0.00000000E+00
  0.00000000E+00  0.00000000E+00  0.00000000E+00
  0.00000000E+00  0.00000000E+00  0.00000000E+00
  0.00000000E+00  0.00000000E+00  0.00000000E+00
  0.00000000E+00  0.00000000E+00  0.00000000E+00
  0.00000000E+00  0.00000000E+00  0.00000000E+00
  0.00000000E+00  0.00000000E+00  0.00000000E+00
  0.00000000E+00  0.00000000E+00  0.00000000E+00
  0.00000000E+00  0.00000000E+00  0.00000000E+00
  0.00000000E+00  0.00000000E+00  0.00000000E+00
  0.00000000E+00  0.00000000E+00  0.00000000E+00
  0.00000000E+00  0.00000000E+00  0.00000000E+00
  0.00000000E+00  0.00000000E+00  0.00000000E+00
  0.00000000E+00  0.00000000E+00  0.00000000E+00
  0.00000000E+00  0.00000000E+00  0.00000000E+00
  0.00000000E+00  0.00000000E+00  0.00000000E+00
  0.00000000E+00  0.00000000E+00  0.00000000E+00
  0.00000000E+00  0.00000000E+00  0.00000000E+00
  0.00000000E+00  0.00000000E+00  0.00000000E+00
  0.00000000E+00  0.00000000E+00  0.00000000E+00
  0.00000000E+00  0.00000000E+00  0.00000000E+00
  0.00000000E+00  0.00000000E+00  0.00000000E+00
  0.00000000E+00  0.00000000E+00  0.00000000E+00
  0.00000000E+00  0.00000000E+00  0.00000000E+00
  0.00000000E+00  0.00000000E+00  0.00000000E+00
  0.00000000E+00  0.00000000E+00  0.00000000E+00
  0.00000000E+00  0.00000000E+00  0.00000000E+00
  0.00000000E+00  0.00000000E+00  0.00000000E+00
  0.00000000E+00  0.00000000E+00  0.00000000E+00
  0.00000000E+00  0.00000000E+00  0.00000000E+00
  0.00000000E+00  0.00000000E+00  0.00000000E+00
  0.00000000E+00  0.00000000E+00  0.00000000E+00
