B Mn O Zn                               
   1.00000000000000     
     6.5625568183449996    0.0000000000000000    0.0000000000000000
     0.0000000000000000   10.5156600000000005    0.0000000000000000
     0.0000000000000000    0.0000000000000000   32.0500282661819966
   B    Mn   O    Zn
     1     1    40    39
Selective dynamics
Direct
  0.2499997575899968  0.3161106910921057  0.4395032967237102   T   T   T
  0.7499973160219966  0.6981589293075766  0.5142997459450892   T   T   T
  0.2499987879510002  0.0010701469412493  0.0889084567845391   T   T   T
  0.2499987879510002  0.5003707815982988  0.0884196074301968   T   T   T
  0.7499987879510002  0.0012897989584638  0.0883681662276541   T   T   T
  0.7499987879510002  0.5006848385844127  0.0879780014975330   T   T   T
  0.9994093766151195  0.2472765732656278  0.1195472923236238   T   T   T
  0.9994163818221451  0.7473097945312545  0.1191045171059873   T   T   T
  0.5005875156868811  0.2472765732656278  0.1195472923236238   T   T   T
  0.5005805104798484  0.7473097945312545  0.1191045171059873   T   T   T
  0.9987019848260761  0.9973351908014059  0.1769838481162538   T   T   T
  0.9988165332186946  0.4971148186942544  0.1763335675756948   T   T   T
  0.5012960758959306  0.9973351908014059  0.1769838481162538   T   T   T
  0.5011815275033050  0.4971148186942544  0.1763335675756948   T   T   T
  0.2499986885609999  0.2460853975197538  0.2079801607891999   T   T   T
  0.2499986885609999  0.7460963013130810  0.2074557905862210   T   T   T
  0.7499986885609999  0.2460983772241690  0.2092343774369344   T   T   T
  0.7499986885609999  0.7463728784602385  0.2086252600571487   T   T   T
  0.2499992727709994  0.9978458759348485  0.2657373184328259   T   T   T
  0.2499992727709994  0.4975647651146105  0.2648094442922000   T   T   T
  0.7499992727709994  0.9982849936454086  0.2670844696022683   T   T   T
  0.7499992727709994  0.4970939120572888  0.2658735815349799   T   T   T
  0.0038322581370916  0.2482380278200865  0.2979346373296893   T   T   T
  0.0026494447484347  0.7490384488205321  0.2969120216679985   T   T   T
  0.4961656038049075  0.2482380278200865  0.2979346373296893   T   T   T
  0.4973484171935644  0.7490384488205321  0.2969120216679985   T   T   T
  0.0080883353193425  0.0008448970376505  0.3557943129228955   T   T   T
  0.0024717070827753  0.5010499948834174  0.3535941458802940   T   T   T
  0.4919106950406520  0.0008448970376505  0.3557943129228955   T   T   T
  0.4975273232772262  0.5010499948834174  0.3535941458802940   T   T   T
  0.2499991733809992  0.2669092020365931  0.3933620061084120   T   T   T
  0.2499991733809992  0.7462323375764602  0.3896246054133887   T   T   T
  0.7499991733809992  0.2456275361078478  0.3826624692055675   T   T   T
  0.7499991733809992  0.7565820611770567  0.3829212636783587   T   T   T
  0.2499997575899968  0.9948759661849077  0.4459773270559691   T   T   T
  0.2499997575899968  0.4648206544548260  0.4411656217645480   T   T   T
  0.7499997575899968  0.0124514530461358  0.4457963493422221   T   T   T
  0.7499997575899968  0.4988083984186022  0.4379001803966773   T   T   T
  0.0567880161024907  0.2736575447710619  0.4599094511312390   T   T   T
  0.9837586265906568  0.7390241351698652  0.4749941784207715   T   T   T
  0.4432108154775104  0.2736575447710619  0.4599094511312390   T   T   T
  0.5162402049893442  0.7390241351698652  0.4749941784207715   T   T   T
  0.2499987879510002  0.3261636961153599  0.0999969392002898   T   T   T
  0.2499987879510002  0.8264240025526274  0.0997331710936451   T   T   T
  0.7499987879510002  0.3265260710509550  0.0995766405864603   T   T   T
  0.7499987879510002  0.8266279992608886  0.0992341033032521   T   T   T
  0.9994050761014440  0.0578519114887285  0.1146405664302274   T   T   T
  0.9995468746895678  0.5577957134653833  0.1140068581215830   T   T   T
  0.5005918162005637  0.0578519114887285  0.1146405664302274   T   T   T
  0.5004500176124328  0.5577957134653833  0.1140068581215830   T   T   T
  0.9984658533531260  0.3081057852271670  0.1801619722337636   T   T   T
  0.9986026917369099  0.8082854691339092  0.1797197610737785   T   T   T
  0.5015322073688736  0.3081057852271670  0.1801619722337636   T   T   T
  0.5013953689850897  0.8082854691339092  0.1797197610737785   T   T   T
  0.2499986885609999  0.0552361290493938  0.2054519191936003   T   T   T
  0.2499986885609999  0.5551352537457952  0.2047166420697546   T   T   T
  0.7499986885609999  0.0550255010737021  0.2065632784834505   T   T   T
  0.7499986885609999  0.5551788341060531  0.2056926954473197   T   T   T
  0.2499992727709994  0.3077540772058010  0.2666087953591671   T   T   T
  0.2499992727709994  0.8077760050129608  0.2660554597819716   T   T   T
  0.7499992727709994  0.3068093229722061  0.2682890689851265   T   T   T
  0.7499992727709994  0.8078132959295347  0.2676465499611007   T   T   T
  0.0024028550802683  0.0579761713944645  0.2950484562851733   T   T   T
  0.0016726432097440  0.5585992922080668  0.2936832779496757   T   T   T
  0.4975950068617309  0.0579761713944645  0.2950484562851733   T   T   T
  0.4983252187322552  0.5585992922080668  0.2936832779496757   T   T   T
  0.0032491500833894  0.3121205049583440  0.3560318571568133   T   T   T
  0.0116968840060176  0.8086183583795284  0.3555802593761246   T   T   T
  0.4967498802766050  0.3121205049583440  0.3560318571568133   T   T   T
  0.4883021463539839  0.8086183583795284  0.3555802593761246   T   T   T
  0.2499991733809992  0.0663770006229136  0.3848493086986304   T   T   T
  0.2499991733809992  0.5580021914104103  0.3831602677321417   T   T   T
  0.7499991733809992  0.0570860529604734  0.3807661115818686   T   T   T
  0.7499991733809992  0.5667630846191556  0.3797145064931464   T   T   T
  0.2499997575899968  0.8031341901011106  0.4509365590625112   T   T   T
  0.7499997575899968  0.3148582599419866  0.4395472608536005   T   T   T
  0.7499997575899968  0.8191347663772768  0.4403233925158603   T   T   T
  0.0084646017850974  0.0932241376629985  0.4598374719213118   T   T   T
  0.0000657400644463  0.5438904261840057  0.4694493179878459   T   T   T
  0.4915342297949036  0.0932241376629985  0.4598374719213118   T   T   T
  0.4999330915155546  0.5438904261840057  0.4694493179878459   T   T   T
 
  0.00000000E+00  0.00000000E+00  0.00000000E+00
  0.00000000E+00  0.00000000E+00  0.00000000E+00
  0.00000000E+00  0.00000000E+00  0.00000000E+00
  0.00000000E+00  0.00000000E+00  0.00000000E+00
  0.00000000E+00  0.00000000E+00  0.00000000E+00
  0.00000000E+00  0.00000000E+00  0.00000000E+00
  0.00000000E+00  0.00000000E+00  0.00000000E+00
  0.00000000E+00  0.00000000E+00  0.00000000E+00
  0.00000000E+00  0.00000000E+00  0.00000000E+00
  0.00000000E+00  0.00000000E+00  0.00000000E+00
  0.00000000E+00  0.00000000E+00  0.00000000E+00
  0.00000000E+00  0.00000000E+00  0.00000000E+00
  0.00000000E+00  0.00000000E+00  0.00000000E+00
  0.00000000E+00  0.00000000E+00  0.00000000E+00
  0.00000000E+00  0.00000000E+00  0.00000000E+00
  0.00000000E+00  0.00000000E+00  0.00000000E+00
  0.00000000E+00  0.00000000E+00  0.00000000E+00
  0.00000000E+00  0.00000000E+00  0.00000000E+00
  0.00000000E+00  0.00000000E+00  0.00000000E+00
  0.00000000E+00  0.00000000E+00  0.00000000E+00
  0.00000000E+00  0.00000000E+00  0.00000000E+00
  0.00000000E+00  0.00000000E+00  0.00000000E+00
  0.00000000E+00  0.00000000E+00  0.00000000E+00
  0.00000000E+00  0.00000000E+00  0.00000000E+00
  0.00000000E+00  0.00000000E+00  0.00000000E+00
  0.00000000E+00  0.00000000E+00  0.00000000E+00
  0.00000000E+00  0.00000000E+00  0.00000000E+00
  0.00000000E+00  0.00000000E+00  0.00000000E+00
  0.00000000E+00  0.00000000E+00  0.00000000E+00
  0.00000000E+00  0.00000000E+00  0.00000000E+00
  0.00000000E+00  0.00000000E+00  0.00000000E+00
  0.00000000E+00  0.00000000E+00  0.00000000E+00
  0.00000000E+00  0.00000000E+00  0.00000000E+00
  0.00000000E+00  0.00000000E+00  0.00000000E+00
  0.00000000E+00  0.00000000E+00  0.00000000E+00
  0.00000000E+00  0.00000000E+00  0.00000000E+00
  0.00000000E+00  0.00000000E+00  0.00000000E+00
  0.00000000E+00  0.00000000E+00  0.00000000E+00
  0.00000000E+00  0.00000000E+00  0.00000000E+00
  0.00000000E+00  0.00000000E+00  0.00000000E+00
  0.00000000E+00  0.00000000E+00  0.00000000E+00
  0.00000000E+00  0.00000000E+00  0.00000000E+00
  0.00000000E+00  0.00000000E+00  0.00000000E+00
  0.00000000E+00  0.00000000E+00  0.00000000E+00
  0.00000000E+00  0.00000000E+00  0.00000000E+00
  0.00000000E+00  0.00000000E+00  0.00000000E+00
  0.00000000E+00  0.00000000E+00  0.00000000E+00
  0.00000000E+00  0.00000000E+00  0.00000000E+00
  0.00000000E+00  0.00000000E+00  0.00000000E+00
  0.00000000E+00  0.00000000E+00  0.00000000E+00
  0.00000000E+00  0.00000000E+00  0.00000000E+00
  0.00000000E+00  0.00000000E+00  0.00000000E+00
  0.00000000E+00  0.00000000E+00  0.00000000E+00
  0.00000000E+00  0.00000000E+00  0.00000000E+00
  0.00000000E+00  0.00000000E+00  0.00000000E+00
  0.00000000E+00  0.00000000E+00  0.00000000E+00
  0.00000000E+00  0.00000000E+00  0.00000000E+00
  0.00000000E+00  0.00000000E+00  0.00000000E+00
  0.00000000E+00  0.00000000E+00  0.00000000E+00
  0.00000000E+00  0.00000000E+00  0.00000000E+00
  0.00000000E+00  0.00000000E+00  0.00000000E+00
  0.00000000E+00  0.00000000E+00  0.00000000E+00
  0.00000000E+00  0.00000000E+00  0.00000000E+00
  0.00000000E+00  0.00000000E+00  0.00000000E+00
  0.00000000E+00  0.00000000E+00  0.00000000E+00
  0.00000000E+00  0.00000000E+00  0.00000000E+00
  0.00000000E+00  0.00000000E+00  0.00000000E+00
  0.00000000E+00  0.00000000E+00  0.00000000E+00
  0.00000000E+00  0.00000000E+00  0.00000000E+00
  0.00000000E+00  0.00000000E+00  0.00000000E+00
  0.00000000E+00  0.00000000E+00  0.00000000E+00
  0.00000000E+00  0.00000000E+00  0.00000000E+00
  0.00000000E+00  0.00000000E+00  0.00000000E+00
  0.00000000E+00  0.00000000E+00  0.00000000E+00
  0.00000000E+00  0.00000000E+00  0.00000000E+00
  0.00000000E+00  0.00000000E+00  0.00000000E+00
  0.00000000E+00  0.00000000E+00  0.00000000E+00
  0.00000000E+00  0.00000000E+00  0.00000000E+00
  0.00000000E+00  0.00000000E+00  0.00000000E+00
  0.00000000E+00  0.00000000E+00  0.00000000E+00
  0.00000000E+00  0.00000000E+00  0.00000000E+00
