B O Pt Zn                               
   1.00000000000000     
     6.5625568183449996    0.0000000000000000    0.0000000000000000
     0.0000000000000000   10.5156600000000005    0.0000000000000000
     0.0000000000000000    0.0000000000000000   32.0500282661819966
   B    O    Pt   Zn
     1    40     1    39
Selective dynamics
Direct
  0.2523127628148221  0.3055216364015658  0.4389419103572670   T   T   T
  0.2499637088781607  0.0014141296889115  0.0887110339311527   T   T   T
  0.2499847134660127  0.5007654632613792  0.0888220281341579   T   T   T
  0.7500127535350579  0.0013018497865372  0.0885285373130180   T   T   T
  0.7499880739434297  0.5011513847126234  0.0887043325289318   T   T   T
  0.9995710453680351  0.2476118806386868  0.1198504031603933   T   T   T
  0.9999184350112301  0.7476920461329585  0.1195243208394326   T   T   T
  0.5003947843715812  0.2476149343645833  0.1198347019539868   T   T   T
  0.5000536223335567  0.7476867316184970  0.1195184059720116   T   T   T
  0.9995943156303683  0.9974623793371933  0.1766298633857535   T   T   T
  0.9999382677975388  0.4975802266125511  0.1768688036137435   T   T   T
  0.5004444937335769  0.9974450935297914  0.1766271755084173   T   T   T
  0.5000412020053142  0.4976251777818065  0.1768860824431018   T   T   T
  0.2500191609329313  0.2465233728697089  0.2082839207641873   T   T   T
  0.2499923627317605  0.7466004126505597  0.2084758518797016   T   T   T
  0.7499609233759504  0.2465775618377375  0.2090864565315589   T   T   T
  0.7500035686362820  0.7465337445049249  0.2086476941228906   T   T   T
  0.2498491822772027  0.9974414701853351  0.2651952658230100   T   T   T
  0.2498256916007601  0.4987527163139036  0.2660633564442956   T   T   T
  0.7505164627909633  0.9982276499657704  0.2656251481736904   T   T   T
  0.7501939212840164  0.4971090169815084  0.2659016761062920   T   T   T
  0.0034690265280170  0.2490456310504941  0.2977029972175366   T   T   T
  0.9998585463173856  0.7491246427580615  0.2977672107794874   T   T   T
  0.4966245886527378  0.2485192291992190  0.2975150207431707   T   T   T
  0.5002458036827837  0.7491434368507454  0.2976843860082939   T   T   T
  0.0056768360533549  0.0011578629224507  0.3538555158158014   T   T   T
  0.9961041052575252  0.5008112983924011  0.3548437741328129   T   T   T
  0.4968552680261155  0.0001348914709354  0.3534861782196348   T   T   T
  0.5045900415430298  0.5001481862034893  0.3544303439371094   T   T   T
  0.2511512458195690  0.2649291018891368  0.3915606700204275   T   T   T
  0.2510108636799573  0.7448702594534511  0.3867235966306334   T   T   T
  0.7505234372519421  0.2446800935182362  0.3820896106157025   T   T   T
  0.7497839690396900  0.7576845827045273  0.3880515263837273   T   T   T
  0.2465114440696553  0.9987605549248951  0.4393359661312574   T   T   T
  0.2553926245840030  0.4575989884801874  0.4399673278051940   T   T   T
  0.7531415716133181  0.0156729894642826  0.4430680067291227   T   T   T
  0.7488925560495479  0.4884817137165234  0.4423626346134599   T   T   T
  0.0570587949174064  0.2689339176961654  0.4583813182879468   T   T   T
  0.0020693022034485  0.7300863330092729  0.4706058218904831   T   T   T
  0.4420178869731889  0.2572539198773707  0.4585433155327722   T   T   T
  0.4953694617111939  0.7304204668307041  0.4711816475161708   T   T   T
  0.5057666316506295  0.8757880559713751  0.5169158292476427   T   T   T
  0.2499598476361817  0.3266207895874709  0.1004242100858106   T   T   T
  0.2499807209777960  0.8270618529293243  0.1000149455985111   T   T   T
  0.7500029521751979  0.3269556164149026  0.1001452152928917   T   T   T
  0.7499854373187702  0.8269865422827085  0.0998970315124410   T   T   T
  0.9997258141151690  0.0581785168114891  0.1146236454517526   T   T   T
  0.9999991361663737  0.5581983269431942  0.1146496092280916   T   T   T
  0.5002453124156589  0.0581807762155137  0.1145963266368445   T   T   T
  0.4999863665875673  0.5581910787592617  0.1146473326267731   T   T   T
  0.9990354303022327  0.3086577176454230  0.1805512533931888   T   T   T
  0.9997606725326118  0.8084697346230640  0.1803437015926854   T   T   T
  0.5009476018672551  0.3086927767813989  0.1805341247411175   T   T   T
  0.5002322070696119  0.8084335235365392  0.1803389567414978   T   T   T
  0.2499889891522913  0.0552794018580219  0.2055136041637542   T   T   T
  0.2499245981033839  0.5557535280414335  0.2058986919232043   T   T   T
  0.7500373776499362  0.0554415512758805  0.2057855252992657   T   T   T
  0.7500497772400277  0.5555143059814245  0.2059671377177501   T   T   T
  0.2498493867196388  0.3086092193363350  0.2671028919560946   T   T   T
  0.2499502594606595  0.8071720899211036  0.2678448894035165   T   T   T
  0.7502109267059964  0.3068009737841145  0.2684170143471881   T   T   T
  0.7501587602167002  0.8078462864749775  0.2679666873889266   T   T   T
  0.0010137887214070  0.0578779081912279  0.2945421850877648   T   T   T
  0.9989052740196741  0.5592668530661964  0.2948312006759701   T   T   T
  0.4993283145037413  0.0575234010388959  0.2941612695167917   T   T   T
  0.5010719526968624  0.5594021682456137  0.2946080376841234   T   T   T
  0.0015951846708500  0.3108404937989981  0.3565955635447043   T   T   T
  0.0027122841497797  0.8096602323894236  0.3576083189777917   T   T   T
  0.4994140001708737  0.3102665420298522  0.3561725115425861   T   T   T
  0.4981232580241021  0.8088734161886034  0.3576017669583538   T   T   T
  0.2545219919830274  0.0666880148577099  0.3822706048421690   T   T   T
  0.2513103104986331  0.5585052287523607  0.3810716005121955   T   T   T
  0.7488207400093633  0.0537693394827957  0.3819946032353223   T   T   T
  0.7492426159456067  0.5703508579853057  0.3830311269621388   T   T   T
  0.2411518193154703  0.8135957999964544  0.4485339289924001   T   T   T
  0.7355434457570992  0.3020655985730075  0.4404618865992913   T   T   T
  0.7586822838091378  0.8212360326990686  0.4521411084930332   T   T   T
  0.0098647768338008  0.0889633464140378  0.4583493318452437   T   T   T
  0.0122431365740112  0.5561368855282903  0.4592435592813803   T   T   T
  0.4816049880645619  0.0707761736489509  0.4741139257702076   T   T   T
  0.4912920401788503  0.5525142433461991  0.4624052225198954   T   T   T
 
  0.00000000E+00  0.00000000E+00  0.00000000E+00
  0.00000000E+00  0.00000000E+00  0.00000000E+00
  0.00000000E+00  0.00000000E+00  0.00000000E+00
  0.00000000E+00  0.00000000E+00  0.00000000E+00
  0.00000000E+00  0.00000000E+00  0.00000000E+00
  0.00000000E+00  0.00000000E+00  0.00000000E+00
  0.00000000E+00  0.00000000E+00  0.00000000E+00
  0.00000000E+00  0.00000000E+00  0.00000000E+00
  0.00000000E+00  0.00000000E+00  0.00000000E+00
  0.00000000E+00  0.00000000E+00  0.00000000E+00
  0.00000000E+00  0.00000000E+00  0.00000000E+00
  0.00000000E+00  0.00000000E+00  0.00000000E+00
  0.00000000E+00  0.00000000E+00  0.00000000E+00
  0.00000000E+00  0.00000000E+00  0.00000000E+00
  0.00000000E+00  0.00000000E+00  0.00000000E+00
  0.00000000E+00  0.00000000E+00  0.00000000E+00
  0.00000000E+00  0.00000000E+00  0.00000000E+00
  0.00000000E+00  0.00000000E+00  0.00000000E+00
  0.00000000E+00  0.00000000E+00  0.00000000E+00
  0.00000000E+00  0.00000000E+00  0.00000000E+00
  0.00000000E+00  0.00000000E+00  0.00000000E+00
  0.00000000E+00  0.00000000E+00  0.00000000E+00
  0.00000000E+00  0.00000000E+00  0.00000000E+00
  0.00000000E+00  0.00000000E+00  0.00000000E+00
  0.00000000E+00  0.00000000E+00  0.00000000E+00
  0.00000000E+00  0.00000000E+00  0.00000000E+00
  0.00000000E+00  0.00000000E+00  0.00000000E+00
  0.00000000E+00  0.00000000E+00  0.00000000E+00
  0.00000000E+00  0.00000000E+00  0.00000000E+00
  0.00000000E+00  0.00000000E+00  0.00000000E+00
  0.00000000E+00  0.00000000E+00  0.00000000E+00
  0.00000000E+00  0.00000000E+00  0.00000000E+00
  0.00000000E+00  0.00000000E+00  0.00000000E+00
  0.00000000E+00  0.00000000E+00  0.00000000E+00
  0.00000000E+00  0.00000000E+00  0.00000000E+00
  0.00000000E+00  0.00000000E+00  0.00000000E+00
  0.00000000E+00  0.00000000E+00  0.00000000E+00
  0.00000000E+00  0.00000000E+00  0.00000000E+00
  0.00000000E+00  0.00000000E+00  0.00000000E+00
  0.00000000E+00  0.00000000E+00  0.00000000E+00
  0.00000000E+00  0.00000000E+00  0.00000000E+00
  0.00000000E+00  0.00000000E+00  0.00000000E+00
  0.00000000E+00  0.00000000E+00  0.00000000E+00
  0.00000000E+00  0.00000000E+00  0.00000000E+00
  0.00000000E+00  0.00000000E+00  0.00000000E+00
  0.00000000E+00  0.00000000E+00  0.00000000E+00
  0.00000000E+00  0.00000000E+00  0.00000000E+00
  0.00000000E+00  0.00000000E+00  0.00000000E+00
  0.00000000E+00  0.00000000E+00  0.00000000E+00
  0.00000000E+00  0.00000000E+00  0.00000000E+00
  0.00000000E+00  0.00000000E+00  0.00000000E+00
  0.00000000E+00  0.00000000E+00  0.00000000E+00
  0.00000000E+00  0.00000000E+00  0.00000000E+00
  0.00000000E+00  0.00000000E+00  0.00000000E+00
  0.00000000E+00  0.00000000E+00  0.00000000E+00
  0.00000000E+00  0.00000000E+00  0.00000000E+00
  0.00000000E+00  0.00000000E+00  0.00000000E+00
  0.00000000E+00  0.00000000E+00  0.00000000E+00
  0.00000000E+00  0.00000000E+00  0.00000000E+00
  0.00000000E+00  0.00000000E+00  0.00000000E+00
  0.00000000E+00  0.00000000E+00  0.00000000E+00
  0.00000000E+00  0.00000000E+00  0.00000000E+00
  0.00000000E+00  0.00000000E+00  0.00000000E+00
  0.00000000E+00  0.00000000E+00  0.00000000E+00
  0.00000000E+00  0.00000000E+00  0.00000000E+00
  0.00000000E+00  0.00000000E+00  0.00000000E+00
  0.00000000E+00  0.00000000E+00  0.00000000E+00
  0.00000000E+00  0.00000000E+00  0.00000000E+00
  0.00000000E+00  0.00000000E+00  0.00000000E+00
  0.00000000E+00  0.00000000E+00  0.00000000E+00
  0.00000000E+00  0.00000000E+00  0.00000000E+00
  0.00000000E+00  0.00000000E+00  0.00000000E+00
  0.00000000E+00  0.00000000E+00  0.00000000E+00
  0.00000000E+00  0.00000000E+00  0.00000000E+00
  0.00000000E+00  0.00000000E+00  0.00000000E+00
  0.00000000E+00  0.00000000E+00  0.00000000E+00
  0.00000000E+00  0.00000000E+00  0.00000000E+00
  0.00000000E+00  0.00000000E+00  0.00000000E+00
  0.00000000E+00  0.00000000E+00  0.00000000E+00
  0.00000000E+00  0.00000000E+00  0.00000000E+00
  0.00000000E+00  0.00000000E+00  0.00000000E+00
