Au B O Zn                               
   1.00000000000000     
     6.5625568183449996    0.0000000000000000    0.0000000000000000
     0.0000000000000000   10.5156600000000005    0.0000000000000000
     0.0000000000000000    0.0000000000000000   32.0500282661819966
   Au   B    O    Zn
     1     1    40    39
Selective dynamics
Direct
  0.5115537463195113  0.9451725065033907  0.5341449639907582   T   T   T
  0.2499988071092834  0.3037446414352417  0.4372695730438275   T   T   T
  0.2499807280698471  0.0014680667968278  0.0886956046837251   T   T   T
  0.2498844569060417  0.5009762966464376  0.0889501426921085   T   T   T
  0.7500009044680401  0.0013089876676849  0.0885428966561466   T   T   T
  0.7500553687504704  0.5013818681523038  0.0888415820235177   T   T   T
  0.9995382696395138  0.2476994155138913  0.1197491749137613   T   T   T
  0.9999360994830419  0.7478528106248823  0.1195976789965329   T   T   T
  0.5003909577859507  0.2476692430062497  0.1196719827459099   T   T   T
  0.5000011236941648  0.7479028773571003  0.1195585867250863   T   T   T
  0.9996528844748633  0.9979507948571482  0.1766536699675791   T   T   T
  0.9998683109993305  0.4981374978638733  0.1769648614929536   T   T   T
  0.5004239573722037  0.9980387142460397  0.1767334854016223   T   T   T
  0.5000388065275132  0.4980828829627220  0.1768913500094525   T   T   T
  0.2499614735516502  0.2469587297861680  0.2080375999431265   T   T   T
  0.2498899761737755  0.7473155009667773  0.2083755248350395   T   T   T
  0.7498251308240363  0.2470195780266237  0.2087750691866566   T   T   T
  0.7499197562595966  0.7471929431398701  0.2085628319797784   T   T   T
  0.2497320275915602  0.9981975691253393  0.2653876933976142   T   T   T
  0.2500507437514806  0.4991218571623951  0.2659364944615624   T   T   T
  0.7508651137903578  0.9991147354214094  0.2658743012985211   T   T   T
  0.7500522554751601  0.4974387822737543  0.2658119250990479   T   T   T
  0.0030035056441158  0.2485724413603052  0.2969509064820899   T   T   T
 -0.0002354311767182  0.7498179447119774  0.2973783883986008   T   T   T
  0.4965146859304633  0.2487857718052128  0.2969281568877468   T   T   T
  0.4999840330562602  0.7489024558234546  0.2969413866809857   T   T   T
  0.0061247251854915  0.0007476122396186  0.3546730409210858   T   T   T
  0.9965407212903842  0.4978832712342938  0.3536748027456584   T   T   T
  0.4960017301657272 -0.0014192252501829  0.3536647709957887   T   T   T
  0.5041084091350629  0.4984607351348919  0.3540273576500382   T   T   T
  0.2501709012207946  0.2609160136500502  0.3902187418837711   T   T   T
  0.2500656029896947  0.7433047505508462  0.3858653065776973   T   T   T
  0.7496677602491711  0.2402551475294260  0.3813402833034341   T   T   T
  0.7495393332925151  0.7552811204279818  0.3864420659418092   T   T   T
  0.2524329448831839  0.9937925474738788  0.4414534504405838   T   T   T
  0.2474661079550588  0.4546859775114586  0.4382020342086677   T   T   T
  0.7486360285219072  0.0070864318777429  0.4443298517328786   T   T   T
  0.7536532217501171  0.4854859438620749  0.4404988083497322   T   T   T
  0.0564128640784629  0.2611502934832998  0.4567516002654612   T   T   T
  0.0012096976261496  0.7320012583713765  0.4699725631916624   T   T   T
  0.4427283351424859  0.2607146021992757  0.4564589908570155   T   T   T
  0.4974539733010407  0.7226269141002185  0.4694916418373462   T   T   T
  0.2499078053105479  0.3268305502444391  0.1005024646184692   T   T   T
  0.2498845324944360  0.8272385609808998  0.1001888615028069   T   T   T
  0.7500271510836222  0.3271554008235469  0.1001803700851746   T   T   T
  0.7500512896567301  0.8271124241510687  0.1000941300896770   T   T   T
  0.9997455079200286  0.0582357721318801  0.1146484957291873   T   T   T
 -0.0000115010303817  0.5583463527103253  0.1148496012201097   T   T   T
  0.5002320083662395  0.0581741263614295  0.1146518064822507   T   T   T
  0.4999479380093654  0.5583820116661051  0.1147466843746902   T   T   T
  0.9990269034334183  0.3091309589018691  0.1805062842877221   T   T   T
  0.9996627289498698  0.8089685919409498  0.1804378478373123   T   T   T
  0.5007660349452282  0.3090700938783911  0.1804269813640180   T   T   T
  0.5001453217517243  0.8090216461222685  0.1804103325804754   T   T   T
  0.2498134679601588  0.0557380188584092  0.2057729393018604   T   T   T
  0.2501209241190772  0.5564910868363481  0.2060247705467700   T   T   T
  0.7502593477740076  0.0558754397750686  0.2060152256585736   T   T   T
  0.7497836738175437  0.5561735555754230  0.2061503355273824   T   T   T
  0.2494714328535101  0.3092127917802201  0.2669414461836028   T   T   T
  0.2495449338964580  0.8081931505396587  0.2678425022600293   T   T   T
  0.7500679046868849  0.3072919488336301  0.2681908484512369   T   T   T
  0.7501806970655612  0.8089304649484282  0.2679769563185374   T   T   T
  0.0013415726857037  0.0577050042152431  0.2953127226028617   T   T   T
  0.9990523318532255  0.5602458120388144  0.2945320287814765   T   T   T
  0.4993121965543414  0.0580394000699395  0.2945755708880776   T   T   T
  0.5010489239979385  0.5593869805817939  0.2946479780976285   T   T   T
  0.0004182822840692  0.3079690184523539  0.3560598504385738   T   T   T
  0.0031376540136767  0.8091205380301738  0.3577434973352930   T   T   T
  0.4995158343409357  0.3088020478875844  0.3559345357499830   T   T   T
  0.4966971275857067  0.8068888139200078  0.3571556863623306   T   T   T
  0.2555234323479289  0.0624593330189475  0.3838797651371098   T   T   T
  0.2496011103244379  0.5576797255371660  0.3801852199721980   T   T   T
  0.7473459684623547  0.0492364594753576  0.3830818466433134   T   T   T
  0.7512645053769220  0.5686667724492340  0.3818648876111584   T   T   T
  0.2540446550976256  0.8074941716569155  0.4501962508960554   T   T   T
  0.7448721589654408  0.3002034166630240  0.4396106557008954   T   T   T
  0.7451119815386854  0.8114926281985972  0.4523285987144414   T   T   T
  0.0081644854226239  0.0799337014800530  0.4590645356777092   T   T   T
  0.0107706688332488  0.5580930201961579  0.4588490208497583   T   T   T
  0.4822233338409175  0.0804013194871988  0.4735316254818224   T   T   T
  0.4899928626343810  0.5490527629447575  0.4583959111310754   T   T   T
 
  0.00000000E+00  0.00000000E+00  0.00000000E+00
  0.00000000E+00  0.00000000E+00  0.00000000E+00
  0.00000000E+00  0.00000000E+00  0.00000000E+00
  0.00000000E+00  0.00000000E+00  0.00000000E+00
  0.00000000E+00  0.00000000E+00  0.00000000E+00
  0.00000000E+00  0.00000000E+00  0.00000000E+00
  0.00000000E+00  0.00000000E+00  0.00000000E+00
  0.00000000E+00  0.00000000E+00  0.00000000E+00
  0.00000000E+00  0.00000000E+00  0.00000000E+00
  0.00000000E+00  0.00000000E+00  0.00000000E+00
  0.00000000E+00  0.00000000E+00  0.00000000E+00
  0.00000000E+00  0.00000000E+00  0.00000000E+00
  0.00000000E+00  0.00000000E+00  0.00000000E+00
  0.00000000E+00  0.00000000E+00  0.00000000E+00
  0.00000000E+00  0.00000000E+00  0.00000000E+00
  0.00000000E+00  0.00000000E+00  0.00000000E+00
  0.00000000E+00  0.00000000E+00  0.00000000E+00
  0.00000000E+00  0.00000000E+00  0.00000000E+00
  0.00000000E+00  0.00000000E+00  0.00000000E+00
  0.00000000E+00  0.00000000E+00  0.00000000E+00
  0.00000000E+00  0.00000000E+00  0.00000000E+00
  0.00000000E+00  0.00000000E+00  0.00000000E+00
  0.00000000E+00  0.00000000E+00  0.00000000E+00
  0.00000000E+00  0.00000000E+00  0.00000000E+00
  0.00000000E+00  0.00000000E+00  0.00000000E+00
  0.00000000E+00  0.00000000E+00  0.00000000E+00
  0.00000000E+00  0.00000000E+00  0.00000000E+00
  0.00000000E+00  0.00000000E+00  0.00000000E+00
  0.00000000E+00  0.00000000E+00  0.00000000E+00
  0.00000000E+00  0.00000000E+00  0.00000000E+00
  0.00000000E+00  0.00000000E+00  0.00000000E+00
  0.00000000E+00  0.00000000E+00  0.00000000E+00
  0.00000000E+00  0.00000000E+00  0.00000000E+00
  0.00000000E+00  0.00000000E+00  0.00000000E+00
  0.00000000E+00  0.00000000E+00  0.00000000E+00
  0.00000000E+00  0.00000000E+00  0.00000000E+00
  0.00000000E+00  0.00000000E+00  0.00000000E+00
  0.00000000E+00  0.00000000E+00  0.00000000E+00
  0.00000000E+00  0.00000000E+00  0.00000000E+00
  0.00000000E+00  0.00000000E+00  0.00000000E+00
  0.00000000E+00  0.00000000E+00  0.00000000E+00
  0.00000000E+00  0.00000000E+00  0.00000000E+00
  0.00000000E+00  0.00000000E+00  0.00000000E+00
  0.00000000E+00  0.00000000E+00  0.00000000E+00
  0.00000000E+00  0.00000000E+00  0.00000000E+00
  0.00000000E+00  0.00000000E+00  0.00000000E+00
  0.00000000E+00  0.00000000E+00  0.00000000E+00
  0.00000000E+00  0.00000000E+00  0.00000000E+00
  0.00000000E+00  0.00000000E+00  0.00000000E+00
  0.00000000E+00  0.00000000E+00  0.00000000E+00
  0.00000000E+00  0.00000000E+00  0.00000000E+00
  0.00000000E+00  0.00000000E+00  0.00000000E+00
  0.00000000E+00  0.00000000E+00  0.00000000E+00
  0.00000000E+00  0.00000000E+00  0.00000000E+00
  0.00000000E+00  0.00000000E+00  0.00000000E+00
  0.00000000E+00  0.00000000E+00  0.00000000E+00
  0.00000000E+00  0.00000000E+00  0.00000000E+00
  0.00000000E+00  0.00000000E+00  0.00000000E+00
  0.00000000E+00  0.00000000E+00  0.00000000E+00
  0.00000000E+00  0.00000000E+00  0.00000000E+00
  0.00000000E+00  0.00000000E+00  0.00000000E+00
  0.00000000E+00  0.00000000E+00  0.00000000E+00
  0.00000000E+00  0.00000000E+00  0.00000000E+00
  0.00000000E+00  0.00000000E+00  0.00000000E+00
  0.00000000E+00  0.00000000E+00  0.00000000E+00
  0.00000000E+00  0.00000000E+00  0.00000000E+00
  0.00000000E+00  0.00000000E+00  0.00000000E+00
  0.00000000E+00  0.00000000E+00  0.00000000E+00
  0.00000000E+00  0.00000000E+00  0.00000000E+00
  0.00000000E+00  0.00000000E+00  0.00000000E+00
  0.00000000E+00  0.00000000E+00  0.00000000E+00
  0.00000000E+00  0.00000000E+00  0.00000000E+00
  0.00000000E+00  0.00000000E+00  0.00000000E+00
  0.00000000E+00  0.00000000E+00  0.00000000E+00
  0.00000000E+00  0.00000000E+00  0.00000000E+00
  0.00000000E+00  0.00000000E+00  0.00000000E+00
  0.00000000E+00  0.00000000E+00  0.00000000E+00
  0.00000000E+00  0.00000000E+00  0.00000000E+00
  0.00000000E+00  0.00000000E+00  0.00000000E+00
  0.00000000E+00  0.00000000E+00  0.00000000E+00
  0.00000000E+00  0.00000000E+00  0.00000000E+00
