B O V Zn                                
   1.00000000000000     
     6.5625568183449996    0.0000000000000000    0.0000000000000000
     0.0000000000000000   10.5156600000000005    0.0000000000000000
     0.0000000000000000    0.0000000000000000   32.0500282661819966
   B    O    V    Zn
     1    40     1    39
Selective dynamics
Direct
  0.2499997575899968  0.3154124381007205  0.4387626690358467   T   T   T
  0.2499987879510002  0.0009175844401588  0.0890236852653767   T   T   T
  0.2499987879510002  0.5003647936185306  0.0882376778461569   T   T   T
  0.7499987879510002  0.0012826291029703  0.0882930291065450   T   T   T
  0.7499987879510002  0.5005394517399185  0.0875038219964131   T   T   T
  0.9992898950798259  0.2473646919696268  0.1194778368590139   T   T   T
  0.9992761657563012  0.7471505807549782  0.1190973078945856   T   T   T
  0.5007069972221747  0.2473646919696268  0.1194778368590139   T   T   T
  0.5007207265456923  0.7471505807549782  0.1190973078945856   T   T   T
  0.9984713143628803  0.9975298615124782  0.1771146364679047   T   T   T
  0.9985492579914195  0.4973298768986035  0.1762288283326972   T   T   T
  0.5015267463591264  0.9975298615124782  0.1771146364679047   T   T   T
  0.5014488027305801  0.4973298768986035  0.1762288283326972   T   T   T
  0.2499986885609999  0.2462090307255550  0.2077708967939519   T   T   T
  0.2499986885609999  0.7461570768272676  0.2073501307210583   T   T   T
  0.7499986885609999  0.2465572726252204  0.2092718637719090   T   T   T
  0.7499986885609999  0.7463418712599734  0.2086083420675948   T   T   T
  0.2499992727709994  0.9984692739110471  0.2658375226176124   T   T   T
  0.2499992727709994  0.4980767054226866  0.2647713682166835   T   T   T
  0.7499992727709994  0.9989379834893269  0.2673253973899146   T   T   T
  0.7499992727709994  0.4976581299451917  0.2660637255446034   T   T   T
  0.0043389598157920  0.2492333668954205  0.2976962610285860   T   T   T
  0.0029245741621635  0.7494014292067552  0.2967512505347841   T   T   T
  0.4956589021262072  0.2492333668954205  0.2976962610285860   T   T   T
  0.4970732877798356  0.7494014292067552  0.2967512505347841   T   T   T
  0.0088134235866741  0.0007072065143205  0.3556734052602856   T   T   T
  0.0025969965277381  0.5027940645235550  0.3538774540144572   T   T   T
  0.4911856067733203  0.0007072065143205  0.3556734052602856   T   T   T
  0.4974020338322634  0.5027940645235550  0.3538774540144572   T   T   T
  0.2499991733809992  0.2662061671855522  0.3928121910892995   T   T   T
  0.2499991733809992  0.7460505557631308  0.3901588044168405   T   T   T
  0.7499991733809992  0.2447466374030486  0.3812887478398996   T   T   T
  0.7499991733809992  0.7586235888159416  0.3826295313871005   T   T   T
  0.2499997575899968  0.9919825256433983  0.4456743370779495   T   T   T
  0.2499997575899968  0.4611585499687069  0.4411673012663626   T   T   T
  0.7499997575899968  0.0156742134902177  0.4453006008872857   T   T   T
  0.7499997575899968  0.4969283690265583  0.4377917211465551   T   T   T
  0.0562933327687705  0.2717553717701795  0.4593168498653641   T   T   T
  0.9806390819746255  0.7499402371813150  0.4764887908378991   T   T   T
  0.4437054988112305  0.2717553717701795  0.4593168498653641   T   T   T
  0.5193597496053756  0.7499402371813150  0.4764887908378991   T   T   T
  0.7500003636150012  0.6945975241776822  0.5058896420244130   T   T   T
  0.2499987879510002  0.3261638812253208  0.0999181856150232   T   T   T
  0.2499987879510002  0.8262755592708853  0.0998324515605545   T   T   T
  0.7499987879510002  0.3264938462678855  0.0993255665218658   T   T   T
  0.7499987879510002  0.8268175871647244  0.0992745309388234   T   T   T
  0.9992464866530497  0.0578221741478089  0.1147210282430081   T   T   T
  0.9991802621003654  0.5576175704692435  0.1138180788579151   T   T   T
  0.5007504056489509  0.0578221741478089  0.1147210282430081   T   T   T
  0.5008166302016352  0.5576175704692435  0.1138180788579151   T   T   T
  0.9982599868494696  0.3083854852060530  0.1800770996334898   T   T   T
  0.9984836134269042  0.8083364904322879  0.1797114024614534   T   T   T
  0.5017380738725300  0.3083854852060530  0.1800770996334898   T   T   T
  0.5015144472950954  0.8083364904322879  0.1797114024614534   T   T   T
  0.2499986885609999  0.0552695245883770  0.2055510640565380   T   T   T
  0.2499986885609999  0.5550952288580759  0.2046727178610516   T   T   T
  0.7499986885609999  0.0554292717017633  0.2067840796746597   T   T   T
  0.7499986885609999  0.5549553533844439  0.2058953256485740   T   T   T
  0.2499992727709994  0.3084556800973556  0.2662493980465674   T   T   T
  0.2499992727709994  0.8083322430386513  0.2658467486496864   T   T   T
  0.7499992727709994  0.3075400255918571  0.2682951675765421   T   T   T
  0.7499992727709994  0.8082972117636253  0.2675576104441669   T   T   T
  0.0026800446663461  0.0590203160075391  0.2951059505053739   T   T   T
  0.0020754286811147  0.5588180250605398  0.2939892672987179   T   T   T
  0.4973178172756530  0.0590203160075391  0.2951059505053739   T   T   T
  0.4979224332608844  0.5588180250605398  0.2939892672987179   T   T   T
  0.0035564596703898  0.3141981733832566  0.3556449207859265   T   T   T
  0.0136927722196990  0.8085847171057368  0.3553149051361550   T   T   T
  0.4964425706896046  0.3141981733832566  0.3556449207859265   T   T   T
  0.4863062581403024  0.8085847171057368  0.3553149051361550   T   T   T
  0.2499991733809992  0.0665212595034982  0.3848297118405139   T   T   T
  0.2499991733809992  0.5569476302129097  0.3847310894561234   T   T   T
  0.7499991733809992  0.0569175598759216  0.3800768623857795   T   T   T
  0.7499991733809992  0.5680691712198187  0.3810062287920549   T   T   T
  0.2499997575899968  0.7990649190316689  0.4510635034175410   T   T   T
  0.7499997575899968  0.3132563163142992  0.4378666980512887   T   T   T
  0.7499997575899968  0.8255319073493497  0.4388416248974434   T   T   T
  0.0109091608905440  0.0912346717491723  0.4600857659183420   T   T   T
  0.9964841153172825  0.5175439468985011  0.4757900705059893   T   T   T
  0.4890896706894570  0.0912346717491723  0.4600857659183420   T   T   T
  0.5035147162627185  0.5175439468985011  0.4757900705059893   T   T   T
 
  0.00000000E+00  0.00000000E+00  0.00000000E+00
  0.00000000E+00  0.00000000E+00  0.00000000E+00
  0.00000000E+00  0.00000000E+00  0.00000000E+00
  0.00000000E+00  0.00000000E+00  0.00000000E+00
  0.00000000E+00  0.00000000E+00  0.00000000E+00
  0.00000000E+00  0.00000000E+00  0.00000000E+00
  0.00000000E+00  0.00000000E+00  0.00000000E+00
  0.00000000E+00  0.00000000E+00  0.00000000E+00
  0.00000000E+00  0.00000000E+00  0.00000000E+00
  0.00000000E+00  0.00000000E+00  0.00000000E+00
  0.00000000E+00  0.00000000E+00  0.00000000E+00
  0.00000000E+00  0.00000000E+00  0.00000000E+00
  0.00000000E+00  0.00000000E+00  0.00000000E+00
  0.00000000E+00  0.00000000E+00  0.00000000E+00
  0.00000000E+00  0.00000000E+00  0.00000000E+00
  0.00000000E+00  0.00000000E+00  0.00000000E+00
  0.00000000E+00  0.00000000E+00  0.00000000E+00
  0.00000000E+00  0.00000000E+00  0.00000000E+00
  0.00000000E+00  0.00000000E+00  0.00000000E+00
  0.00000000E+00  0.00000000E+00  0.00000000E+00
  0.00000000E+00  0.00000000E+00  0.00000000E+00
  0.00000000E+00  0.00000000E+00  0.00000000E+00
  0.00000000E+00  0.00000000E+00  0.00000000E+00
  0.00000000E+00  0.00000000E+00  0.00000000E+00
  0.00000000E+00  0.00000000E+00  0.00000000E+00
  0.00000000E+00  0.00000000E+00  0.00000000E+00
  0.00000000E+00  0.00000000E+00  0.00000000E+00
  0.00000000E+00  0.00000000E+00  0.00000000E+00
  0.00000000E+00  0.00000000E+00  0.00000000E+00
  0.00000000E+00  0.00000000E+00  0.00000000E+00
  0.00000000E+00  0.00000000E+00  0.00000000E+00
  0.00000000E+00  0.00000000E+00  0.00000000E+00
  0.00000000E+00  0.00000000E+00  0.00000000E+00
  0.00000000E+00  0.00000000E+00  0.00000000E+00
  0.00000000E+00  0.00000000E+00  0.00000000E+00
  0.00000000E+00  0.00000000E+00  0.00000000E+00
  0.00000000E+00  0.00000000E+00  0.00000000E+00
  0.00000000E+00  0.00000000E+00  0.00000000E+00
  0.00000000E+00  0.00000000E+00  0.00000000E+00
  0.00000000E+00  0.00000000E+00  0.00000000E+00
  0.00000000E+00  0.00000000E+00  0.00000000E+00
  0.00000000E+00  0.00000000E+00  0.00000000E+00
  0.00000000E+00  0.00000000E+00  0.00000000E+00
  0.00000000E+00  0.00000000E+00  0.00000000E+00
  0.00000000E+00  0.00000000E+00  0.00000000E+00
  0.00000000E+00  0.00000000E+00  0.00000000E+00
  0.00000000E+00  0.00000000E+00  0.00000000E+00
  0.00000000E+00  0.00000000E+00  0.00000000E+00
  0.00000000E+00  0.00000000E+00  0.00000000E+00
  0.00000000E+00  0.00000000E+00  0.00000000E+00
  0.00000000E+00  0.00000000E+00  0.00000000E+00
  0.00000000E+00  0.00000000E+00  0.00000000E+00
  0.00000000E+00  0.00000000E+00  0.00000000E+00
  0.00000000E+00  0.00000000E+00  0.00000000E+00
  0.00000000E+00  0.00000000E+00  0.00000000E+00
  0.00000000E+00  0.00000000E+00  0.00000000E+00
  0.00000000E+00  0.00000000E+00  0.00000000E+00
  0.00000000E+00  0.00000000E+00  0.00000000E+00
  0.00000000E+00  0.00000000E+00  0.00000000E+00
  0.00000000E+00  0.00000000E+00  0.00000000E+00
  0.00000000E+00  0.00000000E+00  0.00000000E+00
  0.00000000E+00  0.00000000E+00  0.00000000E+00
  0.00000000E+00  0.00000000E+00  0.00000000E+00
  0.00000000E+00  0.00000000E+00  0.00000000E+00
  0.00000000E+00  0.00000000E+00  0.00000000E+00
  0.00000000E+00  0.00000000E+00  0.00000000E+00
  0.00000000E+00  0.00000000E+00  0.00000000E+00
  0.00000000E+00  0.00000000E+00  0.00000000E+00
  0.00000000E+00  0.00000000E+00  0.00000000E+00
  0.00000000E+00  0.00000000E+00  0.00000000E+00
  0.00000000E+00  0.00000000E+00  0.00000000E+00
  0.00000000E+00  0.00000000E+00  0.00000000E+00
  0.00000000E+00  0.00000000E+00  0.00000000E+00
  0.00000000E+00  0.00000000E+00  0.00000000E+00
  0.00000000E+00  0.00000000E+00  0.00000000E+00
  0.00000000E+00  0.00000000E+00  0.00000000E+00
  0.00000000E+00  0.00000000E+00  0.00000000E+00
  0.00000000E+00  0.00000000E+00  0.00000000E+00
  0.00000000E+00  0.00000000E+00  0.00000000E+00
  0.00000000E+00  0.00000000E+00  0.00000000E+00
  0.00000000E+00  0.00000000E+00  0.00000000E+00
