B Fe O Zn                               
   1.00000000000000     
     6.5625568183449996    0.0000000000000000    0.0000000000000000
     0.0000000000000000   10.5156600000000005    0.0000000000000000
     0.0000000000000000    0.0000000000000000   32.0500282661819966
   B    Fe   O    Zn
     1     1    40    39
Selective dynamics
Direct
  0.2499997575899968  0.3139372288908228  0.4383948971459165   T   T   T
  0.7499973160219966  0.7215378598536348  0.4982032589283426   T   T   T
  0.2499987879510002  0.0006791753741872  0.0890310877084342   T   T   T
  0.2499987879510002  0.5001897023384589  0.0884455096488514   T   T   T
  0.7499987879510002  0.0009948330929074  0.0883956442040778   T   T   T
  0.7499987879510002  0.5006582586980488  0.0878588359887531   T   T   T
  0.9992442494895609  0.2471771079675932  0.1194254940731804   T   T   T
  0.9993342571112376  0.7470088462629086  0.1192614285739811   T   T   T
  0.5007526428124397  0.2471771079675932  0.1194254940731804   T   T   T
  0.5006626351907559  0.7470088462629086  0.1192614285739811   T   T   T
  0.9986451449579409  0.9972900670535837  0.1770002536482292   T   T   T
  0.9990915752463800  0.4971265825512717  0.1763481563046129   T   T   T
  0.5013529157640658  0.9972900670535837  0.1770002536482292   T   T   T
  0.5009064854756196  0.4971265825512717  0.1763481563046129   T   T   T
  0.2499986885609999  0.2462777129932684  0.2078074889641440   T   T   T
  0.2499986885609999  0.7462362517586522  0.2075729178250160   T   T   T
  0.7499986885609999  0.2463112416856492  0.2091150804489356   T   T   T
  0.7499986885609999  0.7465624488017353  0.2089873736754135   T   T   T
  0.2499992727709994  0.9982637428552883  0.2655671861876674   T   T   T
  0.2499992727709994  0.4985240604140989  0.2649875415569217   T   T   T
  0.7499992727709994  0.9990150511138051  0.2670400944158129   T   T   T
  0.7499992727709994  0.4972759245581436  0.2655818250753006   T   T   T
  0.0043372773834001  0.2489850690606271  0.2976068184281294   T   T   T
  0.0032625277629710  0.7498161409771571  0.2973924546013728   T   T   T
  0.4956605845585990  0.2489850690606271  0.2976068184281294   T   T   T
  0.4967353341790282  0.7498161409771571  0.2973924546013728   T   T   T
  0.0081091753868124  0.0016812472040491  0.3556925593730523   T   T   T
  0.0007336883232675  0.5015216201497973  0.3534369205679253   T   T   T
  0.4918898549731820  0.0016812472040491  0.3556925593730523   T   T   T
  0.4992653420367340  0.5015216201497973  0.3534369205679253   T   T   T
  0.2499991733809992  0.2628824972593838  0.3930639063578545   T   T   T
  0.2499991733809992  0.7479627682737753  0.3921513355452442   T   T   T
  0.7499991733809992  0.2501519444923606  0.3816872698577695   T   T   T
  0.7499991733809992  0.7550527139746297  0.3826302118019994   T   T   T
  0.2499997575899968  0.9898828248489224  0.4479065522330129   T   T   T
  0.2499997575899968  0.4624073233324164  0.4381342131835301   T   T   T
  0.7499997575899968  0.0261473421054962  0.4448569185276202   T   T   T
  0.7499997575899968  0.4943263206157267  0.4395232115622035   T   T   T
  0.0577776783450412  0.2755187253864467  0.4597833679045161   T   T   T
  0.0248277427444609  0.7120107082098428  0.4875386576054148   T   T   T
  0.4422211532349598  0.2755187253864467  0.4597833679045161   T   T   T
  0.4751710888355400  0.7120107082098428  0.4875386576054148   T   T   T
  0.2499987879510002  0.3258072026553471  0.0998641309494252   T   T   T
  0.2499987879510002  0.8259314250597490  0.0997861687931825   T   T   T
  0.7499987879510002  0.3263009277161959  0.0992655432654110   T   T   T
  0.7499987879510002  0.8264930545960784  0.0992820029863464   T   T   T
  0.9993480943812555  0.0577576079926878  0.1145907270379123   T   T   T
  0.9994871929208845  0.5576016498624803  0.1139628867005018   T   T   T
  0.5006487979207451  0.0577576079926878  0.1145907270379123   T   T   T
  0.5005096993811161  0.5576016498624803  0.1139628867005018   T   T   T
  0.9983717610749931  0.3081542665666122  0.1799175434923887   T   T   T
  0.9983457682811492  0.8082352994728396  0.1797480524085034   T   T   T
  0.5016262996470064  0.3081542665666122  0.1799175434923887   T   T   T
  0.5016522924408504  0.8082352994728396  0.1797480524085034   T   T   T
  0.2499986885609999  0.0554396826309137  0.2052476081291154   T   T   T
  0.2499986885609999  0.5553568763147180  0.2046687787152134   T   T   T
  0.7499986885609999  0.0553902562661092  0.2063535855299934   T   T   T
  0.7499986885609999  0.5554513565367650  0.2053540292556322   T   T   T
  0.2499992727709994  0.3086459728719764  0.2661997813186219   T   T   T
  0.2499992727709994  0.8083079172169956  0.2659973890069485   T   T   T
  0.7499992727709994  0.3069589587939841  0.2680707050647461   T   T   T
  0.7499992727709994  0.8086664015675608  0.2678999489066582   T   T   T
  0.0029543598114723  0.0587212373451309  0.2948175500692207   T   T   T
  0.0003895565932360  0.5596554328992014  0.2932249536375005   T   T   T
  0.4970435021305268  0.0587212373451309  0.2948175500692207   T   T   T
  0.4996083053487631  0.5596554328992014  0.2932249536375005   T   T   T
  0.0056300331497638  0.3121493237583906  0.3556539334363202   T   T   T
  0.0142889303559813  0.8102817850697831  0.3558810844819327   T   T   T
  0.4943689972102306  0.3121493237583906  0.3556539334363202   T   T   T
  0.4857101000040202  0.8102817850697831  0.3558810844819327   T   T   T
  0.2499991733809992  0.0616633749328581  0.3864444485528998   T   T   T
  0.2499991733809992  0.5622594611437484  0.3805520039516769   T   T   T
  0.7499991733809992  0.0627872049584003  0.3798489867991970   T   T   T
  0.7499991733809992  0.5652144018182838  0.3801372008038968   T   T   T
  0.2499997575899968  0.7999352542215813  0.4549783794991444   T   T   T
  0.7499997575899968  0.3073528451599437  0.4399050964365476   T   T   T
  0.7499997575899968  0.8401180926413438  0.4360218802920376   T   T   T
  0.0139396792348483  0.0932993677401809  0.4636500887883411   T   T   T
  0.0097937279988814  0.5423166785814442  0.4641999106822143   T   T   T
  0.4860591523451527  0.0932993677401809  0.4636500887883411   T   T   T
  0.4902051035811196  0.5423166785814442  0.4641999106822143   T   T   T
 
  0.00000000E+00  0.00000000E+00  0.00000000E+00
  0.00000000E+00  0.00000000E+00  0.00000000E+00
  0.00000000E+00  0.00000000E+00  0.00000000E+00
  0.00000000E+00  0.00000000E+00  0.00000000E+00
  0.00000000E+00  0.00000000E+00  0.00000000E+00
  0.00000000E+00  0.00000000E+00  0.00000000E+00
  0.00000000E+00  0.00000000E+00  0.00000000E+00
  0.00000000E+00  0.00000000E+00  0.00000000E+00
  0.00000000E+00  0.00000000E+00  0.00000000E+00
  0.00000000E+00  0.00000000E+00  0.00000000E+00
  0.00000000E+00  0.00000000E+00  0.00000000E+00
  0.00000000E+00  0.00000000E+00  0.00000000E+00
  0.00000000E+00  0.00000000E+00  0.00000000E+00
  0.00000000E+00  0.00000000E+00  0.00000000E+00
  0.00000000E+00  0.00000000E+00  0.00000000E+00
  0.00000000E+00  0.00000000E+00  0.00000000E+00
  0.00000000E+00  0.00000000E+00  0.00000000E+00
  0.00000000E+00  0.00000000E+00  0.00000000E+00
  0.00000000E+00  0.00000000E+00  0.00000000E+00
  0.00000000E+00  0.00000000E+00  0.00000000E+00
  0.00000000E+00  0.00000000E+00  0.00000000E+00
  0.00000000E+00  0.00000000E+00  0.00000000E+00
  0.00000000E+00  0.00000000E+00  0.00000000E+00
  0.00000000E+00  0.00000000E+00  0.00000000E+00
  0.00000000E+00  0.00000000E+00  0.00000000E+00
  0.00000000E+00  0.00000000E+00  0.00000000E+00
  0.00000000E+00  0.00000000E+00  0.00000000E+00
  0.00000000E+00  0.00000000E+00  0.00000000E+00
  0.00000000E+00  0.00000000E+00  0.00000000E+00
  0.00000000E+00  0.00000000E+00  0.00000000E+00
  0.00000000E+00  0.00000000E+00  0.00000000E+00
  0.00000000E+00  0.00000000E+00  0.00000000E+00
  0.00000000E+00  0.00000000E+00  0.00000000E+00
  0.00000000E+00  0.00000000E+00  0.00000000E+00
  0.00000000E+00  0.00000000E+00  0.00000000E+00
  0.00000000E+00  0.00000000E+00  0.00000000E+00
  0.00000000E+00  0.00000000E+00  0.00000000E+00
  0.00000000E+00  0.00000000E+00  0.00000000E+00
  0.00000000E+00  0.00000000E+00  0.00000000E+00
  0.00000000E+00  0.00000000E+00  0.00000000E+00
  0.00000000E+00  0.00000000E+00  0.00000000E+00
  0.00000000E+00  0.00000000E+00  0.00000000E+00
  0.00000000E+00  0.00000000E+00  0.00000000E+00
  0.00000000E+00  0.00000000E+00  0.00000000E+00
  0.00000000E+00  0.00000000E+00  0.00000000E+00
  0.00000000E+00  0.00000000E+00  0.00000000E+00
  0.00000000E+00  0.00000000E+00  0.00000000E+00
  0.00000000E+00  0.00000000E+00  0.00000000E+00
  0.00000000E+00  0.00000000E+00  0.00000000E+00
  0.00000000E+00  0.00000000E+00  0.00000000E+00
  0.00000000E+00  0.00000000E+00  0.00000000E+00
  0.00000000E+00  0.00000000E+00  0.00000000E+00
  0.00000000E+00  0.00000000E+00  0.00000000E+00
  0.00000000E+00  0.00000000E+00  0.00000000E+00
  0.00000000E+00  0.00000000E+00  0.00000000E+00
  0.00000000E+00  0.00000000E+00  0.00000000E+00
  0.00000000E+00  0.00000000E+00  0.00000000E+00
  0.00000000E+00  0.00000000E+00  0.00000000E+00
  0.00000000E+00  0.00000000E+00  0.00000000E+00
  0.00000000E+00  0.00000000E+00  0.00000000E+00
  0.00000000E+00  0.00000000E+00  0.00000000E+00
  0.00000000E+00  0.00000000E+00  0.00000000E+00
  0.00000000E+00  0.00000000E+00  0.00000000E+00
  0.00000000E+00  0.00000000E+00  0.00000000E+00
  0.00000000E+00  0.00000000E+00  0.00000000E+00
  0.00000000E+00  0.00000000E+00  0.00000000E+00
  0.00000000E+00  0.00000000E+00  0.00000000E+00
  0.00000000E+00  0.00000000E+00  0.00000000E+00
  0.00000000E+00  0.00000000E+00  0.00000000E+00
  0.00000000E+00  0.00000000E+00  0.00000000E+00
  0.00000000E+00  0.00000000E+00  0.00000000E+00
  0.00000000E+00  0.00000000E+00  0.00000000E+00
  0.00000000E+00  0.00000000E+00  0.00000000E+00
  0.00000000E+00  0.00000000E+00  0.00000000E+00
  0.00000000E+00  0.00000000E+00  0.00000000E+00
  0.00000000E+00  0.00000000E+00  0.00000000E+00
  0.00000000E+00  0.00000000E+00  0.00000000E+00
  0.00000000E+00  0.00000000E+00  0.00000000E+00
  0.00000000E+00  0.00000000E+00  0.00000000E+00
  0.00000000E+00  0.00000000E+00  0.00000000E+00
  0.00000000E+00  0.00000000E+00  0.00000000E+00
