B O Zn                                  
   1.00000000000000     
     6.5625568183449996    0.0000000000000000    0.0000000000000000
     0.0000000000000000   10.5156600000000005    0.0000000000000000
     0.0000000000000000    0.0000000000000000   32.0500282661819966
   B    O    Zn
     1    40    39
Selective dynamics
Direct
  0.2499997575899968  0.3117037196249670  0.4393359119710346   T   T   T
  0.2499987879510002  0.0015919446425541  0.0884591328807046   T   T   T
  0.2499987879510002  0.5009229387843351  0.0884663302390011   T   T   T
  0.7499987879510002  0.0014956678892202  0.0882643390667013   T   T   T
  0.7499987879510002  0.5012046408432775  0.0883274215034807   T   T   T
  0.9996253897952521  0.2477494628995119  0.1198049692005761   T   T   T
  0.9999189585227275  0.7477502985168780  0.1191826073107141   T   T   T
  0.5003715025067415  0.2477494628995119  0.1198049692005761   T   T   T
  0.5000779337792660  0.7477502985168780  0.1191826073107141   T   T   T
  0.9994001678677360  0.9977409388266112  0.1767967242491880   T   T   T
  0.9998022783658495  0.4973228733518104  0.1767824907281975   T   T   T
  0.5005978928542707  0.9977409388266112  0.1767967242491880   T   T   T
  0.5001957823561572  0.4973228733518104  0.1767824907281975   T   T   T
  0.2499986885609999  0.2463335847659867  0.2087063787956976   T   T   T
  0.2499986885609999  0.7462689518498204  0.2080560219276888   T   T   T
  0.7499986885609999  0.2463703036691361  0.2094261767887576   T   T   T
  0.7499986885609999  0.7462581783788119  0.2083755183885996   T   T   T
  0.2499992727709994  0.9970440863117725  0.2659258568537168   T   T   T
  0.2499992727709994  0.4975556951181330  0.2660785395802039   T   T   T
  0.7499992727709994  0.9977955824131443  0.2665468579548690   T   T   T
  0.7499992727709994  0.4961754884440114  0.2660041647876791   T   T   T
  0.0029985643224994  0.2474112097264046  0.2985806576361069   T   T   T
  0.0001379943421455  0.7480966382612688  0.2971485375722551   T   T   T
  0.4969992976195068  0.2474112097264046  0.2985806576361069   T   T   T
  0.4998598675998608  0.7480966382612688  0.2971485375722551   T   T   T
  0.0054439989219845  0.9994665467501809  0.3554566731064696   T   T   T
  0.9957341936366938  0.4977496801721275  0.3545617778692658   T   T   T
  0.4945550314380170  0.9994665467501809  0.3554566731064696   T   T   T
  0.5042648367233077  0.4977496801721275  0.3545617778692658   T   T   T
  0.2499991733809992  0.2635004767036914  0.3931424666544542   T   T   T
  0.2499991733809992  0.7442885609714623  0.3861981144431881   T   T   T
  0.7499991733809992  0.2400889822022731  0.3846782992146556   T   T   T
  0.7499991733809992  0.7566975687658115  0.3865245478102414   T   T   T
  0.2499997575899968  0.9966002562806173  0.4440214252092868   T   T   T
  0.2499997575899968  0.4603833566600243  0.4397818828303963   T   T   T
  0.7499997575899968  0.0052558731438871  0.4476252030345844   T   T   T
  0.7499997575899968  0.4953195583150453  0.4424013954778931   T   T   T
  0.0570965169282963  0.2700272894640869  0.4597897599382696   T   T   T
  0.0033917508147832  0.7355797692018899  0.4720303309896552   T   T   T
  0.4429023146517119  0.2700272894640869  0.4597897599382696   T   T   T
  0.4966070807652178  0.7355797692018899  0.4720303309896552   T   T   T
  0.2499987879510002  0.3267852507128583  0.1001507497111984   T   T   T
  0.2499987879510002  0.8269971481842420  0.0994891305179912   T   T   T
  0.7499987879510002  0.3270144527756136  0.0998545994989056   T   T   T
  0.7499987879510002  0.8269799576443703  0.0993990631236045   T   T   T
  0.9997294167721965  0.0583517912179712  0.1143918675565078   T   T   T
  0.9999478956747038  0.5580962725384966  0.1143781675083184   T   T   T
  0.5002674755297970  0.0583517912179712  0.1143918675565078   T   T   T
  0.5000489966272897  0.5580962725384966  0.1143781675083184   T   T   T
  0.9991509470744397  0.3082757048339099  0.1805036653876081   T   T   T
  0.9995862994472381  0.8085426833623065  0.1798723216901807   T   T   T
  0.5008471136475670  0.3082757048339099  0.1805036653876081   T   T   T
  0.5004117612747686  0.8085426833623065  0.1798723216901807   T   T   T
  0.2499986885609999  0.0551841003214819  0.2057167454834989   T   T   T
  0.2499986885609999  0.5551855849151387  0.2057250530912613   T   T   T
  0.7499986885609999  0.0553165163269473  0.2061463428277492   T   T   T
  0.7499986885609999  0.5550398987098862  0.2058903826343595   T   T   T
  0.2499992727709994  0.3074116572874255  0.2675539919205608   T   T   T
  0.2499992727709994  0.8065909373871483  0.2670502657049312   T   T   T
  0.7499992727709994  0.3059792061772441  0.2686289683736715   T   T   T
  0.7499992727709994  0.8072551559357166  0.2673685048573483   T   T   T
  0.0011686985294710  0.0569295892923666  0.2950079449312838   T   T   T
  0.9991642876366928  0.5580268029992144  0.2944351950609926   T   T   T
  0.4988291634125352  0.0569295892923666  0.2950079449312838   T   T   T
  0.5008335743053134  0.5580268029992144  0.2944351950609926   T   T   T
  0.9992578989150003  0.3081736190940763  0.3571195108084271   T   T   T
  0.0035766820519764  0.8070088048244353  0.3563486493343109   T   T   T
  0.5007411314450012  0.3081736190940763  0.3571195108084271   T   T   T
  0.4964223483080251  0.8070088048244353  0.3563486493343109   T   T   T
  0.2499991733809992  0.0642008867662239  0.3836301086567616   T   T   T
  0.2499991733809992  0.5573917296073987  0.3802187010317370   T   T   T
  0.7499991733809992  0.0494000691413190  0.3828402899381065   T   T   T
  0.7499991733809992  0.5688528973111512  0.3820105173377964   T   T   T
  0.2499997575899968  0.8064994704978340  0.4479311802801715   T   T   T
  0.7499997575899968  0.3115057841555809  0.4414257074768267   T   T   T
  0.7499997575899968  0.8053436986052477  0.4499494973183277   T   T   T
  0.0066878957291823  0.0897629299340200  0.4593233663326308   T   T   T
  0.0124581250314491  0.5611411728880499  0.4605474985902100   T   T   T
  0.4933109358508188  0.0897629299340200  0.4593233663326308   T   T   T
  0.4875407065485519  0.5611411728880499  0.4605474985902100   T   T   T
 
  0.00000000E+00  0.00000000E+00  0.00000000E+00
  0.00000000E+00  0.00000000E+00  0.00000000E+00
  0.00000000E+00  0.00000000E+00  0.00000000E+00
  0.00000000E+00  0.00000000E+00  0.00000000E+00
  0.00000000E+00  0.00000000E+00  0.00000000E+00
  0.00000000E+00  0.00000000E+00  0.00000000E+00
  0.00000000E+00  0.00000000E+00  0.00000000E+00
  0.00000000E+00  0.00000000E+00  0.00000000E+00
  0.00000000E+00  0.00000000E+00  0.00000000E+00
  0.00000000E+00  0.00000000E+00  0.00000000E+00
  0.00000000E+00  0.00000000E+00  0.00000000E+00
  0.00000000E+00  0.00000000E+00  0.00000000E+00
  0.00000000E+00  0.00000000E+00  0.00000000E+00
  0.00000000E+00  0.00000000E+00  0.00000000E+00
  0.00000000E+00  0.00000000E+00  0.00000000E+00
  0.00000000E+00  0.00000000E+00  0.00000000E+00
  0.00000000E+00  0.00000000E+00  0.00000000E+00
  0.00000000E+00  0.00000000E+00  0.00000000E+00
  0.00000000E+00  0.00000000E+00  0.00000000E+00
  0.00000000E+00  0.00000000E+00  0.00000000E+00
  0.00000000E+00  0.00000000E+00  0.00000000E+00
  0.00000000E+00  0.00000000E+00  0.00000000E+00
  0.00000000E+00  0.00000000E+00  0.00000000E+00
  0.00000000E+00  0.00000000E+00  0.00000000E+00
  0.00000000E+00  0.00000000E+00  0.00000000E+00
  0.00000000E+00  0.00000000E+00  0.00000000E+00
  0.00000000E+00  0.00000000E+00  0.00000000E+00
  0.00000000E+00  0.00000000E+00  0.00000000E+00
  0.00000000E+00  0.00000000E+00  0.00000000E+00
  0.00000000E+00  0.00000000E+00  0.00000000E+00
  0.00000000E+00  0.00000000E+00  0.00000000E+00
  0.00000000E+00  0.00000000E+00  0.00000000E+00
  0.00000000E+00  0.00000000E+00  0.00000000E+00
  0.00000000E+00  0.00000000E+00  0.00000000E+00
  0.00000000E+00  0.00000000E+00  0.00000000E+00
  0.00000000E+00  0.00000000E+00  0.00000000E+00
  0.00000000E+00  0.00000000E+00  0.00000000E+00
  0.00000000E+00  0.00000000E+00  0.00000000E+00
  0.00000000E+00  0.00000000E+00  0.00000000E+00
  0.00000000E+00  0.00000000E+00  0.00000000E+00
  0.00000000E+00  0.00000000E+00  0.00000000E+00
  0.00000000E+00  0.00000000E+00  0.00000000E+00
  0.00000000E+00  0.00000000E+00  0.00000000E+00
  0.00000000E+00  0.00000000E+00  0.00000000E+00
  0.00000000E+00  0.00000000E+00  0.00000000E+00
  0.00000000E+00  0.00000000E+00  0.00000000E+00
  0.00000000E+00  0.00000000E+00  0.00000000E+00
  0.00000000E+00  0.00000000E+00  0.00000000E+00
  0.00000000E+00  0.00000000E+00  0.00000000E+00
  0.00000000E+00  0.00000000E+00  0.00000000E+00
  0.00000000E+00  0.00000000E+00  0.00000000E+00
  0.00000000E+00  0.00000000E+00  0.00000000E+00
  0.00000000E+00  0.00000000E+00  0.00000000E+00
  0.00000000E+00  0.00000000E+00  0.00000000E+00
  0.00000000E+00  0.00000000E+00  0.00000000E+00
  0.00000000E+00  0.00000000E+00  0.00000000E+00
  0.00000000E+00  0.00000000E+00  0.00000000E+00
  0.00000000E+00  0.00000000E+00  0.00000000E+00
  0.00000000E+00  0.00000000E+00  0.00000000E+00
  0.00000000E+00  0.00000000E+00  0.00000000E+00
  0.00000000E+00  0.00000000E+00  0.00000000E+00
  0.00000000E+00  0.00000000E+00  0.00000000E+00
  0.00000000E+00  0.00000000E+00  0.00000000E+00
  0.00000000E+00  0.00000000E+00  0.00000000E+00
  0.00000000E+00  0.00000000E+00  0.00000000E+00
  0.00000000E+00  0.00000000E+00  0.00000000E+00
  0.00000000E+00  0.00000000E+00  0.00000000E+00
  0.00000000E+00  0.00000000E+00  0.00000000E+00
  0.00000000E+00  0.00000000E+00  0.00000000E+00
  0.00000000E+00  0.00000000E+00  0.00000000E+00
  0.00000000E+00  0.00000000E+00  0.00000000E+00
  0.00000000E+00  0.00000000E+00  0.00000000E+00
  0.00000000E+00  0.00000000E+00  0.00000000E+00
  0.00000000E+00  0.00000000E+00  0.00000000E+00
  0.00000000E+00  0.00000000E+00  0.00000000E+00
  0.00000000E+00  0.00000000E+00  0.00000000E+00
  0.00000000E+00  0.00000000E+00  0.00000000E+00
  0.00000000E+00  0.00000000E+00  0.00000000E+00
  0.00000000E+00  0.00000000E+00  0.00000000E+00
  0.00000000E+00  0.00000000E+00  0.00000000E+00
