B Cu O Zn                               
   1.00000000000000     
     6.5625568183449996    0.0000000000000000    0.0000000000000000
     0.0000000000000000   10.5156600000000005    0.0000000000000000
     0.0000000000000000    0.0000000000000000   32.0500282661819966
   B    Cu   O    Zn
     1     1    40    39
Selective dynamics
Direct
  0.2499997575899968  0.3150010097230349  0.4391422307463245   T   T   T
  0.7499973160219966  0.6681076625277446  0.5113588690064917   T   T   T
  0.2499987879510002  0.0009461202728580  0.0890936374000420   T   T   T
  0.2499987879510002  0.5003475371103341  0.0884584015589356   T   T   T
  0.7499987879510002  0.0010569388743521  0.0888837497406003   T   T   T
  0.7499987879510002  0.5008022795103863  0.0882101866606849   T   T   T
  0.9995496843982175  0.2474741237115527  0.1196632674865997   T   T   T
  0.9996648443053640  0.7472187445004808  0.1194841212098184   T   T   T
  0.5004472079037832  0.2474741237115527  0.1196632674865997   T   T   T
  0.5003320479966296  0.7472187445004808  0.1194841212098184   T   T   T
  0.9993620091372285  0.9979983967419874  0.1772437351731843   T   T   T
  0.9992709990880007  0.4976491651872343  0.1765196360972975   T   T   T
  0.5006360515847782  0.9979983967419874  0.1772437351731843   T   T   T
  0.5007270616339989  0.4976491651872343  0.1765196360972975   T   T   T
  0.2499986885609999  0.2470952056589799  0.2083355370642992   T   T   T
  0.2499986885609999  0.7468979937868940  0.2079424491115949   T   T   T
  0.7499986885609999  0.2470024409020716  0.2091283856532956   T   T   T
  0.7499986885609999  0.7472275928394579  0.2087455528900588   T   T   T
  0.2499992727709994  0.9989344602111022  0.2661034093774708   T   T   T
  0.2499992727709994  0.4988166112074796  0.2651319354899168   T   T   T
  0.7499992727709994  0.9994000041534125  0.2669107107733484   T   T   T
  0.7499992727709994  0.4982247177297731  0.2656864385344802   T   T   T
  0.0030044926531932  0.2492405340309776  0.2979788961832341   T   T   T
  0.0015614735792680  0.7502129049023660  0.2969203952932964   T   T   T
  0.4969933692888059  0.2492405340309776  0.2979788961832341   T   T   T
  0.4984363883627312  0.7502129049023660  0.2969203952932964   T   T   T
  0.0069529473656113  0.0015590215343088  0.3555012065380057   T   T   T
 -0.0000517716134489  0.5013483391219870  0.3535665835875932   T   T   T
  0.4930460829943830  0.0015590215343088  0.3555012065380057   T   T   T
  0.5000508019734503  0.5013483391219870  0.3535665835875932   T   T   T
  0.2499991733809992  0.2662125190626475  0.3926218411401048   T   T   T
  0.2499991733809992  0.7457585005607157  0.3880044674532352   T   T   T
  0.7499991733809992  0.2437756737975354  0.3831206449319248   T   T   T
  0.7499991733809992  0.7592331554876462  0.3838691426430019   T   T   T
  0.2499997575899968  0.9954176948609442  0.4445327310092620   T   T   T
  0.2499997575899968  0.4629318191975191  0.4406493576090219   T   T   T
  0.7499997575899968  0.0116222345934610  0.4462618934922902   T   T   T
  0.7499997575899968  0.4988662466829405  0.4382097924323332   T   T   T
  0.0563591187915608  0.2711901725546311  0.4591276579775861   T   T   T
  0.9910320081276544  0.7394719234461734  0.4731855658772510   T   T   T
  0.4436397127884402  0.2711901725546311  0.4591276579775861   T   T   T
  0.5089668234523467  0.7394719234461734  0.4731855658772510   T   T   T
  0.2499987879510002  0.3261606554197636  0.0999906005485126   T   T   T
  0.2499987879510002  0.8264262431447423  0.0999988324220073   T   T   T
  0.7499987879510002  0.3264946067439982  0.0997374932862987   T   T   T
  0.7499987879510002  0.8263086661538545  0.0997088602608570   T   T   T
  0.9997076502516110  0.0580094075972903  0.1148935384754333   T   T   T
  0.9998271145834794  0.5576847218954082  0.1142779010693889   T   T   T
  0.5002892420503896  0.0580094075972903  0.1148935384754333   T   T   T
  0.5001697777185212  0.5576847218954082  0.1142779010693889   T   T   T
  0.9990333391833943  0.3087697905398138  0.1802210252944579   T   T   T
  0.9991149561972670  0.8088571432380282  0.1800676800849755   T   T   T
  0.5009647215386053  0.3087697905398138  0.1802210252944579   T   T   T
  0.5008831045247326  0.8088571432380282  0.1800676800849755   T   T   T
  0.2499986885609999  0.0561911501556077  0.2058970236367435   T   T   T
  0.2499986885609999  0.5559725224922843  0.2050599164934383   T   T   T
  0.7499986885609999  0.0559093580570277  0.2064151596002692   T   T   T
  0.7499986885609999  0.5561107696890474  0.2056070912401095   T   T   T
  0.2499992727709994  0.3091270276713980  0.2670185486140115   T   T   T
  0.2499992727709994  0.8086871638724435  0.2665776546654885   T   T   T
  0.7499992727709994  0.3081787857034395  0.2681477089234117   T   T   T
  0.7499992727709994  0.8088091116254968  0.2677225631052050   T   T   T
  0.0015434707235300  0.0590341423193104  0.2950827079196765   T   T   T
  0.0008659742510788  0.5598217085707179  0.2939007063898424   T   T   T
  0.4984543912184691  0.0590341423193104  0.2950827079196765   T   T   T
  0.4991318876909202  0.5598217085707179  0.2939007063898424   T   T   T
  0.0007176897088623  0.3126972483737346  0.3563086048099883   T   T   T
  0.0096936258250879  0.8085972015559326  0.3560781215231433   T   T   T
  0.4992813406511320  0.3126972483737346  0.3563086048099883   T   T   T
  0.4903054045349135  0.8085972015559326  0.3560781215231433   T   T   T
  0.2499991733809992  0.0669849239983594  0.3841426970848031   T   T   T
  0.2499991733809992  0.5574317562815269  0.3828952638701220   T   T   T
  0.7499991733809992  0.0549235826752807  0.3814261000282622   T   T   T
  0.7499991733809992  0.5700195092985864  0.3805826782267757   T   T   T
  0.2499997575899968  0.8028637625736746  0.4507195464609738   T   T   T
  0.7499997575899968  0.3162339611611562  0.4397595947895140   T   T   T
  0.7499997575899968  0.8143586116148807  0.4437358023659239   T   T   T
  0.0088328415833562  0.0912074015821295  0.4592434589697669   T   T   T
  0.0039773665835634  0.5495103263830271  0.4685057962337600   T   T   T
  0.4911659899966447  0.0912074015821295  0.4592434589697669   T   T   T
  0.4960214649964377  0.5495103263830271  0.4685057962337600   T   T   T
 
  0.00000000E+00  0.00000000E+00  0.00000000E+00
  0.00000000E+00  0.00000000E+00  0.00000000E+00
  0.00000000E+00  0.00000000E+00  0.00000000E+00
  0.00000000E+00  0.00000000E+00  0.00000000E+00
  0.00000000E+00  0.00000000E+00  0.00000000E+00
  0.00000000E+00  0.00000000E+00  0.00000000E+00
  0.00000000E+00  0.00000000E+00  0.00000000E+00
  0.00000000E+00  0.00000000E+00  0.00000000E+00
  0.00000000E+00  0.00000000E+00  0.00000000E+00
  0.00000000E+00  0.00000000E+00  0.00000000E+00
  0.00000000E+00  0.00000000E+00  0.00000000E+00
  0.00000000E+00  0.00000000E+00  0.00000000E+00
  0.00000000E+00  0.00000000E+00  0.00000000E+00
  0.00000000E+00  0.00000000E+00  0.00000000E+00
  0.00000000E+00  0.00000000E+00  0.00000000E+00
  0.00000000E+00  0.00000000E+00  0.00000000E+00
  0.00000000E+00  0.00000000E+00  0.00000000E+00
  0.00000000E+00  0.00000000E+00  0.00000000E+00
  0.00000000E+00  0.00000000E+00  0.00000000E+00
  0.00000000E+00  0.00000000E+00  0.00000000E+00
  0.00000000E+00  0.00000000E+00  0.00000000E+00
  0.00000000E+00  0.00000000E+00  0.00000000E+00
  0.00000000E+00  0.00000000E+00  0.00000000E+00
  0.00000000E+00  0.00000000E+00  0.00000000E+00
  0.00000000E+00  0.00000000E+00  0.00000000E+00
  0.00000000E+00  0.00000000E+00  0.00000000E+00
  0.00000000E+00  0.00000000E+00  0.00000000E+00
  0.00000000E+00  0.00000000E+00  0.00000000E+00
  0.00000000E+00  0.00000000E+00  0.00000000E+00
  0.00000000E+00  0.00000000E+00  0.00000000E+00
  0.00000000E+00  0.00000000E+00  0.00000000E+00
  0.00000000E+00  0.00000000E+00  0.00000000E+00
  0.00000000E+00  0.00000000E+00  0.00000000E+00
  0.00000000E+00  0.00000000E+00  0.00000000E+00
  0.00000000E+00  0.00000000E+00  0.00000000E+00
  0.00000000E+00  0.00000000E+00  0.00000000E+00
  0.00000000E+00  0.00000000E+00  0.00000000E+00
  0.00000000E+00  0.00000000E+00  0.00000000E+00
  0.00000000E+00  0.00000000E+00  0.00000000E+00
  0.00000000E+00  0.00000000E+00  0.00000000E+00
  0.00000000E+00  0.00000000E+00  0.00000000E+00
  0.00000000E+00  0.00000000E+00  0.00000000E+00
  0.00000000E+00  0.00000000E+00  0.00000000E+00
  0.00000000E+00  0.00000000E+00  0.00000000E+00
  0.00000000E+00  0.00000000E+00  0.00000000E+00
  0.00000000E+00  0.00000000E+00  0.00000000E+00
  0.00000000E+00  0.00000000E+00  0.00000000E+00
  0.00000000E+00  0.00000000E+00  0.00000000E+00
  0.00000000E+00  0.00000000E+00  0.00000000E+00
  0.00000000E+00  0.00000000E+00  0.00000000E+00
  0.00000000E+00  0.00000000E+00  0.00000000E+00
  0.00000000E+00  0.00000000E+00  0.00000000E+00
  0.00000000E+00  0.00000000E+00  0.00000000E+00
  0.00000000E+00  0.00000000E+00  0.00000000E+00
  0.00000000E+00  0.00000000E+00  0.00000000E+00
  0.00000000E+00  0.00000000E+00  0.00000000E+00
  0.00000000E+00  0.00000000E+00  0.00000000E+00
  0.00000000E+00  0.00000000E+00  0.00000000E+00
  0.00000000E+00  0.00000000E+00  0.00000000E+00
  0.00000000E+00  0.00000000E+00  0.00000000E+00
  0.00000000E+00  0.00000000E+00  0.00000000E+00
  0.00000000E+00  0.00000000E+00  0.00000000E+00
  0.00000000E+00  0.00000000E+00  0.00000000E+00
  0.00000000E+00  0.00000000E+00  0.00000000E+00
  0.00000000E+00  0.00000000E+00  0.00000000E+00
  0.00000000E+00  0.00000000E+00  0.00000000E+00
  0.00000000E+00  0.00000000E+00  0.00000000E+00
  0.00000000E+00  0.00000000E+00  0.00000000E+00
  0.00000000E+00  0.00000000E+00  0.00000000E+00
  0.00000000E+00  0.00000000E+00  0.00000000E+00
  0.00000000E+00  0.00000000E+00  0.00000000E+00
  0.00000000E+00  0.00000000E+00  0.00000000E+00
  0.00000000E+00  0.00000000E+00  0.00000000E+00
  0.00000000E+00  0.00000000E+00  0.00000000E+00
  0.00000000E+00  0.00000000E+00  0.00000000E+00
  0.00000000E+00  0.00000000E+00  0.00000000E+00
  0.00000000E+00  0.00000000E+00  0.00000000E+00
  0.00000000E+00  0.00000000E+00  0.00000000E+00
  0.00000000E+00  0.00000000E+00  0.00000000E+00
  0.00000000E+00  0.00000000E+00  0.00000000E+00
  0.00000000E+00  0.00000000E+00  0.00000000E+00
