B Co O Zn                               
   1.00000000000000     
     6.5625568183449996    0.0000000000000000    0.0000000000000000
     0.0000000000000000   10.5156600000000005    0.0000000000000000
     0.0000000000000000    0.0000000000000000   32.0500282661819966
   B    Co   O    Zn
     1     1    40    39
Selective dynamics
Direct
  0.2499997575899968  0.3149257530608525  0.4390850360429477   T   T   T
  0.7499973160219966  0.7217063610956094  0.4959308981962852   T   T   T
  0.2499987879510002  0.0008031550331672  0.0889620356295851   T   T   T
  0.2499987879510002  0.5002760652948589  0.0884893774872303   T   T   T
  0.7499987879510002  0.0010289707474998  0.0883371545108293   T   T   T
  0.7499987879510002  0.5006728344905584  0.0879511926574565   T   T   T
  0.9993051985433634  0.2472211235403420  0.1195357083965521   T   T   T
  0.9993425462417603  0.7471157755528792  0.1192528372787676   T   T   T
  0.5006916937586372  0.2472211235403420  0.1195357083965521   T   T   T
  0.5006543460602332  0.7471157755528792  0.1192528372787676   T   T   T
  0.9984551462702076  0.9973033334797337  0.1769860532772702   T   T   T
  0.9987920420470482  0.4970947783860477  0.1764383145583604   T   T   T
  0.5015429144517991  0.9973033334797337  0.1769860532772702   T   T   T
  0.5012060186749514  0.4970947783860477  0.1764383145583604   T   T   T
  0.2499986885609999  0.2461679226635841  0.2078133497311502   T   T   T
  0.2499986885609999  0.7460515502719952  0.2075213006731038   T   T   T
  0.7499986885609999  0.2462407315633660  0.2092996777205702   T   T   T
  0.7499986885609999  0.7464623136654785  0.2090818571123765   T   T   T
  0.2499992727709994  0.9980681500722483  0.2655460095859850   T   T   T
  0.2499992727709994  0.4980119723624065  0.2649715637758525   T   T   T
  0.7499992727709994  0.9986673030854407  0.2671835710772528   T   T   T
  0.7499992727709994  0.4971497866679299  0.2658679891568446   T   T   T
  0.0044902620434952  0.2486571693645534  0.2977771131251993   T   T   T
  0.0037145611661140  0.7495079910101721  0.2973166313205327   T   T   T
  0.4955075998985040  0.2486571693645534  0.2977771131251993   T   T   T
  0.4962833007758850  0.7495079910101721  0.2973166313205327   T   T   T
  0.0090735813080215  0.0010771797456099  0.3556722963457026   T   T   T
  0.0014860229938611  0.5016098127914399  0.3535700643002177   T   T   T
  0.4909254490519658  0.0010771797456099  0.3556722963457026   T   T   T
  0.4985130073661405  0.5016098127914399  0.3535700643002177   T   T   T
  0.2499991733809992  0.2643900429362618  0.3933113561243994   T   T   T
  0.2499991733809992  0.7473929907617755  0.3924951704105337   T   T   T
  0.7499991733809992  0.2485112435330288  0.3813861200741865   T   T   T
  0.7499991733809992  0.7557378095969969  0.3820648677164259   T   T   T
  0.2499997575899968  0.9896812113317107  0.4475203346574301   T   T   T
  0.2499997575899968  0.4632997410933674  0.4395896313018851   T   T   T
  0.7499997575899968  0.0250771525209028  0.4443684001614764   T   T   T
  0.7499997575899968  0.4909037114849463  0.4384838001934590   T   T   T
  0.0575748523679631  0.2744293688019690  0.4599544835863415   T   T   T
  0.0233924048422941  0.7156556244645724  0.4880492181589707   T   T   T
  0.4424239792120379  0.2744293688019690  0.4599544835863415   T   T   T
  0.4766064267377070  0.7156556244645724  0.4880492181589707   T   T   T
  0.2499987879510002  0.3259708138991677  0.0999402894297673   T   T   T
  0.2499987879510002  0.8261720188333364  0.0998044442633389   T   T   T
  0.7499987879510002  0.3264474577944186  0.0994130488407641   T   T   T
  0.7499987879510002  0.8265993731822580  0.0992613800501069   T   T   T
  0.9992990158884494  0.0578230756539903  0.1145679996844614   T   T   T
 -0.0005312917090794  0.5576506338819640  0.1140649463131733   T   T   T
  0.5006978764135512  0.0578230756539903  0.1145679996844614   T   T   T
  0.5005281840110801  0.5576506338819640  0.1140649463131733   T   T   T
  0.9981710209188476  0.3081471370122046  0.1800256563335470   T   T   T
  0.9981904037045528  0.8081817199319732  0.1797856767713166   T   T   T
  0.5018270398031520  0.3081471370122046  0.1800256563335470   T   T   T
  0.5018076570174468  0.8081817199319732  0.1797856767713166   T   T   T
  0.2499986885609999  0.0553215033022403  0.2051864906157860   T   T   T
  0.2499986885609999  0.5551297392718222  0.2046901952661024   T   T   T
  0.7499986885609999  0.0552420689170746  0.2064651839920670   T   T   T
  0.7499986885609999  0.5552731371630899  0.2056234224207331   T   T   T
  0.2499992727709994  0.3081017359825567  0.2662266074564504   T   T   T
  0.2499992727709994  0.8081055237418862  0.2658653110855329   T   T   T
  0.7499992727709994  0.3067544781660980  0.2682720707967151   T   T   T
  0.7499992727709994  0.8081666402369698  0.2680254546953881   T   T   T
  0.0031685222969293  0.0584069554452621  0.2948516608649613   T   T   T
  0.0010602482851954  0.5592785530505916  0.2933820151871235   T   T   T
  0.4968293396450699  0.0584069554452621  0.2948516608649613   T   T   T
  0.4989376136568038  0.5592785530505916  0.2933820151871235   T   T   T
  0.0054646514692395  0.3124047067529246  0.3557836112021914   T   T   T
  0.0159225609889831  0.8095113716207739  0.3558687632500827   T   T   T
  0.4945343788907550  0.3124047067529246  0.3557836112021914   T   T   T
  0.4840764693710186  0.8095113716207739  0.3558687632500827   T   T   T
  0.2499991733809992  0.0629983547374409  0.3861271777717076   T   T   T
  0.2499991733809992  0.5611061095860680  0.3815426749741999   T   T   T
  0.7499991733809992  0.0616337646970212  0.3791584580784735   T   T   T
  0.7499991733809992  0.5655957761329350  0.3800590116892301   T   T   T
  0.2499997575899968  0.8001330548514740  0.4557730196180814   T   T   T
  0.7499997575899968  0.3059924223419693  0.4395743120751015   T   T   T
  0.7499997575899968  0.8376623851687129  0.4361030472686787   T   T   T
  0.0140347787503131  0.0928698219514702  0.4623109719318855   T   T   T
  0.0038700177452596  0.5472250132202775  0.4641626872856051   T   T   T
  0.4859640528296879  0.0928698219514702  0.4623109719318855   T   T   T
  0.4961288138347414  0.5472250132202775  0.4641626872856051   T   T   T
 
  0.00000000E+00  0.00000000E+00  0.00000000E+00
  0.00000000E+00  0.00000000E+00  0.00000000E+00
  0.00000000E+00  0.00000000E+00  0.00000000E+00
  0.00000000E+00  0.00000000E+00  0.00000000E+00
  0.00000000E+00  0.00000000E+00  0.00000000E+00
  0.00000000E+00  0.00000000E+00  0.00000000E+00
  0.00000000E+00  0.00000000E+00  0.00000000E+00
  0.00000000E+00  0.00000000E+00  0.00000000E+00
  0.00000000E+00  0.00000000E+00  0.00000000E+00
  0.00000000E+00  0.00000000E+00  0.00000000E+00
  0.00000000E+00  0.00000000E+00  0.00000000E+00
  0.00000000E+00  0.00000000E+00  0.00000000E+00
  0.00000000E+00  0.00000000E+00  0.00000000E+00
  0.00000000E+00  0.00000000E+00  0.00000000E+00
  0.00000000E+00  0.00000000E+00  0.00000000E+00
  0.00000000E+00  0.00000000E+00  0.00000000E+00
  0.00000000E+00  0.00000000E+00  0.00000000E+00
  0.00000000E+00  0.00000000E+00  0.00000000E+00
  0.00000000E+00  0.00000000E+00  0.00000000E+00
  0.00000000E+00  0.00000000E+00  0.00000000E+00
  0.00000000E+00  0.00000000E+00  0.00000000E+00
  0.00000000E+00  0.00000000E+00  0.00000000E+00
  0.00000000E+00  0.00000000E+00  0.00000000E+00
  0.00000000E+00  0.00000000E+00  0.00000000E+00
  0.00000000E+00  0.00000000E+00  0.00000000E+00
  0.00000000E+00  0.00000000E+00  0.00000000E+00
  0.00000000E+00  0.00000000E+00  0.00000000E+00
  0.00000000E+00  0.00000000E+00  0.00000000E+00
  0.00000000E+00  0.00000000E+00  0.00000000E+00
  0.00000000E+00  0.00000000E+00  0.00000000E+00
  0.00000000E+00  0.00000000E+00  0.00000000E+00
  0.00000000E+00  0.00000000E+00  0.00000000E+00
  0.00000000E+00  0.00000000E+00  0.00000000E+00
  0.00000000E+00  0.00000000E+00  0.00000000E+00
  0.00000000E+00  0.00000000E+00  0.00000000E+00
  0.00000000E+00  0.00000000E+00  0.00000000E+00
  0.00000000E+00  0.00000000E+00  0.00000000E+00
  0.00000000E+00  0.00000000E+00  0.00000000E+00
  0.00000000E+00  0.00000000E+00  0.00000000E+00
  0.00000000E+00  0.00000000E+00  0.00000000E+00
  0.00000000E+00  0.00000000E+00  0.00000000E+00
  0.00000000E+00  0.00000000E+00  0.00000000E+00
  0.00000000E+00  0.00000000E+00  0.00000000E+00
  0.00000000E+00  0.00000000E+00  0.00000000E+00
  0.00000000E+00  0.00000000E+00  0.00000000E+00
  0.00000000E+00  0.00000000E+00  0.00000000E+00
  0.00000000E+00  0.00000000E+00  0.00000000E+00
  0.00000000E+00  0.00000000E+00  0.00000000E+00
  0.00000000E+00  0.00000000E+00  0.00000000E+00
  0.00000000E+00  0.00000000E+00  0.00000000E+00
  0.00000000E+00  0.00000000E+00  0.00000000E+00
  0.00000000E+00  0.00000000E+00  0.00000000E+00
  0.00000000E+00  0.00000000E+00  0.00000000E+00
  0.00000000E+00  0.00000000E+00  0.00000000E+00
  0.00000000E+00  0.00000000E+00  0.00000000E+00
  0.00000000E+00  0.00000000E+00  0.00000000E+00
  0.00000000E+00  0.00000000E+00  0.00000000E+00
  0.00000000E+00  0.00000000E+00  0.00000000E+00
  0.00000000E+00  0.00000000E+00  0.00000000E+00
  0.00000000E+00  0.00000000E+00  0.00000000E+00
  0.00000000E+00  0.00000000E+00  0.00000000E+00
  0.00000000E+00  0.00000000E+00  0.00000000E+00
  0.00000000E+00  0.00000000E+00  0.00000000E+00
  0.00000000E+00  0.00000000E+00  0.00000000E+00
  0.00000000E+00  0.00000000E+00  0.00000000E+00
  0.00000000E+00  0.00000000E+00  0.00000000E+00
  0.00000000E+00  0.00000000E+00  0.00000000E+00
  0.00000000E+00  0.00000000E+00  0.00000000E+00
  0.00000000E+00  0.00000000E+00  0.00000000E+00
  0.00000000E+00  0.00000000E+00  0.00000000E+00
  0.00000000E+00  0.00000000E+00  0.00000000E+00
  0.00000000E+00  0.00000000E+00  0.00000000E+00
  0.00000000E+00  0.00000000E+00  0.00000000E+00
  0.00000000E+00  0.00000000E+00  0.00000000E+00
  0.00000000E+00  0.00000000E+00  0.00000000E+00
  0.00000000E+00  0.00000000E+00  0.00000000E+00
  0.00000000E+00  0.00000000E+00  0.00000000E+00
  0.00000000E+00  0.00000000E+00  0.00000000E+00
  0.00000000E+00  0.00000000E+00  0.00000000E+00
  0.00000000E+00  0.00000000E+00  0.00000000E+00
  0.00000000E+00  0.00000000E+00  0.00000000E+00
