Al W Mg O                               
   1.00000000000000     
     8.4141216974800006    0.0000000000000000    0.0000000000000000
     0.0000000000000000    8.4141216974800006    0.0000000000000000
     0.0000000000000000    0.0000000000000000   23.4141216974799988
   Al   W    Mg   O 
     1     1    31    32
Selective dynamics
Direct
  0.2500000000000000  0.2494404407476480  0.2667326334759951   T   T   T
  0.7499999495650016  0.4870987015584071  0.3766102340721072   T   T   T
  0.2500000000000000  0.0000483902480375  0.0045429191859668   T   T   T
  0.2500000000000000  0.5003440418781043  0.0045364310435528   T   T   T
  0.7500000000000000  0.0001017635934151  0.0047406523783309   T   T   T
  0.7500000000000000  0.5004136823045094  0.0048237313482567   T   T   T
  0.9997643750259610  0.2502393569232349  0.0046255939027766   T   T   T
  0.9997576177286412  0.7502133492902675  0.0047975515568686   T   T   T
  0.5002356249740390  0.2502393569232349  0.0046255939027766   T   T   T
  0.5002423822713588  0.7502133492902675  0.0047975515568686   T   T   T
  0.9993338077919257  0.9997511917191727  0.0943016731105918   T   T   T
  0.9996992302714793  0.5007250533107309  0.0943457165239842   T   T   T
  0.5006661922080743  0.9997511917191727  0.0943016731105918   T   T   T
  0.5003007697285207  0.5007250533107309  0.0943457165239842   T   T   T
  0.2500000000000000  0.2502956917259690  0.0933863218223156   T   T   T
  0.2500000000000000  0.7500285799642200  0.0940352382112842   T   T   T
  0.7500000000000000  0.2500460648874263  0.0942068536532727   T   T   T
  0.7500000000000000  0.7505325554592932  0.0946277450873156   T   T   T
  0.2500000000000000  0.9973694027812596  0.1832862598818934   T   T   T
  0.2500000000000000  0.5028534987914944  0.1838537684892997   T   T   T
  0.7500000000000000 -0.0002941985165397  0.1854395198782080   T   T   T
  0.7500000000000000  0.5009920546582490  0.1848734269657316   T   T   T
  0.9963462989820467  0.2511554521964438  0.1840291701818958   T   T   T
  0.9984062346860197  0.7493037950591418  0.1853987548460065   T   T   T
  0.5036537010179533  0.2511554521964438  0.1840291701818958   T   T   T
  0.5015937653139803  0.7493037950591418  0.1853987548460065   T   T   T
  0.0004595579750279  0.0003144668677515  0.2744356936140543   T   T   T
  0.0019322108169319  0.4996910716683857  0.2784080849712606   T   T   T
  0.4995404420249722  0.0003144668677515  0.2744356936140543   T   T   T
  0.4980677891830682  0.4996910716683857  0.2784080849712606   T   T   T
  0.2500000000000000  0.7515427651551211  0.2741902939611998   T   T   T
  0.7500000000000000  0.2489701317036009  0.2795207003202366   T   T   T
  0.7500000000000000  0.7513248382145374  0.2791691471371253   T   T   T
  0.0000650210657989  0.0003258037298610  0.0027257948508166   T   T   T
  0.0000344327992473  0.5001440462134412  0.0027288471686745   T   T   T
  0.4999349789342011  0.0003258037298610  0.0027257948508166   T   T   T
  0.4999655672007527  0.5001440462134412  0.0027288471686745   T   T   T
  0.2500000000000000  0.2501651388497191  0.0025865131030235   T   T   T
  0.2500000000000000  0.7502194261448675  0.0027620910430497   T   T   T
  0.7500000000000000  0.2502588354342092  0.0027932717854973   T   T   T
  0.7500000000000000  0.7502356580410205  0.0028297728629888   T   T   T
  0.2500000000000000  0.0008947234956954  0.0945250890258435   T   T   T
  0.2500000000000000  0.4994410453135696  0.0945326162724208   T   T   T
  0.7500000000000000  0.0006532264796635  0.0945920052687027   T   T   T
  0.7500000000000000  0.4999004099239129  0.0947206130877274   T   T   T
  0.0005346204462577  0.2502664369114163  0.0946886217258055   T   T   T
  0.0002040553459540  0.7502339277651088  0.0946172450230255   T   T   T
  0.4994653795537424  0.2502664369114163  0.0946886217258055   T   T   T
  0.4997959446540460  0.7502339277651088  0.0946172450230255   T   T   T
  0.0003735846354460  0.0004483540434488  0.1841091107110019   T   T   T
  0.0009988295805198  0.5000100338140775  0.1844537305493838   T   T   T
  0.4996264153645540  0.0004483540434488  0.1841091107110019   T   T   T
  0.4990011704194802  0.5000100338140775  0.1844537305493838   T   T   T
  0.2500000000000000  0.2497931842548991  0.1857328872311005   T   T   T
  0.2500000000000000  0.7503075544934917  0.1848369937741232   T   T   T
  0.7500000000000000  0.2494915771451123  0.1858654123049156   T   T   T
  0.7500000000000000  0.7510535470336925  0.1853356347306813   T   T   T
  0.2499999495650016  0.0174761035616939  0.2742962245277011   T   T   T
  0.2499999495650016  0.4809901133890101  0.2743934993123969   T   T   T
  0.7499999495650016  0.0035558820681113  0.2763718920581316   T   T   T
  0.7499999495650016  0.4979662432626971  0.2720486317984248   T   T   T
  0.0234465688189057  0.2475735647088537  0.2734305187951448   T   T   T
  0.0072084179791871  0.7528485587571040  0.2754527501877901   T   T   T
  0.4765534311810943  0.2475735647088537  0.2734305187951448   T   T   T
  0.4927915820208129  0.7528485587571040  0.2754527501877901   T   T   T
 
  0.00000000E+00  0.00000000E+00  0.00000000E+00
  0.00000000E+00  0.00000000E+00  0.00000000E+00
  0.00000000E+00  0.00000000E+00  0.00000000E+00
  0.00000000E+00  0.00000000E+00  0.00000000E+00
  0.00000000E+00  0.00000000E+00  0.00000000E+00
  0.00000000E+00  0.00000000E+00  0.00000000E+00
  0.00000000E+00  0.00000000E+00  0.00000000E+00
  0.00000000E+00  0.00000000E+00  0.00000000E+00
  0.00000000E+00  0.00000000E+00  0.00000000E+00
  0.00000000E+00  0.00000000E+00  0.00000000E+00
  0.00000000E+00  0.00000000E+00  0.00000000E+00
  0.00000000E+00  0.00000000E+00  0.00000000E+00
  0.00000000E+00  0.00000000E+00  0.00000000E+00
  0.00000000E+00  0.00000000E+00  0.00000000E+00
  0.00000000E+00  0.00000000E+00  0.00000000E+00
  0.00000000E+00  0.00000000E+00  0.00000000E+00
  0.00000000E+00  0.00000000E+00  0.00000000E+00
  0.00000000E+00  0.00000000E+00  0.00000000E+00
  0.00000000E+00  0.00000000E+00  0.00000000E+00
  0.00000000E+00  0.00000000E+00  0.00000000E+00
  0.00000000E+00  0.00000000E+00  0.00000000E+00
  0.00000000E+00  0.00000000E+00  0.00000000E+00
  0.00000000E+00  0.00000000E+00  0.00000000E+00
  0.00000000E+00  0.00000000E+00  0.00000000E+00
  0.00000000E+00  0.00000000E+00  0.00000000E+00
  0.00000000E+00  0.00000000E+00  0.00000000E+00
  0.00000000E+00  0.00000000E+00  0.00000000E+00
  0.00000000E+00  0.00000000E+00  0.00000000E+00
  0.00000000E+00  0.00000000E+00  0.00000000E+00
  0.00000000E+00  0.00000000E+00  0.00000000E+00
  0.00000000E+00  0.00000000E+00  0.00000000E+00
  0.00000000E+00  0.00000000E+00  0.00000000E+00
  0.00000000E+00  0.00000000E+00  0.00000000E+00
  0.00000000E+00  0.00000000E+00  0.00000000E+00
  0.00000000E+00  0.00000000E+00  0.00000000E+00
  0.00000000E+00  0.00000000E+00  0.00000000E+00
  0.00000000E+00  0.00000000E+00  0.00000000E+00
  0.00000000E+00  0.00000000E+00  0.00000000E+00
  0.00000000E+00  0.00000000E+00  0.00000000E+00
  0.00000000E+00  0.00000000E+00  0.00000000E+00
  0.00000000E+00  0.00000000E+00  0.00000000E+00
  0.00000000E+00  0.00000000E+00  0.00000000E+00
  0.00000000E+00  0.00000000E+00  0.00000000E+00
  0.00000000E+00  0.00000000E+00  0.00000000E+00
  0.00000000E+00  0.00000000E+00  0.00000000E+00
  0.00000000E+00  0.00000000E+00  0.00000000E+00
  0.00000000E+00  0.00000000E+00  0.00000000E+00
  0.00000000E+00  0.00000000E+00  0.00000000E+00
  0.00000000E+00  0.00000000E+00  0.00000000E+00
  0.00000000E+00  0.00000000E+00  0.00000000E+00
  0.00000000E+00  0.00000000E+00  0.00000000E+00
  0.00000000E+00  0.00000000E+00  0.00000000E+00
  0.00000000E+00  0.00000000E+00  0.00000000E+00
  0.00000000E+00  0.00000000E+00  0.00000000E+00
  0.00000000E+00  0.00000000E+00  0.00000000E+00
  0.00000000E+00  0.00000000E+00  0.00000000E+00
  0.00000000E+00  0.00000000E+00  0.00000000E+00
  0.00000000E+00  0.00000000E+00  0.00000000E+00
  0.00000000E+00  0.00000000E+00  0.00000000E+00
  0.00000000E+00  0.00000000E+00  0.00000000E+00
  0.00000000E+00  0.00000000E+00  0.00000000E+00
  0.00000000E+00  0.00000000E+00  0.00000000E+00
  0.00000000E+00  0.00000000E+00  0.00000000E+00
  0.00000000E+00  0.00000000E+00  0.00000000E+00
  0.00000000E+00  0.00000000E+00  0.00000000E+00
