Al Mg Ni O                              
   1.00000000000000     
     8.4141216974800006    0.0000000000000000    0.0000000000000000
     0.0000000000000000    8.4141216974800006    0.0000000000000000
     0.0000000000000000    0.0000000000000000   23.4141216974799988
   Al   Mg   Ni   O 
     1    31     1    32
Selective dynamics
Direct
  0.2500000000000000  0.2494377663722809  0.2668078893959242   T   T   T
  0.2500000000000000  0.0000165263189744  0.0046612064820792   T   T   T
  0.2500000000000000  0.5003065783623926  0.0046413998772822   T   T   T
  0.7500000000000000  0.0000233255247569  0.0048483523739220   T   T   T
  0.7500000000000000  0.5003895398311332  0.0048985823681087   T   T   T
  0.9997741308682523  0.2502091107925452  0.0047328751514340   T   T   T
  0.9997508390827020  0.7501586743130793  0.0048962150086390   T   T   T
  0.5002258691317477  0.2502091107925452  0.0047328751514340   T   T   T
  0.5002491609172980  0.7501586743130793  0.0048962150086390   T   T   T
  0.9993160433624079  0.9997365885605212  0.0944006068299116   T   T   T
  0.9999303031378410  0.5006813880564510  0.0944309774356033   T   T   T
  0.5006839566375921  0.9997365885605212  0.0944006068299116   T   T   T
  0.5000696968621590  0.5006813880564510  0.0944309774356033   T   T   T
  0.2500000000000000  0.2503045637618123  0.0935330813031057   T   T   T
  0.2500000000000000  0.7499712376482495  0.0941297864835302   T   T   T
  0.7500000000000000  0.2498406796784649  0.0942796165700498   T   T   T
  0.7500000000000000  0.7507357983909801  0.0946952850107384   T   T   T
  0.2500000000000000  0.9974282797205637  0.1833440867291624   T   T   T
  0.2500000000000000  0.5028017275590684  0.1840667716067899   T   T   T
  0.7500000000000000  0.0000452079384561  0.1856011071180746   T   T   T
  0.7500000000000000  0.5009117754865855  0.1845069855752621   T   T   T
  0.9960279149038850  0.2515837570302688  0.1842425966752025   T   T   T
  0.9982012210048227  0.7488851379775099  0.1855789594303094   T   T   T
  0.5039720850961221  0.2515837570302688  0.1842425966752025   T   T   T
  0.5017987789951773  0.7488851379775099  0.1855789594303094   T   T   T
  0.0006360330853269  0.0004424478036360  0.2744019739263293   T   T   T
  0.0013924588600773  0.4995207705710650  0.2794204765259615   T   T   T
  0.4993639669146732  0.0004424478036360  0.2744019739263293   T   T   T
  0.4986075411399227  0.4995207705710650  0.2794204765259615   T   T   T
  0.2500000000000000  0.7513660271643409  0.2741660808876900   T   T   T
  0.7500000000000000  0.2495948892716945  0.2806021588665172   T   T   T
  0.7500000000000000  0.7510366944698673  0.2792007472992207   T   T   T
  0.7499999495650016  0.4849969993253596  0.3568005127710052   T   T   T
  0.0000423895928829  0.0002691018141465  0.0026201189262582   T   T   T
  0.0000159812280321  0.5001547373037191  0.0026144455856225   T   T   T
  0.4999576104071172  0.0002691018141465  0.0026201189262582   T   T   T
  0.4999840187719679  0.5001547373037191  0.0026144455856225   T   T   T
  0.2500000000000000  0.2501515562367185  0.0025203425944481   T   T   T
  0.2500000000000000  0.7501566437738649  0.0026838885598718   T   T   T
  0.7500000000000000  0.2502093324731650  0.0026996128660229   T   T   T
  0.7500000000000000  0.7501892564926751  0.0026975110758731   T   T   T
  0.2500000000000000  0.0008808109080893  0.0944733042395242   T   T   T
  0.2500000000000000  0.4994227518873453  0.0944435405281201   T   T   T
  0.7500000000000000  0.0006404469961844  0.0944898198027670   T   T   T
  0.7500000000000000  0.4998981400992458  0.0945565923021971   T   T   T
  0.0005829789720268  0.2502050540526310  0.0946232444445697   T   T   T
  0.0002284081747904  0.7502339354508288  0.0945505533548594   T   T   T
  0.4994170210279731  0.2502050540526310  0.0946232444445697   T   T   T
  0.4997715918252096  0.7502339354508288  0.0945505533548594   T   T   T
  0.0003095471509922  0.0004275001433673  0.1841374568837846   T   T   T
  0.0012769902443579  0.5000355634475090  0.1842848954224969   T   T   T
  0.4996904528490078  0.0004275001433673  0.1841374568837846   T   T   T
  0.4987230097556421  0.5000355634475090  0.1842848954224969   T   T   T
  0.2500000000000000  0.2498596778389938  0.1857713709245328   T   T   T
  0.2500000000000000  0.7503097395769409  0.1848754486841342   T   T   T
  0.7500000000000000  0.2493094542665764  0.1857283053995460   T   T   T
  0.7500000000000000  0.7516109499104394  0.1851245213440222   T   T   T
  0.2499999495650016  0.0173953036093655  0.2742260612863356   T   T   T
  0.2499999495650016  0.4812272346929951  0.2747324802372603   T   T   T
  0.7499999495650016  0.0037833366749973  0.2767308579580778   T   T   T
  0.7499999495650016  0.4994840761017710  0.2708648101940142   T   T   T
  0.0236696805667435  0.2475536162865181  0.2736696678569309   T   T   T
  0.0070855348310768  0.7530344522140402  0.2757861393404744   T   T   T
  0.4763303194332565  0.2475536162865181  0.2736696678569309   T   T   T
  0.4929144651689232  0.7530344522140402  0.2757861393404744   T   T   T
 
  0.00000000E+00  0.00000000E+00  0.00000000E+00
  0.00000000E+00  0.00000000E+00  0.00000000E+00
  0.00000000E+00  0.00000000E+00  0.00000000E+00
  0.00000000E+00  0.00000000E+00  0.00000000E+00
  0.00000000E+00  0.00000000E+00  0.00000000E+00
  0.00000000E+00  0.00000000E+00  0.00000000E+00
  0.00000000E+00  0.00000000E+00  0.00000000E+00
  0.00000000E+00  0.00000000E+00  0.00000000E+00
  0.00000000E+00  0.00000000E+00  0.00000000E+00
  0.00000000E+00  0.00000000E+00  0.00000000E+00
  0.00000000E+00  0.00000000E+00  0.00000000E+00
  0.00000000E+00  0.00000000E+00  0.00000000E+00
  0.00000000E+00  0.00000000E+00  0.00000000E+00
  0.00000000E+00  0.00000000E+00  0.00000000E+00
  0.00000000E+00  0.00000000E+00  0.00000000E+00
  0.00000000E+00  0.00000000E+00  0.00000000E+00
  0.00000000E+00  0.00000000E+00  0.00000000E+00
  0.00000000E+00  0.00000000E+00  0.00000000E+00
  0.00000000E+00  0.00000000E+00  0.00000000E+00
  0.00000000E+00  0.00000000E+00  0.00000000E+00
  0.00000000E+00  0.00000000E+00  0.00000000E+00
  0.00000000E+00  0.00000000E+00  0.00000000E+00
  0.00000000E+00  0.00000000E+00  0.00000000E+00
  0.00000000E+00  0.00000000E+00  0.00000000E+00
  0.00000000E+00  0.00000000E+00  0.00000000E+00
  0.00000000E+00  0.00000000E+00  0.00000000E+00
  0.00000000E+00  0.00000000E+00  0.00000000E+00
  0.00000000E+00  0.00000000E+00  0.00000000E+00
  0.00000000E+00  0.00000000E+00  0.00000000E+00
  0.00000000E+00  0.00000000E+00  0.00000000E+00
  0.00000000E+00  0.00000000E+00  0.00000000E+00
  0.00000000E+00  0.00000000E+00  0.00000000E+00
  0.00000000E+00  0.00000000E+00  0.00000000E+00
  0.00000000E+00  0.00000000E+00  0.00000000E+00
  0.00000000E+00  0.00000000E+00  0.00000000E+00
  0.00000000E+00  0.00000000E+00  0.00000000E+00
  0.00000000E+00  0.00000000E+00  0.00000000E+00
  0.00000000E+00  0.00000000E+00  0.00000000E+00
  0.00000000E+00  0.00000000E+00  0.00000000E+00
  0.00000000E+00  0.00000000E+00  0.00000000E+00
  0.00000000E+00  0.00000000E+00  0.00000000E+00
  0.00000000E+00  0.00000000E+00  0.00000000E+00
  0.00000000E+00  0.00000000E+00  0.00000000E+00
  0.00000000E+00  0.00000000E+00  0.00000000E+00
  0.00000000E+00  0.00000000E+00  0.00000000E+00
  0.00000000E+00  0.00000000E+00  0.00000000E+00
  0.00000000E+00  0.00000000E+00  0.00000000E+00
  0.00000000E+00  0.00000000E+00  0.00000000E+00
  0.00000000E+00  0.00000000E+00  0.00000000E+00
  0.00000000E+00  0.00000000E+00  0.00000000E+00
  0.00000000E+00  0.00000000E+00  0.00000000E+00
  0.00000000E+00  0.00000000E+00  0.00000000E+00
  0.00000000E+00  0.00000000E+00  0.00000000E+00
  0.00000000E+00  0.00000000E+00  0.00000000E+00
  0.00000000E+00  0.00000000E+00  0.00000000E+00
  0.00000000E+00  0.00000000E+00  0.00000000E+00
  0.00000000E+00  0.00000000E+00  0.00000000E+00
  0.00000000E+00  0.00000000E+00  0.00000000E+00
  0.00000000E+00  0.00000000E+00  0.00000000E+00
  0.00000000E+00  0.00000000E+00  0.00000000E+00
  0.00000000E+00  0.00000000E+00  0.00000000E+00
  0.00000000E+00  0.00000000E+00  0.00000000E+00
  0.00000000E+00  0.00000000E+00  0.00000000E+00
  0.00000000E+00  0.00000000E+00  0.00000000E+00
  0.00000000E+00  0.00000000E+00  0.00000000E+00
