Al Mg O Ru                              
   1.00000000000000     
     8.4141216974800006    0.0000000000000000    0.0000000000000000
     0.0000000000000000    8.4141216974800006    0.0000000000000000
     0.0000000000000000    0.0000000000000000   23.4141216974799988
   Al   Mg   O    Ru
     1    31    32     1
Selective dynamics
Direct
  0.2500000000000000  0.2490731469378381  0.2673534972840628   T   T   T
  0.2500000000000000 -0.0000310187172086  0.0053065537673153   T   T   T
  0.2500000000000000  0.5002841785414943  0.0052770841078425   T   T   T
  0.7500000000000000 -0.0000108980097605  0.0054744583621266   T   T   T
  0.7500000000000000  0.5003358896949491  0.0055069832050281   T   T   T
 -0.0002832877737836  0.2501424981158404  0.0053825351253968   T   T   T
 -0.0002958832713728  0.7501468525642832  0.0055031917841588   T   T   T
  0.5002832877737837  0.2501424981158404  0.0053825351253968   T   T   T
  0.5002958832713729  0.7501468525642832  0.0055031917841588   T   T   T
 -0.0008343823589770 -0.0003163890013348  0.0950293193536005   T   T   T
 -0.0003579554636649  0.5007129347465912  0.0950155319340322   T   T   T
  0.5008343823589770 -0.0003163890013348  0.0950293193536005   T   T   T
  0.5003579554636650  0.5007129347465912  0.0950155319340322   T   T   T
  0.2500000000000000  0.2501892275975595  0.0941524838142766   T   T   T
  0.2500000000000000  0.7501188444553297  0.0947431034025139   T   T   T
  0.7500000000000000  0.2497973805716101  0.0949965123968333   T   T   T
  0.7500000000000000  0.7506613365546048  0.0954396701469663   T   T   T
  0.2500000000000000 -0.0026170857124400  0.1839348253622920   T   T   T
  0.2500000000000000  0.5029506425849565  0.1843166826829112   T   T   T
  0.7500000000000000 -0.0001979212359505  0.1865383378170616   T   T   T
  0.7500000000000000  0.5009091289997670  0.1855009723968551   T   T   T
 -0.0044123138552973  0.2510151129320534  0.1848939189237756   T   T   T
 -0.0022580139969585  0.7494970456460003  0.1862278490979608   T   T   T
  0.5044123138552972  0.2510151129320534  0.1848939189237756   T   T   T
  0.5022580139969584  0.7494970456460003  0.1862278490979608   T   T   T
  0.0000799970271028  0.0003838644293782  0.2752244862748185   T   T   T
  0.0039280324375720  0.5000146958393724  0.2781412948035196   T   T   T
  0.4999200029728971  0.0003838644293782  0.2752244862748185   T   T   T
  0.4960719675624279  0.5000146958393724  0.2781412948035196   T   T   T
  0.2500000000000000  0.7523991129498691  0.2747967640570609   T   T   T
  0.7500000000000000  0.2499415824522091  0.2823681139482924   T   T   T
  0.7500000000000000  0.7501037779204147  0.2817640871301710   T   T   T
  0.0000692850077010  0.0002334132272990  0.0032506001861613   T   T   T
  0.0000277101815807  0.5000484319418353  0.0032414370085529   T   T   T
  0.4999307149922991  0.0002334132272990  0.0032506001861613   T   T   T
  0.4999722898184192  0.5000484319418353  0.0032414370085529   T   T   T
  0.2500000000000000  0.2501426902079251  0.0031568432339565   T   T   T
  0.2500000000000000  0.7501104659946417  0.0033029336067288   T   T   T
  0.7500000000000000  0.2502045326864806  0.0033519491720918   T   T   T
  0.7500000000000000  0.7501026310423609  0.0033327173712294   T   T   T
  0.2500000000000000  0.0008395462345943  0.0951032791284053   T   T   T
  0.2500000000000000  0.4994710634178596  0.0950728655120141   T   T   T
  0.7500000000000000  0.0005712398967824  0.0951307492602369   T   T   T
  0.7500000000000000  0.4998824873175561  0.0952194339904256   T   T   T
  0.0005314307929248  0.2502416158121260  0.0952758052891297   T   T   T
  0.0002034966101866  0.7501687087005915  0.0951772825282558   T   T   T
  0.4994685692070753  0.2502416158121260  0.0952758052891297   T   T   T
  0.4997965033898134  0.7501687087005915  0.0951772825282558   T   T   T
  0.0002853699876698  0.0004942281387787  0.1848239690621104   T   T   T
  0.0011105064726475  0.5000241302183547  0.1849865913648600   T   T   T
  0.4997146300123302  0.0004942281387787  0.1848239690621104   T   T   T
  0.4988894935273525  0.5000241302183547  0.1849865913648600   T   T   T
  0.2500000000000000  0.2497185606533217  0.1863218995776129   T   T   T
  0.2500000000000000  0.7503744137360600  0.1853677837074910   T   T   T
  0.7500000000000000  0.2492621851673912  0.1863197769763741   T   T   T
  0.7500000000000000  0.7513684030191461  0.1858287052224011   T   T   T
  0.2499999495650016  0.0173418783746663  0.2748225225420573   T   T   T
  0.2499999495650016  0.4812767508658359  0.2746758595904196   T   T   T
  0.7499999495650016  0.0036614013306660  0.2774690072615792   T   T   T
  0.7499999495650016  0.4982515989167269  0.2721537775657997   T   T   T
  0.0239424071526926  0.2479310785971484  0.2743412826741913   T   T   T
  0.0076798084616976  0.7526322729250281  0.2762952730489607   T   T   T
  0.4760575928473074  0.2479310785971484  0.2743412826741913   T   T   T
  0.4923201915383024  0.7526322729250281  0.2762952730489607   T   T   T
  0.7499999495650016  0.4867718358860494  0.3706479364355680   T   T   T
 
  0.00000000E+00  0.00000000E+00  0.00000000E+00
  0.00000000E+00  0.00000000E+00  0.00000000E+00
  0.00000000E+00  0.00000000E+00  0.00000000E+00
  0.00000000E+00  0.00000000E+00  0.00000000E+00
  0.00000000E+00  0.00000000E+00  0.00000000E+00
  0.00000000E+00  0.00000000E+00  0.00000000E+00
  0.00000000E+00  0.00000000E+00  0.00000000E+00
  0.00000000E+00  0.00000000E+00  0.00000000E+00
  0.00000000E+00  0.00000000E+00  0.00000000E+00
  0.00000000E+00  0.00000000E+00  0.00000000E+00
  0.00000000E+00  0.00000000E+00  0.00000000E+00
  0.00000000E+00  0.00000000E+00  0.00000000E+00
  0.00000000E+00  0.00000000E+00  0.00000000E+00
  0.00000000E+00  0.00000000E+00  0.00000000E+00
  0.00000000E+00  0.00000000E+00  0.00000000E+00
  0.00000000E+00  0.00000000E+00  0.00000000E+00
  0.00000000E+00  0.00000000E+00  0.00000000E+00
  0.00000000E+00  0.00000000E+00  0.00000000E+00
  0.00000000E+00  0.00000000E+00  0.00000000E+00
  0.00000000E+00  0.00000000E+00  0.00000000E+00
  0.00000000E+00  0.00000000E+00  0.00000000E+00
  0.00000000E+00  0.00000000E+00  0.00000000E+00
  0.00000000E+00  0.00000000E+00  0.00000000E+00
  0.00000000E+00  0.00000000E+00  0.00000000E+00
  0.00000000E+00  0.00000000E+00  0.00000000E+00
  0.00000000E+00  0.00000000E+00  0.00000000E+00
  0.00000000E+00  0.00000000E+00  0.00000000E+00
  0.00000000E+00  0.00000000E+00  0.00000000E+00
  0.00000000E+00  0.00000000E+00  0.00000000E+00
  0.00000000E+00  0.00000000E+00  0.00000000E+00
  0.00000000E+00  0.00000000E+00  0.00000000E+00
  0.00000000E+00  0.00000000E+00  0.00000000E+00
  0.00000000E+00  0.00000000E+00  0.00000000E+00
  0.00000000E+00  0.00000000E+00  0.00000000E+00
  0.00000000E+00  0.00000000E+00  0.00000000E+00
  0.00000000E+00  0.00000000E+00  0.00000000E+00
  0.00000000E+00  0.00000000E+00  0.00000000E+00
  0.00000000E+00  0.00000000E+00  0.00000000E+00
  0.00000000E+00  0.00000000E+00  0.00000000E+00
  0.00000000E+00  0.00000000E+00  0.00000000E+00
  0.00000000E+00  0.00000000E+00  0.00000000E+00
  0.00000000E+00  0.00000000E+00  0.00000000E+00
  0.00000000E+00  0.00000000E+00  0.00000000E+00
  0.00000000E+00  0.00000000E+00  0.00000000E+00
  0.00000000E+00  0.00000000E+00  0.00000000E+00
  0.00000000E+00  0.00000000E+00  0.00000000E+00
  0.00000000E+00  0.00000000E+00  0.00000000E+00
  0.00000000E+00  0.00000000E+00  0.00000000E+00
  0.00000000E+00  0.00000000E+00  0.00000000E+00
  0.00000000E+00  0.00000000E+00  0.00000000E+00
  0.00000000E+00  0.00000000E+00  0.00000000E+00
  0.00000000E+00  0.00000000E+00  0.00000000E+00
  0.00000000E+00  0.00000000E+00  0.00000000E+00
  0.00000000E+00  0.00000000E+00  0.00000000E+00
  0.00000000E+00  0.00000000E+00  0.00000000E+00
  0.00000000E+00  0.00000000E+00  0.00000000E+00
  0.00000000E+00  0.00000000E+00  0.00000000E+00
  0.00000000E+00  0.00000000E+00  0.00000000E+00
  0.00000000E+00  0.00000000E+00  0.00000000E+00
  0.00000000E+00  0.00000000E+00  0.00000000E+00
  0.00000000E+00  0.00000000E+00  0.00000000E+00
  0.00000000E+00  0.00000000E+00  0.00000000E+00
  0.00000000E+00  0.00000000E+00  0.00000000E+00
  0.00000000E+00  0.00000000E+00  0.00000000E+00
  0.00000000E+00  0.00000000E+00  0.00000000E+00
