Al Nb Mg O                              
   1.00000000000000     
     8.4141216974800006    0.0000000000000000    0.0000000000000000
     0.0000000000000000    8.4141216974800006    0.0000000000000000
     0.0000000000000000    0.0000000000000000   23.4141216974799988
   Al   Nb   Mg   O 
     1     1    31    32
Selective dynamics
Direct
  0.2500000000000000  0.2485377429466170  0.2664199627589480   T   T   T
  0.7499999495650016  0.4908491157804165  0.3712130844044340   T   T   T
  0.2500000000000000  0.0000279751730722  0.0046134434395905   T   T   T
  0.2500000000000000  0.5003533356452464  0.0047120351586633   T   T   T
  0.7500000000000000  0.0000481014978186  0.0049076380198749   T   T   T
  0.7500000000000000  0.5003879518183908  0.0049466314381093   T   T   T
  0.9997026056595276  0.2503151517892847  0.0047200604264278   T   T   T
  0.9997007869924025  0.7501153341698314  0.0048941870866685   T   T   T
  0.5002973943404724  0.2503151517892847  0.0047200604264278   T   T   T
  0.5002992130075975  0.7501153341698314  0.0048941870866685   T   T   T
  0.9993863460474286  0.9997159688861726  0.0943040309369846   T   T   T
  0.9992963374781890  0.5006972964226521  0.0945663202434658   T   T   T
  0.5006136539525714  0.9997159688861726  0.0943040309369846   T   T   T
  0.5007036625218110  0.5006972964226521  0.0945663202434658   T   T   T
  0.2500000000000000  0.2502241956138238  0.0934624049184647   T   T   T
  0.2500000000000000  0.7500127570816471  0.0940675756513592   T   T   T
  0.7500000000000000  0.2504193565730681  0.0943737210391813   T   T   T
  0.7500000000000000  0.7499901229210428  0.0948562635045333   T   T   T
  0.2500000000000000  0.9971086704641655  0.1831699181627189   T   T   T
  0.2500000000000000  0.5028739208979748  0.1838378282865400   T   T   T
  0.7500000000000000  0.9994470489598906  0.1854229420067613   T   T   T
  0.7500000000000000  0.5009549347054754  0.1862992575960877   T   T   T
  0.9961638199512465  0.2511624654397441  0.1841031293765000   T   T   T
  0.9982735507047286  0.7491749810728511  0.1855530047036525   T   T   T
  0.5038361800487535  0.2511624654397441  0.1841031293765000   T   T   T
  0.5017264492952714  0.7491749810728511  0.1855530047036525   T   T   T
  0.0011553137514103  0.0002898797755634  0.2744045746826559   T   T   T
  0.0056224284687058  0.4997053313852269  0.2788889079562679   T   T   T
  0.4988446862485897  0.0002898797755634  0.2744045746826559   T   T   T
  0.4943775715312941  0.4997053313852269  0.2788889079562679   T   T   T
  0.2500000000000000  0.7524058651190150  0.2741186809687540   T   T   T
  0.7500000000000000  0.2451911850638917  0.2800389973798592   T   T   T
  0.7500000000000000  0.7550166292498155  0.2798461452305777   T   T   T
  0.0000207590834609  0.0003097502805898  0.0026044151568411   T   T   T
  0.0000469355306725  0.5001617903954710  0.0026534306276125   T   T   T
  0.4999792409165391  0.0003097502805898  0.0026044151568411   T   T   T
  0.4999530644693275  0.5001617903954710  0.0026534306276125   T   T   T
  0.2500000000000000  0.2502111605522374  0.0024895059569199   T   T   T
  0.2500000000000000  0.7501634909151021  0.0026764505083343   T   T   T
  0.7500000000000000  0.2502276484365709  0.0027408949893792   T   T   T
  0.7500000000000000  0.7502084530488180  0.0027785261135970   T   T   T
  0.2500000000000000  0.0007966650616906  0.0943196067912494   T   T   T
  0.2500000000000000  0.4994501448362244  0.0946023405914940   T   T   T
  0.7500000000000000  0.0006245089383331  0.0946653200626480   T   T   T
  0.7500000000000000  0.4998098843457244  0.0947921285480956   T   T   T
  0.0002538295698371  0.2504299693328856  0.0946010466369846   T   T   T
  0.0000133092693266  0.7499955952232200  0.0945510666031810   T   T   T
  0.4997461704301629  0.2504299693328856  0.0946010466369846   T   T   T
  0.4999866907306735  0.7499955952232200  0.0945510666031810   T   T   T
  0.0001487694305282  0.0004435070277371  0.1838126764334590   T   T   T
 -0.0000953975172732  0.4999362338058722  0.1847923062793521   T   T   T
  0.4998512305694719  0.0004435070277371  0.1838126764334590   T   T   T
  0.5000953975172733  0.4999362338058722  0.1847923062793521   T   T   T
  0.2500000000000000  0.2497346831387266  0.1852878003287913   T   T   T
  0.2500000000000000  0.7500543281900260  0.1844689339041184   T   T   T
  0.7500000000000000  0.2505058162776351  0.1863069589365095   T   T   T
  0.7500000000000000  0.7499379587416461  0.1856554238553251   T   T   T
  0.2499999495650016  0.0170471958560230  0.2740840062375249   T   T   T
  0.2499999495650016  0.4809314923592538  0.2738731720853756   T   T   T
  0.7499999495650016  0.0029233035233778  0.2758524543239801   T   T   T
  0.7499999495650016  0.4975527873022302  0.2761466209365069   T   T   T
  0.0244267452131776  0.2468858808501255  0.2729776111471079   T   T   T
  0.0080845563977207  0.7536466486267583  0.2749982649041839   T   T   T
  0.4755732547868224  0.2468858808501255  0.2729776111471079   T   T   T
  0.4919154436022794  0.7536466486267583  0.2749982649041839   T   T   T
 
  0.00000000E+00  0.00000000E+00  0.00000000E+00
  0.00000000E+00  0.00000000E+00  0.00000000E+00
  0.00000000E+00  0.00000000E+00  0.00000000E+00
  0.00000000E+00  0.00000000E+00  0.00000000E+00
  0.00000000E+00  0.00000000E+00  0.00000000E+00
  0.00000000E+00  0.00000000E+00  0.00000000E+00
  0.00000000E+00  0.00000000E+00  0.00000000E+00
  0.00000000E+00  0.00000000E+00  0.00000000E+00
  0.00000000E+00  0.00000000E+00  0.00000000E+00
  0.00000000E+00  0.00000000E+00  0.00000000E+00
  0.00000000E+00  0.00000000E+00  0.00000000E+00
  0.00000000E+00  0.00000000E+00  0.00000000E+00
  0.00000000E+00  0.00000000E+00  0.00000000E+00
  0.00000000E+00  0.00000000E+00  0.00000000E+00
  0.00000000E+00  0.00000000E+00  0.00000000E+00
  0.00000000E+00  0.00000000E+00  0.00000000E+00
  0.00000000E+00  0.00000000E+00  0.00000000E+00
  0.00000000E+00  0.00000000E+00  0.00000000E+00
  0.00000000E+00  0.00000000E+00  0.00000000E+00
  0.00000000E+00  0.00000000E+00  0.00000000E+00
  0.00000000E+00  0.00000000E+00  0.00000000E+00
  0.00000000E+00  0.00000000E+00  0.00000000E+00
  0.00000000E+00  0.00000000E+00  0.00000000E+00
  0.00000000E+00  0.00000000E+00  0.00000000E+00
  0.00000000E+00  0.00000000E+00  0.00000000E+00
  0.00000000E+00  0.00000000E+00  0.00000000E+00
  0.00000000E+00  0.00000000E+00  0.00000000E+00
  0.00000000E+00  0.00000000E+00  0.00000000E+00
  0.00000000E+00  0.00000000E+00  0.00000000E+00
  0.00000000E+00  0.00000000E+00  0.00000000E+00
  0.00000000E+00  0.00000000E+00  0.00000000E+00
  0.00000000E+00  0.00000000E+00  0.00000000E+00
  0.00000000E+00  0.00000000E+00  0.00000000E+00
  0.00000000E+00  0.00000000E+00  0.00000000E+00
  0.00000000E+00  0.00000000E+00  0.00000000E+00
  0.00000000E+00  0.00000000E+00  0.00000000E+00
  0.00000000E+00  0.00000000E+00  0.00000000E+00
  0.00000000E+00  0.00000000E+00  0.00000000E+00
  0.00000000E+00  0.00000000E+00  0.00000000E+00
  0.00000000E+00  0.00000000E+00  0.00000000E+00
  0.00000000E+00  0.00000000E+00  0.00000000E+00
  0.00000000E+00  0.00000000E+00  0.00000000E+00
  0.00000000E+00  0.00000000E+00  0.00000000E+00
  0.00000000E+00  0.00000000E+00  0.00000000E+00
  0.00000000E+00  0.00000000E+00  0.00000000E+00
  0.00000000E+00  0.00000000E+00  0.00000000E+00
  0.00000000E+00  0.00000000E+00  0.00000000E+00
  0.00000000E+00  0.00000000E+00  0.00000000E+00
  0.00000000E+00  0.00000000E+00  0.00000000E+00
  0.00000000E+00  0.00000000E+00  0.00000000E+00
  0.00000000E+00  0.00000000E+00  0.00000000E+00
  0.00000000E+00  0.00000000E+00  0.00000000E+00
  0.00000000E+00  0.00000000E+00  0.00000000E+00
  0.00000000E+00  0.00000000E+00  0.00000000E+00
  0.00000000E+00  0.00000000E+00  0.00000000E+00
  0.00000000E+00  0.00000000E+00  0.00000000E+00
  0.00000000E+00  0.00000000E+00  0.00000000E+00
  0.00000000E+00  0.00000000E+00  0.00000000E+00
  0.00000000E+00  0.00000000E+00  0.00000000E+00
  0.00000000E+00  0.00000000E+00  0.00000000E+00
  0.00000000E+00  0.00000000E+00  0.00000000E+00
  0.00000000E+00  0.00000000E+00  0.00000000E+00
  0.00000000E+00  0.00000000E+00  0.00000000E+00
  0.00000000E+00  0.00000000E+00  0.00000000E+00
  0.00000000E+00  0.00000000E+00  0.00000000E+00
