Ag Al Mg O                              
   1.00000000000000     
     8.4141216974800006    0.0000000000000000    0.0000000000000000
     0.0000000000000000    8.4141216974800006    0.0000000000000000
     0.0000000000000000    0.0000000000000000   23.4141216974799988
   Ag   Al   Mg   O 
     1     1    31    32
Selective dynamics
Direct
  0.7499999495650016  0.3651123150473231  0.3915134038672895   T   T   T
  0.2500000000000000  0.2522970018477108  0.2673398856564828   T   T   T
  0.2500000000000000  0.0019696820285802  0.0051832050951054   T   T   T
  0.2500000000000000  0.5021611770887607  0.0051359749672078   T   T   T
  0.7500000000000000  0.0020464476858561  0.0052916201415927   T   T   T
  0.7500000000000000  0.5022176250799177  0.0053170050844423   T   T   T
  0.9998312101683587  0.2520064944091293  0.0052151237655009   T   T   T
  0.9998444100435518  0.7520773539155312  0.0053071462330627   T   T   T
  0.5001687898316484  0.2520064944091293  0.0052151237655009   T   T   T
  0.5001555899564482  0.7520773539155312  0.0053071462330627   T   T   T
  0.9993603235468860  0.0016173482178024  0.0948861084440868   T   T   T
  0.9997811293554854  0.5025777575639013  0.0948530466116253   T   T   T
  0.5006396764531140  0.0016173482178024  0.0948861084440868   T   T   T
  0.5002188706445146  0.5025777575639013  0.0948530466116253   T   T   T
  0.2500000000000000  0.2521582408986659  0.0940931060018604   T   T   T
  0.2500000000000000  0.7519361233162364  0.0945499766868559   T   T   T
  0.7500000000000000  0.2519246269777188  0.0947230549742769   T   T   T
  0.7500000000000000  0.7526027652921946  0.0950473267934284   T   T   T
  0.2500000000000000  0.9994844315723398  0.1842108298395734   T   T   T
  0.2500000000000000  0.5044408930746581  0.1845206601989869   T   T   T
  0.7500000000000000  0.0030934498947897  0.1860390895449392   T   T   T
  0.7500000000000000  0.5019791240879623  0.1852716653226329   T   T   T
  0.9957377470958021  0.2529665737895412  0.1846979914290278   T   T   T
  0.9987504560195845  0.7511071572029629  0.1858320502032502   T   T   T
  0.5042622529041979  0.2529665737895412  0.1846979914290278   T   T   T
  0.5012495439804155  0.7511071572029629  0.1858320502032502   T   T   T
  0.9996203453973841  0.0031167564853131  0.2755723591573909   T   T   T
  0.9966861563272289  0.4997895245790967  0.2783781264833115   T   T   T
  0.5003796546026159  0.0031167564853131  0.2755723591573909   T   T   T
  0.5033138436727640  0.4997895245790967  0.2783781264833115   T   T   T
  0.2500000000000000  0.7505599342119996  0.2749233157605858   T   T   T
  0.7500000000000000  0.2534369902592359  0.2832327276147413   T   T   T
  0.7500000000000000  0.7514789931047878  0.2760692313889744   T   T   T
  0.0001064589873232  0.0021327170098159  0.0030839016394856   T   T   T
  0.0000602045029487  0.5019763588830147  0.0030586607937112   T   T   T
  0.4998935410126768  0.0021327170098159  0.0030839016394856   T   T   T
  0.4999397954970513  0.5019763588830147  0.0030586607937112   T   T   T
  0.2500000000000000  0.2520289626252691  0.0030478038487642   T   T   T
  0.2500000000000000  0.7520810677343057  0.0031170452407803   T   T   T
  0.7500000000000000  0.2521504982195962  0.0031175925168385   T   T   T
  0.7500000000000000  0.7521160163654637  0.0031183912212326   T   T   T
  0.2500000000000000  0.0026193906155166  0.0950905222176702   T   T   T
  0.2500000000000000  0.5014767295610428  0.0949215481850131   T   T   T
  0.7500000000000000  0.0026849193224452  0.0948960789771022   T   T   T
  0.7500000000000000  0.5018593741067460  0.0949317779187193   T   T   T
  0.0006270438014125  0.2519960775972557  0.0951001678673526   T   T   T
  0.0004759979201356  0.7521743241848119  0.0949847719337730   T   T   T
  0.4993729561985875  0.2519960775972557  0.0951001678673526   T   T   T
  0.4995240020798644  0.7521743241848119  0.0949847719337730   T   T   T
  0.0006498621696388  0.0018113076292462  0.1848073362059773   T   T   T
  0.0014987565129139  0.5022045567634793  0.1845985136767177   T   T   T
  0.4993501378303612  0.0018113076292462  0.1848073362059773   T   T   T
  0.4985012434870861  0.5022045567634793  0.1845985136767177   T   T   T
  0.2500000000000000  0.2519189084391367  0.1862361393047917   T   T   T
  0.2500000000000000  0.7521043936790772  0.1857277727594667   T   T   T
  0.7500000000000000  0.2514659969948198  0.1859400393507190   T   T   T
  0.7500000000000000  0.7540078099076307  0.1849230828887439   T   T   T
  0.2499999495650016  0.0191468386327831  0.2750051940431160   T   T   T
  0.2499999495650016  0.4842706757510163  0.2753844358898098   T   T   T
  0.7499999495650016  0.0034523318629971  0.2762157192102614   T   T   T
  0.7499999495650016  0.5053242857129605  0.2717593806687273   T   T   T
  0.0240749033093327  0.2508257396724086  0.2738131000077838   T   T   T
  0.0054217460148148  0.7528159415968997  0.2773036461640643   T   T   T
  0.4759250966906673  0.2508257396724086  0.2738131000077838   T   T   T
  0.4945782539851852  0.7528159415968997  0.2773036461640643   T   T   T
 
  0.00000000E+00  0.00000000E+00  0.00000000E+00
  0.00000000E+00  0.00000000E+00  0.00000000E+00
  0.00000000E+00  0.00000000E+00  0.00000000E+00
  0.00000000E+00  0.00000000E+00  0.00000000E+00
  0.00000000E+00  0.00000000E+00  0.00000000E+00
  0.00000000E+00  0.00000000E+00  0.00000000E+00
  0.00000000E+00  0.00000000E+00  0.00000000E+00
  0.00000000E+00  0.00000000E+00  0.00000000E+00
  0.00000000E+00  0.00000000E+00  0.00000000E+00
  0.00000000E+00  0.00000000E+00  0.00000000E+00
  0.00000000E+00  0.00000000E+00  0.00000000E+00
  0.00000000E+00  0.00000000E+00  0.00000000E+00
  0.00000000E+00  0.00000000E+00  0.00000000E+00
  0.00000000E+00  0.00000000E+00  0.00000000E+00
  0.00000000E+00  0.00000000E+00  0.00000000E+00
  0.00000000E+00  0.00000000E+00  0.00000000E+00
  0.00000000E+00  0.00000000E+00  0.00000000E+00
  0.00000000E+00  0.00000000E+00  0.00000000E+00
  0.00000000E+00  0.00000000E+00  0.00000000E+00
  0.00000000E+00  0.00000000E+00  0.00000000E+00
  0.00000000E+00  0.00000000E+00  0.00000000E+00
  0.00000000E+00  0.00000000E+00  0.00000000E+00
  0.00000000E+00  0.00000000E+00  0.00000000E+00
  0.00000000E+00  0.00000000E+00  0.00000000E+00
  0.00000000E+00  0.00000000E+00  0.00000000E+00
  0.00000000E+00  0.00000000E+00  0.00000000E+00
  0.00000000E+00  0.00000000E+00  0.00000000E+00
  0.00000000E+00  0.00000000E+00  0.00000000E+00
  0.00000000E+00  0.00000000E+00  0.00000000E+00
  0.00000000E+00  0.00000000E+00  0.00000000E+00
  0.00000000E+00  0.00000000E+00  0.00000000E+00
  0.00000000E+00  0.00000000E+00  0.00000000E+00
  0.00000000E+00  0.00000000E+00  0.00000000E+00
  0.00000000E+00  0.00000000E+00  0.00000000E+00
  0.00000000E+00  0.00000000E+00  0.00000000E+00
  0.00000000E+00  0.00000000E+00  0.00000000E+00
  0.00000000E+00  0.00000000E+00  0.00000000E+00
  0.00000000E+00  0.00000000E+00  0.00000000E+00
  0.00000000E+00  0.00000000E+00  0.00000000E+00
  0.00000000E+00  0.00000000E+00  0.00000000E+00
  0.00000000E+00  0.00000000E+00  0.00000000E+00
  0.00000000E+00  0.00000000E+00  0.00000000E+00
  0.00000000E+00  0.00000000E+00  0.00000000E+00
  0.00000000E+00  0.00000000E+00  0.00000000E+00
  0.00000000E+00  0.00000000E+00  0.00000000E+00
  0.00000000E+00  0.00000000E+00  0.00000000E+00
  0.00000000E+00  0.00000000E+00  0.00000000E+00
  0.00000000E+00  0.00000000E+00  0.00000000E+00
  0.00000000E+00  0.00000000E+00  0.00000000E+00
  0.00000000E+00  0.00000000E+00  0.00000000E+00
  0.00000000E+00  0.00000000E+00  0.00000000E+00
  0.00000000E+00  0.00000000E+00  0.00000000E+00
  0.00000000E+00  0.00000000E+00  0.00000000E+00
  0.00000000E+00  0.00000000E+00  0.00000000E+00
  0.00000000E+00  0.00000000E+00  0.00000000E+00
  0.00000000E+00  0.00000000E+00  0.00000000E+00
  0.00000000E+00  0.00000000E+00  0.00000000E+00
  0.00000000E+00  0.00000000E+00  0.00000000E+00
  0.00000000E+00  0.00000000E+00  0.00000000E+00
  0.00000000E+00  0.00000000E+00  0.00000000E+00
  0.00000000E+00  0.00000000E+00  0.00000000E+00
  0.00000000E+00  0.00000000E+00  0.00000000E+00
  0.00000000E+00  0.00000000E+00  0.00000000E+00
  0.00000000E+00  0.00000000E+00  0.00000000E+00
  0.00000000E+00  0.00000000E+00  0.00000000E+00
