Al Mo Mg O                              
   1.00000000000000     
     8.4141216974800006    0.0000000000000000    0.0000000000000000
     0.0000000000000000    8.4141216974800006    0.0000000000000000
     0.0000000000000000    0.0000000000000000   23.4141216974799988
   Al   Mo   Mg   O 
     1     1    31    32
Selective dynamics
Direct
  0.2500000000000000  0.2496673697596995  0.2665839412704676   T   T   T
  0.7499999495650016  0.4853707185727769  0.3865393095209902   T   T   T
  0.2500000000000000  0.0000835586810436  0.0045551660922639   T   T   T
  0.2500000000000000  0.5003725806964064  0.0045953614901335   T   T   T
  0.7500000000000000  0.0000879823385009  0.0048347937275118   T   T   T
  0.7500000000000000  0.5004520119479202  0.0048142798763508   T   T   T
  0.9996518251388496  0.2504254372571815  0.0046303124994619   T   T   T
  0.9996252763322794  0.7500994431394892  0.0047849150404013   T   T   T
  0.5003481748611504  0.2504254372571815  0.0046303124994619   T   T   T
  0.5003747236677206  0.7500994431394892  0.0047849150404013   T   T   T
  0.9993961210130284  0.9997285571126029  0.0941539277568087   T   T   T
 -0.0002954133868409  0.5007044768663490  0.0942897152609734   T   T   T
  0.5006038789869716  0.9997285571126029  0.0941539277568087   T   T   T
  0.5002954133868408  0.5007044768663490  0.0942897152609734   T   T   T
  0.2500000000000000  0.2501579567009218  0.0933251379103513   T   T   T
  0.2500000000000000  0.7501978536424229  0.0938896117012394   T   T   T
  0.7500000000000000  0.2499653296072705  0.0941742980276316   T   T   T
  0.7500000000000000  0.7505986088424815  0.0946050691482615   T   T   T
  0.2500000000000000  0.9973172587451130  0.1832107108976084   T   T   T
  0.2500000000000000  0.5028260170476315  0.1836676239375968   T   T   T
  0.7500000000000000  0.0000187291978714  0.1853699666559840   T   T   T
  0.7500000000000000  0.5007137693771598  0.1849528289772656   T   T   T
  0.9959957681088987  0.2510337602745317  0.1838790118877705   T   T   T
  0.9983120767513812  0.7492757620636378  0.1852146113453914   T   T   T
  0.5040042318911013  0.2510337602745317  0.1838790118877705   T   T   T
  0.5016879232486188  0.7492757620636378  0.1852146113453914   T   T   T
  0.0000320118592427  0.0005846160087238  0.2744658782688047   T   T   T
  0.0011968655886261  0.4994937688331482  0.2775670416318299   T   T   T
  0.4999679881407573  0.0005846160087238  0.2744658782688047   T   T   T
  0.4988031344113739  0.4994937688331482  0.2775670416318299   T   T   T
  0.2500000000000000  0.7507094365640805  0.2741475248161025   T   T   T
  0.7500000000000000  0.2502391210745652  0.2800781391356287   T   T   T
  0.7500000000000000  0.7507635596159745  0.2782219229359222   T   T   T
  0.0000255199909276  0.0003472855136835  0.0025057662704968   T   T   T
  0.0000884361027053  0.5002106579815278  0.0025811062441006   T   T   T
  0.4999744800090724  0.0003472855136835  0.0025057662704968   T   T   T
  0.4999115638972946  0.5002106579815278  0.0025811062441006   T   T   T
  0.2500000000000000  0.2502540388320837  0.0024093783512391   T   T   T
  0.2500000000000000  0.7502058751798885  0.0025787017360310   T   T   T
  0.7500000000000000  0.2501953362411560  0.0026806906530174   T   T   T
  0.7500000000000000  0.7503446255672656  0.0027048563427628   T   T   T
  0.2500000000000000  0.0008411137723657  0.0942741507554783   T   T   T
  0.2500000000000000  0.4995140314071370  0.0943533063672199   T   T   T
  0.7500000000000000  0.0006211763935654  0.0944124591259878   T   T   T
  0.7500000000000000  0.4999463508524798  0.0945145186556286   T   T   T
  0.0005371533642184  0.2502642918002753  0.0944405990470904   T   T   T
  0.0002277258508778  0.7501816510269035  0.0943954937374690   T   T   T
  0.4994628466357816  0.2502642918002753  0.0944405990470904   T   T   T
  0.4997722741491221  0.7501816510269035  0.0943954937374690   T   T   T
  0.0003883819897109  0.0003013738578528  0.1839583622464028   T   T   T
  0.0011952560576747  0.5000139801449034  0.1840274839610045   T   T   T
  0.4996116180102890  0.0003013738578528  0.1839583622464028   T   T   T
  0.4988047439423253  0.5000139801449034  0.1840274839610045   T   T   T
  0.2500000000000000  0.2495821648740438  0.1855112776272067   T   T   T
  0.2500000000000000  0.7503643918325900  0.1846979329707871   T   T   T
  0.7500000000000000  0.2494042314075380  0.1854186010694620   T   T   T
  0.7500000000000000  0.7514270047199000  0.1849238039753884   T   T   T
  0.2499999495650016  0.0177127808207573  0.2741503641995342   T   T   T
  0.2499999495650016  0.4814079194384559  0.2739125560507866   T   T   T
  0.7499999495650016  0.0036167728239358  0.2760763874771865   T   T   T
  0.7499999495650016  0.4986893086697535  0.2724597469432612   T   T   T
  0.0232761815997311  0.2481066069636071  0.2732415264831113   T   T   T
  0.0065526773627362  0.7523938385347039  0.2754904093762304   T   T   T
  0.4767238184002690  0.2481066069636071  0.2732415264831113   T   T   T
  0.4934473226372639  0.7523938385347039  0.2754904093762304   T   T   T
 
  0.00000000E+00  0.00000000E+00  0.00000000E+00
  0.00000000E+00  0.00000000E+00  0.00000000E+00
  0.00000000E+00  0.00000000E+00  0.00000000E+00
  0.00000000E+00  0.00000000E+00  0.00000000E+00
  0.00000000E+00  0.00000000E+00  0.00000000E+00
  0.00000000E+00  0.00000000E+00  0.00000000E+00
  0.00000000E+00  0.00000000E+00  0.00000000E+00
  0.00000000E+00  0.00000000E+00  0.00000000E+00
  0.00000000E+00  0.00000000E+00  0.00000000E+00
  0.00000000E+00  0.00000000E+00  0.00000000E+00
  0.00000000E+00  0.00000000E+00  0.00000000E+00
  0.00000000E+00  0.00000000E+00  0.00000000E+00
  0.00000000E+00  0.00000000E+00  0.00000000E+00
  0.00000000E+00  0.00000000E+00  0.00000000E+00
  0.00000000E+00  0.00000000E+00  0.00000000E+00
  0.00000000E+00  0.00000000E+00  0.00000000E+00
  0.00000000E+00  0.00000000E+00  0.00000000E+00
  0.00000000E+00  0.00000000E+00  0.00000000E+00
  0.00000000E+00  0.00000000E+00  0.00000000E+00
  0.00000000E+00  0.00000000E+00  0.00000000E+00
  0.00000000E+00  0.00000000E+00  0.00000000E+00
  0.00000000E+00  0.00000000E+00  0.00000000E+00
  0.00000000E+00  0.00000000E+00  0.00000000E+00
  0.00000000E+00  0.00000000E+00  0.00000000E+00
  0.00000000E+00  0.00000000E+00  0.00000000E+00
  0.00000000E+00  0.00000000E+00  0.00000000E+00
  0.00000000E+00  0.00000000E+00  0.00000000E+00
  0.00000000E+00  0.00000000E+00  0.00000000E+00
  0.00000000E+00  0.00000000E+00  0.00000000E+00
  0.00000000E+00  0.00000000E+00  0.00000000E+00
  0.00000000E+00  0.00000000E+00  0.00000000E+00
  0.00000000E+00  0.00000000E+00  0.00000000E+00
  0.00000000E+00  0.00000000E+00  0.00000000E+00
  0.00000000E+00  0.00000000E+00  0.00000000E+00
  0.00000000E+00  0.00000000E+00  0.00000000E+00
  0.00000000E+00  0.00000000E+00  0.00000000E+00
  0.00000000E+00  0.00000000E+00  0.00000000E+00
  0.00000000E+00  0.00000000E+00  0.00000000E+00
  0.00000000E+00  0.00000000E+00  0.00000000E+00
  0.00000000E+00  0.00000000E+00  0.00000000E+00
  0.00000000E+00  0.00000000E+00  0.00000000E+00
  0.00000000E+00  0.00000000E+00  0.00000000E+00
  0.00000000E+00  0.00000000E+00  0.00000000E+00
  0.00000000E+00  0.00000000E+00  0.00000000E+00
  0.00000000E+00  0.00000000E+00  0.00000000E+00
  0.00000000E+00  0.00000000E+00  0.00000000E+00
  0.00000000E+00  0.00000000E+00  0.00000000E+00
  0.00000000E+00  0.00000000E+00  0.00000000E+00
  0.00000000E+00  0.00000000E+00  0.00000000E+00
  0.00000000E+00  0.00000000E+00  0.00000000E+00
  0.00000000E+00  0.00000000E+00  0.00000000E+00
  0.00000000E+00  0.00000000E+00  0.00000000E+00
  0.00000000E+00  0.00000000E+00  0.00000000E+00
  0.00000000E+00  0.00000000E+00  0.00000000E+00
  0.00000000E+00  0.00000000E+00  0.00000000E+00
  0.00000000E+00  0.00000000E+00  0.00000000E+00
  0.00000000E+00  0.00000000E+00  0.00000000E+00
  0.00000000E+00  0.00000000E+00  0.00000000E+00
  0.00000000E+00  0.00000000E+00  0.00000000E+00
  0.00000000E+00  0.00000000E+00  0.00000000E+00
  0.00000000E+00  0.00000000E+00  0.00000000E+00
  0.00000000E+00  0.00000000E+00  0.00000000E+00
  0.00000000E+00  0.00000000E+00  0.00000000E+00
  0.00000000E+00  0.00000000E+00  0.00000000E+00
  0.00000000E+00  0.00000000E+00  0.00000000E+00
