Al Mg O                                 
   1.00000000000000     
     8.4141216974800006    0.0000000000000000    0.0000000000000000
     0.0000000000000000    8.4141216974800006    0.0000000000000000
     0.0000000000000000    0.0000000000000000   23.4141216974799988
   Al   Mg   O 
     1    31    32
Selective dynamics
Direct
  0.2500000000000000  0.2500000000000000  0.2685352982276534   T   T   T
  0.2500000000000000 -0.0001914381375522  0.0044200452618605   T   T   T
  0.2500000000000000  0.5001914381375522  0.0044200452618605   T   T   T
  0.7500000000000000 -0.0001880603861952  0.0046505980213794   T   T   T
  0.7500000000000000  0.5001880603861951  0.0046505980213794   T   T   T
 -0.0001933484198841  0.2500000000000000  0.0044240965962434   T   T   T
 -0.0001880561838836  0.7500000000000000  0.0046520788066875   T   T   T
  0.5001933484198839  0.2500000000000000  0.0044240965962434   T   T   T
  0.5001880561838837  0.7500000000000000  0.0046520788066875   T   T   T
 -0.0004721906621323 -0.0004704510419341  0.0943637429763931   T   T   T
 -0.0004721906621323  0.5004704510419341  0.0943637429763931   T   T   T
  0.5004721906621322 -0.0004704510419341  0.0943637429763931   T   T   T
  0.5004721906621322  0.5004704510419341  0.0943637429763931   T   T   T
  0.2500000000000000  0.2500000000000000  0.0933237858624519   T   T   T
  0.2500000000000000  0.7500000000000000  0.0941295787448457   T   T   T
  0.7500000000000000  0.2500000000000000  0.0941334792429130   T   T   T
  0.7500000000000000  0.7500000000000000  0.0946311801400073   T   T   T
  0.2500000000000000 -0.0025977508791000  0.1841042999196332   T   T   T
  0.2500000000000000  0.5025977508791001  0.1841042999196332   T   T   T
  0.7500000000000000 -0.0006491837697316  0.1854933193864133   T   T   T
  0.7500000000000000  0.5006491837697316  0.1854933193864133   T   T   T
 -0.0025994236744010  0.2500000000000000  0.1840986257409735   T   T   T
 -0.0006544784524052  0.7500000000000000  0.1854826794646321   T   T   T
  0.5025994236744008  0.2500000000000000  0.1840986257409735   T   T   T
  0.5006544784524052  0.7500000000000000  0.1854826794646321   T   T   T
  0.0001986974375273  0.0001994008628796  0.2759059071389844   T   T   T
  0.0001986974375273  0.4998005991371204  0.2759059071389844   T   T   T
  0.4998013025624727  0.0001994008628796  0.2759059071389844   T   T   T
  0.4998013025624727  0.4998005991371204  0.2759059071389844   T   T   T
  0.2500000000000000  0.7500000000000000  0.2760907189551141   T   T   T
  0.7500000000000000  0.2500000000000000  0.2760965465222555   T   T   T
  0.7500000000000000  0.7500000000000000  0.2768743144801477   T   T   T
  0.0000568644324072  0.0000579582163438  0.0034750884384219   T   T   T
  0.0000568644324072  0.4999420417836563  0.0034750884384219   T   T   T
  0.4999431355675927  0.0000579582163438  0.0034750884384219   T   T   T
  0.4999431355675927  0.4999420417836563  0.0034750884384219   T   T   T
  0.2500000000000000  0.2500000000000000  0.0032477955176028   T   T   T
  0.2500000000000000  0.7500000000000000  0.0035255360014598   T   T   T
  0.7500000000000000  0.2500000000000000  0.0035275793166405   T   T   T
  0.7500000000000000  0.7500000000000000  0.0035928202332502   T   T   T
  0.2500000000000000  0.0007156889950654  0.0954194371588167   T   T   T
  0.2500000000000000  0.4992843110049346  0.0954194371588167   T   T   T
  0.7500000000000000  0.0002735251286781  0.0954430758405707   T   T   T
  0.7500000000000000  0.4997264748713220  0.0954430758405707   T   T   T
  0.0007119604839823  0.2500000000000000  0.0954139610979724   T   T   T
  0.0002735279290497  0.7500000000000000  0.0954365750400775   T   T   T
  0.4992880395160176  0.2500000000000000  0.0954139610979724   T   T   T
  0.4997264720709503  0.7500000000000000  0.0954365750400775   T   T   T
  0.0001876381079425  0.0001906373156138  0.1852547119557997   T   T   T
  0.0001876381079425  0.4998093626843863  0.1852547119557997   T   T   T
  0.4998123618920574  0.0001906373156138  0.1852547119557997   T   T   T
  0.4998123618920574  0.4998093626843863  0.1852547119557997   T   T   T
  0.2500000000000000  0.2500000000000000  0.1873237635034672   T   T   T
  0.2500000000000000  0.7500000000000000  0.1862543464276878   T   T   T
  0.7500000000000000  0.2500000000000000  0.1862556221778469   T   T   T
  0.7500000000000000  0.7500000000000000  0.1862230810609037   T   T   T
  0.2499999495650016  0.0190253781939688  0.2752916687688449   T   T   T
  0.2499999495650016  0.4809746218060312  0.2752916687688449   T   T   T
  0.7499999495650016  0.0041377096438955  0.2772633065191279   T   T   T
  0.7499999495650016  0.4958622903561045  0.2772633065191279   T   T   T
  0.0190122622471910  0.2500000000000000  0.2752842758351080   T   T   T
  0.0041428961122432  0.7500000000000000  0.2772494159693289   T   T   T
  0.4809877377528090  0.2500000000000000  0.2752842758351080   T   T   T
  0.4958571038877567  0.7500000000000000  0.2772494159693289   T   T   T
 
  0.00000000E+00  0.00000000E+00  0.00000000E+00
  0.00000000E+00  0.00000000E+00  0.00000000E+00
  0.00000000E+00  0.00000000E+00  0.00000000E+00
  0.00000000E+00  0.00000000E+00  0.00000000E+00
  0.00000000E+00  0.00000000E+00  0.00000000E+00
  0.00000000E+00  0.00000000E+00  0.00000000E+00
  0.00000000E+00  0.00000000E+00  0.00000000E+00
  0.00000000E+00  0.00000000E+00  0.00000000E+00
  0.00000000E+00  0.00000000E+00  0.00000000E+00
  0.00000000E+00  0.00000000E+00  0.00000000E+00
  0.00000000E+00  0.00000000E+00  0.00000000E+00
  0.00000000E+00  0.00000000E+00  0.00000000E+00
  0.00000000E+00  0.00000000E+00  0.00000000E+00
  0.00000000E+00  0.00000000E+00  0.00000000E+00
  0.00000000E+00  0.00000000E+00  0.00000000E+00
  0.00000000E+00  0.00000000E+00  0.00000000E+00
  0.00000000E+00  0.00000000E+00  0.00000000E+00
  0.00000000E+00  0.00000000E+00  0.00000000E+00
  0.00000000E+00  0.00000000E+00  0.00000000E+00
  0.00000000E+00  0.00000000E+00  0.00000000E+00
  0.00000000E+00  0.00000000E+00  0.00000000E+00
  0.00000000E+00  0.00000000E+00  0.00000000E+00
  0.00000000E+00  0.00000000E+00  0.00000000E+00
  0.00000000E+00  0.00000000E+00  0.00000000E+00
  0.00000000E+00  0.00000000E+00  0.00000000E+00
  0.00000000E+00  0.00000000E+00  0.00000000E+00
  0.00000000E+00  0.00000000E+00  0.00000000E+00
  0.00000000E+00  0.00000000E+00  0.00000000E+00
  0.00000000E+00  0.00000000E+00  0.00000000E+00
  0.00000000E+00  0.00000000E+00  0.00000000E+00
  0.00000000E+00  0.00000000E+00  0.00000000E+00
  0.00000000E+00  0.00000000E+00  0.00000000E+00
  0.00000000E+00  0.00000000E+00  0.00000000E+00
  0.00000000E+00  0.00000000E+00  0.00000000E+00
  0.00000000E+00  0.00000000E+00  0.00000000E+00
  0.00000000E+00  0.00000000E+00  0.00000000E+00
  0.00000000E+00  0.00000000E+00  0.00000000E+00
  0.00000000E+00  0.00000000E+00  0.00000000E+00
  0.00000000E+00  0.00000000E+00  0.00000000E+00
  0.00000000E+00  0.00000000E+00  0.00000000E+00
  0.00000000E+00  0.00000000E+00  0.00000000E+00
  0.00000000E+00  0.00000000E+00  0.00000000E+00
  0.00000000E+00  0.00000000E+00  0.00000000E+00
  0.00000000E+00  0.00000000E+00  0.00000000E+00
  0.00000000E+00  0.00000000E+00  0.00000000E+00
  0.00000000E+00  0.00000000E+00  0.00000000E+00
  0.00000000E+00  0.00000000E+00  0.00000000E+00
  0.00000000E+00  0.00000000E+00  0.00000000E+00
  0.00000000E+00  0.00000000E+00  0.00000000E+00
  0.00000000E+00  0.00000000E+00  0.00000000E+00
  0.00000000E+00  0.00000000E+00  0.00000000E+00
  0.00000000E+00  0.00000000E+00  0.00000000E+00
  0.00000000E+00  0.00000000E+00  0.00000000E+00
  0.00000000E+00  0.00000000E+00  0.00000000E+00
  0.00000000E+00  0.00000000E+00  0.00000000E+00
  0.00000000E+00  0.00000000E+00  0.00000000E+00
  0.00000000E+00  0.00000000E+00  0.00000000E+00
  0.00000000E+00  0.00000000E+00  0.00000000E+00
  0.00000000E+00  0.00000000E+00  0.00000000E+00
  0.00000000E+00  0.00000000E+00  0.00000000E+00
  0.00000000E+00  0.00000000E+00  0.00000000E+00
  0.00000000E+00  0.00000000E+00  0.00000000E+00
  0.00000000E+00  0.00000000E+00  0.00000000E+00
  0.00000000E+00  0.00000000E+00  0.00000000E+00
