Al Mg O Ru                              
   1.00000000000000     
     8.4141216974800006    0.0000000000000000    0.0000000000000000
     0.0000000000000000    8.4141216974800006    0.0000000000000000
     0.0000000000000000    0.0000000000000000   23.4141216974799988
   Al   Mg   O    Ru
     1    31    32     1
Selective dynamics
Direct
  0.2500000000000000  0.2490703601752395  0.2673072246700984   T   T   T
  0.2500000000000000  0.0000000709454316  0.0053039898409190   T   T   T
  0.2500000000000000  0.5002812890561564  0.0053550605215249   T   T   T
  0.7500000000000000  0.0000016313413815  0.0055571788688474   T   T   T
  0.7500000000000000  0.5003392559298073  0.0055529817707544   T   T   T
  0.9997050637304397  0.2502295587979591  0.0054056055620064   T   T   T
  0.9996775530463565  0.7500797011972288  0.0055509000413507   T   T   T
  0.5002949362695603  0.2502295587979591  0.0054056055620064   T   T   T
  0.5003224469536435  0.7500797011972288  0.0055509000413507   T   T   T
  0.9991803473074400  0.9996925445557165  0.0951006552523317   T   T   T
  0.9997143488519962  0.5006837054190972  0.0952238548754361   T   T   T
  0.5008196526925600  0.9996925445557165  0.0951006552523317   T   T   T
  0.5002856511480038  0.5006837054190972  0.0952238548754361   T   T   T
  0.2500000000000000  0.2503308273710283  0.0942093380097442   T   T   T
  0.2500000000000000  0.7499309262556614  0.0947963430719374   T   T   T
  0.7500000000000000  0.2499136792778570  0.0950797260650105   T   T   T
  0.7500000000000000  0.7505339913578888  0.0955500855279869   T   T   T
  0.2500000000000000  0.9973219332141210  0.1838545884778425   T   T   T
  0.2500000000000000  0.5028383916829633  0.1847921986913901   T   T   T
  0.7500000000000000  0.9997625066114337  0.1864755098810949   T   T   T
  0.7500000000000000  0.5009274239739366  0.1859182210325000   T   T   T
  0.9957245931490952  0.2517989463307102  0.1851094261402979   T   T   T
  0.9977893181143046  0.7485935710475556  0.1865073246693477   T   T   T
  0.5042754068509048  0.2517989463307102  0.1851094261402979   T   T   T
  0.5022106818856954  0.7485935710475556  0.1865073246693477   T   T   T
  0.0009441338636334  0.0002443297864415  0.2748343107612132   T   T   T
  0.0026567487163554  0.4994274918313683  0.2808036212788896   T   T   T
  0.4990558661363666  0.0002443297864415  0.2748343107612132   T   T   T
  0.4973432512836447  0.4994274918313683  0.2808036212788896   T   T   T
  0.2500000000000000  0.7515982927666749  0.2745128489123804   T   T   T
  0.7500000000000000  0.2483204318417946  0.2817706153072564   T   T   T
  0.7500000000000000  0.7520524665051515  0.2811823296046364   T   T   T
  0.0000355884250601  0.0002316997608025  0.0032631435040480   T   T   T
  0.0000107939405179  0.5000658044712218  0.0032884097006696   T   T   T
  0.4999644115749399  0.0002316997608025  0.0032631435040480   T   T   T
  0.4999892060594820  0.5000658044712218  0.0032884097006696   T   T   T
  0.2500000000000000  0.2501324784907402  0.0031708701892487   T   T   T
  0.2500000000000000  0.7501412651330983  0.0033230510394747   T   T   T
  0.7500000000000000  0.2501724546970017  0.0034040449428308   T   T   T
  0.7500000000000000  0.7501538293074024  0.0034037621834502   T   T   T
  0.2500000000000000  0.0008239340124346  0.0951068980621757   T   T   T
  0.2500000000000000  0.4994654367798635  0.0952094775835046   T   T   T
  0.7500000000000000  0.0005733757097087  0.0952938147882435   T   T   T
  0.7500000000000000  0.4998651535043205  0.0954611798205548   T   T   T
  0.0003048862416097  0.2503216915256084  0.0953641793348726   T   T   T
 -0.0000090710739105  0.7500587825397830  0.0952764737847237   T   T   T
  0.4996951137583903  0.2503216915256084  0.0953641793348726   T   T   T
  0.5000090710739105  0.7500587825397830  0.0952764737847237   T   T   T
  0.0000675431298363  0.0004507460297181  0.1847813818131917   T   T   T
  0.0008630064711569  0.4999910877524513  0.1851673307699230   T   T   T
  0.4999324568701636  0.0004507460297181  0.1847813818131917   T   T   T
  0.4991369935288431  0.4999910877524513  0.1851673307699230   T   T   T
  0.2500000000000000  0.2498821667811602  0.1863426803641170   T   T   T
  0.2500000000000000  0.7502044729027575  0.1853843637707719   T   T   T
  0.7500000000000000  0.2493936080144709  0.1867371462471427   T   T   T
  0.7500000000000000  0.7512066070692480  0.1861748311200296   T   T   T
  0.2499999495650016  0.0171846392995117  0.2747788719687836   T   T   T
  0.2499999495650016  0.4810441706329541  0.2753107122065978   T   T   T
  0.7499999495650016  0.0034927872146691  0.2777817795372886   T   T   T
  0.7499999495650016  0.4988441628783148  0.2718406720415238   T   T   T
  0.0242256282500576  0.2468457848158934  0.2744058630923298   T   T   T
  0.0079410949033641  0.7536614163462335  0.2764875216026053   T   T   T
  0.4757743717499425  0.2468457848158934  0.2744058630923298   T   T   T
  0.4920589050966360  0.7536614163462335  0.2764875216026053   T   T   T
  0.7499999495650016  0.4894422548502519  0.3612865064688211   T   T   T
 
  0.00000000E+00  0.00000000E+00  0.00000000E+00
  0.00000000E+00  0.00000000E+00  0.00000000E+00
  0.00000000E+00  0.00000000E+00  0.00000000E+00
  0.00000000E+00  0.00000000E+00  0.00000000E+00
  0.00000000E+00  0.00000000E+00  0.00000000E+00
  0.00000000E+00  0.00000000E+00  0.00000000E+00
  0.00000000E+00  0.00000000E+00  0.00000000E+00
  0.00000000E+00  0.00000000E+00  0.00000000E+00
  0.00000000E+00  0.00000000E+00  0.00000000E+00
  0.00000000E+00  0.00000000E+00  0.00000000E+00
  0.00000000E+00  0.00000000E+00  0.00000000E+00
  0.00000000E+00  0.00000000E+00  0.00000000E+00
  0.00000000E+00  0.00000000E+00  0.00000000E+00
  0.00000000E+00  0.00000000E+00  0.00000000E+00
  0.00000000E+00  0.00000000E+00  0.00000000E+00
  0.00000000E+00  0.00000000E+00  0.00000000E+00
  0.00000000E+00  0.00000000E+00  0.00000000E+00
  0.00000000E+00  0.00000000E+00  0.00000000E+00
  0.00000000E+00  0.00000000E+00  0.00000000E+00
  0.00000000E+00  0.00000000E+00  0.00000000E+00
  0.00000000E+00  0.00000000E+00  0.00000000E+00
  0.00000000E+00  0.00000000E+00  0.00000000E+00
  0.00000000E+00  0.00000000E+00  0.00000000E+00
  0.00000000E+00  0.00000000E+00  0.00000000E+00
  0.00000000E+00  0.00000000E+00  0.00000000E+00
  0.00000000E+00  0.00000000E+00  0.00000000E+00
  0.00000000E+00  0.00000000E+00  0.00000000E+00
  0.00000000E+00  0.00000000E+00  0.00000000E+00
  0.00000000E+00  0.00000000E+00  0.00000000E+00
  0.00000000E+00  0.00000000E+00  0.00000000E+00
  0.00000000E+00  0.00000000E+00  0.00000000E+00
  0.00000000E+00  0.00000000E+00  0.00000000E+00
  0.00000000E+00  0.00000000E+00  0.00000000E+00
  0.00000000E+00  0.00000000E+00  0.00000000E+00
  0.00000000E+00  0.00000000E+00  0.00000000E+00
  0.00000000E+00  0.00000000E+00  0.00000000E+00
  0.00000000E+00  0.00000000E+00  0.00000000E+00
  0.00000000E+00  0.00000000E+00  0.00000000E+00
  0.00000000E+00  0.00000000E+00  0.00000000E+00
  0.00000000E+00  0.00000000E+00  0.00000000E+00
  0.00000000E+00  0.00000000E+00  0.00000000E+00
  0.00000000E+00  0.00000000E+00  0.00000000E+00
  0.00000000E+00  0.00000000E+00  0.00000000E+00
  0.00000000E+00  0.00000000E+00  0.00000000E+00
  0.00000000E+00  0.00000000E+00  0.00000000E+00
  0.00000000E+00  0.00000000E+00  0.00000000E+00
  0.00000000E+00  0.00000000E+00  0.00000000E+00
  0.00000000E+00  0.00000000E+00  0.00000000E+00
  0.00000000E+00  0.00000000E+00  0.00000000E+00
  0.00000000E+00  0.00000000E+00  0.00000000E+00
  0.00000000E+00  0.00000000E+00  0.00000000E+00
  0.00000000E+00  0.00000000E+00  0.00000000E+00
  0.00000000E+00  0.00000000E+00  0.00000000E+00
  0.00000000E+00  0.00000000E+00  0.00000000E+00
  0.00000000E+00  0.00000000E+00  0.00000000E+00
  0.00000000E+00  0.00000000E+00  0.00000000E+00
  0.00000000E+00  0.00000000E+00  0.00000000E+00
  0.00000000E+00  0.00000000E+00  0.00000000E+00
  0.00000000E+00  0.00000000E+00  0.00000000E+00
  0.00000000E+00  0.00000000E+00  0.00000000E+00
  0.00000000E+00  0.00000000E+00  0.00000000E+00
  0.00000000E+00  0.00000000E+00  0.00000000E+00
  0.00000000E+00  0.00000000E+00  0.00000000E+00
  0.00000000E+00  0.00000000E+00  0.00000000E+00
  0.00000000E+00  0.00000000E+00  0.00000000E+00
