Al Mg O Pd                              
   1.00000000000000     
     8.4141216974800006    0.0000000000000000    0.0000000000000000
     0.0000000000000000    8.4141216974800006    0.0000000000000000
     0.0000000000000000    0.0000000000000000   23.4141216974799988
   Al   Mg   O    Pd
     1    31    32     1
Selective dynamics
Direct
  0.2500000000000000  0.2500790793331601  0.2676180833822058   T   T   T
  0.2500000000000000  0.0001564077111700  0.0053741551007916   T   T   T
  0.2500000000000000  0.5004664236611797  0.0053260703353391   T   T   T
  0.7500000000000000  0.0002191747041882  0.0055305979784366   T   T   T
  0.7500000000000000  0.5005429520571405  0.0055762137666447   T   T   T
 -0.0002130536164269  0.2503063613907018  0.0054389134032232   T   T   T
 -0.0002289345562644  0.7503568385854721  0.0055865571282047   T   T   T
  0.5002130536164268  0.2503063613907018  0.0054389134032232   T   T   T
  0.5002289345562644  0.7503568385854721  0.0055865571282047   T   T   T
 -0.0006606521696862 -0.0000512039627817  0.0951443738992734   T   T   T
  0.0000110096422074  0.5009155979522633  0.0950992266204116   T   T   T
  0.5006606521696859 -0.0000512039627817  0.0951443738992734   T   T   T
  0.4999889903577928  0.5009155979522633  0.0950992266204116   T   T   T
  0.2500000000000000  0.2505286171414116  0.0942549347728756   T   T   T
  0.2500000000000000  0.7502505347898339  0.0948429050622437   T   T   T
  0.7500000000000000  0.2499883257709468  0.0949633675526991   T   T   T
  0.7500000000000000  0.7510948478238519  0.0953870019287435   T   T   T
  0.2500000000000000 -0.0022272806280246  0.1842177694595825   T   T   T
  0.2500000000000000  0.5030772532075271  0.1848274396663226   T   T   T
  0.7500000000000000  0.0006667241720340  0.1863258978320828   T   T   T
  0.7500000000000000  0.5009610435918664  0.1849363827872879   T   T   T
 -0.0040439823816498  0.2519128018007362  0.1850312676345893   T   T   T
 -0.0016975832595220  0.7491350277283600  0.1863127299618917   T   T   T
  0.5040439823816496  0.2519128018007362  0.1850312676345893   T   T   T
  0.5016975832595217  0.7491350277283600  0.1863127299618917   T   T   T
  0.0004538795192195  0.0008654391303327  0.2752944228972165   T   T   T
  0.0000384167602204  0.4995397389696982  0.2801284544080301   T   T   T
  0.4995461204807805  0.0008654391303327  0.2752944228972165   T   T   T
  0.4999615832397796  0.4995397389696982  0.2801284544080301   T   T   T
  0.2500000000000000  0.7507594527080897  0.2750436137292058   T   T   T
  0.7500000000000000  0.2504677974670022  0.2817131162527317   T   T   T
  0.7500000000000000  0.7508275333877015  0.2790388693323002   T   T   T
  0.0000872656256606  0.0004182308623338  0.0033123684661473   T   T   T
  0.0000497916271460  0.5002397925852735  0.0033019941872449   T   T   T
  0.4999127343743395  0.0004182308623338  0.0033123684661473   T   T   T
  0.4999502083728539  0.5002397925852735  0.0033019941872449   T   T   T
  0.2500000000000000  0.2502750581528129  0.0032069402233112   T   T   T
  0.2500000000000000  0.7503431657685449  0.0033575447731308   T   T   T
  0.7500000000000000  0.2503563120058417  0.0033952132441546   T   T   T
  0.7500000000000000  0.7503758972496308  0.0034327279333988   T   T   T
  0.2500000000000000  0.0010541777401831  0.0952598002963387   T   T   T
  0.2500000000000000  0.4997296085753314  0.0951413673693853   T   T   T
  0.7500000000000000  0.0009172443286520  0.0951902692333101   T   T   T
  0.7500000000000000  0.5001453934969505  0.0951937115640768   T   T   T
  0.0005602971562881  0.2503649834900606  0.0953483524292755   T   T   T
  0.0002717974804408  0.7504949800461114  0.0952595964600043   T   T   T
  0.4994397028437120  0.2503649834900606  0.0953483524292755   T   T   T
  0.4997282025195591  0.7504949800461114  0.0952595964600043   T   T   T
  0.0003400615869976  0.0006156689519439  0.1849699988616285   T   T   T
  0.0014120444692007  0.5004056368410290  0.1848975423890640   T   T   T
  0.4996599384130023  0.0006156689519439  0.1849699988616285   T   T   T
  0.4985879555307993  0.5004056368410290  0.1848975423890640   T   T   T
  0.2500000000000000  0.2502269692774988  0.1865762882431816   T   T   T
  0.2500000000000000  0.7506053881177894  0.1857547177320964   T   T   T
  0.7500000000000000  0.2495913013852724  0.1864007996614564   T   T   T
  0.7500000000000000  0.7522190154482106  0.1856931574531095   T   T   T
  0.2499999495650016  0.0176740174747344  0.2750983867656421   T   T   T
  0.2499999495650016  0.4818532897151643  0.2755753915021102   T   T   T
  0.7499999495650016  0.0037535909958235  0.2774540720698053   T   T   T
  0.7499999495650016  0.5017294087910067  0.2706316747774005   T   T   T
  0.0236779133585100  0.2480504182849605  0.2743727642018544   T   T   T
  0.0065192432151058  0.7528854111595693  0.2768321205624350   T   T   T
  0.4763220866414902  0.2480504182849605  0.2743727642018544   T   T   T
  0.4934807567848941  0.7528854111595693  0.2768321205624350   T   T   T
  0.7499999495650016  0.4683798269453445  0.3664029676965378   T   T   T
 
  0.00000000E+00  0.00000000E+00  0.00000000E+00
  0.00000000E+00  0.00000000E+00  0.00000000E+00
  0.00000000E+00  0.00000000E+00  0.00000000E+00
  0.00000000E+00  0.00000000E+00  0.00000000E+00
  0.00000000E+00  0.00000000E+00  0.00000000E+00
  0.00000000E+00  0.00000000E+00  0.00000000E+00
  0.00000000E+00  0.00000000E+00  0.00000000E+00
  0.00000000E+00  0.00000000E+00  0.00000000E+00
  0.00000000E+00  0.00000000E+00  0.00000000E+00
  0.00000000E+00  0.00000000E+00  0.00000000E+00
  0.00000000E+00  0.00000000E+00  0.00000000E+00
  0.00000000E+00  0.00000000E+00  0.00000000E+00
  0.00000000E+00  0.00000000E+00  0.00000000E+00
  0.00000000E+00  0.00000000E+00  0.00000000E+00
  0.00000000E+00  0.00000000E+00  0.00000000E+00
  0.00000000E+00  0.00000000E+00  0.00000000E+00
  0.00000000E+00  0.00000000E+00  0.00000000E+00
  0.00000000E+00  0.00000000E+00  0.00000000E+00
  0.00000000E+00  0.00000000E+00  0.00000000E+00
  0.00000000E+00  0.00000000E+00  0.00000000E+00
  0.00000000E+00  0.00000000E+00  0.00000000E+00
  0.00000000E+00  0.00000000E+00  0.00000000E+00
  0.00000000E+00  0.00000000E+00  0.00000000E+00
  0.00000000E+00  0.00000000E+00  0.00000000E+00
  0.00000000E+00  0.00000000E+00  0.00000000E+00
  0.00000000E+00  0.00000000E+00  0.00000000E+00
  0.00000000E+00  0.00000000E+00  0.00000000E+00
  0.00000000E+00  0.00000000E+00  0.00000000E+00
  0.00000000E+00  0.00000000E+00  0.00000000E+00
  0.00000000E+00  0.00000000E+00  0.00000000E+00
  0.00000000E+00  0.00000000E+00  0.00000000E+00
  0.00000000E+00  0.00000000E+00  0.00000000E+00
  0.00000000E+00  0.00000000E+00  0.00000000E+00
  0.00000000E+00  0.00000000E+00  0.00000000E+00
  0.00000000E+00  0.00000000E+00  0.00000000E+00
  0.00000000E+00  0.00000000E+00  0.00000000E+00
  0.00000000E+00  0.00000000E+00  0.00000000E+00
  0.00000000E+00  0.00000000E+00  0.00000000E+00
  0.00000000E+00  0.00000000E+00  0.00000000E+00
  0.00000000E+00  0.00000000E+00  0.00000000E+00
  0.00000000E+00  0.00000000E+00  0.00000000E+00
  0.00000000E+00  0.00000000E+00  0.00000000E+00
  0.00000000E+00  0.00000000E+00  0.00000000E+00
  0.00000000E+00  0.00000000E+00  0.00000000E+00
  0.00000000E+00  0.00000000E+00  0.00000000E+00
  0.00000000E+00  0.00000000E+00  0.00000000E+00
  0.00000000E+00  0.00000000E+00  0.00000000E+00
  0.00000000E+00  0.00000000E+00  0.00000000E+00
  0.00000000E+00  0.00000000E+00  0.00000000E+00
  0.00000000E+00  0.00000000E+00  0.00000000E+00
  0.00000000E+00  0.00000000E+00  0.00000000E+00
  0.00000000E+00  0.00000000E+00  0.00000000E+00
  0.00000000E+00  0.00000000E+00  0.00000000E+00
  0.00000000E+00  0.00000000E+00  0.00000000E+00
  0.00000000E+00  0.00000000E+00  0.00000000E+00
  0.00000000E+00  0.00000000E+00  0.00000000E+00
  0.00000000E+00  0.00000000E+00  0.00000000E+00
  0.00000000E+00  0.00000000E+00  0.00000000E+00
  0.00000000E+00  0.00000000E+00  0.00000000E+00
  0.00000000E+00  0.00000000E+00  0.00000000E+00
  0.00000000E+00  0.00000000E+00  0.00000000E+00
  0.00000000E+00  0.00000000E+00  0.00000000E+00
  0.00000000E+00  0.00000000E+00  0.00000000E+00
  0.00000000E+00  0.00000000E+00  0.00000000E+00
  0.00000000E+00  0.00000000E+00  0.00000000E+00
