Al Mg O V                               
   1.00000000000000     
     8.4141216974800006    0.0000000000000000    0.0000000000000000
     0.0000000000000000    8.4141216974800006    0.0000000000000000
     0.0000000000000000    0.0000000000000000   23.4141216974799988
   Al   Mg   O    V 
     1    31    32     1
Selective dynamics
Direct
  0.2500000000000000  0.2486870627499124  0.2670025061782663   T   T   T
  0.2500000000000000 -0.0001197713018922  0.0048828108387348   T   T   T
  0.2500000000000000  0.5001477126541054  0.0049976619963239   T   T   T
  0.7500000000000000 -0.0001029612090991  0.0052152341413694   T   T   T
  0.7500000000000000  0.5002094470908268  0.0053243616693946   T   T   T
 -0.0003019724089153  0.2501542203087752  0.0050348170684219   T   T   T
 -0.0003320978052556  0.7499079623568262  0.0052144856076431   T   T   T
  0.5003019724089151  0.2501542203087752  0.0050348170684219   T   T   T
  0.5003320978052554  0.7499079623568262  0.0052144856076431   T   T   T
 -0.0006917579570977 -0.0004017381243931  0.0946403814267483   T   T   T
 -0.0006307519628454  0.5005465558817244  0.0949155887743088   T   T   T
  0.5006917579570973 -0.0004017381243931  0.0946403814267483   T   T   T
  0.5006307519628455  0.5005465558817244  0.0949155887743088   T   T   T
  0.2500000000000000  0.2501627889605124  0.0937683348931859   T   T   T
  0.2500000000000000  0.7498448035366252  0.0943793020519503   T   T   T
  0.7500000000000000  0.2502343471396065  0.0947364854072921   T   T   T
  0.7500000000000000  0.7499904646782204  0.0952219931036355   T   T   T
  0.2500000000000000 -0.0027684334742365  0.1834745409089661   T   T   T
  0.2500000000000000  0.5027771669577115  0.1842430604306345   T   T   T
  0.7500000000000000 -0.0003451873476129  0.1857927787304861   T   T   T
  0.7500000000000000  0.5008851379546773  0.1863728520579298   T   T   T
 -0.0036447801187463  0.2509623955668184  0.1844867061243105   T   T   T
 -0.0014992597948820  0.7493065210562802  0.1858174038644242   T   T   T
  0.5036447801187462  0.2509623955668184  0.1844867061243105   T   T   T
  0.5014992597948820  0.7493065210562802  0.1858174038644242   T   T   T
  0.0009298481918759  0.0003595010488735  0.2747412054864385   T   T   T
  0.0047423119977270  0.4998975597730223  0.2788130670574920   T   T   T
  0.4990701518081241  0.0003595010488735  0.2747412054864385   T   T   T
  0.4952576880022730  0.4998975597730223  0.2788130670574920   T   T   T
  0.2500000000000000  0.7527717073516905  0.2744909986707182   T   T   T
  0.7500000000000000  0.2466438446704403  0.2800792273296795   T   T   T
  0.7500000000000000  0.7542827737106703  0.2795833448820543   T   T   T
 -0.0000427058870268  0.0000846302838308  0.0032647757558231   T   T   T
 -0.0000203403153599  0.4999832568849669  0.0033472028743149   T   T   T
  0.5000427058870269  0.0000846302838308  0.0032647757558231   T   T   T
  0.5000203403153599  0.4999832568849669  0.0033472028743149   T   T   T
  0.2500000000000000  0.2500770486106830  0.0031319608992132   T   T   T
  0.2500000000000000  0.7499617085715704  0.0033169403861875   T   T   T
  0.7500000000000000  0.2500857884152427  0.0034450686472551   T   T   T
  0.7500000000000000  0.7500159385117739  0.0034703780619916   T   T   T
  0.2500000000000000  0.0007231690366546  0.0948856226843935   T   T   T
  0.2500000000000000  0.4992915523959608  0.0952090822666485   T   T   T
  0.7500000000000000  0.0004866864488144  0.0952819546666555   T   T   T
  0.7500000000000000  0.4997343103205568  0.0955015601793436   T   T   T
  0.0003341020177301  0.2502703977970587  0.0952627795013237   T   T   T
  0.0000138997476584  0.7498852826599843  0.0951944437824950   T   T   T
  0.4996658979822698  0.2502703977970587  0.0952627795013237   T   T   T
  0.4999861002523415  0.7498852826599843  0.0951944437824950   T   T   T
  0.0001722470748234  0.0004397355951726  0.1844437335297863   T   T   T
  0.0000687066016788  0.4998747972884838  0.1854105575498844   T   T   T
  0.4998277529251767  0.0004397355951726  0.1844437335297863   T   T   T
  0.4999312933983213  0.4998747972884838  0.1854105575498844   T   T   T
  0.2500000000000000  0.2496804865653380  0.1860319819189498   T   T   T
  0.2500000000000000  0.7500815862417416  0.1851016480123789   T   T   T
  0.7500000000000000  0.2504217795247890  0.1869101876907803   T   T   T
  0.7500000000000000  0.7500958754097961  0.1863062863848673   T   T   T
  0.2499999495650016  0.0171528954771050  0.2744940267780336   T   T   T
  0.2499999495650016  0.4807633151207868  0.2745054287938493   T   T   T
  0.7499999495650016  0.0033983511910465  0.2765444137039716   T   T   T
  0.7499999495650016  0.4976580521783662  0.2765950725712515   T   T   T
  0.0238637181179786  0.2472039691258844  0.2738512555039602   T   T   T
  0.0077052295245523  0.7533610290935352  0.2757148750174909   T   T   T
  0.4761362818820213  0.2472039691258844  0.2738512555039602   T   T   T
  0.4922947704754476  0.7533610290935352  0.2757148750174909   T   T   T
  0.7499999495650016  0.4933983986639284  0.3676456552208587   T   T   T
 
  0.00000000E+00  0.00000000E+00  0.00000000E+00
  0.00000000E+00  0.00000000E+00  0.00000000E+00
  0.00000000E+00  0.00000000E+00  0.00000000E+00
  0.00000000E+00  0.00000000E+00  0.00000000E+00
  0.00000000E+00  0.00000000E+00  0.00000000E+00
  0.00000000E+00  0.00000000E+00  0.00000000E+00
  0.00000000E+00  0.00000000E+00  0.00000000E+00
  0.00000000E+00  0.00000000E+00  0.00000000E+00
  0.00000000E+00  0.00000000E+00  0.00000000E+00
  0.00000000E+00  0.00000000E+00  0.00000000E+00
  0.00000000E+00  0.00000000E+00  0.00000000E+00
  0.00000000E+00  0.00000000E+00  0.00000000E+00
  0.00000000E+00  0.00000000E+00  0.00000000E+00
  0.00000000E+00  0.00000000E+00  0.00000000E+00
  0.00000000E+00  0.00000000E+00  0.00000000E+00
  0.00000000E+00  0.00000000E+00  0.00000000E+00
  0.00000000E+00  0.00000000E+00  0.00000000E+00
  0.00000000E+00  0.00000000E+00  0.00000000E+00
  0.00000000E+00  0.00000000E+00  0.00000000E+00
  0.00000000E+00  0.00000000E+00  0.00000000E+00
  0.00000000E+00  0.00000000E+00  0.00000000E+00
  0.00000000E+00  0.00000000E+00  0.00000000E+00
  0.00000000E+00  0.00000000E+00  0.00000000E+00
  0.00000000E+00  0.00000000E+00  0.00000000E+00
  0.00000000E+00  0.00000000E+00  0.00000000E+00
  0.00000000E+00  0.00000000E+00  0.00000000E+00
  0.00000000E+00  0.00000000E+00  0.00000000E+00
  0.00000000E+00  0.00000000E+00  0.00000000E+00
  0.00000000E+00  0.00000000E+00  0.00000000E+00
  0.00000000E+00  0.00000000E+00  0.00000000E+00
  0.00000000E+00  0.00000000E+00  0.00000000E+00
  0.00000000E+00  0.00000000E+00  0.00000000E+00
  0.00000000E+00  0.00000000E+00  0.00000000E+00
  0.00000000E+00  0.00000000E+00  0.00000000E+00
  0.00000000E+00  0.00000000E+00  0.00000000E+00
  0.00000000E+00  0.00000000E+00  0.00000000E+00
  0.00000000E+00  0.00000000E+00  0.00000000E+00
  0.00000000E+00  0.00000000E+00  0.00000000E+00
  0.00000000E+00  0.00000000E+00  0.00000000E+00
  0.00000000E+00  0.00000000E+00  0.00000000E+00
  0.00000000E+00  0.00000000E+00  0.00000000E+00
  0.00000000E+00  0.00000000E+00  0.00000000E+00
  0.00000000E+00  0.00000000E+00  0.00000000E+00
  0.00000000E+00  0.00000000E+00  0.00000000E+00
  0.00000000E+00  0.00000000E+00  0.00000000E+00
  0.00000000E+00  0.00000000E+00  0.00000000E+00
  0.00000000E+00  0.00000000E+00  0.00000000E+00
  0.00000000E+00  0.00000000E+00  0.00000000E+00
  0.00000000E+00  0.00000000E+00  0.00000000E+00
  0.00000000E+00  0.00000000E+00  0.00000000E+00
  0.00000000E+00  0.00000000E+00  0.00000000E+00
  0.00000000E+00  0.00000000E+00  0.00000000E+00
  0.00000000E+00  0.00000000E+00  0.00000000E+00
  0.00000000E+00  0.00000000E+00  0.00000000E+00
  0.00000000E+00  0.00000000E+00  0.00000000E+00
  0.00000000E+00  0.00000000E+00  0.00000000E+00
  0.00000000E+00  0.00000000E+00  0.00000000E+00
  0.00000000E+00  0.00000000E+00  0.00000000E+00
  0.00000000E+00  0.00000000E+00  0.00000000E+00
  0.00000000E+00  0.00000000E+00  0.00000000E+00
  0.00000000E+00  0.00000000E+00  0.00000000E+00
  0.00000000E+00  0.00000000E+00  0.00000000E+00
  0.00000000E+00  0.00000000E+00  0.00000000E+00
  0.00000000E+00  0.00000000E+00  0.00000000E+00
  0.00000000E+00  0.00000000E+00  0.00000000E+00
