Al Co Mg O                              
   1.00000000000000     
     8.4141216974800006    0.0000000000000000    0.0000000000000000
     0.0000000000000000    8.4141216974800006    0.0000000000000000
     0.0000000000000000    0.0000000000000000   23.4141216974799988
   Al   Co   Mg   O 
     1     1    31    32
Selective dynamics
Direct
  0.2500000000000000  0.2498935246091530  0.2666583690772837   T   T   T
  0.7499999495650016  0.4849044538263262  0.3657616627005772   T   T   T
  0.2500000000000000  0.0000668539188494  0.0046115698675004   T   T   T
  0.2500000000000000  0.5003463650348456  0.0045355108294841   T   T   T
  0.7500000000000000  0.0001398536893035  0.0047374931516224   T   T   T
  0.7500000000000000  0.5003938708016473  0.0048645173071572   T   T   T
  0.9998193888325645  0.2501712037342556  0.0046931806207226   T   T   T
  0.9998399211099479  0.7502834200841162  0.0048477505028066   T   T   T
  0.5001806111674355  0.2501712037342556  0.0046931806207226   T   T   T
  0.5001600788900521  0.7502834200841162  0.0048477505028066   T   T   T
  0.9993756757119530  0.9997385917547107  0.0942780303433859   T   T   T
 -0.0000180813553759  0.5007125376620036  0.0942368297128314   T   T   T
  0.5006243242880470  0.9997385917547107  0.0942780303433859   T   T   T
  0.5000180813553760  0.5007125376620036  0.0942368297128314   T   T   T
  0.2500000000000000  0.2502560565512394  0.0934025743253246   T   T   T
  0.2500000000000000  0.7500564688214517  0.0940291648222292   T   T   T
  0.7500000000000000  0.2498032587249680  0.0941338999338643   T   T   T
  0.7500000000000000  0.7508754566869538  0.0945306656775727   T   T   T
  0.2500000000000000  0.9974252827468194  0.1834010335835421   T   T   T
  0.2500000000000000  0.5027974265095552  0.1838372037618791   T   T   T
  0.7500000000000000 -0.0000541744487752  0.1854208044820637   T   T   T
  0.7500000000000000  0.5010048544788799  0.1840697249050110   T   T   T
  0.9961868269575477  0.2513524419109333  0.1839281883707527   T   T   T
  0.9983598646111078  0.7490817058231122  0.1852620082809809   T   T   T
  0.5038131730424523  0.2513524419109333  0.1839281883707527   T   T   T
  0.5016401353888922  0.7490817058231122  0.1852620082809809   T   T   T
 -0.0000793056408658  0.0004941239265005  0.2743506498730459   T   T   T
 -0.0004857538142850  0.4995885174703932  0.2785156989811536   T   T   T
  0.5000793056408658  0.0004941239265005  0.2743506498730459   T   T   T
  0.5004857538142850  0.4995885174703932  0.2785156989811536   T   T   T
  0.2500000000000000  0.7505693622064415  0.2741172401729955   T   T   T
  0.7500000000000000  0.2515767199018623  0.2795548082277505   T   T   T
  0.7500000000000000  0.7490887535330294  0.2786794678016953   T   T   T
  0.0000669195174887  0.0003201023495151  0.0025702164302797   T   T   T
  0.0000362057272484  0.5001855623109615  0.0025496831294545   T   T   T
  0.4999330804825112  0.0003201023495151  0.0025702164302797   T   T   T
  0.4999637942727516  0.5001855623109615  0.0025496831294545   T   T   T
  0.2500000000000000  0.2501843162316977  0.0024680007010019   T   T   T
  0.2500000000000000  0.7502166209969526  0.0026336215269123   T   T   T
  0.7500000000000000  0.2502692857639996  0.0026502943257784   T   T   T
  0.7500000000000000  0.7502514930063607  0.0026736078074177   T   T   T
  0.2500000000000000  0.0008603618986130  0.0944439577342188   T   T   T
  0.2500000000000000  0.4994615441503134  0.0942950775434929   T   T   T
  0.7500000000000000  0.0006649841012978  0.0943389979174279   T   T   T
  0.7500000000000000  0.4999599994228634  0.0942172914133700   T   T   T
  0.0007340169915634  0.2500529891403437  0.0944866567906063   T   T   T
  0.0004015795691389  0.7504139707477175  0.0944061028191830   T   T   T
  0.4992659830084366  0.2500529891403437  0.0944866567906063   T   T   T
  0.4995984204308612  0.7504139707477175  0.0944061028191830   T   T   T
  0.0004592511544324  0.0003974399040380  0.1840583570624992   T   T   T
  0.0014961969303980  0.5000293667568667  0.1839301796727579   T   T   T
  0.4995407488455676  0.0003974399040380  0.1840583570624992   T   T   T
  0.4985038030696019  0.5000293667568667  0.1839301796727579   T   T   T
  0.2500000000000000  0.2496453860274928  0.1857352060285702   T   T   T
  0.2500000000000000  0.7503680553225679  0.1848206572069461   T   T   T
  0.7500000000000000  0.2490996813574665  0.1852173909188043   T   T   T
  0.7500000000000000  0.7517154045194998  0.1848120794559049   T   T   T
  0.2499999495650016  0.0177739884832363  0.2743285340400295   T   T   T
  0.2499999495650016  0.4811102651117897  0.2743482894508580   T   T   T
  0.7499999495650016  0.0041133651988402  0.2763109933222432   T   T   T
  0.7499999495650016  0.4985984902480460  0.2701730745564658   T   T   T
  0.0229863243243506  0.2479097032616276  0.2735213666780155   T   T   T
  0.0067227346603261  0.7525495084476097  0.2755839470570179   T   T   T
  0.4770136756756495  0.2479097032616276  0.2735213666780155   T   T   T
  0.4932772653396738  0.7525495084476097  0.2755839470570179   T   T   T
 
  0.00000000E+00  0.00000000E+00  0.00000000E+00
  0.00000000E+00  0.00000000E+00  0.00000000E+00
  0.00000000E+00  0.00000000E+00  0.00000000E+00
  0.00000000E+00  0.00000000E+00  0.00000000E+00
  0.00000000E+00  0.00000000E+00  0.00000000E+00
  0.00000000E+00  0.00000000E+00  0.00000000E+00
  0.00000000E+00  0.00000000E+00  0.00000000E+00
  0.00000000E+00  0.00000000E+00  0.00000000E+00
  0.00000000E+00  0.00000000E+00  0.00000000E+00
  0.00000000E+00  0.00000000E+00  0.00000000E+00
  0.00000000E+00  0.00000000E+00  0.00000000E+00
  0.00000000E+00  0.00000000E+00  0.00000000E+00
  0.00000000E+00  0.00000000E+00  0.00000000E+00
  0.00000000E+00  0.00000000E+00  0.00000000E+00
  0.00000000E+00  0.00000000E+00  0.00000000E+00
  0.00000000E+00  0.00000000E+00  0.00000000E+00
  0.00000000E+00  0.00000000E+00  0.00000000E+00
  0.00000000E+00  0.00000000E+00  0.00000000E+00
  0.00000000E+00  0.00000000E+00  0.00000000E+00
  0.00000000E+00  0.00000000E+00  0.00000000E+00
  0.00000000E+00  0.00000000E+00  0.00000000E+00
  0.00000000E+00  0.00000000E+00  0.00000000E+00
  0.00000000E+00  0.00000000E+00  0.00000000E+00
  0.00000000E+00  0.00000000E+00  0.00000000E+00
  0.00000000E+00  0.00000000E+00  0.00000000E+00
  0.00000000E+00  0.00000000E+00  0.00000000E+00
  0.00000000E+00  0.00000000E+00  0.00000000E+00
  0.00000000E+00  0.00000000E+00  0.00000000E+00
  0.00000000E+00  0.00000000E+00  0.00000000E+00
  0.00000000E+00  0.00000000E+00  0.00000000E+00
  0.00000000E+00  0.00000000E+00  0.00000000E+00
  0.00000000E+00  0.00000000E+00  0.00000000E+00
  0.00000000E+00  0.00000000E+00  0.00000000E+00
  0.00000000E+00  0.00000000E+00  0.00000000E+00
  0.00000000E+00  0.00000000E+00  0.00000000E+00
  0.00000000E+00  0.00000000E+00  0.00000000E+00
  0.00000000E+00  0.00000000E+00  0.00000000E+00
  0.00000000E+00  0.00000000E+00  0.00000000E+00
  0.00000000E+00  0.00000000E+00  0.00000000E+00
  0.00000000E+00  0.00000000E+00  0.00000000E+00
  0.00000000E+00  0.00000000E+00  0.00000000E+00
  0.00000000E+00  0.00000000E+00  0.00000000E+00
  0.00000000E+00  0.00000000E+00  0.00000000E+00
  0.00000000E+00  0.00000000E+00  0.00000000E+00
  0.00000000E+00  0.00000000E+00  0.00000000E+00
  0.00000000E+00  0.00000000E+00  0.00000000E+00
  0.00000000E+00  0.00000000E+00  0.00000000E+00
  0.00000000E+00  0.00000000E+00  0.00000000E+00
  0.00000000E+00  0.00000000E+00  0.00000000E+00
  0.00000000E+00  0.00000000E+00  0.00000000E+00
  0.00000000E+00  0.00000000E+00  0.00000000E+00
  0.00000000E+00  0.00000000E+00  0.00000000E+00
  0.00000000E+00  0.00000000E+00  0.00000000E+00
  0.00000000E+00  0.00000000E+00  0.00000000E+00
  0.00000000E+00  0.00000000E+00  0.00000000E+00
  0.00000000E+00  0.00000000E+00  0.00000000E+00
  0.00000000E+00  0.00000000E+00  0.00000000E+00
  0.00000000E+00  0.00000000E+00  0.00000000E+00
  0.00000000E+00  0.00000000E+00  0.00000000E+00
  0.00000000E+00  0.00000000E+00  0.00000000E+00
  0.00000000E+00  0.00000000E+00  0.00000000E+00
  0.00000000E+00  0.00000000E+00  0.00000000E+00
  0.00000000E+00  0.00000000E+00  0.00000000E+00
  0.00000000E+00  0.00000000E+00  0.00000000E+00
  0.00000000E+00  0.00000000E+00  0.00000000E+00
