Al Cd Mg O                              
   1.00000000000000     
     8.4141216974800006    0.0000000000000000    0.0000000000000000
     0.0000000000000000    8.4141216974800006    0.0000000000000000
     0.0000000000000000    0.0000000000000000   23.4141216974799988
   Al   Cd   Mg   O 
     1     1    31    32
Selective dynamics
Direct
  0.2500000000000000  0.2502723506044516  0.2668463241191446   T   T   T
  0.7499999495650016  0.4826933563502443  0.4037114267168831   T   T   T
  0.2500000000000000  0.0000811255011205  0.0036665847767745   T   T   T
  0.2500000000000000  0.5004537455892497  0.0036987105511091   T   T   T
  0.7500000000000000  0.0000100306016596  0.0040478659285680   T   T   T
  0.7500000000000000  0.5003921651664198  0.0039029735960851   T   T   T
  0.9997583969082717  0.2500962250580526  0.0036887183999833   T   T   T
  0.9997694014798909  0.7503328823049576  0.0039058789314691   T   T   T
  0.5002416030917283  0.2500962250580526  0.0036887183999833   T   T   T
  0.5002305985201091  0.7503328823049576  0.0039058789314691   T   T   T
  0.9994503541503217  0.9997688908469033  0.0937183946133669   T   T   T
 -0.0004544325113024  0.5006470225424651  0.0934378678223711   T   T   T
  0.5005496458496783  0.9997688908469033  0.0937183946133669   T   T   T
  0.5004544325113024  0.5006470225424651  0.0934378678223711   T   T   T
  0.2500000000000000  0.2501330666462162  0.0926233484471007   T   T   T
  0.2500000000000000  0.7503357966701842  0.0933008054560245   T   T   T
  0.7500000000000000  0.2500271071782375  0.0933774366367775   T   T   T
  0.7500000000000000  0.7503927171204479  0.0939005546130303   T   T   T
  0.2500000000000000  0.9974388085819891  0.1831215112126759   T   T   T
  0.2500000000000000  0.5027983678057448  0.1828024796062316   T   T   T
  0.7500000000000000 -0.0000167292024194  0.1850127821745239   T   T   T
  0.7500000000000000  0.5007382503663049  0.1844947580626617   T   T   T
  0.9961695251041167  0.2504990144593403  0.1833356815954825   T   T   T
  0.9983767177154037  0.7500637289773021  0.1846165645549446   T   T   T
  0.5038304748958833  0.2504990144593403  0.1833356815954825   T   T   T
  0.5016232822845963  0.7500637289773021  0.1846165645549446   T   T   T
  0.0001855379968456  0.0006848599786667  0.2752115425939447   T   T   T
  0.0006777757921533  0.5001096694574618  0.2744559428641051   T   T   T
  0.4998144620031544  0.0006848599786667  0.2752115425939447   T   T   T
  0.4993222242078467  0.5001096694574618  0.2744559428641051   T   T   T
  0.2500000000000000  0.7495665832075945  0.2741053607862426   T   T   T
  0.7500000000000000  0.2497638102889556  0.2781087099497997   T   T   T
  0.7500000000000000  0.7513354499884177  0.2772221754455877   T   T   T
  0.0000509532422330  0.0003107217902608  0.0026397500847284   T   T   T
  0.0000599332003289  0.5001662704405013  0.0024854235582529   T   T   T
  0.4999490467577670  0.0003107217902608  0.0026397500847284   T   T   T
  0.4999400667996711  0.5001662704405013  0.0024854235582529   T   T   T
  0.2500000000000000  0.2502302179213862  0.0023737548058104   T   T   T
  0.2500000000000000  0.7502924206868644  0.0026502075253524   T   T   T
  0.7500000000000000  0.2501924435409107  0.0026454801581647   T   T   T
  0.7500000000000000  0.7502290242059173  0.0027218633380950   T   T   T
  0.2500000000000000  0.0008783227670659  0.0944674972695200   T   T   T
  0.2500000000000000  0.4995325271133520  0.0942814995759845   T   T   T
  0.7500000000000000  0.0005678206692074  0.0945782531209757   T   T   T
  0.7500000000000000  0.4998396949029038  0.0945827102187911   T   T   T
  0.0005118464777564  0.2502425017788026  0.0944657270855593   T   T   T
  0.0002251094579126  0.7502235120334279  0.0944843804461350   T   T   T
  0.4994881535222435  0.2502425017788027  0.0944657270855593   T   T   T
  0.4997748905420874  0.7502235120334279  0.0944843804461350   T   T   T
  0.0004980573749897  0.0004365798838038  0.1844607000332157   T   T   T
  0.0009928423867333  0.5001518643982419  0.1840351621799963   T   T   T
  0.4995019426250104  0.0004365798838038  0.1844607000332157   T   T   T
  0.4990071576132667  0.5001518643982419  0.1840351621799963   T   T   T
  0.2500000000000000  0.2502590557044886  0.1859404595356090   T   T   T
  0.2500000000000000  0.7502089226624589  0.1850176117043992   T   T   T
  0.7500000000000000  0.2497341782280766  0.1855447345006982   T   T   T
  0.7500000000000000  0.7507308740703226  0.1851164904777401   T   T   T
  0.2499999495650016  0.0193368565248534  0.2744709296547842   T   T   T
  0.2499999495650016  0.4820579935896364  0.2742257583048506   T   T   T
  0.7499999495650016  0.0033227732570193  0.2759667026775123   T   T   T
  0.7499999495650016  0.4971612704975447  0.2734908795257024   T   T   T
  0.0213027438188971  0.2509200798085679  0.2739473586413423   T   T   T
  0.0056830523500682  0.7498509768393306  0.2760499566269892   T   T   T
  0.4786972561811030  0.2509200798085679  0.2739473586413423   T   T   T
  0.4943169476499319  0.7498509768393306  0.2760499566269892   T   T   T
 
  0.00000000E+00  0.00000000E+00  0.00000000E+00
  0.00000000E+00  0.00000000E+00  0.00000000E+00
  0.00000000E+00  0.00000000E+00  0.00000000E+00
  0.00000000E+00  0.00000000E+00  0.00000000E+00
  0.00000000E+00  0.00000000E+00  0.00000000E+00
  0.00000000E+00  0.00000000E+00  0.00000000E+00
  0.00000000E+00  0.00000000E+00  0.00000000E+00
  0.00000000E+00  0.00000000E+00  0.00000000E+00
  0.00000000E+00  0.00000000E+00  0.00000000E+00
  0.00000000E+00  0.00000000E+00  0.00000000E+00
  0.00000000E+00  0.00000000E+00  0.00000000E+00
  0.00000000E+00  0.00000000E+00  0.00000000E+00
  0.00000000E+00  0.00000000E+00  0.00000000E+00
  0.00000000E+00  0.00000000E+00  0.00000000E+00
  0.00000000E+00  0.00000000E+00  0.00000000E+00
  0.00000000E+00  0.00000000E+00  0.00000000E+00
  0.00000000E+00  0.00000000E+00  0.00000000E+00
  0.00000000E+00  0.00000000E+00  0.00000000E+00
  0.00000000E+00  0.00000000E+00  0.00000000E+00
  0.00000000E+00  0.00000000E+00  0.00000000E+00
  0.00000000E+00  0.00000000E+00  0.00000000E+00
  0.00000000E+00  0.00000000E+00  0.00000000E+00
  0.00000000E+00  0.00000000E+00  0.00000000E+00
  0.00000000E+00  0.00000000E+00  0.00000000E+00
  0.00000000E+00  0.00000000E+00  0.00000000E+00
  0.00000000E+00  0.00000000E+00  0.00000000E+00
  0.00000000E+00  0.00000000E+00  0.00000000E+00
  0.00000000E+00  0.00000000E+00  0.00000000E+00
  0.00000000E+00  0.00000000E+00  0.00000000E+00
  0.00000000E+00  0.00000000E+00  0.00000000E+00
  0.00000000E+00  0.00000000E+00  0.00000000E+00
  0.00000000E+00  0.00000000E+00  0.00000000E+00
  0.00000000E+00  0.00000000E+00  0.00000000E+00
  0.00000000E+00  0.00000000E+00  0.00000000E+00
  0.00000000E+00  0.00000000E+00  0.00000000E+00
  0.00000000E+00  0.00000000E+00  0.00000000E+00
  0.00000000E+00  0.00000000E+00  0.00000000E+00
  0.00000000E+00  0.00000000E+00  0.00000000E+00
  0.00000000E+00  0.00000000E+00  0.00000000E+00
  0.00000000E+00  0.00000000E+00  0.00000000E+00
  0.00000000E+00  0.00000000E+00  0.00000000E+00
  0.00000000E+00  0.00000000E+00  0.00000000E+00
  0.00000000E+00  0.00000000E+00  0.00000000E+00
  0.00000000E+00  0.00000000E+00  0.00000000E+00
  0.00000000E+00  0.00000000E+00  0.00000000E+00
  0.00000000E+00  0.00000000E+00  0.00000000E+00
  0.00000000E+00  0.00000000E+00  0.00000000E+00
  0.00000000E+00  0.00000000E+00  0.00000000E+00
  0.00000000E+00  0.00000000E+00  0.00000000E+00
  0.00000000E+00  0.00000000E+00  0.00000000E+00
  0.00000000E+00  0.00000000E+00  0.00000000E+00
  0.00000000E+00  0.00000000E+00  0.00000000E+00
  0.00000000E+00  0.00000000E+00  0.00000000E+00
  0.00000000E+00  0.00000000E+00  0.00000000E+00
  0.00000000E+00  0.00000000E+00  0.00000000E+00
  0.00000000E+00  0.00000000E+00  0.00000000E+00
  0.00000000E+00  0.00000000E+00  0.00000000E+00
  0.00000000E+00  0.00000000E+00  0.00000000E+00
  0.00000000E+00  0.00000000E+00  0.00000000E+00
  0.00000000E+00  0.00000000E+00  0.00000000E+00
  0.00000000E+00  0.00000000E+00  0.00000000E+00
  0.00000000E+00  0.00000000E+00  0.00000000E+00
  0.00000000E+00  0.00000000E+00  0.00000000E+00
  0.00000000E+00  0.00000000E+00  0.00000000E+00
  0.00000000E+00  0.00000000E+00  0.00000000E+00
