Al Mg O Pt                              
   1.00000000000000     
     8.4141216974800006    0.0000000000000000    0.0000000000000000
     0.0000000000000000    8.4141216974800006    0.0000000000000000
     0.0000000000000000    0.0000000000000000   23.4141216974799988
   Al   Mg   O    Pt
     1    31    32     1
Selective dynamics
Direct
  0.2500000000000000  0.2497318878279576  0.2667461614984282   T   T   T
  0.2500000000000000  0.0000356264072022  0.0046652785514794   T   T   T
  0.2500000000000000  0.5003288639774949  0.0046354912580872   T   T   T
  0.7500000000000000  0.0000751901203998  0.0048311425664843   T   T   T
  0.7500000000000000  0.5003886380021940  0.0048384658898698   T   T   T
  0.9997681299040841  0.2502232177275170  0.0047434202814031   T   T   T
  0.9997707955872587  0.7501881071518091  0.0048998382058721   T   T   T
  0.5002318700959159  0.2502232177275170  0.0047434202814031   T   T   T
  0.5002292044127413  0.7501881071518091  0.0048998382058721   T   T   T
  0.9993278047568300  0.9997424106694311  0.0944126926654268   T   T   T
  0.0004605936733248  0.5006962078541036  0.0943183764612820   T   T   T
  0.5006721952431700  0.9997424106694311  0.0944126926654268   T   T   T
  0.4995394063266750  0.5006962078541036  0.0943183764612820   T   T   T
  0.2500000000000000  0.2503168793567897  0.0935277617786802   T   T   T
  0.2500000000000000  0.7499954778094207  0.0941418761655374   T   T   T
  0.7500000000000000  0.2493132017798091  0.0941949855183402   T   T   T
  0.7500000000000000  0.7513109530620672  0.0946003555512108   T   T   T
  0.2500000000000000  0.9974212220922171  0.1833057488128793   T   T   T
  0.2500000000000000  0.5028261595359279  0.1840882050533247   T   T   T
  0.7500000000000000  0.0000100198098280  0.1856196319791205   T   T   T
  0.7500000000000000  0.5009872001906299  0.1828666296124490   T   T   T
  0.9959089452215798  0.2517411072280030  0.1842990497267623   T   T   T
  0.9980505331517852  0.7486997165153155  0.1856435189183468   T   T   T
  0.5040910547784202  0.2517411072280030  0.1842990497267623   T   T   T
  0.5019494668482148  0.7486997165153155  0.1856435189183468   T   T   T
  0.0003952948025758  0.0003919527392150  0.2742724779481306   T   T   T
 -0.0002603375307337  0.4995500072844567  0.2797703837230736   T   T   T
  0.4996047051974242  0.0003919527392150  0.2742724779481306   T   T   T
  0.5002603375307336  0.4995500072844567  0.2797703837230736   T   T   T
  0.2500000000000000  0.7510760755650759  0.2740338001048053   T   T   T
  0.7500000000000000  0.2512297044887901  0.2806424503936611   T   T   T
  0.7500000000000000  0.7494097078294759  0.2795265484564105   T   T   T
  0.0000707668105042  0.0003094941101969  0.0026071094142019   T   T   T
  0.0000133797406417  0.5001488510582531  0.0026236098302563   T   T   T
  0.4999292331894958  0.0003094941101969  0.0026071094142019   T   T   T
  0.4999866202593583  0.5001488510582531  0.0026236098302563   T   T   T
  0.2500000000000000  0.2501662552689624  0.0025032564580754   T   T   T
  0.2500000000000000  0.7501953020458373  0.0026721753342644   T   T   T
  0.7500000000000000  0.2502647603564182  0.0027183018858918   T   T   T
  0.7500000000000000  0.7501966793902184  0.0027346186105264   T   T   T
  0.2500000000000000  0.0008758653358537  0.0944998170541512   T   T   T
  0.2500000000000000  0.4994685736917308  0.0943507889533519   T   T   T
  0.7500000000000000  0.0006760581929023  0.0943916537976049   T   T   T
  0.7500000000000000  0.4999134417741860  0.0943042431500622   T   T   T
  0.0005436113051479  0.2501974578590156  0.0946129042888489   T   T   T
  0.0002278452375614  0.7502572889496458  0.0945233458428179   T   T   T
  0.4994563886948521  0.2501974578590156  0.0946129042888489   T   T   T
  0.4997721547624386  0.7502572889496458  0.0945233458428179   T   T   T
  0.0004034492786237  0.0004313854767916  0.1841842419041057   T   T   T
  0.0019051402414878  0.5000345333258550  0.1839123927877893   T   T   T
  0.4995965507213762  0.0004313854767916  0.1841842419041057   T   T   T
  0.4980948597585122  0.5000345333258550  0.1839123927877893   T   T   T
  0.2500000000000000  0.2497857559029607  0.1858424991065194   T   T   T
  0.2500000000000000  0.7504099913523485  0.1849025969539752   T   T   T
  0.7500000000000000  0.2486324230822923  0.1853575413749431   T   T   T
  0.7500000000000000  0.7523042689479901  0.1847788772234769   T   T   T
  0.2499999495650016  0.0174715163995422  0.2742758799568232   T   T   T
  0.2499999495650016  0.4811567634976833  0.2749481787916477   T   T   T
  0.7499999495650016  0.0041176177915303  0.2770339266314440   T   T   T
  0.7499999495650016  0.4999754246296941  0.2671031564795321   T   T   T
  0.0233800283761631  0.2476052274505023  0.2737188968042843   T   T   T
  0.0070539718808676  0.7529647686018520  0.2758332321189542   T   T   T
  0.4766199716238370  0.2476052274505023  0.2737188968042843   T   T   T
  0.4929460281191324  0.7529647686018520  0.2758332321189542   T   T   T
  0.7499999495650016  0.4835690264836403  0.3622341918768143   T   T   T
 
  0.00000000E+00  0.00000000E+00  0.00000000E+00
  0.00000000E+00  0.00000000E+00  0.00000000E+00
  0.00000000E+00  0.00000000E+00  0.00000000E+00
  0.00000000E+00  0.00000000E+00  0.00000000E+00
  0.00000000E+00  0.00000000E+00  0.00000000E+00
  0.00000000E+00  0.00000000E+00  0.00000000E+00
  0.00000000E+00  0.00000000E+00  0.00000000E+00
  0.00000000E+00  0.00000000E+00  0.00000000E+00
  0.00000000E+00  0.00000000E+00  0.00000000E+00
  0.00000000E+00  0.00000000E+00  0.00000000E+00
  0.00000000E+00  0.00000000E+00  0.00000000E+00
  0.00000000E+00  0.00000000E+00  0.00000000E+00
  0.00000000E+00  0.00000000E+00  0.00000000E+00
  0.00000000E+00  0.00000000E+00  0.00000000E+00
  0.00000000E+00  0.00000000E+00  0.00000000E+00
  0.00000000E+00  0.00000000E+00  0.00000000E+00
  0.00000000E+00  0.00000000E+00  0.00000000E+00
  0.00000000E+00  0.00000000E+00  0.00000000E+00
  0.00000000E+00  0.00000000E+00  0.00000000E+00
  0.00000000E+00  0.00000000E+00  0.00000000E+00
  0.00000000E+00  0.00000000E+00  0.00000000E+00
  0.00000000E+00  0.00000000E+00  0.00000000E+00
  0.00000000E+00  0.00000000E+00  0.00000000E+00
  0.00000000E+00  0.00000000E+00  0.00000000E+00
  0.00000000E+00  0.00000000E+00  0.00000000E+00
  0.00000000E+00  0.00000000E+00  0.00000000E+00
  0.00000000E+00  0.00000000E+00  0.00000000E+00
  0.00000000E+00  0.00000000E+00  0.00000000E+00
  0.00000000E+00  0.00000000E+00  0.00000000E+00
  0.00000000E+00  0.00000000E+00  0.00000000E+00
  0.00000000E+00  0.00000000E+00  0.00000000E+00
  0.00000000E+00  0.00000000E+00  0.00000000E+00
  0.00000000E+00  0.00000000E+00  0.00000000E+00
  0.00000000E+00  0.00000000E+00  0.00000000E+00
  0.00000000E+00  0.00000000E+00  0.00000000E+00
  0.00000000E+00  0.00000000E+00  0.00000000E+00
  0.00000000E+00  0.00000000E+00  0.00000000E+00
  0.00000000E+00  0.00000000E+00  0.00000000E+00
  0.00000000E+00  0.00000000E+00  0.00000000E+00
  0.00000000E+00  0.00000000E+00  0.00000000E+00
  0.00000000E+00  0.00000000E+00  0.00000000E+00
  0.00000000E+00  0.00000000E+00  0.00000000E+00
  0.00000000E+00  0.00000000E+00  0.00000000E+00
  0.00000000E+00  0.00000000E+00  0.00000000E+00
  0.00000000E+00  0.00000000E+00  0.00000000E+00
  0.00000000E+00  0.00000000E+00  0.00000000E+00
  0.00000000E+00  0.00000000E+00  0.00000000E+00
  0.00000000E+00  0.00000000E+00  0.00000000E+00
  0.00000000E+00  0.00000000E+00  0.00000000E+00
  0.00000000E+00  0.00000000E+00  0.00000000E+00
  0.00000000E+00  0.00000000E+00  0.00000000E+00
  0.00000000E+00  0.00000000E+00  0.00000000E+00
  0.00000000E+00  0.00000000E+00  0.00000000E+00
  0.00000000E+00  0.00000000E+00  0.00000000E+00
  0.00000000E+00  0.00000000E+00  0.00000000E+00
  0.00000000E+00  0.00000000E+00  0.00000000E+00
  0.00000000E+00  0.00000000E+00  0.00000000E+00
  0.00000000E+00  0.00000000E+00  0.00000000E+00
  0.00000000E+00  0.00000000E+00  0.00000000E+00
  0.00000000E+00  0.00000000E+00  0.00000000E+00
  0.00000000E+00  0.00000000E+00  0.00000000E+00
  0.00000000E+00  0.00000000E+00  0.00000000E+00
  0.00000000E+00  0.00000000E+00  0.00000000E+00
  0.00000000E+00  0.00000000E+00  0.00000000E+00
  0.00000000E+00  0.00000000E+00  0.00000000E+00
