Al Au Mg O                              
   1.00000000000000     
     8.4141216974800006    0.0000000000000000    0.0000000000000000
     0.0000000000000000    8.4141216974800006    0.0000000000000000
     0.0000000000000000    0.0000000000000000   23.4141216974799988
   Al   Au   Mg   O 
     1     1    31    32
Selective dynamics
Direct
  0.2500000000000000  0.2526808016743491  0.2666808738824441   T   T   T
  0.7499999495650016  0.3482269151212000  0.3881397482604742   T   T   T
  0.2500000000000000  0.0019906576154264  0.0044396257036677   T   T   T
  0.2500000000000000  0.5021708696813211  0.0045607448910588   T   T   T
  0.7500000000000000  0.0020967812443076  0.0047086218994643   T   T   T
  0.7500000000000000  0.5021365805071158  0.0047537166817074   T   T   T
 -0.0002370714760650  0.2521220475708442  0.0045584977277757   T   T   T
 -0.0001664658948761  0.7519793731913794  0.0046485124458173   T   T   T
  0.5002370714760652  0.2521220475708442  0.0045584977277757   T   T   T
  0.5001664658948762  0.7519793731913794  0.0046485124458173   T   T   T
  0.9994281817076476  0.0017950917685032  0.0941808372328178   T   T   T
 -0.0001467054713514  0.5027148673459075  0.0942126307387390   T   T   T
  0.5005718182923524  0.0017950917685032  0.0941808372328178   T   T   T
  0.5001467054713513  0.5027148673459075  0.0942126307387390   T   T   T
  0.2500000000000000  0.2523367289974506  0.0934159718998493   T   T   T
  0.2500000000000000  0.7522146375787973  0.0938699192301003   T   T   T
  0.7500000000000000  0.2520395045711837  0.0941106140337214   T   T   T
  0.7500000000000000  0.7527684026577266  0.0944113203653959   T   T   T
  0.2500000000000000 -0.0000871907051065  0.1834928606167970   T   T   T
  0.2500000000000000  0.5047419434651425  0.1838868708785487   T   T   T
  0.7500000000000000  0.0037073310088619  0.1853443069961221   T   T   T
  0.7500000000000000  0.5021267118086015  0.1845118716932516   T   T   T
  0.9956194443703623  0.2532894187935700  0.1840773713588787   T   T   T
  0.9987358775341310  0.7513846128801459  0.1851135471946708   T   T   T
  0.5043805556296377  0.2532894187935700  0.1840773713588787   T   T   T
  0.5012641224658690  0.7513846128801459  0.1851135471946708   T   T   T
 -0.0007198803673816  0.0038045731955488  0.2748897363343886   T   T   T
 -0.0036557616782424  0.4999924401123069  0.2776170824492087   T   T   T
  0.5007198803673817  0.0038045731955488  0.2748897363343886   T   T   T
  0.5036557616782424  0.4999924401123069  0.2776170824492087   T   T   T
  0.2500000000000000  0.7512720700158181  0.2741964549557702   T   T   T
  0.7500000000000000  0.2543281571509068  0.2831792028699598   T   T   T
  0.7500000000000000  0.7520010216387538  0.2749448696622673   T   T   T
  0.0000614595637883  0.0021302054813670  0.0023895303949684   T   T   T
  0.0000313086666977  0.5020100802414970  0.0024240390676000   T   T   T
  0.4999385404362117  0.0021302054813670  0.0023895303949684   T   T   T
  0.4999686913333023  0.5020100802414970  0.0024240390676000   T   T   T
  0.2500000000000000  0.2521432070431467  0.0023495076664664   T   T   T
  0.2500000000000000  0.7520428697391883  0.0024537988548637   T   T   T
  0.7500000000000000  0.2522139391162317  0.0024875111550052   T   T   T
  0.7500000000000000  0.7520457349183257  0.0025343002022525   T   T   T
  0.2500000000000000  0.0028072088798054  0.0943078256253704   T   T   T
  0.2500000000000000  0.5017188361584864  0.0942985565639948   T   T   T
  0.7500000000000000  0.0028597765673856  0.0942492765113496   T   T   T
  0.7500000000000000  0.5019463963667751  0.0943063800495399   T   T   T
  0.0006403607858589  0.2521286123510943  0.0944389772786955   T   T   T
  0.0005317702101069  0.7523675743353764  0.0942782004270825   T   T   T
  0.4993596392141411  0.2521286123510943  0.0944389772786955   T   T   T
  0.4994682297898931  0.7523675743353764  0.0942782004270825   T   T   T
  0.0007230685712375  0.0020867771645653  0.1841622314293959   T   T   T
  0.0016618102254483  0.5025240943262812  0.1838859788852967   T   T   T
  0.4992769314287627  0.0020867771645653  0.1841622314293959   T   T   T
  0.4983381897745518  0.5025240943262812  0.1838859788852967   T   T   T
  0.2500000000000000  0.2521743490893276  0.1855490300107848   T   T   T
  0.2500000000000000  0.7525332345068210  0.1850596886312016   T   T   T
  0.7500000000000000  0.2518269064389695  0.1852828184376005   T   T   T
  0.7500000000000000  0.7545206353230935  0.1841242600946233   T   T   T
  0.2499999495650016  0.0195295368359437  0.2743954021868537   T   T   T
  0.2499999495650016  0.4847170337702011  0.2747921086865936   T   T   T
  0.7499999495650016  0.0038632711725105  0.2754034611952874   T   T   T
  0.7499999495650016  0.5069068195785470  0.2705702433989799   T   T   T
  0.0241936620209820  0.2513729708260952  0.2730464002118584   T   T   T
  0.0052970906174076  0.7529964206487091  0.2766189151956137   T   T   T
  0.4758063379790181  0.2513729708260952  0.2730464002118584   T   T   T
  0.4947029093825924  0.7529964206487091  0.2766189151956137   T   T   T
 
  0.00000000E+00  0.00000000E+00  0.00000000E+00
  0.00000000E+00  0.00000000E+00  0.00000000E+00
  0.00000000E+00  0.00000000E+00  0.00000000E+00
  0.00000000E+00  0.00000000E+00  0.00000000E+00
  0.00000000E+00  0.00000000E+00  0.00000000E+00
  0.00000000E+00  0.00000000E+00  0.00000000E+00
  0.00000000E+00  0.00000000E+00  0.00000000E+00
  0.00000000E+00  0.00000000E+00  0.00000000E+00
  0.00000000E+00  0.00000000E+00  0.00000000E+00
  0.00000000E+00  0.00000000E+00  0.00000000E+00
  0.00000000E+00  0.00000000E+00  0.00000000E+00
  0.00000000E+00  0.00000000E+00  0.00000000E+00
  0.00000000E+00  0.00000000E+00  0.00000000E+00
  0.00000000E+00  0.00000000E+00  0.00000000E+00
  0.00000000E+00  0.00000000E+00  0.00000000E+00
  0.00000000E+00  0.00000000E+00  0.00000000E+00
  0.00000000E+00  0.00000000E+00  0.00000000E+00
  0.00000000E+00  0.00000000E+00  0.00000000E+00
  0.00000000E+00  0.00000000E+00  0.00000000E+00
  0.00000000E+00  0.00000000E+00  0.00000000E+00
  0.00000000E+00  0.00000000E+00  0.00000000E+00
  0.00000000E+00  0.00000000E+00  0.00000000E+00
  0.00000000E+00  0.00000000E+00  0.00000000E+00
  0.00000000E+00  0.00000000E+00  0.00000000E+00
  0.00000000E+00  0.00000000E+00  0.00000000E+00
  0.00000000E+00  0.00000000E+00  0.00000000E+00
  0.00000000E+00  0.00000000E+00  0.00000000E+00
  0.00000000E+00  0.00000000E+00  0.00000000E+00
  0.00000000E+00  0.00000000E+00  0.00000000E+00
  0.00000000E+00  0.00000000E+00  0.00000000E+00
  0.00000000E+00  0.00000000E+00  0.00000000E+00
  0.00000000E+00  0.00000000E+00  0.00000000E+00
  0.00000000E+00  0.00000000E+00  0.00000000E+00
  0.00000000E+00  0.00000000E+00  0.00000000E+00
  0.00000000E+00  0.00000000E+00  0.00000000E+00
  0.00000000E+00  0.00000000E+00  0.00000000E+00
  0.00000000E+00  0.00000000E+00  0.00000000E+00
  0.00000000E+00  0.00000000E+00  0.00000000E+00
  0.00000000E+00  0.00000000E+00  0.00000000E+00
  0.00000000E+00  0.00000000E+00  0.00000000E+00
  0.00000000E+00  0.00000000E+00  0.00000000E+00
  0.00000000E+00  0.00000000E+00  0.00000000E+00
  0.00000000E+00  0.00000000E+00  0.00000000E+00
  0.00000000E+00  0.00000000E+00  0.00000000E+00
  0.00000000E+00  0.00000000E+00  0.00000000E+00
  0.00000000E+00  0.00000000E+00  0.00000000E+00
  0.00000000E+00  0.00000000E+00  0.00000000E+00
  0.00000000E+00  0.00000000E+00  0.00000000E+00
  0.00000000E+00  0.00000000E+00  0.00000000E+00
  0.00000000E+00  0.00000000E+00  0.00000000E+00
  0.00000000E+00  0.00000000E+00  0.00000000E+00
  0.00000000E+00  0.00000000E+00  0.00000000E+00
  0.00000000E+00  0.00000000E+00  0.00000000E+00
  0.00000000E+00  0.00000000E+00  0.00000000E+00
  0.00000000E+00  0.00000000E+00  0.00000000E+00
  0.00000000E+00  0.00000000E+00  0.00000000E+00
  0.00000000E+00  0.00000000E+00  0.00000000E+00
  0.00000000E+00  0.00000000E+00  0.00000000E+00
  0.00000000E+00  0.00000000E+00  0.00000000E+00
  0.00000000E+00  0.00000000E+00  0.00000000E+00
  0.00000000E+00  0.00000000E+00  0.00000000E+00
  0.00000000E+00  0.00000000E+00  0.00000000E+00
  0.00000000E+00  0.00000000E+00  0.00000000E+00
  0.00000000E+00  0.00000000E+00  0.00000000E+00
  0.00000000E+00  0.00000000E+00  0.00000000E+00
