Al Mg O Rh                              
   1.00000000000000     
     8.4141216974800006    0.0000000000000000    0.0000000000000000
     0.0000000000000000    8.4141216974800006    0.0000000000000000
     0.0000000000000000    0.0000000000000000   23.4141216974799988
   Al   Mg   O    Rh
     1    31    32     1
Selective dynamics
Direct
  0.2500000000000000  0.2491560353970547  0.2664886299114372   T   T   T
  0.2500000000000000  0.0000316811058332  0.0046620651790092   T   T   T
  0.2500000000000000  0.5003228187130156  0.0046496187327658   T   T   T
  0.7500000000000000  0.0000725903350697  0.0048425393688533   T   T   T
  0.7500000000000000  0.5003845661123602  0.0049303962377543   T   T   T
  0.9997641718938197  0.2502317961636342  0.0047509455902371   T   T   T
  0.9997636687785072  0.7501758911562473  0.0049083610456887   T   T   T
  0.5002358281061803  0.2502317961636342  0.0047509455902371   T   T   T
  0.5002363312214928  0.7501758911562473  0.0049083610456887   T   T   T
  0.9992898162378959  0.9997320643004609  0.0943897183472701   T   T   T
  0.9997191434719097  0.5007085196601574  0.0944909704910618   T   T   T
  0.5007101837621041  0.9997320643004609  0.0943897183472701   T   T   T
  0.5002808565280903  0.5007085196601574  0.0944909704910618   T   T   T
  0.2500000000000000  0.2503345635615805  0.0935266808586801   T   T   T
  0.2500000000000000  0.7499631114622692  0.0941384352296402   T   T   T
  0.7500000000000000  0.2500384858592351  0.0943337662656052   T   T   T
  0.7500000000000000  0.7505320435259972  0.0947710213828254   T   T   T
  0.2500000000000000  0.9973569784517579  0.1833336311360171   T   T   T
  0.2500000000000000  0.5028658967309673  0.1841285431132312   T   T   T
  0.7500000000000000 -0.0000564321995145  0.1856509057881049   T   T   T
  0.7500000000000000  0.5008219692653494  0.1846823513872132   T   T   T
  0.9958024037523037  0.2518332038585787  0.1843211046216170   T   T   T
  0.9980152559560159  0.7486266103380246  0.1856772490735604   T   T   T
  0.5041975962476963  0.2518332038585787  0.1843211046216170   T   T   T
  0.5019847440439841  0.7486266103380246  0.1856772490735604   T   T   T
  0.0008054439169291  0.0003713286894477  0.2740866070579303   T   T   T
  0.0019311114432743  0.4994315091288067  0.2806404203013382   T   T   T
  0.4991945560830710  0.0003713286894477  0.2740866070579303   T   T   T
  0.4980688885567257  0.4994315091288067  0.2806404203013382   T   T   T
  0.2500000000000000  0.7513729295572352  0.2738433301230577   T   T   T
  0.7500000000000000  0.2485946745090503  0.2815618329597678   T   T   T
  0.7500000000000000  0.7513003111004172  0.2803465293308692   T   T   T
  0.0000565926256418  0.0003135799511482  0.0026132268519984   T   T   T
  0.0000831479636323  0.5001434477595154  0.0026119166284121   T   T   T
  0.4999434073743582  0.0003135799511482  0.0026132268519984   T   T   T
  0.4999168520363677  0.5001434477595154  0.0026119166284121   T   T   T
  0.2500000000000000  0.2501706022663557  0.0025108501967856   T   T   T
  0.2500000000000000  0.7501863755880306  0.0026771957574844   T   T   T
  0.7500000000000000  0.2502023090532928  0.0027070430803982   T   T   T
  0.7500000000000000  0.7502477728702265  0.0027222516939567   T   T   T
  0.2500000000000000  0.0008708470968329  0.0945128744298506   T   T   T
  0.2500000000000000  0.4994561139271219  0.0945386823074889   T   T   T
  0.7500000000000000  0.0006479173963759  0.0945803634444116   T   T   T
  0.7500000000000000  0.4998915120591510  0.0945178216059610   T   T   T
  0.0005448067189823  0.2502027240871095  0.0946362565478776   T   T   T
  0.0002256907030363  0.7502661678085127  0.0945427073062362   T   T   T
  0.4994551932810178  0.2502027240871095  0.0946362565478776   T   T   T
  0.4997743092969637  0.7502661678085127  0.0945427073062362   T   T   T
  0.0001525964227562  0.0004866739775587  0.1840896172351067   T   T   T
  0.0006828109366110  0.5000128074079881  0.1845088424586180   T   T   T
  0.4998474035772438  0.0004866739775587  0.1840896172351067   T   T   T
  0.4993171890633890  0.5000128074079881  0.1845088424586180   T   T   T
  0.2500000000000000  0.2499843343142190  0.1856678864208745   T   T   T
  0.2500000000000000  0.7502076824065030  0.1847692194517954   T   T   T
  0.7500000000000000  0.2498565154571338  0.1859852312297669   T   T   T
  0.7500000000000000  0.7509365231870754  0.1854275224507131   T   T   T
  0.2499999495650016  0.0171513037620742  0.2743551417459094   T   T   T
  0.2499999495650016  0.4813283354607059  0.2748804498181270   T   T   T
  0.7499999495650016  0.0036394294624201  0.2769335385257967   T   T   T
  0.7499999495650016  0.4998483778041222  0.2702220051117349   T   T   T
  0.0245914401610891  0.2467399977492872  0.2735016747997293   T   T   T
  0.0079266077752105  0.7539350459851625  0.2755850489324111   T   T   T
  0.4754085598389109  0.2467399977492872  0.2735016747997293   T   T   T
  0.4920733922247895  0.7539350459851625  0.2755850489324111   T   T   T
  0.7499999495650016  0.4858590883603999  0.3563304566249118   T   T   T
 
  0.00000000E+00  0.00000000E+00  0.00000000E+00
  0.00000000E+00  0.00000000E+00  0.00000000E+00
  0.00000000E+00  0.00000000E+00  0.00000000E+00
  0.00000000E+00  0.00000000E+00  0.00000000E+00
  0.00000000E+00  0.00000000E+00  0.00000000E+00
  0.00000000E+00  0.00000000E+00  0.00000000E+00
  0.00000000E+00  0.00000000E+00  0.00000000E+00
  0.00000000E+00  0.00000000E+00  0.00000000E+00
  0.00000000E+00  0.00000000E+00  0.00000000E+00
  0.00000000E+00  0.00000000E+00  0.00000000E+00
  0.00000000E+00  0.00000000E+00  0.00000000E+00
  0.00000000E+00  0.00000000E+00  0.00000000E+00
  0.00000000E+00  0.00000000E+00  0.00000000E+00
  0.00000000E+00  0.00000000E+00  0.00000000E+00
  0.00000000E+00  0.00000000E+00  0.00000000E+00
  0.00000000E+00  0.00000000E+00  0.00000000E+00
  0.00000000E+00  0.00000000E+00  0.00000000E+00
  0.00000000E+00  0.00000000E+00  0.00000000E+00
  0.00000000E+00  0.00000000E+00  0.00000000E+00
  0.00000000E+00  0.00000000E+00  0.00000000E+00
  0.00000000E+00  0.00000000E+00  0.00000000E+00
  0.00000000E+00  0.00000000E+00  0.00000000E+00
  0.00000000E+00  0.00000000E+00  0.00000000E+00
  0.00000000E+00  0.00000000E+00  0.00000000E+00
  0.00000000E+00  0.00000000E+00  0.00000000E+00
  0.00000000E+00  0.00000000E+00  0.00000000E+00
  0.00000000E+00  0.00000000E+00  0.00000000E+00
  0.00000000E+00  0.00000000E+00  0.00000000E+00
  0.00000000E+00  0.00000000E+00  0.00000000E+00
  0.00000000E+00  0.00000000E+00  0.00000000E+00
  0.00000000E+00  0.00000000E+00  0.00000000E+00
  0.00000000E+00  0.00000000E+00  0.00000000E+00
  0.00000000E+00  0.00000000E+00  0.00000000E+00
  0.00000000E+00  0.00000000E+00  0.00000000E+00
  0.00000000E+00  0.00000000E+00  0.00000000E+00
  0.00000000E+00  0.00000000E+00  0.00000000E+00
  0.00000000E+00  0.00000000E+00  0.00000000E+00
  0.00000000E+00  0.00000000E+00  0.00000000E+00
  0.00000000E+00  0.00000000E+00  0.00000000E+00
  0.00000000E+00  0.00000000E+00  0.00000000E+00
  0.00000000E+00  0.00000000E+00  0.00000000E+00
  0.00000000E+00  0.00000000E+00  0.00000000E+00
  0.00000000E+00  0.00000000E+00  0.00000000E+00
  0.00000000E+00  0.00000000E+00  0.00000000E+00
  0.00000000E+00  0.00000000E+00  0.00000000E+00
  0.00000000E+00  0.00000000E+00  0.00000000E+00
  0.00000000E+00  0.00000000E+00  0.00000000E+00
  0.00000000E+00  0.00000000E+00  0.00000000E+00
  0.00000000E+00  0.00000000E+00  0.00000000E+00
  0.00000000E+00  0.00000000E+00  0.00000000E+00
  0.00000000E+00  0.00000000E+00  0.00000000E+00
  0.00000000E+00  0.00000000E+00  0.00000000E+00
  0.00000000E+00  0.00000000E+00  0.00000000E+00
  0.00000000E+00  0.00000000E+00  0.00000000E+00
  0.00000000E+00  0.00000000E+00  0.00000000E+00
  0.00000000E+00  0.00000000E+00  0.00000000E+00
  0.00000000E+00  0.00000000E+00  0.00000000E+00
  0.00000000E+00  0.00000000E+00  0.00000000E+00
  0.00000000E+00  0.00000000E+00  0.00000000E+00
  0.00000000E+00  0.00000000E+00  0.00000000E+00
  0.00000000E+00  0.00000000E+00  0.00000000E+00
  0.00000000E+00  0.00000000E+00  0.00000000E+00
  0.00000000E+00  0.00000000E+00  0.00000000E+00
  0.00000000E+00  0.00000000E+00  0.00000000E+00
  0.00000000E+00  0.00000000E+00  0.00000000E+00
