Al Mg Mn O                              
   1.00000000000000     
     8.4141216974800006    0.0000000000000000    0.0000000000000000
     0.0000000000000000    8.4141216974800006    0.0000000000000000
     0.0000000000000000    0.0000000000000000   23.4141216974799988
   Al   Mg   Mn   O 
     1    31     1    32
Selective dynamics
Direct
  0.2500000000000000  0.2490018509139775  0.2666082302048173   T   T   T
  0.2500000000000000  0.0000538868233082  0.0040478288066155   T   T   T
  0.2500000000000000  0.5003315421611131  0.0041343314225088   T   T   T
  0.7500000000000000  0.0000905572753461  0.0044035259388679   T   T   T
  0.7500000000000000  0.5003561761990420  0.0043822649711001   T   T   T
  0.9996366827649633  0.2503658063782670  0.0041524475720575   T   T   T
  0.9996508458994718  0.7500637235238654  0.0043650253049887   T   T   T
  0.5003633172350367  0.2503658063782670  0.0041524475720575   T   T   T
  0.5003491541005282  0.7500637235238654  0.0043650253049887   T   T   T
  0.9994430157809485  0.9998692666568750  0.0939229428740739   T   T   T
 -0.0005629590913231  0.5006322391913975  0.0941551859728923   T   T   T
  0.5005569842190515  0.9998692666568750  0.0939229428740739   T   T   T
  0.5005629590913231  0.5006322391913975  0.0941551859728923   T   T   T
  0.2500000000000000  0.2503104259235386  0.0930345890501431   T   T   T
  0.2500000000000000  0.7500932550739126  0.0936075689183258   T   T   T
  0.7500000000000000  0.2504343128813791  0.0939231109273283   T   T   T
  0.7500000000000000  0.7501750884620485  0.0943798667436644   T   T   T
  0.2500000000000000  0.9975623055481461  0.1828852437759913   T   T   T
  0.2500000000000000  0.5028504986115293  0.1834923063147728   T   T   T
  0.7500000000000000  0.0005666376035768  0.1849025084812725   T   T   T
  0.7500000000000000  0.5004038176563756  0.1853790622153307   T   T   T
  0.9962244379658477  0.2508844212926938  0.1839710705118766   T   T   T
  0.9990521580050474  0.7497942415065602  0.1849412736215364   T   T   T
  0.5037755620341523  0.2508844212926938  0.1839710705118766   T   T   T
  0.5009478419949526  0.7497942415065602  0.1849412736215364   T   T   T
  0.0009294097501399  0.0006711670544949  0.2743810742060400   T   T   T
  0.0056910891430240  0.5003834055507537  0.2772991436412993   T   T   T
  0.4990705902498601  0.0006711670544949  0.2743810742060400   T   T   T
  0.4943089108569760  0.5003834055507537  0.2772991436412993   T   T   T
  0.2500000000000000  0.7532354394174106  0.2741746265883306   T   T   T
  0.7500000000000000  0.2445754759649698  0.2806325071267144   T   T   T
  0.7500000000000000  0.7552744774034373  0.2761909814909685   T   T   T
  0.7499999495650016  0.4784597265442440  0.3669561891424913   T   T   T
 -0.0000480610272473  0.0002808822596837  0.0030145272211332   T   T   T
  0.0000063766527259  0.5001484643871733  0.0030888185560491   T   T   T
  0.5000480610272473  0.0002808822596837  0.0030145272211332   T   T   T
  0.4999936233472740  0.5001484643871733  0.0030888185560491   T   T   T
  0.2500000000000000  0.2502764202454852  0.0028094283284338   T   T   T
  0.2500000000000000  0.7501204560249525  0.0030211012261775   T   T   T
  0.7500000000000000  0.2502553882171589  0.0031177626517744   T   T   T
  0.7500000000000000  0.7502028860522360  0.0032545587492253   T   T   T
  0.2500000000000000  0.0009083515500743  0.0945598871305670   T   T   T
  0.2500000000000000  0.4994847250800597  0.0948808198708900   T   T   T
  0.7500000000000000  0.0008773510860759  0.0949643816145293   T   T   T
  0.7500000000000000  0.4997657555435785  0.0952129768708866   T   T   T
  0.0002519811702152  0.2505203563429725  0.0949844664565877   T   T   T
  0.0001148416114133  0.7500096296689954  0.0948706970358978   T   T   T
  0.4997480188297849  0.2505203563429725  0.0949844664565877   T   T   T
  0.4998851583885867  0.7500096296689954  0.0948706970358978   T   T   T
  0.0003788738749365  0.0005288343174684  0.1842343029120198   T   T   T
  0.0001440302679638  0.5001855290724986  0.1851155191249071   T   T   T
  0.4996211261250634  0.0005288343174684  0.1842343029120198   T   T   T
  0.4998559697320363  0.5001855290724986  0.1851155191249071   T   T   T
  0.2500000000000000  0.2498725586171528  0.1858452023716329   T   T   T
  0.2500000000000000  0.7503348812976383  0.1850233897219552   T   T   T
  0.7500000000000000  0.2507462071658156  0.1869513356190332   T   T   T
  0.7500000000000000  0.7503224522559810  0.1854836751885619   T   T   T
  0.2499999495650016  0.0171498184175872  0.2742666530514291   T   T   T
  0.2499999495650016  0.4816252661394726  0.2740221962669740   T   T   T
  0.7499999495650016  0.0015828959555398  0.2756758337716738   T   T   T
  0.7499999495650016  0.5018356034187020  0.2765127480595486   T   T   T
  0.0240004021923404  0.2481261700890101  0.2736784784227039   T   T   T
  0.0065027419927584  0.7529676169433573  0.2757070310411615   T   T   T
  0.4759995978076596  0.2481261700890101  0.2736784784227039   T   T   T
  0.4934972580072415  0.7529676169433573  0.2757070310411615   T   T   T
 
  0.00000000E+00  0.00000000E+00  0.00000000E+00
  0.00000000E+00  0.00000000E+00  0.00000000E+00
  0.00000000E+00  0.00000000E+00  0.00000000E+00
  0.00000000E+00  0.00000000E+00  0.00000000E+00
  0.00000000E+00  0.00000000E+00  0.00000000E+00
  0.00000000E+00  0.00000000E+00  0.00000000E+00
  0.00000000E+00  0.00000000E+00  0.00000000E+00
  0.00000000E+00  0.00000000E+00  0.00000000E+00
  0.00000000E+00  0.00000000E+00  0.00000000E+00
  0.00000000E+00  0.00000000E+00  0.00000000E+00
  0.00000000E+00  0.00000000E+00  0.00000000E+00
  0.00000000E+00  0.00000000E+00  0.00000000E+00
  0.00000000E+00  0.00000000E+00  0.00000000E+00
  0.00000000E+00  0.00000000E+00  0.00000000E+00
  0.00000000E+00  0.00000000E+00  0.00000000E+00
  0.00000000E+00  0.00000000E+00  0.00000000E+00
  0.00000000E+00  0.00000000E+00  0.00000000E+00
  0.00000000E+00  0.00000000E+00  0.00000000E+00
  0.00000000E+00  0.00000000E+00  0.00000000E+00
  0.00000000E+00  0.00000000E+00  0.00000000E+00
  0.00000000E+00  0.00000000E+00  0.00000000E+00
  0.00000000E+00  0.00000000E+00  0.00000000E+00
  0.00000000E+00  0.00000000E+00  0.00000000E+00
  0.00000000E+00  0.00000000E+00  0.00000000E+00
  0.00000000E+00  0.00000000E+00  0.00000000E+00
  0.00000000E+00  0.00000000E+00  0.00000000E+00
  0.00000000E+00  0.00000000E+00  0.00000000E+00
  0.00000000E+00  0.00000000E+00  0.00000000E+00
  0.00000000E+00  0.00000000E+00  0.00000000E+00
  0.00000000E+00  0.00000000E+00  0.00000000E+00
  0.00000000E+00  0.00000000E+00  0.00000000E+00
  0.00000000E+00  0.00000000E+00  0.00000000E+00
  0.00000000E+00  0.00000000E+00  0.00000000E+00
  0.00000000E+00  0.00000000E+00  0.00000000E+00
  0.00000000E+00  0.00000000E+00  0.00000000E+00
  0.00000000E+00  0.00000000E+00  0.00000000E+00
  0.00000000E+00  0.00000000E+00  0.00000000E+00
  0.00000000E+00  0.00000000E+00  0.00000000E+00
  0.00000000E+00  0.00000000E+00  0.00000000E+00
  0.00000000E+00  0.00000000E+00  0.00000000E+00
  0.00000000E+00  0.00000000E+00  0.00000000E+00
  0.00000000E+00  0.00000000E+00  0.00000000E+00
  0.00000000E+00  0.00000000E+00  0.00000000E+00
  0.00000000E+00  0.00000000E+00  0.00000000E+00
  0.00000000E+00  0.00000000E+00  0.00000000E+00
  0.00000000E+00  0.00000000E+00  0.00000000E+00
  0.00000000E+00  0.00000000E+00  0.00000000E+00
  0.00000000E+00  0.00000000E+00  0.00000000E+00
  0.00000000E+00  0.00000000E+00  0.00000000E+00
  0.00000000E+00  0.00000000E+00  0.00000000E+00
  0.00000000E+00  0.00000000E+00  0.00000000E+00
  0.00000000E+00  0.00000000E+00  0.00000000E+00
  0.00000000E+00  0.00000000E+00  0.00000000E+00
  0.00000000E+00  0.00000000E+00  0.00000000E+00
  0.00000000E+00  0.00000000E+00  0.00000000E+00
  0.00000000E+00  0.00000000E+00  0.00000000E+00
  0.00000000E+00  0.00000000E+00  0.00000000E+00
  0.00000000E+00  0.00000000E+00  0.00000000E+00
  0.00000000E+00  0.00000000E+00  0.00000000E+00
  0.00000000E+00  0.00000000E+00  0.00000000E+00
  0.00000000E+00  0.00000000E+00  0.00000000E+00
  0.00000000E+00  0.00000000E+00  0.00000000E+00
  0.00000000E+00  0.00000000E+00  0.00000000E+00
  0.00000000E+00  0.00000000E+00  0.00000000E+00
  0.00000000E+00  0.00000000E+00  0.00000000E+00
