Al Ir Mg O                              
   1.00000000000000     
     8.4141216974800006    0.0000000000000000    0.0000000000000000
     0.0000000000000000    8.4141216974800006    0.0000000000000000
     0.0000000000000000    0.0000000000000000   23.4141216974799988
   Al   Ir   Mg   O 
     1     1    31    32
Selective dynamics
Direct
  0.2500000000000000  0.2487205021776023  0.2664986732109011   T   T   T
  0.7499999495650016  0.4885973430838138  0.3545587190729828   T   T   T
  0.2500000000000000  0.0000459379058200  0.0046743419171398   T   T   T
  0.2500000000000000  0.5003452092266398  0.0046604897853824   T   T   T
  0.7500000000000000  0.0000739061524077  0.0048474285797885   T   T   T
  0.7500000000000000  0.5004029026407196  0.0048620347067595   T   T   T
  0.9997525130640018  0.2502640686754177  0.0047597491826032   T   T   T
  0.9997487530205394  0.7501729538676611  0.0049173504991785   T   T   T
  0.5002474869359982  0.2502640686754177  0.0047597491826032   T   T   T
  0.5002512469794606  0.7501729538676611  0.0049173504991785   T   T   T
  0.9993268963817361  0.9997387565618611  0.0944322554763547   T   T   T
  0.0001551023357869  0.5007183645901011  0.0944349955104502   T   T   T
  0.5006731036182639  0.9997387565618611  0.0944322554763547   T   T   T
  0.4998448976642131  0.5007183645901011  0.0944349955104502   T   T   T
  0.2500000000000000  0.2503334042101171  0.0935599290360659   T   T   T
  0.2500000000000000  0.7499769688087136  0.0941671810762497   T   T   T
  0.7500000000000000  0.2496083534759314  0.0942685970111045   T   T   T
  0.7500000000000000  0.7509416026474903  0.0947154236056349   T   T   T
  0.2500000000000000  0.9972603220023871  0.1831493745368901   T   T   T
  0.2500000000000000  0.5028563364935760  0.1841916100851148   T   T   T
  0.7500000000000000 -0.0003587823605570  0.1856691829532101   T   T   T
  0.7500000000000000  0.5009955385991096  0.1838063440285292   T   T   T
  0.9956926901009426  0.2521050135492806  0.1844038938575279   T   T   T
  0.9976997843688429  0.7482811865476472  0.1858300261186097   T   T   T
  0.5043073098990574  0.2521050135492806  0.1844038938575279   T   T   T
  0.5023002156311571  0.7482811865476472  0.1858300261186097   T   T   T
  0.0013317891668368  0.0000964458679232  0.2739263716188103   T   T   T
  0.0031255308340092  0.4993632155910794  0.2811889024387033   T   T   T
  0.4986682108331632  0.0000964458679232  0.2739263716188103   T   T   T
  0.4968744691659908  0.4993632155910794  0.2811889024387033   T   T   T
  0.2500000000000000  0.7520724262585613  0.2736821527565644   T   T   T
  0.7500000000000000  0.2471821627240415  0.2814881674387242   T   T   T
  0.7500000000000000  0.7520673688624533  0.2810036584873270   T   T   T
  0.0000531742046636  0.0003302291131503  0.0026213231585597   T   T   T
  0.0000829166292364  0.5001528505600626  0.0026266222040537   T   T   T
  0.4999468257953363  0.0003302291131503  0.0026213231585597   T   T   T
  0.4999170833707636  0.5001528505600626  0.0026266222040537   T   T   T
  0.2500000000000000  0.2501764757306762  0.0025251117413039   T   T   T
  0.2500000000000000  0.7502105584407898  0.0026868934125218   T   T   T
  0.7500000000000000  0.2502055222376625  0.0027211057724370   T   T   T
  0.7500000000000000  0.7502600779123588  0.0027403657549283   T   T   T
  0.2500000000000000  0.0008724353915341  0.0944730729137555   T   T   T
  0.2500000000000000  0.4994720032840431  0.0944735011272117   T   T   T
  0.7500000000000000  0.0006637642682472  0.0945339788246162   T   T   T
  0.7500000000000000  0.4998604373935850  0.0944673218871206   T   T   T
  0.0004033998608933  0.2502788297093553  0.0946408157851321   T   T   T
  0.0001160118551618  0.7501964036124634  0.0945544823028755   T   T   T
  0.4995966001391068  0.2502788297093553  0.0946408157851321   T   T   T
  0.4998839881448383  0.7501964036124634  0.0945544823028755   T   T   T
  0.0001257389527801  0.0004650432995263  0.1840590637339676   T   T   T
  0.0010497681035972  0.4999806752208670  0.1842946090216149   T   T   T
  0.4998742610472199  0.0004650432995263  0.1840590637339676   T   T   T
  0.4989502318964028  0.4999806752208670  0.1842946090216149   T   T   T
  0.2500000000000000  0.2499490707027313  0.1856157441068181   T   T   T
  0.2500000000000000  0.7501891518057084  0.1846865332252976   T   T   T
  0.7500000000000000  0.2492926615722499  0.1859053245506899   T   T   T
  0.7500000000000000  0.7513157739646193  0.1852035633006549   T   T   T
  0.2499999495650016  0.0168410156324383  0.2741354822746636   T   T   T
  0.2499999495650016  0.4810717599155675  0.2751129819747126   T   T   T
  0.7499999495650016  0.0032692300419169  0.2772343370692411   T   T   T
  0.7499999495650016  0.4999424020492082  0.2689151624339049   T   T   T
  0.0246636937120058  0.2465095650871941  0.2735195507916025   T   T   T
  0.0082034953160094  0.7539894765218271  0.2756473423283251   T   T   T
  0.4753363062879942  0.2465095650871941  0.2735195507916025   T   T   T
  0.4917965046839906  0.7539894765218271  0.2756473423283251   T   T   T
 
  0.00000000E+00  0.00000000E+00  0.00000000E+00
  0.00000000E+00  0.00000000E+00  0.00000000E+00
  0.00000000E+00  0.00000000E+00  0.00000000E+00
  0.00000000E+00  0.00000000E+00  0.00000000E+00
  0.00000000E+00  0.00000000E+00  0.00000000E+00
  0.00000000E+00  0.00000000E+00  0.00000000E+00
  0.00000000E+00  0.00000000E+00  0.00000000E+00
  0.00000000E+00  0.00000000E+00  0.00000000E+00
  0.00000000E+00  0.00000000E+00  0.00000000E+00
  0.00000000E+00  0.00000000E+00  0.00000000E+00
  0.00000000E+00  0.00000000E+00  0.00000000E+00
  0.00000000E+00  0.00000000E+00  0.00000000E+00
  0.00000000E+00  0.00000000E+00  0.00000000E+00
  0.00000000E+00  0.00000000E+00  0.00000000E+00
  0.00000000E+00  0.00000000E+00  0.00000000E+00
  0.00000000E+00  0.00000000E+00  0.00000000E+00
  0.00000000E+00  0.00000000E+00  0.00000000E+00
  0.00000000E+00  0.00000000E+00  0.00000000E+00
  0.00000000E+00  0.00000000E+00  0.00000000E+00
  0.00000000E+00  0.00000000E+00  0.00000000E+00
  0.00000000E+00  0.00000000E+00  0.00000000E+00
  0.00000000E+00  0.00000000E+00  0.00000000E+00
  0.00000000E+00  0.00000000E+00  0.00000000E+00
  0.00000000E+00  0.00000000E+00  0.00000000E+00
  0.00000000E+00  0.00000000E+00  0.00000000E+00
  0.00000000E+00  0.00000000E+00  0.00000000E+00
  0.00000000E+00  0.00000000E+00  0.00000000E+00
  0.00000000E+00  0.00000000E+00  0.00000000E+00
  0.00000000E+00  0.00000000E+00  0.00000000E+00
  0.00000000E+00  0.00000000E+00  0.00000000E+00
  0.00000000E+00  0.00000000E+00  0.00000000E+00
  0.00000000E+00  0.00000000E+00  0.00000000E+00
  0.00000000E+00  0.00000000E+00  0.00000000E+00
  0.00000000E+00  0.00000000E+00  0.00000000E+00
  0.00000000E+00  0.00000000E+00  0.00000000E+00
  0.00000000E+00  0.00000000E+00  0.00000000E+00
  0.00000000E+00  0.00000000E+00  0.00000000E+00
  0.00000000E+00  0.00000000E+00  0.00000000E+00
  0.00000000E+00  0.00000000E+00  0.00000000E+00
  0.00000000E+00  0.00000000E+00  0.00000000E+00
  0.00000000E+00  0.00000000E+00  0.00000000E+00
  0.00000000E+00  0.00000000E+00  0.00000000E+00
  0.00000000E+00  0.00000000E+00  0.00000000E+00
  0.00000000E+00  0.00000000E+00  0.00000000E+00
  0.00000000E+00  0.00000000E+00  0.00000000E+00
  0.00000000E+00  0.00000000E+00  0.00000000E+00
  0.00000000E+00  0.00000000E+00  0.00000000E+00
  0.00000000E+00  0.00000000E+00  0.00000000E+00
  0.00000000E+00  0.00000000E+00  0.00000000E+00
  0.00000000E+00  0.00000000E+00  0.00000000E+00
  0.00000000E+00  0.00000000E+00  0.00000000E+00
  0.00000000E+00  0.00000000E+00  0.00000000E+00
  0.00000000E+00  0.00000000E+00  0.00000000E+00
  0.00000000E+00  0.00000000E+00  0.00000000E+00
  0.00000000E+00  0.00000000E+00  0.00000000E+00
  0.00000000E+00  0.00000000E+00  0.00000000E+00
  0.00000000E+00  0.00000000E+00  0.00000000E+00
  0.00000000E+00  0.00000000E+00  0.00000000E+00
  0.00000000E+00  0.00000000E+00  0.00000000E+00
  0.00000000E+00  0.00000000E+00  0.00000000E+00
  0.00000000E+00  0.00000000E+00  0.00000000E+00
  0.00000000E+00  0.00000000E+00  0.00000000E+00
  0.00000000E+00  0.00000000E+00  0.00000000E+00
  0.00000000E+00  0.00000000E+00  0.00000000E+00
  0.00000000E+00  0.00000000E+00  0.00000000E+00
