Al Zn Mg O                              
   1.00000000000000     
     8.4141216974800006    0.0000000000000000    0.0000000000000000
     0.0000000000000000    8.4141216974800006    0.0000000000000000
     0.0000000000000000    0.0000000000000000   23.4141216974799988
   Al   Zn   Mg   O 
     1     1    31    32
Selective dynamics
Direct
  0.2500000000000000  0.2508338793095783  0.2670051860443736   T   T   T
  0.7499999495650016  0.4579456291433336  0.3941049499235579   T   T   T
  0.2500000000000000  0.0004840400188920  0.0039463090815152   T   T   T
  0.2500000000000000  0.5008241272528875  0.0038962805370150   T   T   T
  0.7500000000000000  0.0004249130592488  0.0043318514699080   T   T   T
  0.7500000000000000  0.5007300368261395  0.0042391618337090   T   T   T
  0.9997523114064953  0.2505110956484212  0.0040079827641880   T   T   T
  0.9997625354376259  0.7507086595083950  0.0042466557397989   T   T   T
  0.5002476885935047  0.2505110956484212  0.0040079827641880   T   T   T
  0.5002374645623741  0.7507086595083950  0.0042466557397989   T   T   T
  0.9994770394917788  0.0002148793018392  0.0938905501245232   T   T   T
  0.9996631214731949  0.5010743687091247  0.0935959176290157   T   T   T
  0.5005229605082212  0.0002148793018392  0.0938905501245232   T   T   T
  0.5003368785268051  0.5010743687091247  0.0935959176290157   T   T   T
  0.2500000000000000  0.2505547223672978  0.0927852552937041   T   T   T
  0.2500000000000000  0.7509165947603851  0.0935615632552888   T   T   T
  0.7500000000000000  0.2501902755345681  0.0937200172010927   T   T   T
  0.7500000000000000  0.7509353127590445  0.0941448879197647   T   T   T
  0.2500000000000000  0.9980491582061641  0.1834718080589711   T   T   T
  0.2500000000000000  0.5034418326035796  0.1828473630432911   T   T   T
  0.7500000000000000 -0.0000223362130661  0.1853259282744429   T   T   T
  0.7500000000000000  0.5011238221875106  0.1842160635070842   T   T   T
  0.9963289866976109  0.2504390384970592  0.1834320308919210   T   T   T
  0.9984616435917850  0.7508888106603325  0.1847349954299511   T   T   T
  0.5036710133023891  0.2504390384970592  0.1834320308919210   T   T   T
  0.5015383564082150  0.7508888106603325  0.1847349954299511   T   T   T
 -0.0003768675041916  0.0010105173973557  0.2754974977790934   T   T   T
  0.0004678943079299  0.5006055040801989  0.2740688753704678   T   T   T
  0.5003768675041914  0.0010105173973557  0.2754974977790934   T   T   T
  0.4995321056920701  0.5006055040801989  0.2740688753704678   T   T   T
  0.2500000000000000  0.7503884987859776  0.2744537253707837   T   T   T
  0.7500000000000000  0.2501942070454318  0.2784245194063148   T   T   T
  0.7500000000000000  0.7506535839316868  0.2777864229835803   T   T   T
  0.0000463395960340  0.0006698709787968  0.0028264713614919   T   T   T
  0.0000583007442652  0.5005937665264828  0.0027080454833171   T   T   T
  0.4999536604039659  0.0006698709787968  0.0028264713614919   T   T   T
  0.4999416992557347  0.5005937665264828  0.0027080454833171   T   T   T
  0.2500000000000000  0.2505437927140170  0.0025167770302735   T   T   T
  0.2500000000000000  0.7507531927328833  0.0028344666465651   T   T   T
  0.7500000000000000  0.2504556287285151  0.0028739320021712   T   T   T
  0.7500000000000000  0.7506980059658874  0.0029645227510525   T   T   T
  0.2500000000000000  0.0014020445983362  0.0946566106499068   T   T   T
  0.2500000000000000  0.4999582749291938  0.0944090387283837   T   T   T
  0.7500000000000000  0.0008985595565683  0.0947709601720712   T   T   T
  0.7500000000000000  0.5002136678871166  0.0945467815061554   T   T   T
  0.0007286346171083  0.2504637977113183  0.0946314395310373   T   T   T
  0.0003718338568445  0.7508508830960259  0.0946167114268525   T   T   T
  0.4992713653828917  0.2504637977113183  0.0946314395310373   T   T   T
  0.4996281661431554  0.7508508830960259  0.0946167114268525   T   T   T
  0.0006650608456492  0.0008208748905799  0.1846105921963668   T   T   T
  0.0009642921594818  0.5004844625381977  0.1839448307014839   T   T   T
  0.4993349391543507  0.0008208748905799  0.1846105921963668   T   T   T
  0.4990357078405183  0.5004844625381977  0.1839448307014839   T   T   T
  0.2500000000000000  0.2504970678628896  0.1862202821746401   T   T   T
  0.2500000000000000  0.7508487351285809  0.1852022767847926   T   T   T
  0.7500000000000000  0.2501193091666578  0.1856391443209725   T   T   T
  0.7500000000000000  0.7509122806776423  0.1851909984110933   T   T   T
  0.2499999495650016  0.0195945597178654  0.2749092256378444   T   T   T
  0.2499999495650016  0.4825059579697183  0.2740462288951500   T   T   T
  0.7499999495650016  0.0034799836266193  0.2760027563160686   T   T   T
  0.7499999495650016  0.4979145938918854  0.2731274159723175   T   T   T
  0.0212493966733620  0.2514557036251318  0.2739933432495714   T   T   T
  0.0054804151183585  0.7499757904657217  0.2760560749874832   T   T   T
  0.4787506033266380  0.2514557036251318  0.2739933432495714   T   T   T
  0.4945195848816416  0.7499757904657217  0.2760560749874832   T   T   T
 
  0.00000000E+00  0.00000000E+00  0.00000000E+00
  0.00000000E+00  0.00000000E+00  0.00000000E+00
  0.00000000E+00  0.00000000E+00  0.00000000E+00
  0.00000000E+00  0.00000000E+00  0.00000000E+00
  0.00000000E+00  0.00000000E+00  0.00000000E+00
  0.00000000E+00  0.00000000E+00  0.00000000E+00
  0.00000000E+00  0.00000000E+00  0.00000000E+00
  0.00000000E+00  0.00000000E+00  0.00000000E+00
  0.00000000E+00  0.00000000E+00  0.00000000E+00
  0.00000000E+00  0.00000000E+00  0.00000000E+00
  0.00000000E+00  0.00000000E+00  0.00000000E+00
  0.00000000E+00  0.00000000E+00  0.00000000E+00
  0.00000000E+00  0.00000000E+00  0.00000000E+00
  0.00000000E+00  0.00000000E+00  0.00000000E+00
  0.00000000E+00  0.00000000E+00  0.00000000E+00
  0.00000000E+00  0.00000000E+00  0.00000000E+00
  0.00000000E+00  0.00000000E+00  0.00000000E+00
  0.00000000E+00  0.00000000E+00  0.00000000E+00
  0.00000000E+00  0.00000000E+00  0.00000000E+00
  0.00000000E+00  0.00000000E+00  0.00000000E+00
  0.00000000E+00  0.00000000E+00  0.00000000E+00
  0.00000000E+00  0.00000000E+00  0.00000000E+00
  0.00000000E+00  0.00000000E+00  0.00000000E+00
  0.00000000E+00  0.00000000E+00  0.00000000E+00
  0.00000000E+00  0.00000000E+00  0.00000000E+00
  0.00000000E+00  0.00000000E+00  0.00000000E+00
  0.00000000E+00  0.00000000E+00  0.00000000E+00
  0.00000000E+00  0.00000000E+00  0.00000000E+00
  0.00000000E+00  0.00000000E+00  0.00000000E+00
  0.00000000E+00  0.00000000E+00  0.00000000E+00
  0.00000000E+00  0.00000000E+00  0.00000000E+00
  0.00000000E+00  0.00000000E+00  0.00000000E+00
  0.00000000E+00  0.00000000E+00  0.00000000E+00
  0.00000000E+00  0.00000000E+00  0.00000000E+00
  0.00000000E+00  0.00000000E+00  0.00000000E+00
  0.00000000E+00  0.00000000E+00  0.00000000E+00
  0.00000000E+00  0.00000000E+00  0.00000000E+00
  0.00000000E+00  0.00000000E+00  0.00000000E+00
  0.00000000E+00  0.00000000E+00  0.00000000E+00
  0.00000000E+00  0.00000000E+00  0.00000000E+00
  0.00000000E+00  0.00000000E+00  0.00000000E+00
  0.00000000E+00  0.00000000E+00  0.00000000E+00
  0.00000000E+00  0.00000000E+00  0.00000000E+00
  0.00000000E+00  0.00000000E+00  0.00000000E+00
  0.00000000E+00  0.00000000E+00  0.00000000E+00
  0.00000000E+00  0.00000000E+00  0.00000000E+00
  0.00000000E+00  0.00000000E+00  0.00000000E+00
  0.00000000E+00  0.00000000E+00  0.00000000E+00
  0.00000000E+00  0.00000000E+00  0.00000000E+00
  0.00000000E+00  0.00000000E+00  0.00000000E+00
  0.00000000E+00  0.00000000E+00  0.00000000E+00
  0.00000000E+00  0.00000000E+00  0.00000000E+00
  0.00000000E+00  0.00000000E+00  0.00000000E+00
  0.00000000E+00  0.00000000E+00  0.00000000E+00
  0.00000000E+00  0.00000000E+00  0.00000000E+00
  0.00000000E+00  0.00000000E+00  0.00000000E+00
  0.00000000E+00  0.00000000E+00  0.00000000E+00
  0.00000000E+00  0.00000000E+00  0.00000000E+00
  0.00000000E+00  0.00000000E+00  0.00000000E+00
  0.00000000E+00  0.00000000E+00  0.00000000E+00
  0.00000000E+00  0.00000000E+00  0.00000000E+00
  0.00000000E+00  0.00000000E+00  0.00000000E+00
  0.00000000E+00  0.00000000E+00  0.00000000E+00
  0.00000000E+00  0.00000000E+00  0.00000000E+00
  0.00000000E+00  0.00000000E+00  0.00000000E+00
