Al Cr Mg O                              
   1.00000000000000     
     8.4141216974800006    0.0000000000000000    0.0000000000000000
     0.0000000000000000    8.4141216974800006    0.0000000000000000
     0.0000000000000000    0.0000000000000000   23.4141216974799988
   Al   Cr   Mg   O 
     1     1    31    32
Selective dynamics
Direct
  0.2500000000000000  0.2497410313609104  0.2666619200120313   T   T   T
  0.7499999495650016  0.4863493798297853  0.3835018911312849   T   T   T
  0.2500000000000000  0.0000699900477908  0.0045677344900856   T   T   T
  0.2500000000000000  0.5004071124984300  0.0046582031371519   T   T   T
  0.7500000000000000  0.0000951685162734  0.0048704962117083   T   T   T
  0.7500000000000000  0.5004384051531768  0.0048388764302750   T   T   T
  0.9996245770749530  0.2504383694184363  0.0046460869407161   T   T   T
  0.9996239697179490  0.7500992166954481  0.0048008198725785   T   T   T
  0.5003754229250470  0.2504383694184363  0.0046460869407161   T   T   T
  0.5003760302820510  0.7500992166954481  0.0048008198725785   T   T   T
  0.9994248182895026  0.9997661326933696  0.0941886561518243   T   T   T
  0.9996728702189988  0.5007150367008768  0.0943955251211778   T   T   T
  0.5005751817104974  0.9997661326933696  0.0941886561518243   T   T   T
  0.5003271297810012  0.5007150367008768  0.0943955251211778   T   T   T
  0.2500000000000000  0.2502236520148627  0.0933587816004623   T   T   T
  0.2500000000000000  0.7501592050421027  0.0939392339205773   T   T   T
  0.7500000000000000  0.2500641871475310  0.0942401911871103   T   T   T
  0.7500000000000000  0.7504458444824901  0.0946828717286686   T   T   T
  0.2500000000000000  0.9973356187698552  0.1833044289439483   T   T   T
  0.2500000000000000  0.5028888868233949  0.1837522943870128   T   T   T
  0.7500000000000000 -0.0002914345914811  0.1853929657751887   T   T   T
  0.7500000000000000  0.5008619851063366  0.1850939999339886   T   T   T
  0.9962230355365375  0.2510176058169232  0.1838928379117896   T   T   T
  0.9983745133104323  0.7493383350842399  0.1853013597714557   T   T   T
  0.5037769644634625  0.2510176058169232  0.1838928379117896   T   T   T
  0.5016254866895677  0.7493383350842399  0.1853013597714557   T   T   T
  0.0001628985905528  0.0004992284685780  0.2744964538760863   T   T   T
  0.0007209936984281  0.4995482481115096  0.2777885313882503   T   T   T
  0.4998371014094473  0.0004992284685780  0.2744964538760863   T   T   T
  0.4992790063015717  0.4995482481115096  0.2777885313882503   T   T   T
  0.2500000000000000  0.7505930611525489  0.2742201161274446   T   T   T
  0.7500000000000000  0.2504005448767770  0.2793273779685955   T   T   T
  0.7500000000000000  0.7499934929304644  0.2785144343194280   T   T   T
  0.0000348068597806  0.0003529688652868  0.0025394702877139   T   T   T
  0.0000515844413603  0.5002221677878752  0.0026223280663865   T   T   T
  0.4999651931402194  0.0003529688652868  0.0025394702877139   T   T   T
  0.4999484155586397  0.5002221677878752  0.0026223280663865   T   T   T
  0.2500000000000000  0.2502509260323214  0.0024241801871158   T   T   T
  0.2500000000000000  0.7502189498974910  0.0026155107891380   T   T   T
  0.7500000000000000  0.2502511879541072  0.0027250253211363   T   T   T
  0.7500000000000000  0.7502870989018986  0.0027413056968355   T   T   T
  0.2500000000000000  0.0008117107890191  0.0942932350313544   T   T   T
  0.2500000000000000  0.4995791341671565  0.0943659308612804   T   T   T
  0.7500000000000000  0.0006081570478037  0.0944492734235491   T   T   T
  0.7500000000000000  0.4999174126110552  0.0946154419522548   T   T   T
  0.0004682484048845  0.2502867068834624  0.0944576618846174   T   T   T
  0.0002195039918454  0.7502209388751850  0.0944422558634872   T   T   T
  0.4995317515951156  0.2502867068834624  0.0944576618846174   T   T   T
  0.4997804960081546  0.7502209388751850  0.0944422558634872   T   T   T
  0.0004647272223328  0.0003482534920607  0.1839618892962954   T   T   T
  0.0012298471194119  0.5000363428053465  0.1841004077865114   T   T   T
  0.4995352727776673  0.0003482534920607  0.1839618892962954   T   T   T
  0.4987701528805881  0.5000363428053465  0.1841004077865114   T   T   T
  0.2500000000000000  0.2495148213539922  0.1855584243089847   T   T   T
  0.2500000000000000  0.7504547945728696  0.1846953618474503   T   T   T
  0.7500000000000000  0.2492128798271562  0.1854299520850378   T   T   T
  0.7500000000000000  0.7513810247384450  0.1849854911904845   T   T   T
  0.2499999495650016  0.0177720892702244  0.2742794435515243   T   T   T
  0.2499999495650016  0.4813466739617367  0.2739889014197326   T   T   T
  0.7499999495650016  0.0037401621119227  0.2761271698944279   T   T   T
  0.7499999495650016  0.4980248920517187  0.2725849172406615   T   T   T
  0.0229990005997961  0.2481102774692690  0.2733595941020797   T   T   T
  0.0065889337993968  0.7524261476085481  0.2755518008945563   T   T   T
  0.4770009994002040  0.2481102774692690  0.2733595941020797   T   T   T
  0.4934110662006032  0.7524261476085481  0.2755518008945563   T   T   T
 
  0.00000000E+00  0.00000000E+00  0.00000000E+00
  0.00000000E+00  0.00000000E+00  0.00000000E+00
  0.00000000E+00  0.00000000E+00  0.00000000E+00
  0.00000000E+00  0.00000000E+00  0.00000000E+00
  0.00000000E+00  0.00000000E+00  0.00000000E+00
  0.00000000E+00  0.00000000E+00  0.00000000E+00
  0.00000000E+00  0.00000000E+00  0.00000000E+00
  0.00000000E+00  0.00000000E+00  0.00000000E+00
  0.00000000E+00  0.00000000E+00  0.00000000E+00
  0.00000000E+00  0.00000000E+00  0.00000000E+00
  0.00000000E+00  0.00000000E+00  0.00000000E+00
  0.00000000E+00  0.00000000E+00  0.00000000E+00
  0.00000000E+00  0.00000000E+00  0.00000000E+00
  0.00000000E+00  0.00000000E+00  0.00000000E+00
  0.00000000E+00  0.00000000E+00  0.00000000E+00
  0.00000000E+00  0.00000000E+00  0.00000000E+00
  0.00000000E+00  0.00000000E+00  0.00000000E+00
  0.00000000E+00  0.00000000E+00  0.00000000E+00
  0.00000000E+00  0.00000000E+00  0.00000000E+00
  0.00000000E+00  0.00000000E+00  0.00000000E+00
  0.00000000E+00  0.00000000E+00  0.00000000E+00
  0.00000000E+00  0.00000000E+00  0.00000000E+00
  0.00000000E+00  0.00000000E+00  0.00000000E+00
  0.00000000E+00  0.00000000E+00  0.00000000E+00
  0.00000000E+00  0.00000000E+00  0.00000000E+00
  0.00000000E+00  0.00000000E+00  0.00000000E+00
  0.00000000E+00  0.00000000E+00  0.00000000E+00
  0.00000000E+00  0.00000000E+00  0.00000000E+00
  0.00000000E+00  0.00000000E+00  0.00000000E+00
  0.00000000E+00  0.00000000E+00  0.00000000E+00
  0.00000000E+00  0.00000000E+00  0.00000000E+00
  0.00000000E+00  0.00000000E+00  0.00000000E+00
  0.00000000E+00  0.00000000E+00  0.00000000E+00
  0.00000000E+00  0.00000000E+00  0.00000000E+00
  0.00000000E+00  0.00000000E+00  0.00000000E+00
  0.00000000E+00  0.00000000E+00  0.00000000E+00
  0.00000000E+00  0.00000000E+00  0.00000000E+00
  0.00000000E+00  0.00000000E+00  0.00000000E+00
  0.00000000E+00  0.00000000E+00  0.00000000E+00
  0.00000000E+00  0.00000000E+00  0.00000000E+00
  0.00000000E+00  0.00000000E+00  0.00000000E+00
  0.00000000E+00  0.00000000E+00  0.00000000E+00
  0.00000000E+00  0.00000000E+00  0.00000000E+00
  0.00000000E+00  0.00000000E+00  0.00000000E+00
  0.00000000E+00  0.00000000E+00  0.00000000E+00
  0.00000000E+00  0.00000000E+00  0.00000000E+00
  0.00000000E+00  0.00000000E+00  0.00000000E+00
  0.00000000E+00  0.00000000E+00  0.00000000E+00
  0.00000000E+00  0.00000000E+00  0.00000000E+00
  0.00000000E+00  0.00000000E+00  0.00000000E+00
  0.00000000E+00  0.00000000E+00  0.00000000E+00
  0.00000000E+00  0.00000000E+00  0.00000000E+00
  0.00000000E+00  0.00000000E+00  0.00000000E+00
  0.00000000E+00  0.00000000E+00  0.00000000E+00
  0.00000000E+00  0.00000000E+00  0.00000000E+00
  0.00000000E+00  0.00000000E+00  0.00000000E+00
  0.00000000E+00  0.00000000E+00  0.00000000E+00
  0.00000000E+00  0.00000000E+00  0.00000000E+00
  0.00000000E+00  0.00000000E+00  0.00000000E+00
  0.00000000E+00  0.00000000E+00  0.00000000E+00
  0.00000000E+00  0.00000000E+00  0.00000000E+00
  0.00000000E+00  0.00000000E+00  0.00000000E+00
  0.00000000E+00  0.00000000E+00  0.00000000E+00
  0.00000000E+00  0.00000000E+00  0.00000000E+00
  0.00000000E+00  0.00000000E+00  0.00000000E+00
