Al Fe Mg O                              
   1.00000000000000     
     8.4141216974800006    0.0000000000000000    0.0000000000000000
     0.0000000000000000    8.4141216974800006    0.0000000000000000
     0.0000000000000000    0.0000000000000000   23.4141216974799988
   Al   Fe   Mg   O 
     1     1    31    32
Selective dynamics
Direct
  0.2500000000000000  0.2499626162443402  0.2666330943584483   T   T   T
  0.7499999495650016  0.4674766598985857  0.3668543253393366   T   T   T
  0.2500000000000000  0.0001887605069477  0.0041470945585920   T   T   T
  0.2500000000000000  0.5003521613554219  0.0042700612870438   T   T   T
  0.7500000000000000  0.0001247646798053  0.0045079194935318   T   T   T
  0.7500000000000000  0.5003434282962487  0.0044837881556211   T   T   T
  0.9996440036124594  0.2504640965907725  0.0042589446476893   T   T   T
  0.9996292874095002  0.7500755883645699  0.0044521307162926   T   T   T
  0.5003559963875406  0.2504640965907725  0.0042589446476893   T   T   T
  0.5003707125904998  0.7500755883645699  0.0044521307162926   T   T   T
  0.9994583627226845  0.9999776786448116  0.0939714708201037   T   T   T
 -0.0004292717198519  0.5006494665977740  0.0942808074508303   T   T   T
  0.5005416372773155  0.9999776786448116  0.0939714708201037   T   T   T
  0.5004292717198519  0.5006494665977740  0.0942808074508303   T   T   T
  0.2500000000000000  0.2506242854009479  0.0930622479221428   T   T   T
  0.2500000000000000  0.7501028211318971  0.0936940221152659   T   T   T
  0.7500000000000000  0.2504545034674406  0.0940239048122261   T   T   T
  0.7500000000000000  0.7501896911496904  0.0944275939666714   T   T   T
  0.2500000000000000  0.9978342735437609  0.1829513834382589   T   T   T
  0.2500000000000000  0.5030850939736393  0.1838342444880955   T   T   T
  0.7500000000000000  0.0004828654422357  0.1848695670246377   T   T   T
  0.7500000000000000  0.5006684067159166  0.1853110713550392   T   T   T
  0.9963427966205205  0.2518039327974420  0.1839627727316575   T   T   T
  0.9988155801688438  0.7492605203069459  0.1849788516025450   T   T   T
  0.5036572033794795  0.2518039327974420  0.1839627727316575   T   T   T
  0.5011844198311562  0.7492605203069459  0.1849788516025450   T   T   T
  0.0007399378128576  0.0009543194211415  0.2739588551461037   T   T   T
  0.0024321784847740  0.5009503417297932  0.2790551213225565   T   T   T
  0.4992600621871424  0.0009543194211415  0.2739588551461037   T   T   T
  0.4975678215152260  0.5009503417297932  0.2790551213225565   T   T   T
  0.2500000000000000  0.7520637083848365  0.2737694413321983   T   T   T
  0.7500000000000000  0.2473178288344026  0.2793643907094835   T   T   T
  0.7500000000000000  0.7532028819380255  0.2764361564731215   T   T   T
  0.0000118837479643  0.0003640128423894  0.0027277053306594   T   T   T
  0.0000758111750297  0.5002356593176865  0.0028224615836718   T   T   T
  0.4999881162520358  0.0003640128423894  0.0027277053306594   T   T   T
  0.4999241888249704  0.5002356593176865  0.0028224615836718   T   T   T
  0.2500000000000000  0.2503393630476827  0.0025198552111864   T   T   T
  0.2500000000000000  0.7502295750408758  0.0027569653896368   T   T   T
  0.7500000000000000  0.2502650369274289  0.0028598799902253   T   T   T
  0.7500000000000000  0.7502675971081519  0.0029488347395687   T   T   T
  0.2500000000000000  0.0011774056455251  0.0943908848396373   T   T   T
  0.2500000000000000  0.4995541093571746  0.0946458399528119   T   T   T
  0.7500000000000000  0.0008881058286028  0.0946452598763869   T   T   T
  0.7500000000000000  0.4998301980896653  0.0949154843834403   T   T   T
  0.0004306529019170  0.2505664300499320  0.0947147037144732   T   T   T
  0.0001644657454960  0.7501243027163730  0.0945499144643622   T   T   T
  0.4995693470980830  0.2505664300499320  0.0947147037144732   T   T   T
  0.4998355342545038  0.7501243027163730  0.0945499144643622   T   T   T
  0.0004408163683096  0.0008434351592201  0.1839757322522450   T   T   T
  0.0007892483603219  0.5003292388989012  0.1846601781971525   T   T   T
  0.4995591836316904  0.0008434351592201  0.1839757322522450   T   T   T
  0.4992107516396781  0.5003292388989012  0.1846601781971525   T   T   T
  0.2500000000000000  0.2503441733742979  0.1857758195806573   T   T   T
  0.2500000000000000  0.7506139987260356  0.1848199431290461   T   T   T
  0.7500000000000000  0.2502760725437717  0.1862466838775481   T   T   T
  0.7500000000000000  0.7510200966747937  0.1850814561716430   T   T   T
  0.2499999495650016  0.0177909839589708  0.2742346065007097   T   T   T
  0.2499999495650016  0.4822699081826755  0.2745233728291238   T   T   T
  0.7499999495650016  0.0027141678132726  0.2758216397237145   T   T   T
  0.7499999495650016  0.5005194834523133  0.2737076527505863   T   T   T
  0.0234169520251103  0.2482708925985735  0.2736857520042182   T   T   T
  0.0062766597913328  0.7538425705974824  0.2755109644641126   T   T   T
  0.4765830479748898  0.2482708925985735  0.2736857520042182   T   T   T
  0.4937233402086670  0.7538425705974824  0.2755109644641126   T   T   T
 
  0.00000000E+00  0.00000000E+00  0.00000000E+00
  0.00000000E+00  0.00000000E+00  0.00000000E+00
  0.00000000E+00  0.00000000E+00  0.00000000E+00
  0.00000000E+00  0.00000000E+00  0.00000000E+00
  0.00000000E+00  0.00000000E+00  0.00000000E+00
  0.00000000E+00  0.00000000E+00  0.00000000E+00
  0.00000000E+00  0.00000000E+00  0.00000000E+00
  0.00000000E+00  0.00000000E+00  0.00000000E+00
  0.00000000E+00  0.00000000E+00  0.00000000E+00
  0.00000000E+00  0.00000000E+00  0.00000000E+00
  0.00000000E+00  0.00000000E+00  0.00000000E+00
  0.00000000E+00  0.00000000E+00  0.00000000E+00
  0.00000000E+00  0.00000000E+00  0.00000000E+00
  0.00000000E+00  0.00000000E+00  0.00000000E+00
  0.00000000E+00  0.00000000E+00  0.00000000E+00
  0.00000000E+00  0.00000000E+00  0.00000000E+00
  0.00000000E+00  0.00000000E+00  0.00000000E+00
  0.00000000E+00  0.00000000E+00  0.00000000E+00
  0.00000000E+00  0.00000000E+00  0.00000000E+00
  0.00000000E+00  0.00000000E+00  0.00000000E+00
  0.00000000E+00  0.00000000E+00  0.00000000E+00
  0.00000000E+00  0.00000000E+00  0.00000000E+00
  0.00000000E+00  0.00000000E+00  0.00000000E+00
  0.00000000E+00  0.00000000E+00  0.00000000E+00
  0.00000000E+00  0.00000000E+00  0.00000000E+00
  0.00000000E+00  0.00000000E+00  0.00000000E+00
  0.00000000E+00  0.00000000E+00  0.00000000E+00
  0.00000000E+00  0.00000000E+00  0.00000000E+00
  0.00000000E+00  0.00000000E+00  0.00000000E+00
  0.00000000E+00  0.00000000E+00  0.00000000E+00
  0.00000000E+00  0.00000000E+00  0.00000000E+00
  0.00000000E+00  0.00000000E+00  0.00000000E+00
  0.00000000E+00  0.00000000E+00  0.00000000E+00
  0.00000000E+00  0.00000000E+00  0.00000000E+00
  0.00000000E+00  0.00000000E+00  0.00000000E+00
  0.00000000E+00  0.00000000E+00  0.00000000E+00
  0.00000000E+00  0.00000000E+00  0.00000000E+00
  0.00000000E+00  0.00000000E+00  0.00000000E+00
  0.00000000E+00  0.00000000E+00  0.00000000E+00
  0.00000000E+00  0.00000000E+00  0.00000000E+00
  0.00000000E+00  0.00000000E+00  0.00000000E+00
  0.00000000E+00  0.00000000E+00  0.00000000E+00
  0.00000000E+00  0.00000000E+00  0.00000000E+00
  0.00000000E+00  0.00000000E+00  0.00000000E+00
  0.00000000E+00  0.00000000E+00  0.00000000E+00
  0.00000000E+00  0.00000000E+00  0.00000000E+00
  0.00000000E+00  0.00000000E+00  0.00000000E+00
  0.00000000E+00  0.00000000E+00  0.00000000E+00
  0.00000000E+00  0.00000000E+00  0.00000000E+00
  0.00000000E+00  0.00000000E+00  0.00000000E+00
  0.00000000E+00  0.00000000E+00  0.00000000E+00
  0.00000000E+00  0.00000000E+00  0.00000000E+00
  0.00000000E+00  0.00000000E+00  0.00000000E+00
  0.00000000E+00  0.00000000E+00  0.00000000E+00
  0.00000000E+00  0.00000000E+00  0.00000000E+00
  0.00000000E+00  0.00000000E+00  0.00000000E+00
  0.00000000E+00  0.00000000E+00  0.00000000E+00
  0.00000000E+00  0.00000000E+00  0.00000000E+00
  0.00000000E+00  0.00000000E+00  0.00000000E+00
  0.00000000E+00  0.00000000E+00  0.00000000E+00
  0.00000000E+00  0.00000000E+00  0.00000000E+00
  0.00000000E+00  0.00000000E+00  0.00000000E+00
  0.00000000E+00  0.00000000E+00  0.00000000E+00
  0.00000000E+00  0.00000000E+00  0.00000000E+00
  0.00000000E+00  0.00000000E+00  0.00000000E+00
