Al Cu Mg O                              
   1.00000000000000     
     8.4141216974800006    0.0000000000000000    0.0000000000000000
     0.0000000000000000    8.4141216974800006    0.0000000000000000
     0.0000000000000000    0.0000000000000000   23.4141216974799988
   Al   Cu   Mg   O 
     1     1    31    32
Selective dynamics
Direct
  0.2500000000000000  0.2528545900286604  0.2664252242116989   T   T   T
  0.7499999495650016  0.3283000933847706  0.3903156004976675   T   T   T
  0.2500000000000000  0.0024250769080231  0.0040872358811090   T   T   T
  0.2500000000000000  0.5026681528224300  0.0041026738260763   T   T   T
  0.7500000000000000  0.0025866285655751  0.0043641828688811   T   T   T
  0.7500000000000000  0.5028959841036760  0.0044168053455339   T   T   T
 -0.0002272226627285  0.2526096219035958  0.0042158418844890   T   T   T
 -0.0002486264579982  0.7525823473822740  0.0043001780763643   T   T   T
  0.5002272226627286  0.2526096219035958  0.0042158418844890   T   T   T
  0.5002486264579983  0.7525823473822740  0.0043001780763643   T   T   T
  0.9994036313964691  0.0022915871418193  0.0938862664214840   T   T   T
 -0.0004244026193881  0.5030442598645731  0.0939209601918527   T   T   T
  0.5005963686035309  0.0022915871418193  0.0938862664214840   T   T   T
  0.5004244026193881  0.5030442598645731  0.0939209601918527   T   T   T
  0.2500000000000000  0.2525829520278934  0.0931207256737804   T   T   T
  0.2500000000000000  0.7524984072564914  0.0935048285016915   T   T   T
  0.7500000000000000  0.2526978681048023  0.0938611573053990   T   T   T
  0.7500000000000000  0.7529323355636822  0.0942373578348049   T   T   T
  0.2500000000000000  0.0001009625966106  0.1831293083016015   T   T   T
  0.2500000000000000  0.5049872543162632  0.1834737878378350   T   T   T
  0.7500000000000000  0.0042029215716129  0.1852334229891348   T   T   T
  0.7500000000000000  0.5019218653065793  0.1848321338553315   T   T   T
  0.9953150837772036  0.2531260015064073  0.1838475258410719   T   T   T
  0.9987061549637162  0.7521311440553059  0.1848183242581975   T   T   T
  0.5046849162227964  0.2531260015064073  0.1838475258410719   T   T   T
  0.5012938450362838  0.7521311440553059  0.1848183242581975   T   T   T
 -0.0004195208932019  0.0039194963021516  0.2747261412415122   T   T   T
 -0.0026983646936309  0.5006519624157806  0.2764454567938707   T   T   T
  0.5004195208932017  0.0039194963021516  0.2747261412415122   T   T   T
  0.5026983646936311  0.5006519624157806  0.2764454567938707   T   T   T
  0.2500000000000000  0.7517691620770570  0.2738043222703874   T   T   T
  0.7500000000000000  0.2539570921684965  0.2849916574257828   T   T   T
  0.7500000000000000  0.7525228867018221  0.2748553546674198   T   T   T
  0.0000638085558100  0.0026609863155922  0.0021113445394402   T   T   T
 -0.0000001980878584  0.5025574486717647  0.0020867321531339   T   T   T
  0.4999361914441898  0.0026609863155922  0.0021113445394402   T   T   T
  0.5000001980878586  0.5025574486717647  0.0020867321531339   T   T   T
  0.2500000000000000  0.2525644003917605  0.0019609054706079   T   T   T
  0.2500000000000000  0.7525216953800627  0.0020827047165458   T   T   T
  0.7500000000000000  0.2528102375376770  0.0022291708108291   T   T   T
  0.7500000000000000  0.7526652929485498  0.0021893747884574   T   T   T
  0.2500000000000000  0.0030534986925716  0.0940363246961308   T   T   T
  0.2500000000000000  0.5021032322312862  0.0939637167283104   T   T   T
  0.7500000000000000  0.0031025731348362  0.0940111710551760   T   T   T
  0.7500000000000000  0.5024877265304567  0.0939542111801390   T   T   T
  0.0007258160753878  0.2525146631773190  0.0940735233971090   T   T   T
  0.0004718286605707  0.7527585390573079  0.0939678110952704   T   T   T
  0.4992741839246122  0.2525146631773190  0.0940735233971090   T   T   T
  0.4995281713394292  0.7527585390573079  0.0939678110952704   T   T   T
  0.0007629880303880  0.0024452025013116  0.1838096992917318   T   T   T
  0.0012285858711569  0.5027998654480922  0.1837600067484080   T   T   T
  0.4992370119696121  0.0024452025013116  0.1838096992917318   T   T   T
  0.4987714141288431  0.5027998654480922  0.1837600067484080   T   T   T
  0.2500000000000000  0.2524787689933391  0.1851668750624594   T   T   T
  0.2500000000000000  0.7525482005858665  0.1846177561039884   T   T   T
  0.7500000000000000  0.2524338543194795  0.1848644509639904   T   T   T
  0.7500000000000000  0.7540031373047362  0.1841175197658033   T   T   T
  0.2499999495650016  0.0190574363048760  0.2739103759966199   T   T   T
  0.2499999495650016  0.4854114722363063  0.2742113837317107   T   T   T
  0.7499999495650016  0.0031244092716529  0.2749866609278648   T   T   T
  0.7499999495650016  0.5059519196598563  0.2719593255740341   T   T   T
  0.0249261558023305  0.2515926837682461  0.2729287452947372   T   T   T
  0.0055307579673057  0.7532031459760782  0.2762803840359184   T   T   T
  0.4750738441976692  0.2515926837682461  0.2729287452947372   T   T   T
  0.4944692420326942  0.7532031459760782  0.2762803840359184   T   T   T
 
  0.00000000E+00  0.00000000E+00  0.00000000E+00
  0.00000000E+00  0.00000000E+00  0.00000000E+00
  0.00000000E+00  0.00000000E+00  0.00000000E+00
  0.00000000E+00  0.00000000E+00  0.00000000E+00
  0.00000000E+00  0.00000000E+00  0.00000000E+00
  0.00000000E+00  0.00000000E+00  0.00000000E+00
  0.00000000E+00  0.00000000E+00  0.00000000E+00
  0.00000000E+00  0.00000000E+00  0.00000000E+00
  0.00000000E+00  0.00000000E+00  0.00000000E+00
  0.00000000E+00  0.00000000E+00  0.00000000E+00
  0.00000000E+00  0.00000000E+00  0.00000000E+00
  0.00000000E+00  0.00000000E+00  0.00000000E+00
  0.00000000E+00  0.00000000E+00  0.00000000E+00
  0.00000000E+00  0.00000000E+00  0.00000000E+00
  0.00000000E+00  0.00000000E+00  0.00000000E+00
  0.00000000E+00  0.00000000E+00  0.00000000E+00
  0.00000000E+00  0.00000000E+00  0.00000000E+00
  0.00000000E+00  0.00000000E+00  0.00000000E+00
  0.00000000E+00  0.00000000E+00  0.00000000E+00
  0.00000000E+00  0.00000000E+00  0.00000000E+00
  0.00000000E+00  0.00000000E+00  0.00000000E+00
  0.00000000E+00  0.00000000E+00  0.00000000E+00
  0.00000000E+00  0.00000000E+00  0.00000000E+00
  0.00000000E+00  0.00000000E+00  0.00000000E+00
  0.00000000E+00  0.00000000E+00  0.00000000E+00
  0.00000000E+00  0.00000000E+00  0.00000000E+00
  0.00000000E+00  0.00000000E+00  0.00000000E+00
  0.00000000E+00  0.00000000E+00  0.00000000E+00
  0.00000000E+00  0.00000000E+00  0.00000000E+00
  0.00000000E+00  0.00000000E+00  0.00000000E+00
  0.00000000E+00  0.00000000E+00  0.00000000E+00
  0.00000000E+00  0.00000000E+00  0.00000000E+00
  0.00000000E+00  0.00000000E+00  0.00000000E+00
  0.00000000E+00  0.00000000E+00  0.00000000E+00
  0.00000000E+00  0.00000000E+00  0.00000000E+00
  0.00000000E+00  0.00000000E+00  0.00000000E+00
  0.00000000E+00  0.00000000E+00  0.00000000E+00
  0.00000000E+00  0.00000000E+00  0.00000000E+00
  0.00000000E+00  0.00000000E+00  0.00000000E+00
  0.00000000E+00  0.00000000E+00  0.00000000E+00
  0.00000000E+00  0.00000000E+00  0.00000000E+00
  0.00000000E+00  0.00000000E+00  0.00000000E+00
  0.00000000E+00  0.00000000E+00  0.00000000E+00
  0.00000000E+00  0.00000000E+00  0.00000000E+00
  0.00000000E+00  0.00000000E+00  0.00000000E+00
  0.00000000E+00  0.00000000E+00  0.00000000E+00
  0.00000000E+00  0.00000000E+00  0.00000000E+00
  0.00000000E+00  0.00000000E+00  0.00000000E+00
  0.00000000E+00  0.00000000E+00  0.00000000E+00
  0.00000000E+00  0.00000000E+00  0.00000000E+00
  0.00000000E+00  0.00000000E+00  0.00000000E+00
  0.00000000E+00  0.00000000E+00  0.00000000E+00
  0.00000000E+00  0.00000000E+00  0.00000000E+00
  0.00000000E+00  0.00000000E+00  0.00000000E+00
  0.00000000E+00  0.00000000E+00  0.00000000E+00
  0.00000000E+00  0.00000000E+00  0.00000000E+00
  0.00000000E+00  0.00000000E+00  0.00000000E+00
  0.00000000E+00  0.00000000E+00  0.00000000E+00
  0.00000000E+00  0.00000000E+00  0.00000000E+00
  0.00000000E+00  0.00000000E+00  0.00000000E+00
  0.00000000E+00  0.00000000E+00  0.00000000E+00
  0.00000000E+00  0.00000000E+00  0.00000000E+00
  0.00000000E+00  0.00000000E+00  0.00000000E+00
  0.00000000E+00  0.00000000E+00  0.00000000E+00
  0.00000000E+00  0.00000000E+00  0.00000000E+00
