Al Mg O Ag                              
   1.00000000000000     
    16.8282433949600012    0.0000000000000000    0.0000000000000000
     0.0000000000000000    8.4141216974800006    0.0000000000000000
     0.0000000000000000    0.0000000000000000   23.4141216974799988
   Al   Mg   O    Ag
     2    62    64     1
Selective dynamics
Direct
  0.1249876530794678  0.2510642103298255  0.2676300964967214   T   T   T
  0.6250123469205323  0.2510642103298255  0.2676300964967214   T   T   T
  0.1252959178906802  0.0006371718397717  0.0044370013906098   T   T   T
  0.6247040821093195  0.0006371718397717  0.0044370013906098   T   T   T
  0.1252808810814911  0.5009720669429556  0.0043401475915884   T   T   T
  0.6247191189185086  0.5009720669429556  0.0043401475915884   T   T   T
  0.3750000000000000  0.0008276763296357  0.0050458039282011   T   T   T
  0.8750000000000000  0.0004649888392891  0.0040818597027554   T   T   T
  0.3750000000000000  0.5011160695680799  0.0049533276003519   T   T   T
  0.8750000000000000  0.5008587372567962  0.0039883935907828   T   T   T
  0.0001659894860776  0.2507266984557661  0.0040025511797246   T   T   T
  0.4996611912063849  0.2507816047982397  0.0046650931359356   T   T   T
  0.0001383210460853  0.7506354816888718  0.0042171109296385   T   T   T
  0.4996510223812905  0.7509595334861123  0.0048521815181216   T   T   T
  0.2503388087936151  0.2507816047982397  0.0046650931359356   T   T   T
  0.7498340105139224  0.2507266984557661  0.0040025511797246   T   T   T
  0.2503489776187095  0.7509595334861123  0.0048521815181216   T   T   T
  0.7498616789539148  0.7506354816888718  0.0042171109296385   T   T   T
 -0.0001776971568158  0.0002106064506335  0.0938509243506560   T   T   T
  0.4996047302478678  0.0005107276248627  0.0945769689528405   T   T   T
 -0.0001025998060993  0.5010642041382903  0.0937754428385778   T   T   T
  0.4996832628258884  0.5013436263639313  0.0946500433379173   T   T   T
  0.2503952697521322  0.0005107276248627  0.0945769689528405   T   T   T
  0.7501776971568159  0.0002106064506335  0.0938509243506560   T   T   T
  0.2503167371741117  0.5013436263639313  0.0946500433379173   T   T   T
  0.7501025998060994  0.5010642041382903  0.0937754428385778   T   T   T
  0.1252542395876001  0.2508908078938646  0.0932516107252139   T   T   T
  0.6247457604123999  0.2508908078938646  0.0932516107252139   T   T   T
  0.1252346917823596  0.7506239275281179  0.0939516293581664   T   T   T
  0.6247653082176405  0.7506239275281179  0.0939516293581664   T   T   T
  0.3750000000000000  0.2509314179827964  0.0946266380152706   T   T   T
  0.8750000000000000  0.2507003669447984  0.0933469942266092   T   T   T
  0.3750000000000000  0.7513786589252714  0.0950146451414009   T   T   T
  0.8750000000000000  0.7505263629328934  0.0939078633062496   T   T   T
  0.1252398040665487  0.9982829000192076  0.1837487760393847   T   T   T
  0.6247601959334512  0.9982829000192076  0.1837487760393847   T   T   T
  0.1256652827206769  0.5032902987967021  0.1839329833205543   T   T   T
  0.6243347172793229  0.5032902987967021  0.1839329833205543   T   T   T
  0.3750000000000000  0.0019235875291184  0.1859907069638544   T   T   T
  0.8750000000000000  0.9999484861772242  0.1847586468740002   T   T   T
  0.3750000000000000  0.5010689216781093  0.1853898339374976   T   T   T
  0.8750000000000000  0.5012797526431012  0.1846216113135710   T   T   T
  0.9987222369670329  0.2506814582804017  0.1833912215250710   T   T   T
  0.4977655239582352  0.2518123818514978  0.1846809771184333   T   T   T
 -0.0002393092584173  0.7505920452413362  0.1847373886715490   T   T   T
  0.4992519206464619  0.7501914212361770  0.1857057545874827   T   T   T
  0.2522344760417648  0.2518123818514978  0.1846809771184333   T   T   T
  0.7512777630329671  0.2506814582804017  0.1833912215250710   T   T   T
  0.2507480793535381  0.7501914212361770  0.1857057545874827   T   T   T
  0.7502393092584172  0.7505920452413362  0.1847373886715490   T   T   T
  0.0002275822706063  0.0007866109294067  0.2749284694403678   T   T   T
  0.4998803366756405  0.0019335262839718  0.2754241611630327   T   T   T
  0.0000419121651747  0.5003866547658156  0.2748530177188637   T   T   T
  0.4981935280571965  0.4992308093341272  0.2783854841904569   T   T   T
  0.2501196633243595  0.0019335262839718  0.2754241611630327   T   T   T
  0.7497724177293934  0.0007866109294067  0.2749284694403678   T   T   T
  0.2518064719428036  0.4992308093341272  0.2783854841904569   T   T   T
  0.7499580878348255  0.5003866547658156  0.2748530177188637   T   T   T
  0.1252095225919323  0.7496504953801472  0.2749231801384420   T   T   T
  0.6247904774080674  0.7496504953801472  0.2749231801384420   T   T   T
  0.3750000000000000  0.2525545928735144  0.2831270432662004   T   T   T
  0.8750000000000000  0.2507514651496942  0.2750609315601166   T   T   T
  0.3750000000000000  0.7505337626116979  0.2765517803599276   T   T   T
  0.8750000000000000  0.7505417772212329  0.2759350563314668   T   T   T
  0.0000955777366124  0.0007476978791804  0.0030715223141002   T   T   T
  0.4999704456951478  0.0010030614925976  0.0036164347331798   T   T   T
  0.0000976474023873  0.5006538519957334  0.0029927092410107   T   T   T
  0.4999320662437149  0.5007744559112487  0.0035068338431857   T   T   T
  0.2500295543048521  0.0010030614925976  0.0036164347331798   T   T   T
  0.7499044222633879  0.0007476978791804  0.0030715223141002   T   T   T
  0.2500679337562854  0.5007744559112487  0.0035068338431857   T   T   T
  0.7499023525976125  0.5006538519957334  0.0029927092410107   T   T   T
  0.1250892017293404  0.2507986045149104  0.0031150220262620   T   T   T
  0.6249107982706597  0.2507986045149104  0.0031150220262620   T   T   T
  0.1250355660618050  0.7507982988518035  0.0033889743454075   T   T   T
  0.6249644339381948  0.7507982988518035  0.0033889743454075   T   T   T
  0.3750000000000000  0.2510365900569785  0.0037619479137069   T   T   T
  0.8750000000000000  0.2507030042544969  0.0028575807158110   T   T   T
  0.3750000000000000  0.7508966880055487  0.0038407049346009   T   T   T
  0.8750000000000000  0.7505925583535521  0.0029903498081974   T   T   T
  0.1248461572279649  0.0014999325941519  0.0952586300500892   T   T   T
  0.6251538427720351  0.0014999325941519  0.0952586300500892   T   T   T
  0.1248145079460959  0.5000676768531138  0.0951181168010458   T   T   T
  0.6251854920539047  0.5000676768531138  0.0951181168010458   T   T   T
  0.3750000000000000  0.0015371281300692  0.0954137771243770   T   T   T
  0.8750000000000000  0.0008742932991771  0.0949362743676918   T   T   T
  0.3750000000000000  0.5007093312716899  0.0954938607588404   T   T   T
  0.8750000000000000  0.5003458575742494  0.0947532210950931   T   T   T
  0.0001998638772670  0.2507448983229017  0.0949221285312253   T   T   T
  0.5004014349401654  0.2509533737367010  0.0955105249946126   T   T   T
  0.0000309934187445  0.7506334479652749  0.0950262425236873   T   T   T
  0.5002303954565165  0.7508989486191990  0.0953996054005548   T   T   T
  0.2495985650598343  0.2509533737367010  0.0955105249946126   T   T   T
  0.7498001361227330  0.2507448983229017  0.0949221285312253   T   T   T
  0.2497696045434835  0.7508989486191990  0.0953996054005548   T   T   T
  0.7499690065812554  0.7506334479652749  0.0950262425236873   T   T   T
 -0.0000687577219174  0.0008315756167834  0.1848197440271661   T   T   T
  0.5005931514191339  0.0009459611081643  0.1851505081276906   T   T   T
 -0.0000255352780387  0.5005408379340693  0.1847869299978568   T   T   T
  0.5009290381525264  0.5009862105186038  0.1851225097424645   T   T   T
  0.2494068485808660  0.0009459611081643  0.1851505081276906   T   T   T
  0.7500687577219174  0.0008315756167834  0.1848197440271661   T   T   T
  0.2490709618474736  0.5009862105186038  0.1851225097424645   T   T   T
  0.7500255352780386  0.5005408379340693  0.1847869299978568   T   T   T
  0.1241825029910367  0.2507651130912968  0.1867915244383540   T   T   T
  0.6258174970089633  0.2507651130912968  0.1867915244383540   T   T   T
  0.1246632550950668  0.7508677555696848  0.1859433746682756   T   T   T
  0.6253367449049331  0.7508677555696848  0.1859433746682756   T   T   T
  0.3750000000000000  0.2502412223387958  0.1866411550149144   T   T   T
  0.8750000000000000  0.2505904644468711  0.1857093018165645   T   T   T
  0.3750000000000000  0.7533110279774156  0.1855189473718871   T   T   T
  0.8750000000000000  0.7506041693500664  0.1857642395505155   T   T   T
  0.1241384517969065  0.0192222757569827  0.2751726391083539   T   T   T
  0.6258614977690969  0.0192222757569827  0.2751726391083539   T   T   T
  0.1244123722059048  0.4824075601042799  0.2753155649808931   T   T   T
  0.6255875773600984  0.4824075601042799  0.2753155649808931   T   T   T
  0.3749999747830017  0.0031919967242666  0.2767855359487518   T   T   T
  0.8749999747830017  0.0047919733851195  0.2769440340861378   T   T   T
  0.3749999243470015  0.5044483350131965  0.2717978576847151   T   T   T
  0.8749999747830017  0.4964424263636119  0.2767156915306266   T   T   T
  0.0093059700612668  0.2507451578805399  0.2749990546128195   T   T   T
  0.5120947759606680  0.2496651667772572  0.2742562293633667   T   T   T
  0.0020102881836384  0.7506025365231968  0.2770255466501872   T   T   T
  0.5030123164297710  0.7522624370446200  0.2774599838894601   T   T   T
  0.2379052240393317  0.2496651667772572  0.2742562293633667   T   T   T
  0.7406940299387330  0.2507451578805399  0.2749990546128195   T   T   T
  0.2469876835702291  0.7522624370446200  0.2774599838894601   T   T   T
  0.7479897118163618  0.7506025365231968  0.2770255466501872   T   T   T
  0.3749999243470015  0.3867874189949789  0.3910276943980682   T   T   T
 
  0.00000000E+00  0.00000000E+00  0.00000000E+00
  0.00000000E+00  0.00000000E+00  0.00000000E+00
  0.00000000E+00  0.00000000E+00  0.00000000E+00
  0.00000000E+00  0.00000000E+00  0.00000000E+00
  0.00000000E+00  0.00000000E+00  0.00000000E+00
  0.00000000E+00  0.00000000E+00  0.00000000E+00
  0.00000000E+00  0.00000000E+00  0.00000000E+00
  0.00000000E+00  0.00000000E+00  0.00000000E+00
  0.00000000E+00  0.00000000E+00  0.00000000E+00
  0.00000000E+00  0.00000000E+00  0.00000000E+00
  0.00000000E+00  0.00000000E+00  0.00000000E+00
  0.00000000E+00  0.00000000E+00  0.00000000E+00
  0.00000000E+00  0.00000000E+00  0.00000000E+00
  0.00000000E+00  0.00000000E+00  0.00000000E+00
  0.00000000E+00  0.00000000E+00  0.00000000E+00
  0.00000000E+00  0.00000000E+00  0.00000000E+00
  0.00000000E+00  0.00000000E+00  0.00000000E+00
  0.00000000E+00  0.00000000E+00  0.00000000E+00
  0.00000000E+00  0.00000000E+00  0.00000000E+00
  0.00000000E+00  0.00000000E+00  0.00000000E+00
  0.00000000E+00  0.00000000E+00  0.00000000E+00
  0.00000000E+00  0.00000000E+00  0.00000000E+00
  0.00000000E+00  0.00000000E+00  0.00000000E+00
  0.00000000E+00  0.00000000E+00  0.00000000E+00
  0.00000000E+00  0.00000000E+00  0.00000000E+00
  0.00000000E+00  0.00000000E+00  0.00000000E+00
  0.00000000E+00  0.00000000E+00  0.00000000E+00
  0.00000000E+00  0.00000000E+00  0.00000000E+00
  0.00000000E+00  0.00000000E+00  0.00000000E+00
  0.00000000E+00  0.00000000E+00  0.00000000E+00
  0.00000000E+00  0.00000000E+00  0.00000000E+00
  0.00000000E+00  0.00000000E+00  0.00000000E+00
  0.00000000E+00  0.00000000E+00  0.00000000E+00
  0.00000000E+00  0.00000000E+00  0.00000000E+00
  0.00000000E+00  0.00000000E+00  0.00000000E+00
  0.00000000E+00  0.00000000E+00  0.00000000E+00
  0.00000000E+00  0.00000000E+00  0.00000000E+00
  0.00000000E+00  0.00000000E+00  0.00000000E+00
  0.00000000E+00  0.00000000E+00  0.00000000E+00
  0.00000000E+00  0.00000000E+00  0.00000000E+00
  0.00000000E+00  0.00000000E+00  0.00000000E+00
  0.00000000E+00  0.00000000E+00  0.00000000E+00
  0.00000000E+00  0.00000000E+00  0.00000000E+00
  0.00000000E+00  0.00000000E+00  0.00000000E+00
  0.00000000E+00  0.00000000E+00  0.00000000E+00
  0.00000000E+00  0.00000000E+00  0.00000000E+00
  0.00000000E+00  0.00000000E+00  0.00000000E+00
  0.00000000E+00  0.00000000E+00  0.00000000E+00
  0.00000000E+00  0.00000000E+00  0.00000000E+00
  0.00000000E+00  0.00000000E+00  0.00000000E+00
  0.00000000E+00  0.00000000E+00  0.00000000E+00
  0.00000000E+00  0.00000000E+00  0.00000000E+00
  0.00000000E+00  0.00000000E+00  0.00000000E+00
  0.00000000E+00  0.00000000E+00  0.00000000E+00
  0.00000000E+00  0.00000000E+00  0.00000000E+00
  0.00000000E+00  0.00000000E+00  0.00000000E+00
  0.00000000E+00  0.00000000E+00  0.00000000E+00
  0.00000000E+00  0.00000000E+00  0.00000000E+00
  0.00000000E+00  0.00000000E+00  0.00000000E+00
  0.00000000E+00  0.00000000E+00  0.00000000E+00
  0.00000000E+00  0.00000000E+00  0.00000000E+00
  0.00000000E+00  0.00000000E+00  0.00000000E+00
  0.00000000E+00  0.00000000E+00  0.00000000E+00
  0.00000000E+00  0.00000000E+00  0.00000000E+00
  0.00000000E+00  0.00000000E+00  0.00000000E+00
  0.00000000E+00  0.00000000E+00  0.00000000E+00
  0.00000000E+00  0.00000000E+00  0.00000000E+00
  0.00000000E+00  0.00000000E+00  0.00000000E+00
  0.00000000E+00  0.00000000E+00  0.00000000E+00
  0.00000000E+00  0.00000000E+00  0.00000000E+00
  0.00000000E+00  0.00000000E+00  0.00000000E+00
  0.00000000E+00  0.00000000E+00  0.00000000E+00
  0.00000000E+00  0.00000000E+00  0.00000000E+00
  0.00000000E+00  0.00000000E+00  0.00000000E+00
  0.00000000E+00  0.00000000E+00  0.00000000E+00
  0.00000000E+00  0.00000000E+00  0.00000000E+00
  0.00000000E+00  0.00000000E+00  0.00000000E+00
  0.00000000E+00  0.00000000E+00  0.00000000E+00
  0.00000000E+00  0.00000000E+00  0.00000000E+00
  0.00000000E+00  0.00000000E+00  0.00000000E+00
  0.00000000E+00  0.00000000E+00  0.00000000E+00
  0.00000000E+00  0.00000000E+00  0.00000000E+00
  0.00000000E+00  0.00000000E+00  0.00000000E+00
  0.00000000E+00  0.00000000E+00  0.00000000E+00
  0.00000000E+00  0.00000000E+00  0.00000000E+00
  0.00000000E+00  0.00000000E+00  0.00000000E+00
  0.00000000E+00  0.00000000E+00  0.00000000E+00
  0.00000000E+00  0.00000000E+00  0.00000000E+00
  0.00000000E+00  0.00000000E+00  0.00000000E+00
  0.00000000E+00  0.00000000E+00  0.00000000E+00
  0.00000000E+00  0.00000000E+00  0.00000000E+00
  0.00000000E+00  0.00000000E+00  0.00000000E+00
  0.00000000E+00  0.00000000E+00  0.00000000E+00
  0.00000000E+00  0.00000000E+00  0.00000000E+00
  0.00000000E+00  0.00000000E+00  0.00000000E+00
  0.00000000E+00  0.00000000E+00  0.00000000E+00
  0.00000000E+00  0.00000000E+00  0.00000000E+00
  0.00000000E+00  0.00000000E+00  0.00000000E+00
  0.00000000E+00  0.00000000E+00  0.00000000E+00
  0.00000000E+00  0.00000000E+00  0.00000000E+00
  0.00000000E+00  0.00000000E+00  0.00000000E+00
  0.00000000E+00  0.00000000E+00  0.00000000E+00
  0.00000000E+00  0.00000000E+00  0.00000000E+00
  0.00000000E+00  0.00000000E+00  0.00000000E+00
  0.00000000E+00  0.00000000E+00  0.00000000E+00
  0.00000000E+00  0.00000000E+00  0.00000000E+00
  0.00000000E+00  0.00000000E+00  0.00000000E+00
  0.00000000E+00  0.00000000E+00  0.00000000E+00
  0.00000000E+00  0.00000000E+00  0.00000000E+00
  0.00000000E+00  0.00000000E+00  0.00000000E+00
  0.00000000E+00  0.00000000E+00  0.00000000E+00
  0.00000000E+00  0.00000000E+00  0.00000000E+00
  0.00000000E+00  0.00000000E+00  0.00000000E+00
  0.00000000E+00  0.00000000E+00  0.00000000E+00
  0.00000000E+00  0.00000000E+00  0.00000000E+00
  0.00000000E+00  0.00000000E+00  0.00000000E+00
  0.00000000E+00  0.00000000E+00  0.00000000E+00
  0.00000000E+00  0.00000000E+00  0.00000000E+00
  0.00000000E+00  0.00000000E+00  0.00000000E+00
  0.00000000E+00  0.00000000E+00  0.00000000E+00
  0.00000000E+00  0.00000000E+00  0.00000000E+00
  0.00000000E+00  0.00000000E+00  0.00000000E+00
  0.00000000E+00  0.00000000E+00  0.00000000E+00
  0.00000000E+00  0.00000000E+00  0.00000000E+00
  0.00000000E+00  0.00000000E+00  0.00000000E+00
  0.00000000E+00  0.00000000E+00  0.00000000E+00
  0.00000000E+00  0.00000000E+00  0.00000000E+00
  0.00000000E+00  0.00000000E+00  0.00000000E+00
  0.00000000E+00  0.00000000E+00  0.00000000E+00
