Al Mg O Pd                              
   1.00000000000000     
    16.8282433949600012    0.0000000000000000    0.0000000000000000
     0.0000000000000000    8.4141216974800006    0.0000000000000000
     0.0000000000000000    0.0000000000000000   23.4141216974799988
   Al   Mg   O    Pd
     2    62    64     1
Selective dynamics
Direct
  0.1251697275588216  0.2507903274367042  0.2676889223205485   T   T   T
  0.6248302724411786  0.2507903274367042  0.2676889223205485   T   T   T
  0.1253075440121723  0.9999424708020787  0.0047832096568922   T   T   T
  0.6246924559878277  0.9999424708020787  0.0047832096568922   T   T   T
  0.1251163571269415  0.5002977878115293  0.0046720726593904   T   T   T
  0.6248836428730584  0.5002977878115293  0.0046720726593904   T   T   T
  0.3750000000000000  0.0000932576364929  0.0048885810265076   T   T   T
  0.8750000000000000  0.9996577518786396  0.0047171181258616   T   T   T
  0.3750000000000000  0.5005652202876761  0.0048677732185073   T   T   T
  0.8750000000000000  0.5002167080755623  0.0046390454741052   T   T   T
  0.0000790058899828  0.2500317882613148  0.0045739426136156   T   T   T
  0.4997716699896001  0.2500652904373392  0.0048764487137442   T   T   T
  0.0000510489805752  0.7499642940172921  0.0047815487991541   T   T   T
  0.4997233046268745  0.7504759150334962  0.0050127572550966   T   T   T
  0.2502283300103998  0.2500652904373392  0.0048764487137442   T   T   T
  0.7499209941100172  0.2500317882613148  0.0045739426136156   T   T   T
  0.2502766953731256  0.7504759150334962  0.0050127572550966   T   T   T
  0.7499489510194249  0.7499642940172921  0.0047815487991541   T   T   T
  0.0000427309547766  0.9995094402517880  0.0940778457256902   T   T   T
  0.4991779398931610  0.0000379422641080  0.0949799853097177   T   T   T
  0.0000859102256618  0.5005548043263212  0.0940844102556810   T   T   T
  0.4998091092893757  0.5007594725251087  0.0944966087407338   T   T   T
  0.2508220601068390  0.0000379422641080  0.0949799853097177   T   T   T
  0.7499572690452234  0.9995094402517880  0.0940778457256902   T   T   T
  0.2501908907106242  0.5007594725251087  0.0944966087407338   T   T   T
  0.7499140897743383  0.5005548043263212  0.0940844102556810   T   T   T
  0.1256485559131575  0.2503726798847211  0.0936225183025699   T   T   T
  0.6243514440868424  0.2503726798847211  0.0936225183025699   T   T   T
  0.1256442697651823  0.7499502602910972  0.0942723813217365   T   T   T
  0.6243557302348176  0.7499502602910972  0.0942723813217365   T   T   T
  0.3750000000000000  0.2493355173598112  0.0944679865966066   T   T   T
  0.8750000000000000  0.2500768065654935  0.0936397091504774   T   T   T
  0.3750000000000000  0.7517543997437481  0.0950239689512155   T   T   T
  0.8750000000000000  0.7498494052860131  0.0941094111499354   T   T   T
  0.1260070734810488  0.9976438952879061  0.1840057111978351   T   T   T
  0.6239929265189510  0.9976438952879061  0.1840057111978351   T   T   T
  0.1269955056184702  0.5026463190937306  0.1843362265016146   T   T   T
  0.6230044943815298  0.5026463190937306  0.1843362265016146   T   T   T
  0.3750000000000000  0.0019852019104960  0.1871808627812327   T   T   T
  0.8750000000000000  0.9992597542909504  0.1845918598672505   T   T   T
  0.3750000000000000  0.5000505997336693  0.1838548716981273   T   T   T
  0.8750000000000000  0.5007069686051167  0.1846317579208654   T   T   T
  0.9989478958188479  0.2502575657685591  0.1834148154540764   T   T   T
  0.4963008157577021  0.2535851541377934  0.1856492805779266   T   T   T
  0.0000877163260138  0.7497841965159656  0.1847076083881162   T   T   T
  0.4978623332978316  0.7475595049679329  0.1868090469228219   T   T   T
  0.2536991842422979  0.2535851541377934  0.1856492805779266   T   T   T
  0.7510521041811521  0.2502575657685591  0.1834148154540764   T   T   T
  0.2521376667021684  0.7475595049679329  0.1868090469228219   T   T   T
  0.7499122836739864  0.7497841965159656  0.1847076083881162   T   T   T
  0.0003876463414904  0.0000949515174151  0.2742416133325752   T   T   T
  0.4991726290461513  0.0015696439215908  0.2757127365821243   T   T   T
  0.0002805224871488  0.4997059694198685  0.2743949517135827   T   T   T
  0.4956878945392455  0.4987403409302930  0.2857270639833029   T   T   T
  0.2508273709538487  0.0015696439215908  0.2757127365821243   T   T   T
  0.7496123536585093  0.0000949515174151  0.2742416133325752   T   T   T
  0.2543121054607544  0.4987403409302930  0.2857270639833029   T   T   T
  0.7497194775128511  0.4997059694198685  0.2743949517135827   T   T   T
  0.1256761205170977  0.7482637064710064  0.2748364338936990   T   T   T
  0.6243238794829025  0.7482637064710064  0.2748364338936990   T   T   T
  0.3750000000000000  0.2579256021024054  0.2907848425265567   T   T   T
  0.8750000000000000  0.2499531597020634  0.2741938972400820   T   T   T
  0.3750000000000000  0.7452567823432047  0.2823270807555677   T   T   T
  0.8750000000000000  0.7499144515460251  0.2752485075462467   T   T   T
 -0.0003012372838506  0.0000674430835416  0.0029091462232096   T   T   T
  0.5004533203118603  0.0003394251030275  0.0027123039288855   T   T   T
 -0.0003208578261876  0.4999524825986146  0.0027131322811466   T   T   T
  0.5004760906573728  0.5001743654059452  0.0025797572530174   T   T   T
  0.2495466796881397  0.0003394251030275  0.0027123039288855   T   T   T
  0.7503012372838508  0.0000674430835416  0.0029091462232096   T   T   T
  0.2495239093426275  0.5001743654059452  0.0025797572530174   T   T   T
  0.7503208578261875  0.4999524825986146  0.0027131322811466   T   T   T
  0.1244712326077806  0.2500741197480867  0.0026855896382057   T   T   T
  0.6255287673922191  0.2500741197480867  0.0026855896382057   T   T   T
  0.1244956252836028  0.7501526224508210  0.0029250193928155   T   T   T
  0.6255043747163973  0.7501526224508210  0.0029250193928155   T   T   T
  0.3750000000000000  0.2503882964199556  0.0026070527578358   T   T   T
  0.8750000000000000  0.2497721947235422  0.0028400253473479   T   T   T
  0.3750000000000000  0.7502724681241754  0.0025245665157288   T   T   T
  0.8750000000000000  0.7501270104067773  0.0028929492446690   T   T   T
  0.1244362270232929  0.0008498305987961  0.0950589419461344   T   T   T
  0.6255637729767072  0.0008498305987961  0.0950589419461344   T   T   T
  0.1240000605831869  0.4994802017183450  0.0947079824670812   T   T   T
  0.6259999394168132  0.4994802017183450  0.0947079824670812   T   T   T
  0.3750000000000000  0.0005708414648553  0.0941688331624884   T   T   T
  0.8750000000000000  0.0002078610587458  0.0949240231167391   T   T   T
  0.3750000000000000  0.5005854028832222  0.0938508455437411   T   T   T
  0.8750000000000000  0.4997169327577377  0.0949351056029921   T   T   T
 -0.0000583642955802  0.2498892845115385  0.0948591551145333   T   T   T
  0.5009885794734310  0.2499833922893289  0.0946527776574144   T   T   T
 -0.0002568728062953  0.7501593087605335  0.0949075890740117   T   T   T
  0.5006267973569071  0.7508030662639090  0.0946073924934427   T   T   T
  0.2490114205265692  0.2499833922893289  0.0946527776574144   T   T   T
  0.7500583642955800  0.2498892845115385  0.0948591551145333   T   T   T
  0.2493732026430932  0.7508030662639090  0.0946073924934427   T   T   T
  0.7502568728062953  0.7501593087605335  0.0949075890740117   T   T   T
 -0.0005612315962347  0.0000315483798273  0.1847042396959949   T   T   T
  0.5007762493544701  0.0008332372495828  0.1850789195798736   T   T   T
 -0.0004446424159336  0.5000093492256985  0.1847941991279489   T   T   T
  0.5015401575453646  0.5002727778802951  0.1832009192600590   T   T   T
  0.2492237506455302  0.0008332372495828  0.1850789195798736   T   T   T
  0.7505612315962346  0.0000315483798273  0.1847042396959949   T   T   T
  0.2484598424546354  0.5002727778802951  0.1832009192600590   T   T   T
  0.7504446424159337  0.5000093492256985  0.1847941991279489   T   T   T
  0.1234039836825086  0.2501832455347055  0.1868084520945461   T   T   T
  0.6265960163174915  0.2501832455347055  0.1868084520945461   T   T   T
  0.1240011390257648  0.7502994157177326  0.1857933340359979   T   T   T
  0.6259988609742354  0.7502994157177326  0.1857933340359979   T   T   T
  0.3750000000000000  0.2482254007328737  0.1835647325971116   T   T   T
  0.8750000000000000  0.2499904423582159  0.1856052848847712   T   T   T
  0.3750000000000000  0.7542614654724601  0.1845261118078915   T   T   T
  0.8750000000000000  0.7499872967240684  0.1857885727023337   T   T   T
  0.1227379863575603  0.0187930946951891  0.2751802450082909   T   T   T
  0.6272619632084432  0.0187930946951891  0.2751802450082909   T   T   T
  0.1231842376783288  0.4815613340579281  0.2756542848872088   T   T   T
  0.6268157118876744  0.4815613340579281  0.2756542848872088   T   T   T
  0.3749999747830017  0.0057958664977548  0.2783065728023438   T   T   T
  0.8749999747830017  0.0040550450479230  0.2771838895779504   T   T   T
  0.3749999243470015  0.5013275795742030  0.2668350971512126   T   T   T
  0.8749999747830017  0.4957626877643220  0.2773130870921962   T   T   T
  0.0077384545395251  0.2500399800074934  0.2751485650269204   T   T   T
  0.5136506615172950  0.2481196386508423  0.2747968036276248   T   T   T
  0.0012340675586912  0.7498646188712429  0.2772320527663154   T   T   T
  0.5040705449678422  0.7534209014346354  0.2771642755441077   T   T   T
  0.2363493384827050  0.2481196386508423  0.2747968036276248   T   T   T
  0.7422615454604750  0.2500399800074934  0.2751485650269204   T   T   T
  0.2459294550321581  0.7534209014346354  0.2771642755441077   T   T   T
  0.7487659324413086  0.7498646188712429  0.2772320527663154   T   T   T
  0.3749999243470015  0.4622981325445527  0.3784179898693896   T   T   T
 
  0.00000000E+00  0.00000000E+00  0.00000000E+00
  0.00000000E+00  0.00000000E+00  0.00000000E+00
  0.00000000E+00  0.00000000E+00  0.00000000E+00
  0.00000000E+00  0.00000000E+00  0.00000000E+00
  0.00000000E+00  0.00000000E+00  0.00000000E+00
  0.00000000E+00  0.00000000E+00  0.00000000E+00
  0.00000000E+00  0.00000000E+00  0.00000000E+00
  0.00000000E+00  0.00000000E+00  0.00000000E+00
  0.00000000E+00  0.00000000E+00  0.00000000E+00
  0.00000000E+00  0.00000000E+00  0.00000000E+00
  0.00000000E+00  0.00000000E+00  0.00000000E+00
  0.00000000E+00  0.00000000E+00  0.00000000E+00
  0.00000000E+00  0.00000000E+00  0.00000000E+00
  0.00000000E+00  0.00000000E+00  0.00000000E+00
  0.00000000E+00  0.00000000E+00  0.00000000E+00
  0.00000000E+00  0.00000000E+00  0.00000000E+00
  0.00000000E+00  0.00000000E+00  0.00000000E+00
  0.00000000E+00  0.00000000E+00  0.00000000E+00
  0.00000000E+00  0.00000000E+00  0.00000000E+00
  0.00000000E+00  0.00000000E+00  0.00000000E+00
  0.00000000E+00  0.00000000E+00  0.00000000E+00
  0.00000000E+00  0.00000000E+00  0.00000000E+00
  0.00000000E+00  0.00000000E+00  0.00000000E+00
  0.00000000E+00  0.00000000E+00  0.00000000E+00
  0.00000000E+00  0.00000000E+00  0.00000000E+00
  0.00000000E+00  0.00000000E+00  0.00000000E+00
  0.00000000E+00  0.00000000E+00  0.00000000E+00
  0.00000000E+00  0.00000000E+00  0.00000000E+00
  0.00000000E+00  0.00000000E+00  0.00000000E+00
  0.00000000E+00  0.00000000E+00  0.00000000E+00
  0.00000000E+00  0.00000000E+00  0.00000000E+00
  0.00000000E+00  0.00000000E+00  0.00000000E+00
  0.00000000E+00  0.00000000E+00  0.00000000E+00
  0.00000000E+00  0.00000000E+00  0.00000000E+00
  0.00000000E+00  0.00000000E+00  0.00000000E+00
  0.00000000E+00  0.00000000E+00  0.00000000E+00
  0.00000000E+00  0.00000000E+00  0.00000000E+00
  0.00000000E+00  0.00000000E+00  0.00000000E+00
  0.00000000E+00  0.00000000E+00  0.00000000E+00
  0.00000000E+00  0.00000000E+00  0.00000000E+00
  0.00000000E+00  0.00000000E+00  0.00000000E+00
  0.00000000E+00  0.00000000E+00  0.00000000E+00
  0.00000000E+00  0.00000000E+00  0.00000000E+00
  0.00000000E+00  0.00000000E+00  0.00000000E+00
  0.00000000E+00  0.00000000E+00  0.00000000E+00
  0.00000000E+00  0.00000000E+00  0.00000000E+00
  0.00000000E+00  0.00000000E+00  0.00000000E+00
  0.00000000E+00  0.00000000E+00  0.00000000E+00
  0.00000000E+00  0.00000000E+00  0.00000000E+00
  0.00000000E+00  0.00000000E+00  0.00000000E+00
  0.00000000E+00  0.00000000E+00  0.00000000E+00
  0.00000000E+00  0.00000000E+00  0.00000000E+00
  0.00000000E+00  0.00000000E+00  0.00000000E+00
  0.00000000E+00  0.00000000E+00  0.00000000E+00
  0.00000000E+00  0.00000000E+00  0.00000000E+00
  0.00000000E+00  0.00000000E+00  0.00000000E+00
  0.00000000E+00  0.00000000E+00  0.00000000E+00
  0.00000000E+00  0.00000000E+00  0.00000000E+00
  0.00000000E+00  0.00000000E+00  0.00000000E+00
  0.00000000E+00  0.00000000E+00  0.00000000E+00
  0.00000000E+00  0.00000000E+00  0.00000000E+00
  0.00000000E+00  0.00000000E+00  0.00000000E+00
  0.00000000E+00  0.00000000E+00  0.00000000E+00
  0.00000000E+00  0.00000000E+00  0.00000000E+00
  0.00000000E+00  0.00000000E+00  0.00000000E+00
  0.00000000E+00  0.00000000E+00  0.00000000E+00
  0.00000000E+00  0.00000000E+00  0.00000000E+00
  0.00000000E+00  0.00000000E+00  0.00000000E+00
  0.00000000E+00  0.00000000E+00  0.00000000E+00
  0.00000000E+00  0.00000000E+00  0.00000000E+00
  0.00000000E+00  0.00000000E+00  0.00000000E+00
  0.00000000E+00  0.00000000E+00  0.00000000E+00
  0.00000000E+00  0.00000000E+00  0.00000000E+00
  0.00000000E+00  0.00000000E+00  0.00000000E+00
  0.00000000E+00  0.00000000E+00  0.00000000E+00
  0.00000000E+00  0.00000000E+00  0.00000000E+00
  0.00000000E+00  0.00000000E+00  0.00000000E+00
  0.00000000E+00  0.00000000E+00  0.00000000E+00
  0.00000000E+00  0.00000000E+00  0.00000000E+00
  0.00000000E+00  0.00000000E+00  0.00000000E+00
  0.00000000E+00  0.00000000E+00  0.00000000E+00
  0.00000000E+00  0.00000000E+00  0.00000000E+00
  0.00000000E+00  0.00000000E+00  0.00000000E+00
  0.00000000E+00  0.00000000E+00  0.00000000E+00
  0.00000000E+00  0.00000000E+00  0.00000000E+00
  0.00000000E+00  0.00000000E+00  0.00000000E+00
  0.00000000E+00  0.00000000E+00  0.00000000E+00
  0.00000000E+00  0.00000000E+00  0.00000000E+00
  0.00000000E+00  0.00000000E+00  0.00000000E+00
  0.00000000E+00  0.00000000E+00  0.00000000E+00
  0.00000000E+00  0.00000000E+00  0.00000000E+00
  0.00000000E+00  0.00000000E+00  0.00000000E+00
  0.00000000E+00  0.00000000E+00  0.00000000E+00
  0.00000000E+00  0.00000000E+00  0.00000000E+00
  0.00000000E+00  0.00000000E+00  0.00000000E+00
  0.00000000E+00  0.00000000E+00  0.00000000E+00
  0.00000000E+00  0.00000000E+00  0.00000000E+00
  0.00000000E+00  0.00000000E+00  0.00000000E+00
  0.00000000E+00  0.00000000E+00  0.00000000E+00
  0.00000000E+00  0.00000000E+00  0.00000000E+00
  0.00000000E+00  0.00000000E+00  0.00000000E+00
  0.00000000E+00  0.00000000E+00  0.00000000E+00
  0.00000000E+00  0.00000000E+00  0.00000000E+00
  0.00000000E+00  0.00000000E+00  0.00000000E+00
  0.00000000E+00  0.00000000E+00  0.00000000E+00
  0.00000000E+00  0.00000000E+00  0.00000000E+00
  0.00000000E+00  0.00000000E+00  0.00000000E+00
  0.00000000E+00  0.00000000E+00  0.00000000E+00
  0.00000000E+00  0.00000000E+00  0.00000000E+00
  0.00000000E+00  0.00000000E+00  0.00000000E+00
  0.00000000E+00  0.00000000E+00  0.00000000E+00
  0.00000000E+00  0.00000000E+00  0.00000000E+00
  0.00000000E+00  0.00000000E+00  0.00000000E+00
  0.00000000E+00  0.00000000E+00  0.00000000E+00
  0.00000000E+00  0.00000000E+00  0.00000000E+00
  0.00000000E+00  0.00000000E+00  0.00000000E+00
  0.00000000E+00  0.00000000E+00  0.00000000E+00
  0.00000000E+00  0.00000000E+00  0.00000000E+00
  0.00000000E+00  0.00000000E+00  0.00000000E+00
  0.00000000E+00  0.00000000E+00  0.00000000E+00
  0.00000000E+00  0.00000000E+00  0.00000000E+00
  0.00000000E+00  0.00000000E+00  0.00000000E+00
  0.00000000E+00  0.00000000E+00  0.00000000E+00
  0.00000000E+00  0.00000000E+00  0.00000000E+00
  0.00000000E+00  0.00000000E+00  0.00000000E+00
  0.00000000E+00  0.00000000E+00  0.00000000E+00
  0.00000000E+00  0.00000000E+00  0.00000000E+00
  0.00000000E+00  0.00000000E+00  0.00000000E+00
  0.00000000E+00  0.00000000E+00  0.00000000E+00
