Al Mg O Pt                              
   1.00000000000000     
    16.8282433949600012    0.0000000000000000    0.0000000000000000
     0.0000000000000000    8.4141216974800006    0.0000000000000000
     0.0000000000000000    0.0000000000000000   23.4141216974799988
   Al   Mg   O    Pt
     2    62    64     1
Selective dynamics
Direct
  0.1259873142558494  0.2512788745180645  0.2676793834364509   T   T   T
  0.6240126857441507  0.2512788745180645  0.2676793834364509   T   T   T
  0.1251397726940159  0.9998385866328112  0.0050580794257912   T   T   T
  0.6248602273059841  0.9998385866328112  0.0050580794257912   T   T   T
  0.1247030158698041  0.5002002121815855  0.0046748757674382   T   T   T
  0.6252969841301959  0.5002002121815855  0.0046748757674382   T   T   T
  0.3750000000000000  0.9999062585955291  0.0045156797080513   T   T   T
  0.8750000000000000  0.9998252023568093  0.0049910719476696   T   T   T
  0.3750000000000000  0.5003715257095599  0.0041020633559964   T   T   T
  0.8750000000000000  0.5001435005559679  0.0049296924624687   T   T   T
 -0.0000193556669509  0.2498976880840460  0.0048668557597306   T   T   T
  0.5001024785482282  0.2494691034758089  0.0046999735772406   T   T   T
 -0.0000109694937745  0.7500763574035455  0.0050641189109360   T   T   T
  0.5000643925506285  0.7506716251587382  0.0048112827342057   T   T   T
  0.2498975214517719  0.2494691034758089  0.0046999735772406   T   T   T
  0.7500193556669509  0.2498976880840460  0.0048668557597306   T   T   T
  0.2499356074493715  0.7506716251587382  0.0048112827342057   T   T   T
  0.7500109694937747  0.7500763574035455  0.0050641189109360   T   T   T
  0.0000373993313253  0.9994761220822975  0.0944011699668509   T   T   T
  0.4992001827494966  0.9997363836101009  0.0950866520268154   T   T   T
 -0.0000206163760117  0.5004722801761294  0.0943631024830195   T   T   T
  0.5001310725865894  0.5006138535596969  0.0938469979290303   T   T   T
  0.2507998172505034  0.9997363836101009  0.0950866520268154   T   T   T
  0.7499626006686746  0.9994761220822975  0.0944011699668509   T   T   T
  0.2498689274134106  0.5006138535596969  0.0938469979290303   T   T   T
  0.7500206163760115  0.5004722801761294  0.0943631024830195   T   T   T
  0.1254551584237941  0.2502056810079249  0.0937526049332170   T   T   T
  0.6245448415762062  0.2502056810079249  0.0937526049332170   T   T   T
  0.1255034132062944  0.7499098175324965  0.0944815457001117   T   T   T
  0.6244965867937056  0.7499098175324965  0.0944815457001117   T   T   T
  0.3750000000000000  0.2486071330999264  0.0938120847602293   T   T   T
  0.8750000000000000  0.2500108072428378  0.0940427401838598   T   T   T
  0.3750000000000000  0.7519982995710252  0.0942926452249816   T   T   T
  0.8750000000000000  0.7499042398411271  0.0944929979191858   T   T   T
  0.1263238356640079  0.9974449256500603  0.1843229142879095   T   T   T
  0.6236761643359919  0.9974449256500603  0.1843229142879095   T   T   T
  0.1274791238308884  0.5026810748656924  0.1842787797032281   T   T   T
  0.6225208761691116  0.5026810748656924  0.1842787797032281   T   T   T
  0.3750000000000000  0.0008466023727245  0.1869349997296291   T   T   T
  0.8750000000000000  0.9991800438037021  0.1848857852309028   T   T   T
  0.3750000000000000  0.5005126743102563  0.1813187552070135   T   T   T
  0.8750000000000000  0.5006537496755541  0.1849671996043710   T   T   T
  0.9991064863529193  0.2502405263269917  0.1837740401453327   T   T   T
  0.4957192880036443  0.2545275869498894  0.1853970463806874   T   T   T
  0.0002364552517484  0.7497017685383774  0.1850794540571406   T   T   T
  0.4968876399311587  0.7462025948746943  0.1868164692178906   T   T   T
  0.2542807119963557  0.2545275869498894  0.1853970463806874   T   T   T
  0.7508935136470807  0.2502405263269917  0.1837740401453327   T   T   T
  0.2531123600688413  0.7462025948746943  0.1868164692178906   T   T   T
  0.7497635447482516  0.7497017685383774  0.1850794540571406   T   T   T
  0.0007993381542229  0.0001815603279570  0.2744006085411175   T   T   T
  0.4981877207385453  0.0011054297050040  0.2752501058913668   T   T   T
  0.0004982825262299  0.4994501677980207  0.2745968769105653   T   T   T
  0.4927485972934387  0.4986861260868222  0.2880392231182681   T   T   T
  0.2518122792614547  0.0011054297050040  0.2752501058913668   T   T   T
  0.7492006618457772  0.0001815603279570  0.2744006085411175   T   T   T
  0.2572514027065613  0.4986861260868222  0.2880392231182681   T   T   T
  0.7495017174737703  0.4994501677980207  0.2745968769105653   T   T   T
  0.1263524622038230  0.7468292358608012  0.2746830435628633   T   T   T
  0.6236475377961769  0.7468292358608012  0.2746830435628633   T   T   T
  0.3750000000000000  0.2617584175410059  0.2904680354176407   T   T   T
  0.8750000000000000  0.2498174810571689  0.2745599669648495   T   T   T
  0.3750000000000000  0.7374715766518037  0.2868399989392526   T   T   T
  0.8750000000000000  0.7499401876534743  0.2755805609528196   T   T   T
 -0.0004174184300418  0.0000609663554446  0.0031202051512189   T   T   T
  0.5007760354489541  0.0001800306538900  0.0024026437760104   T   T   T
 -0.0006836710911057  0.4999064430885878  0.0028576944351734   T   T   T
  0.5009098997486228  0.4999610731960657  0.0021921526628124   T   T   T
  0.2492239645510460  0.0001800306538900  0.0024026437760104   T   T   T
  0.7504174184300421  0.0000609663554446  0.0031202051512189   T   T   T
  0.2490901002513773  0.4999610731960657  0.0021921526628124   T   T   T
  0.7506836710911057  0.4999064430885878  0.0028576944351734   T   T   T
  0.1240570070218029  0.2497912255233164  0.0027085814783499   T   T   T
  0.6259429929781970  0.2497912255233164  0.0027085814783499   T   T   T
  0.1240626219493351  0.7502540214221723  0.0029304254388515   T   T   T
  0.6259373780506650  0.7502540214221723  0.0029304254388515   T   T   T
  0.3750000000000000  0.2501002761100097  0.0020110639843222   T   T   T
  0.8750000000000000  0.2498667650494436  0.0031985807626308   T   T   T
  0.3750000000000000  0.7501740909041432  0.0019080950576162   T   T   T
  0.8750000000000000  0.7500946906588073  0.0032036337774178   T   T   T
  0.1242587398936168  0.0007391325829343  0.0953070498315001   T   T   T
  0.6257412601063831  0.0007391325829343  0.0953070498315001   T   T   T
  0.1235386832448365  0.4994173646466497  0.0944852973653565   T   T   T
  0.6264613167551635  0.4994173646466497  0.0944852973653565   T   T   T
  0.3750000000000000  0.0002832114359955  0.0934853758225611   T   T   T
  0.8750000000000000  0.0001949694392322  0.0952490842991243   T   T   T
  0.3750000000000000  0.5002474384802532  0.0925847555579577   T   T   T
  0.8750000000000000  0.4997227536487270  0.0951957117732917   T   T   T
 -0.0001974753097645  0.2498902213260504  0.0952308863528171   T   T   T
  0.5013079373337181  0.2493051609757000  0.0941539743665235   T   T   T
 -0.0003945961175068  0.7500621184601306  0.0952487917119385   T   T   T
  0.5009658662691625  0.7510362533298632  0.0941097795196889   T   T   T
  0.2486920626662819  0.2493051609757000  0.0941539743665235   T   T   T
  0.7501974753097643  0.2498902213260504  0.0952308863528171   T   T   T
  0.2490341337308373  0.7510362533298632  0.0941097795196889   T   T   T
  0.7503945961175066  0.7500621184601306  0.0952487917119385   T   T   T
 -0.0005806003796568  0.0000311051212488  0.1850761549617070   T   T   T
  0.5008169066891669  0.0006713161626219  0.1850708991989996   T   T   T
 -0.0004680069517046  0.4999324926046703  0.1851885220177351   T   T   T
  0.5019943467923332  0.5000886988476106  0.1816302850192614   T   T   T
  0.2491830933108329  0.0006713161626219  0.1850708991989996   T   T   T
  0.7505806003796567  0.0000311051212488  0.1850761549617070   T   T   T
  0.2480056532076668  0.5000886988476106  0.1816302850192614   T   T   T
  0.7504680069517048  0.4999324926046703  0.1851885220177351   T   T   T
  0.1234784168598071  0.2502437150049892  0.1869711965569461   T   T   T
  0.6265215831401929  0.2502437150049892  0.1869711965569461   T   T   T
  0.1239658281679619  0.7501542653294196  0.1859803984299675   T   T   T
  0.6260341718320380  0.7501542653294196  0.1859803984299675   T   T   T
  0.3750000000000000  0.2466379121376745  0.1820940526942657   T   T   T
  0.8750000000000000  0.2499011478732167  0.1861010056691427   T   T   T
  0.3750000000000000  0.7545492490969613  0.1828507741367376   T   T   T
  0.8750000000000000  0.7499916602953322  0.1863016985509932   T   T   T
  0.1233620166222395  0.0195438870683481  0.2753728249059252   T   T   T
  0.6266379329437638  0.0195438870683481  0.2753728249059252   T   T   T
  0.1235312524134948  0.4812647203660386  0.2760072430644512   T   T   T
  0.6264686971525086  0.4812647203660386  0.2760072430644512   T   T   T
  0.3749999747830017  0.0079172600166360  0.2786939036561487   T   T   T
  0.8749999747830017  0.0037647043373037  0.2776511674563413   T   T   T
  0.3749999243470015  0.4980708155171724  0.2622204106254293   T   T   T
  0.8749999747830017  0.4959829106335904  0.2778356321147864   T   T   T
  0.0079334335485717  0.2500489266954141  0.2754631448622085   T   T   T
  0.5127953896883432  0.2485392745713848  0.2750351049318464   T   T   T
  0.0016931215821686  0.7498493344426927  0.2776380086539361   T   T   T
  0.5035894831471207  0.7529537414939002  0.2771676110858787   T   T   T
  0.2372046103116568  0.2485392745713848  0.2750351049318464   T   T   T
  0.7420665664514282  0.2500489266954141  0.2754631448622085   T   T   T
  0.2464105168528792  0.7529537414939002  0.2771676110858787   T   T   T
  0.7483068784178313  0.7498493344426927  0.2776380086539361   T   T   T
  0.3749999243470015  0.4817696238216219  0.3758510664596388   T   T   T
 
  0.00000000E+00  0.00000000E+00  0.00000000E+00
  0.00000000E+00  0.00000000E+00  0.00000000E+00
  0.00000000E+00  0.00000000E+00  0.00000000E+00
  0.00000000E+00  0.00000000E+00  0.00000000E+00
  0.00000000E+00  0.00000000E+00  0.00000000E+00
  0.00000000E+00  0.00000000E+00  0.00000000E+00
  0.00000000E+00  0.00000000E+00  0.00000000E+00
  0.00000000E+00  0.00000000E+00  0.00000000E+00
  0.00000000E+00  0.00000000E+00  0.00000000E+00
  0.00000000E+00  0.00000000E+00  0.00000000E+00
  0.00000000E+00  0.00000000E+00  0.00000000E+00
  0.00000000E+00  0.00000000E+00  0.00000000E+00
  0.00000000E+00  0.00000000E+00  0.00000000E+00
  0.00000000E+00  0.00000000E+00  0.00000000E+00
  0.00000000E+00  0.00000000E+00  0.00000000E+00
  0.00000000E+00  0.00000000E+00  0.00000000E+00
  0.00000000E+00  0.00000000E+00  0.00000000E+00
  0.00000000E+00  0.00000000E+00  0.00000000E+00
  0.00000000E+00  0.00000000E+00  0.00000000E+00
  0.00000000E+00  0.00000000E+00  0.00000000E+00
  0.00000000E+00  0.00000000E+00  0.00000000E+00
  0.00000000E+00  0.00000000E+00  0.00000000E+00
  0.00000000E+00  0.00000000E+00  0.00000000E+00
  0.00000000E+00  0.00000000E+00  0.00000000E+00
  0.00000000E+00  0.00000000E+00  0.00000000E+00
  0.00000000E+00  0.00000000E+00  0.00000000E+00
  0.00000000E+00  0.00000000E+00  0.00000000E+00
  0.00000000E+00  0.00000000E+00  0.00000000E+00
  0.00000000E+00  0.00000000E+00  0.00000000E+00
  0.00000000E+00  0.00000000E+00  0.00000000E+00
  0.00000000E+00  0.00000000E+00  0.00000000E+00
  0.00000000E+00  0.00000000E+00  0.00000000E+00
  0.00000000E+00  0.00000000E+00  0.00000000E+00
  0.00000000E+00  0.00000000E+00  0.00000000E+00
  0.00000000E+00  0.00000000E+00  0.00000000E+00
  0.00000000E+00  0.00000000E+00  0.00000000E+00
  0.00000000E+00  0.00000000E+00  0.00000000E+00
  0.00000000E+00  0.00000000E+00  0.00000000E+00
  0.00000000E+00  0.00000000E+00  0.00000000E+00
  0.00000000E+00  0.00000000E+00  0.00000000E+00
  0.00000000E+00  0.00000000E+00  0.00000000E+00
  0.00000000E+00  0.00000000E+00  0.00000000E+00
  0.00000000E+00  0.00000000E+00  0.00000000E+00
  0.00000000E+00  0.00000000E+00  0.00000000E+00
  0.00000000E+00  0.00000000E+00  0.00000000E+00
  0.00000000E+00  0.00000000E+00  0.00000000E+00
  0.00000000E+00  0.00000000E+00  0.00000000E+00
  0.00000000E+00  0.00000000E+00  0.00000000E+00
  0.00000000E+00  0.00000000E+00  0.00000000E+00
  0.00000000E+00  0.00000000E+00  0.00000000E+00
  0.00000000E+00  0.00000000E+00  0.00000000E+00
  0.00000000E+00  0.00000000E+00  0.00000000E+00
  0.00000000E+00  0.00000000E+00  0.00000000E+00
  0.00000000E+00  0.00000000E+00  0.00000000E+00
  0.00000000E+00  0.00000000E+00  0.00000000E+00
  0.00000000E+00  0.00000000E+00  0.00000000E+00
  0.00000000E+00  0.00000000E+00  0.00000000E+00
  0.00000000E+00  0.00000000E+00  0.00000000E+00
  0.00000000E+00  0.00000000E+00  0.00000000E+00
  0.00000000E+00  0.00000000E+00  0.00000000E+00
  0.00000000E+00  0.00000000E+00  0.00000000E+00
  0.00000000E+00  0.00000000E+00  0.00000000E+00
  0.00000000E+00  0.00000000E+00  0.00000000E+00
  0.00000000E+00  0.00000000E+00  0.00000000E+00
  0.00000000E+00  0.00000000E+00  0.00000000E+00
  0.00000000E+00  0.00000000E+00  0.00000000E+00
  0.00000000E+00  0.00000000E+00  0.00000000E+00
  0.00000000E+00  0.00000000E+00  0.00000000E+00
  0.00000000E+00  0.00000000E+00  0.00000000E+00
  0.00000000E+00  0.00000000E+00  0.00000000E+00
  0.00000000E+00  0.00000000E+00  0.00000000E+00
  0.00000000E+00  0.00000000E+00  0.00000000E+00
  0.00000000E+00  0.00000000E+00  0.00000000E+00
  0.00000000E+00  0.00000000E+00  0.00000000E+00
  0.00000000E+00  0.00000000E+00  0.00000000E+00
  0.00000000E+00  0.00000000E+00  0.00000000E+00
  0.00000000E+00  0.00000000E+00  0.00000000E+00
  0.00000000E+00  0.00000000E+00  0.00000000E+00
  0.00000000E+00  0.00000000E+00  0.00000000E+00
  0.00000000E+00  0.00000000E+00  0.00000000E+00
  0.00000000E+00  0.00000000E+00  0.00000000E+00
  0.00000000E+00  0.00000000E+00  0.00000000E+00
  0.00000000E+00  0.00000000E+00  0.00000000E+00
  0.00000000E+00  0.00000000E+00  0.00000000E+00
  0.00000000E+00  0.00000000E+00  0.00000000E+00
  0.00000000E+00  0.00000000E+00  0.00000000E+00
  0.00000000E+00  0.00000000E+00  0.00000000E+00
  0.00000000E+00  0.00000000E+00  0.00000000E+00
  0.00000000E+00  0.00000000E+00  0.00000000E+00
  0.00000000E+00  0.00000000E+00  0.00000000E+00
  0.00000000E+00  0.00000000E+00  0.00000000E+00
  0.00000000E+00  0.00000000E+00  0.00000000E+00
  0.00000000E+00  0.00000000E+00  0.00000000E+00
  0.00000000E+00  0.00000000E+00  0.00000000E+00
  0.00000000E+00  0.00000000E+00  0.00000000E+00
  0.00000000E+00  0.00000000E+00  0.00000000E+00
  0.00000000E+00  0.00000000E+00  0.00000000E+00
  0.00000000E+00  0.00000000E+00  0.00000000E+00
  0.00000000E+00  0.00000000E+00  0.00000000E+00
  0.00000000E+00  0.00000000E+00  0.00000000E+00
  0.00000000E+00  0.00000000E+00  0.00000000E+00
  0.00000000E+00  0.00000000E+00  0.00000000E+00
  0.00000000E+00  0.00000000E+00  0.00000000E+00
  0.00000000E+00  0.00000000E+00  0.00000000E+00
  0.00000000E+00  0.00000000E+00  0.00000000E+00
  0.00000000E+00  0.00000000E+00  0.00000000E+00
  0.00000000E+00  0.00000000E+00  0.00000000E+00
  0.00000000E+00  0.00000000E+00  0.00000000E+00
  0.00000000E+00  0.00000000E+00  0.00000000E+00
  0.00000000E+00  0.00000000E+00  0.00000000E+00
  0.00000000E+00  0.00000000E+00  0.00000000E+00
  0.00000000E+00  0.00000000E+00  0.00000000E+00
  0.00000000E+00  0.00000000E+00  0.00000000E+00
  0.00000000E+00  0.00000000E+00  0.00000000E+00
  0.00000000E+00  0.00000000E+00  0.00000000E+00
  0.00000000E+00  0.00000000E+00  0.00000000E+00
  0.00000000E+00  0.00000000E+00  0.00000000E+00
  0.00000000E+00  0.00000000E+00  0.00000000E+00
  0.00000000E+00  0.00000000E+00  0.00000000E+00
  0.00000000E+00  0.00000000E+00  0.00000000E+00
  0.00000000E+00  0.00000000E+00  0.00000000E+00
  0.00000000E+00  0.00000000E+00  0.00000000E+00
  0.00000000E+00  0.00000000E+00  0.00000000E+00
  0.00000000E+00  0.00000000E+00  0.00000000E+00
  0.00000000E+00  0.00000000E+00  0.00000000E+00
  0.00000000E+00  0.00000000E+00  0.00000000E+00
  0.00000000E+00  0.00000000E+00  0.00000000E+00
  0.00000000E+00  0.00000000E+00  0.00000000E+00
  0.00000000E+00  0.00000000E+00  0.00000000E+00
