Al Mg O Ni                              
   1.00000000000000     
    16.8282433949600012    0.0000000000000000    0.0000000000000000
     0.0000000000000000    8.4141216974800006    0.0000000000000000
     0.0000000000000000    0.0000000000000000   23.4141216974799988
   Al   Mg   O    Ni
     2    62    64     1
Selective dynamics
Direct
  0.1249743089073775  0.2497684479979163  0.2678746765203789   T   T   T
  0.6250256910926224  0.2497684479979163  0.2678746765203789   T   T   T
  0.1250777110291326  0.9997958004012699  0.0045002937628444   T   T   T
  0.6249222889708674  0.9997958004012699  0.0045002937628444   T   T   T
  0.1250368159312313  0.5001778622467253  0.0044961181942286   T   T   T
  0.6249631840687687  0.5001778622467253  0.0044961181942286   T   T   T
  0.3750000000000000  0.9998561477567280  0.0048156444334195   T   T   T
  0.8750000000000000  0.9997828128420018  0.0046659432885444   T   T   T
  0.3750000000000000  0.5001679913693279  0.0049099590155417   T   T   T
  0.8750000000000000  0.5002059707137904  0.0046941200664826   T   T   T
  0.9999690763584151  0.2499812465854796  0.0044561349162011   T   T   T
  0.4998348886122342  0.2499989069988210  0.0046320370145736   T   T   T
  0.9999564927504809  0.7499965545015684  0.0046902031998504   T   T   T
  0.4998536173449310  0.7500172190247762  0.0048748110748456   T   T   T
  0.2501651113877658  0.2499989069988210  0.0046320370145736   T   T   T
  0.7500309236415849  0.2499812465854796  0.0044561349162011   T   T   T
  0.2501463826550690  0.7500172190247762  0.0048748110748456   T   T   T
  0.7500435072495191  0.7499965545015684  0.0046902031998504   T   T   T
  0.9997502803848696  0.9995250593245323  0.0942364037465348   T   T   T
  0.4996375565859703  0.9995811617820947  0.0946821313053955   T   T   T
  0.9998434106164595  0.5004350171553547  0.0943409753593901   T   T   T
  0.4997990083826526  0.5005115511623078  0.0945944109184199   T   T   T
  0.2503624434140297  0.9995811617820947  0.0946821313053955   T   T   T
  0.7502497196151304  0.9995250593245323  0.0942364037465348   T   T   T
  0.2502009916173474  0.5005115511623078  0.0945944109184199   T   T   T
  0.7501565893835405  0.5004350171553547  0.0943409753593901   T   T   T
  0.1251440646112262  0.2500711041420205  0.0934224974411269   T   T   T
  0.6248559353887738  0.2500711041420205  0.0934224974411269   T   T   T
  0.1251579391082039  0.7498794986351075  0.0942014384456362   T   T   T
  0.6248420608917961  0.7498794986351075  0.0942014384456362   T   T   T
  0.3750000000000000  0.2496703477353559  0.0945356510269704   T   T   T
  0.8750000000000000  0.2500454958256952  0.0939815666858453   T   T   T
  0.3750000000000000  0.7505461741831885  0.0949915202691797   T   T   T
  0.8750000000000000  0.7499340201027095  0.0944864054408904   T   T   T
  0.1251770824828197  0.9974322083294188  0.1837868367267849   T   T   T
  0.6248229175171806  0.9974322083294188  0.1837868367267849   T   T   T
  0.1256315323949000  0.5025070645543986  0.1841982569242183   T   T   T
  0.6243684676051000  0.5025070645543986  0.1841982569242183   T   T   T
  0.3750000000000000  0.9999084350286833  0.1860034693834590   T   T   T
  0.8750000000000000  0.9992831743070398  0.1852886971013726   T   T   T
  0.3750000000000000  0.5008533741094653  0.1850755777793365   T   T   T
  0.8750000000000000  0.5006368036456366  0.1853328260406528   T   T   T
  0.9987529117232333  0.2501294904299153  0.1838797711625003   T   T   T
  0.4979822776832396  0.2514108205429885  0.1847358681572871   T   T   T
  0.9996926120746258  0.7497651465437268  0.1852383269699079   T   T   T
  0.4989837260267813  0.7488585360879529  0.1860393801034458   T   T   T
  0.2520177223167604  0.2514108205429885  0.1847358681572871   T   T   T
  0.7512470882767667  0.2501294904299153  0.1838797711625003   T   T   T
  0.2510162739732187  0.7488585360879529  0.1860393801034458   T   T   T
  0.7503073879253742  0.7497651465437268  0.1852383269699079   T   T   T
  0.0000143084681884  0.0001425223006349  0.2753354507819204   T   T   T
  0.5003337749298474  0.0003559012541250  0.2750386515989668   T   T   T
  0.0002455091842418  0.4996882859769378  0.2754364286036997   T   T   T
  0.5006170293601656  0.4997576245169598  0.2798987759155601   T   T   T
  0.2496662250701526  0.0003559012541250  0.2750386515989668   T   T   T
  0.7499856915318117  0.0001425223006349  0.2753354507819204   T   T   T
  0.2493829706398343  0.4997576245169598  0.2798987759155601   T   T   T
  0.7497544908157581  0.4996882859769378  0.2754364286036997   T   T   T
  0.1249615003294749  0.7506206937284577  0.2750725297172741   T   T   T
  0.6250384996705249  0.7506206937284577  0.2750725297172741   T   T   T
  0.3750000000000000  0.2496847283935388  0.2808133813848523   T   T   T
  0.8750000000000000  0.2500205608087350  0.2757130848731484   T   T   T
  0.3750000000000000  0.7515347348823884  0.2799741136762516   T   T   T
  0.8750000000000000  0.7497606694442845  0.2766433472697072   T   T   T
 -0.0000556723509561  0.0000238251170003  0.0034722382954393   T   T   T
  0.5000537639937164  0.0000668868218435  0.0035234934641640   T   T   T
 -0.0000579402304102  0.4999616667345693  0.0034597829871816   T   T   T
  0.5000832306776611  0.4999500944212280  0.0035221001454647   T   T   T
  0.2499462360062839  0.0000668868218435  0.0035234934641640   T   T   T
  0.7500556723509562  0.0000238251170003  0.0034722382954393   T   T   T
  0.2499167693223387  0.4999500944212280  0.0035221001454647   T   T   T
  0.7500579402304102  0.4999616667345693  0.0034597829871816   T   T   T
  0.1249566906976674  0.2500202996333999  0.0032657604976146   T   T   T
  0.6250433093023325  0.2500202996333999  0.0032657604976146   T   T   T
  0.1249182000063288  0.7499560432135849  0.0035525416223098   T   T   T
  0.6250817999936711  0.7499560432135849  0.0035525416223098   T   T   T
  0.3750000000000000  0.2500322898007033  0.0035764179498513   T   T   T
  0.8750000000000000  0.2499843667275509  0.0034889611766163   T   T   T
  0.3750000000000000  0.7500017404651176  0.0036462584979336   T   T   T
  0.8750000000000000  0.7500114439418324  0.0035760025883193   T   T   T
  0.1247953026027017  0.0007494889033168  0.0953525655973601   T   T   T
  0.6252046973972984  0.0007494889033168  0.0953525655973601   T   T   T
  0.1247378645706047  0.4992131564415830  0.0953516744873108   T   T   T
  0.6252621354293952  0.4992131564415830  0.0953516744873108   T   T   T
  0.3750000000000000  0.0004877551594265  0.0953206295143968   T   T   T
  0.8750000000000000  0.0002116249001833  0.0954908911411390   T   T   T
  0.3750000000000000  0.4997345002566933  0.0953105531138618   T   T   T
  0.8750000000000000  0.4997579885109422  0.0955383720131187   T   T   T
  0.0002226495847829  0.2499531037020287  0.0954091926231718   T   T   T
  0.5004568431134853  0.2500449751590518  0.0954782712606130   T   T   T
 -0.0000346561543672  0.7500036036372295  0.0954344453383439   T   T   T
  0.5002428341259401  0.7500400502592001  0.0954136853605948   T   T   T
  0.2495431568865148  0.2500449751590518  0.0954782712606130   T   T   T
  0.7497773504152170  0.2499531037020287  0.0954091926231718   T   T   T
  0.2497571658740598  0.7500400502592001  0.0954136853605948   T   T   T
  0.7500346561543675  0.7500036036372295  0.0954344453383439   T   T   T
 -0.0001905233064873  0.0001079791321732  0.1852314393274526   T   T   T
  0.5004015389283193  0.0004142995860181  0.1851255673031451   T   T   T
 -0.0000473154457623  0.4998206848219361  0.1853247578873026   T   T   T
  0.5007303548728431  0.4998573834567941  0.1851992975214476   T   T   T
  0.2495984610716807  0.0004142995860181  0.1851255673031451   T   T   T
  0.7501905233064872  0.0001079791321732  0.1852314393274526   T   T   T
  0.2492696451271569  0.4998573834567941  0.1851992975214476   T   T   T
  0.7500473154457622  0.4998206848219361  0.1853247578873026   T   T   T
  0.1243125248730091  0.2499749449840743  0.1870721045173062   T   T   T
  0.6256874751269911  0.2499749449840743  0.1870721045173062   T   T   T
  0.1244711050817175  0.7500141277736112  0.1860077902437840   T   T   T
  0.6255288949182825  0.7500141277736112  0.1860077902437840   T   T   T
  0.3750000000000000  0.2491512671808301  0.1866729792747663   T   T   T
  0.8750000000000000  0.2499930289277300  0.1863760574224901   T   T   T
  0.3750000000000000  0.7515732122826398  0.1861762377593310   T   T   T
  0.8750000000000000  0.7499145224017828  0.1863910422849942   T   T   T
  0.1238965982061845  0.0182249569505906  0.2751910493686506   T   T   T
  0.6261033513598190  0.0182249569505906  0.2751910493686506   T   T   T
  0.1240587484483683  0.4809995478085827  0.2755687302814274   T   T   T
  0.6259412011176351  0.4809995478085827  0.2755687302814274   T   T   T
  0.3749999747830017  0.0039066342946231  0.2776041339021144   T   T   T
  0.8749999747830017  0.0041863482930059  0.2775346435983960   T   T   T
  0.3749999243470015  0.4986918821426546  0.2715141920814687   T   T   T
  0.8749999747830017  0.4956957206810761  0.2775165179345732   T   T   T
  0.0092346852726619  0.2497442484443003  0.2754655175609606   T   T   T
  0.5120204679847298  0.2476413416452828  0.2746608006316436   T   T   T
  0.0019902251311896  0.7499450326686391  0.2775064591017936   T   T   T
  0.5038834629760833  0.7530901924052544  0.2765966987403157   T   T   T
  0.2379795320152703  0.2476413416452828  0.2746608006316436   T   T   T
  0.7407653147273382  0.2497442484443003  0.2754655175609606   T   T   T
  0.2461165370239165  0.7530901924052544  0.2765966987403157   T   T   T
  0.7480097748688105  0.7499450326686391  0.2775064591017936   T   T   T
  0.3749999243470015  0.4901862398430660  0.3573625070593482   T   T   T
 
  0.00000000E+00  0.00000000E+00  0.00000000E+00
  0.00000000E+00  0.00000000E+00  0.00000000E+00
  0.00000000E+00  0.00000000E+00  0.00000000E+00
  0.00000000E+00  0.00000000E+00  0.00000000E+00
  0.00000000E+00  0.00000000E+00  0.00000000E+00
  0.00000000E+00  0.00000000E+00  0.00000000E+00
  0.00000000E+00  0.00000000E+00  0.00000000E+00
  0.00000000E+00  0.00000000E+00  0.00000000E+00
  0.00000000E+00  0.00000000E+00  0.00000000E+00
  0.00000000E+00  0.00000000E+00  0.00000000E+00
  0.00000000E+00  0.00000000E+00  0.00000000E+00
  0.00000000E+00  0.00000000E+00  0.00000000E+00
  0.00000000E+00  0.00000000E+00  0.00000000E+00
  0.00000000E+00  0.00000000E+00  0.00000000E+00
  0.00000000E+00  0.00000000E+00  0.00000000E+00
  0.00000000E+00  0.00000000E+00  0.00000000E+00
  0.00000000E+00  0.00000000E+00  0.00000000E+00
  0.00000000E+00  0.00000000E+00  0.00000000E+00
  0.00000000E+00  0.00000000E+00  0.00000000E+00
  0.00000000E+00  0.00000000E+00  0.00000000E+00
  0.00000000E+00  0.00000000E+00  0.00000000E+00
  0.00000000E+00  0.00000000E+00  0.00000000E+00
  0.00000000E+00  0.00000000E+00  0.00000000E+00
  0.00000000E+00  0.00000000E+00  0.00000000E+00
  0.00000000E+00  0.00000000E+00  0.00000000E+00
  0.00000000E+00  0.00000000E+00  0.00000000E+00
  0.00000000E+00  0.00000000E+00  0.00000000E+00
  0.00000000E+00  0.00000000E+00  0.00000000E+00
  0.00000000E+00  0.00000000E+00  0.00000000E+00
  0.00000000E+00  0.00000000E+00  0.00000000E+00
  0.00000000E+00  0.00000000E+00  0.00000000E+00
  0.00000000E+00  0.00000000E+00  0.00000000E+00
  0.00000000E+00  0.00000000E+00  0.00000000E+00
  0.00000000E+00  0.00000000E+00  0.00000000E+00
  0.00000000E+00  0.00000000E+00  0.00000000E+00
  0.00000000E+00  0.00000000E+00  0.00000000E+00
  0.00000000E+00  0.00000000E+00  0.00000000E+00
  0.00000000E+00  0.00000000E+00  0.00000000E+00
  0.00000000E+00  0.00000000E+00  0.00000000E+00
  0.00000000E+00  0.00000000E+00  0.00000000E+00
  0.00000000E+00  0.00000000E+00  0.00000000E+00
  0.00000000E+00  0.00000000E+00  0.00000000E+00
  0.00000000E+00  0.00000000E+00  0.00000000E+00
  0.00000000E+00  0.00000000E+00  0.00000000E+00
  0.00000000E+00  0.00000000E+00  0.00000000E+00
  0.00000000E+00  0.00000000E+00  0.00000000E+00
  0.00000000E+00  0.00000000E+00  0.00000000E+00
  0.00000000E+00  0.00000000E+00  0.00000000E+00
  0.00000000E+00  0.00000000E+00  0.00000000E+00
  0.00000000E+00  0.00000000E+00  0.00000000E+00
  0.00000000E+00  0.00000000E+00  0.00000000E+00
  0.00000000E+00  0.00000000E+00  0.00000000E+00
  0.00000000E+00  0.00000000E+00  0.00000000E+00
  0.00000000E+00  0.00000000E+00  0.00000000E+00
  0.00000000E+00  0.00000000E+00  0.00000000E+00
  0.00000000E+00  0.00000000E+00  0.00000000E+00
  0.00000000E+00  0.00000000E+00  0.00000000E+00
  0.00000000E+00  0.00000000E+00  0.00000000E+00
  0.00000000E+00  0.00000000E+00  0.00000000E+00
  0.00000000E+00  0.00000000E+00  0.00000000E+00
  0.00000000E+00  0.00000000E+00  0.00000000E+00
  0.00000000E+00  0.00000000E+00  0.00000000E+00
  0.00000000E+00  0.00000000E+00  0.00000000E+00
  0.00000000E+00  0.00000000E+00  0.00000000E+00
  0.00000000E+00  0.00000000E+00  0.00000000E+00
  0.00000000E+00  0.00000000E+00  0.00000000E+00
  0.00000000E+00  0.00000000E+00  0.00000000E+00
  0.00000000E+00  0.00000000E+00  0.00000000E+00
  0.00000000E+00  0.00000000E+00  0.00000000E+00
  0.00000000E+00  0.00000000E+00  0.00000000E+00
  0.00000000E+00  0.00000000E+00  0.00000000E+00
  0.00000000E+00  0.00000000E+00  0.00000000E+00
  0.00000000E+00  0.00000000E+00  0.00000000E+00
  0.00000000E+00  0.00000000E+00  0.00000000E+00
  0.00000000E+00  0.00000000E+00  0.00000000E+00
  0.00000000E+00  0.00000000E+00  0.00000000E+00
  0.00000000E+00  0.00000000E+00  0.00000000E+00
  0.00000000E+00  0.00000000E+00  0.00000000E+00
  0.00000000E+00  0.00000000E+00  0.00000000E+00
  0.00000000E+00  0.00000000E+00  0.00000000E+00
  0.00000000E+00  0.00000000E+00  0.00000000E+00
  0.00000000E+00  0.00000000E+00  0.00000000E+00
  0.00000000E+00  0.00000000E+00  0.00000000E+00
  0.00000000E+00  0.00000000E+00  0.00000000E+00
  0.00000000E+00  0.00000000E+00  0.00000000E+00
  0.00000000E+00  0.00000000E+00  0.00000000E+00
  0.00000000E+00  0.00000000E+00  0.00000000E+00
  0.00000000E+00  0.00000000E+00  0.00000000E+00
  0.00000000E+00  0.00000000E+00  0.00000000E+00
  0.00000000E+00  0.00000000E+00  0.00000000E+00
  0.00000000E+00  0.00000000E+00  0.00000000E+00
  0.00000000E+00  0.00000000E+00  0.00000000E+00
  0.00000000E+00  0.00000000E+00  0.00000000E+00
  0.00000000E+00  0.00000000E+00  0.00000000E+00
  0.00000000E+00  0.00000000E+00  0.00000000E+00
  0.00000000E+00  0.00000000E+00  0.00000000E+00
  0.00000000E+00  0.00000000E+00  0.00000000E+00
  0.00000000E+00  0.00000000E+00  0.00000000E+00
  0.00000000E+00  0.00000000E+00  0.00000000E+00
  0.00000000E+00  0.00000000E+00  0.00000000E+00
  0.00000000E+00  0.00000000E+00  0.00000000E+00
  0.00000000E+00  0.00000000E+00  0.00000000E+00
  0.00000000E+00  0.00000000E+00  0.00000000E+00
  0.00000000E+00  0.00000000E+00  0.00000000E+00
  0.00000000E+00  0.00000000E+00  0.00000000E+00
  0.00000000E+00  0.00000000E+00  0.00000000E+00
  0.00000000E+00  0.00000000E+00  0.00000000E+00
  0.00000000E+00  0.00000000E+00  0.00000000E+00
  0.00000000E+00  0.00000000E+00  0.00000000E+00
  0.00000000E+00  0.00000000E+00  0.00000000E+00
  0.00000000E+00  0.00000000E+00  0.00000000E+00
  0.00000000E+00  0.00000000E+00  0.00000000E+00
  0.00000000E+00  0.00000000E+00  0.00000000E+00
  0.00000000E+00  0.00000000E+00  0.00000000E+00
  0.00000000E+00  0.00000000E+00  0.00000000E+00
  0.00000000E+00  0.00000000E+00  0.00000000E+00
  0.00000000E+00  0.00000000E+00  0.00000000E+00
  0.00000000E+00  0.00000000E+00  0.00000000E+00
  0.00000000E+00  0.00000000E+00  0.00000000E+00
  0.00000000E+00  0.00000000E+00  0.00000000E+00
  0.00000000E+00  0.00000000E+00  0.00000000E+00
  0.00000000E+00  0.00000000E+00  0.00000000E+00
  0.00000000E+00  0.00000000E+00  0.00000000E+00
  0.00000000E+00  0.00000000E+00  0.00000000E+00
  0.00000000E+00  0.00000000E+00  0.00000000E+00
  0.00000000E+00  0.00000000E+00  0.00000000E+00
  0.00000000E+00  0.00000000E+00  0.00000000E+00
  0.00000000E+00  0.00000000E+00  0.00000000E+00
  0.00000000E+00  0.00000000E+00  0.00000000E+00
