Al Mg O V                               
   1.00000000000000     
    16.8282433949600012    0.0000000000000000    0.0000000000000000
     0.0000000000000000    8.4141216974800006    0.0000000000000000
     0.0000000000000000    0.0000000000000000   23.4141216974799988
   Al   Mg   O    V 
     2    62    64     1
Selective dynamics
Direct
  0.1246517677355916  0.2493510852945171  0.2675823912327348   T   T   T
  0.6253482322644084  0.2493510852945171  0.2675823912327348   T   T   T
  0.1250874062148338  0.9997938406436424  0.0044575996870674   T   T   T
  0.6249125937851662  0.9997938406436424  0.0044575996870674   T   T   T
  0.1250785665869703  0.5001863139422532  0.0044720452163156   T   T   T
  0.6249214334130296  0.5001863139422532  0.0044720452163156   T   T   T
  0.3750000000000000  0.9998277826975012  0.0048200314714889   T   T   T
  0.8750000000000000  0.9997928811756828  0.0046429712591024   T   T   T
  0.3750000000000000  0.5001953308234688  0.0048789188154086   T   T   T
  0.8750000000000000  0.5002108945203760  0.0046319279543939   T   T   T
 -0.0000474653459467  0.2499794573629341  0.0044059072473563   T   T   T
  0.4998286410466646  0.2500254828806305  0.0045766140561822   T   T   T
 -0.0000490283651945  0.7500181470557374  0.0046751550499860   T   T   T
  0.4998430006877696  0.7499986882686097  0.0048359866248522   T   T   T
  0.2501713589533354  0.2500254828806305  0.0045766140561822   T   T   T
  0.7500474653459467  0.2499794573629341  0.0044059072473563   T   T   T
  0.2501569993122304  0.7499986882686097  0.0048359866248522   T   T   T
  0.7500490283651946  0.7500181470557374  0.0046751550499860   T   T   T
  0.9997667854678723  0.9994948742623802  0.0943083299213521   T   T   T
  0.4997089884163339  0.9995862153926908  0.0944354321665788   T   T   T
  0.9997937132664577  0.5004908004021613  0.0942948574663257   T   T   T
  0.4997054184873844  0.5004914768817131  0.0946207744562624   T   T   T
  0.2502910115836661  0.9995862153926908  0.0944354321665788   T   T   T
  0.7502332145321277  0.9994948742623802  0.0943083299213521   T   T   T
  0.2502945815126156  0.5004914768817131  0.0946207744562624   T   T   T
  0.7502062867335423  0.5004908004021613  0.0942948574663257   T   T   T
  0.1250229064271036  0.2500111859545368  0.0933787583464590   T   T   T
  0.6249770935728962  0.2500111859545368  0.0933787583464590   T   T   T
  0.1249947823721549  0.7499129642845438  0.0941557440726207   T   T   T
  0.6250052176278452  0.7499129642845438  0.0941557440726207   T   T   T
  0.3750000000000000  0.2501286036020651  0.0944331337735306   T   T   T
  0.8750000000000000  0.2499749182282301  0.0940174530440310   T   T   T
  0.3750000000000000  0.7499697145634310  0.0949402354702434   T   T   T
  0.8750000000000000  0.7500293580494439  0.0945389469329457   T   T   T
  0.1250052267012590  0.9972684674910119  0.1837854504099847   T   T   T
  0.6249947732987411  0.9972684674910119  0.1837854504099847   T   T   T
  0.1254442175138074  0.5025813230254862  0.1840431128875581   T   T   T
  0.6245557824861925  0.5025813230254862  0.1840431128875581   T   T   T
  0.3750000000000000  0.9995759838888555  0.1857132509178199   T   T   T
  0.8750000000000000  0.9992996352632121  0.1853058445218769   T   T   T
  0.3750000000000000  0.5008298922432455  0.1860792918648219   T   T   T
  0.8750000000000000  0.5006607272926513  0.1852985516767641   T   T   T
  0.9985264938829409  0.2499155649531246  0.1837967048494693   T   T   T
  0.4982382198508199  0.2511490197184195  0.1844479914447171   T   T   T
  0.9995580833403598  0.7499625188521866  0.1851817617636592   T   T   T
  0.4992617780648883  0.7490819514368540  0.1857891578406717   T   T   T
  0.2517617801491801  0.2511490197184195  0.1844479914447171   T   T   T
  0.7514735061170591  0.2499155649531246  0.1837967048494693   T   T   T
  0.2507382219351117  0.7490819514368540  0.1857891578406717   T   T   T
  0.7504419166596402  0.7499625188521866  0.1851817617636592   T   T   T
 -0.0000805436545385  0.0001402525009628  0.2754161594157032   T   T   T
  0.5005978699334245  0.0004271086406784  0.2747837943926529   T   T   T
  0.0000051292910595  0.4996040225592604  0.2753716219035490   T   T   T
  0.5022871963230346  0.4999354296467136  0.2791817981087022   T   T   T
  0.2494021300665756  0.0004271086406784  0.2747837943926529   T   T   T
  0.7500805436545384  0.0001402525009628  0.2754161594157032   T   T   T
  0.2477128036769654  0.4999354296467136  0.2791817981087022   T   T   T
  0.7499948707089407  0.4996040225592604  0.2753716219035490   T   T   T
  0.1247845300949383  0.7509121249788472  0.2750121685327603   T   T   T
  0.6252154699050619  0.7509121249788472  0.2750121685327603   T   T   T
  0.3750000000000000  0.2467590114260331  0.2800230029429756   T   T   T
  0.8750000000000000  0.2499893632881164  0.2757193714232375   T   T   T
  0.3750000000000000  0.7540625897227591  0.2795241478877896   T   T   T
  0.8750000000000000  0.7498745053106298  0.2766718956703067   T   T   T
 -0.0000572202431961  0.0000549449518751  0.0034888311913112   T   T   T
  0.5001095350718099  0.0000530817951407  0.0034935603055879   T   T   T
 -0.0000605084679655  0.4999443688606672  0.0034676133858098   T   T   T
  0.5000648853701958  0.4999771976024495  0.0034878588971186   T   T   T
  0.2498904649281902  0.0000530817951407  0.0034935603055879   T   T   T
  0.7500572202431962  0.0000549449518751  0.0034888311913112   T   T   T
  0.2499351146298041  0.4999771976024495  0.0034878588971186   T   T   T
  0.7500605084679657  0.4999443688606672  0.0034676133858098   T   T   T
  0.1249141856562282  0.2499737212780462  0.0032782056480655   T   T   T
  0.6250858143437718  0.2499737212780462  0.0032782056480655   T   T   T
  0.1249137912737248  0.7500074198649779  0.0035480861047372   T   T   T
  0.6250862087262751  0.7500074198649779  0.0035480861047372   T   T   T
  0.3750000000000000  0.2500907006158405  0.0035457313396606   T   T   T
  0.8750000000000000  0.2499890135082657  0.0035257091282455   T   T   T
  0.3750000000000000  0.7499422623691246  0.0036498340800036   T   T   T
  0.8750000000000000  0.7500147963011049  0.0035965306664425   T   T   T
  0.1247638705025061  0.0007062950916038  0.0952417061984777   T   T   T
  0.6252361294974937  0.0007062950916038  0.0952417061984777   T   T   T
  0.1248052845904092  0.4992147090157252  0.0953486626006717   T   T   T
  0.6251947154095909  0.4992147090157252  0.0953486626006717   T   T   T
  0.3750000000000000  0.0004511118848786  0.0953646267074548   T   T   T
  0.8750000000000000  0.0002571190818842  0.0954995038988954   T   T   T
  0.3750000000000000  0.4996529909784512  0.0954645740563362   T   T   T
  0.8750000000000000  0.4997405187089246  0.0954421545907553   T   T   T
  0.0001299467111398  0.2499289197135184  0.0952989256733561   T   T   T
  0.5004687847647564  0.2501872603172945  0.0953994586916642   T   T   T
 -0.0000974818922007  0.7500466370666123  0.0953845336422728   T   T   T
  0.5002831820963348  0.7499015468419256  0.0953696810307104   T   T   T
  0.2495312152352435  0.2501872603172945  0.0953994586916642   T   T   T
  0.7498700532888601  0.2499289197135184  0.0952989256733561   T   T   T
  0.2497168179036650  0.7499015468419256  0.0953696810307104   T   T   T
  0.7500974818922007  0.7500466370666123  0.0953845336422728   T   T   T
 -0.0002310348917295 -0.0000009798383235  0.1852648951286887   T   T   T
  0.5004876604675330  0.0005392867524275  0.1845983947817854   T   T   T
 -0.0001990312585595  0.4998569102367016  0.1852563964023345   T   T   T
  0.5003898958039817  0.4997301942919183  0.1854838647178685   T   T   T
  0.2495123395324670  0.0005392867524275  0.1845983947817854   T   T   T
  0.7502310348917294 -0.0000009798383235  0.1852648951286887   T   T   T
  0.2496101041960183  0.4997301942919183  0.1854838647178685   T   T   T
  0.7501990312585594  0.4998569102367016  0.1852563964023345   T   T   T
  0.1238828948371990  0.2496969130723155  0.1867589355818303   T   T   T
  0.6261171051628009  0.2496969130723155  0.1867589355818303   T   T   T
  0.1241509572079045  0.7499621917814814  0.1857401462665839   T   T   T
  0.6258490427920956  0.7499621917814814  0.1857401462665839   T   T   T
  0.3750000000000000  0.2503996020325299  0.1868515215464757   T   T   T
  0.8750000000000000  0.2498839492441821  0.1863431078792308   T   T   T
  0.3750000000000000  0.7501328415738122  0.1862160249482249   T   T   T
  0.8750000000000000  0.7500532996653333  0.1864410893289195   T   T   T
  0.1236426483643185  0.0181595847143400  0.2752511002991800   T   T   T
  0.6263573012016850  0.0181595847143400  0.2752511002991800   T   T   T
  0.1235102537499608  0.4808914985908687  0.2750433350686612   T   T   T
  0.6264896958160426  0.4808914985908687  0.2750433350686612   T   T   T
  0.3749999747830017  0.0035734336217692  0.2764575120294117   T   T   T
  0.8749999747830017  0.0039817499081635  0.2774895264589583   T   T   T
  0.3749999243470015  0.4979076373509599  0.2759373421810993   T   T   T
  0.8749999747830017  0.4957747725586057  0.2774630437210925   T   T   T
  0.0090512735996951  0.2498565629015017  0.2753922348942605   T   T   T
  0.5124430286883425  0.2474378024430250  0.2737823931057097   T   T   T
  0.0017564662126795  0.7498324130183803  0.2775017519654189   T   T   T
  0.5043056151638622  0.7534485369619408  0.2755913570266860   T   T   T
  0.2375569713116578  0.2474378024430250  0.2737823931057097   T   T   T
  0.7409487264003051  0.2498565629015017  0.2753922348942605   T   T   T
  0.2456943848361380  0.7534485369619408  0.2755913570266860   T   T   T
  0.7482435337873204  0.7498324130183803  0.2775017519654189   T   T   T
  0.3749999243470015  0.4933856638358455  0.3672291509073850   T   T   T
 
  0.00000000E+00  0.00000000E+00  0.00000000E+00
  0.00000000E+00  0.00000000E+00  0.00000000E+00
  0.00000000E+00  0.00000000E+00  0.00000000E+00
  0.00000000E+00  0.00000000E+00  0.00000000E+00
  0.00000000E+00  0.00000000E+00  0.00000000E+00
  0.00000000E+00  0.00000000E+00  0.00000000E+00
  0.00000000E+00  0.00000000E+00  0.00000000E+00
  0.00000000E+00  0.00000000E+00  0.00000000E+00
  0.00000000E+00  0.00000000E+00  0.00000000E+00
  0.00000000E+00  0.00000000E+00  0.00000000E+00
  0.00000000E+00  0.00000000E+00  0.00000000E+00
  0.00000000E+00  0.00000000E+00  0.00000000E+00
  0.00000000E+00  0.00000000E+00  0.00000000E+00
  0.00000000E+00  0.00000000E+00  0.00000000E+00
  0.00000000E+00  0.00000000E+00  0.00000000E+00
  0.00000000E+00  0.00000000E+00  0.00000000E+00
  0.00000000E+00  0.00000000E+00  0.00000000E+00
  0.00000000E+00  0.00000000E+00  0.00000000E+00
  0.00000000E+00  0.00000000E+00  0.00000000E+00
  0.00000000E+00  0.00000000E+00  0.00000000E+00
  0.00000000E+00  0.00000000E+00  0.00000000E+00
  0.00000000E+00  0.00000000E+00  0.00000000E+00
  0.00000000E+00  0.00000000E+00  0.00000000E+00
  0.00000000E+00  0.00000000E+00  0.00000000E+00
  0.00000000E+00  0.00000000E+00  0.00000000E+00
  0.00000000E+00  0.00000000E+00  0.00000000E+00
  0.00000000E+00  0.00000000E+00  0.00000000E+00
  0.00000000E+00  0.00000000E+00  0.00000000E+00
  0.00000000E+00  0.00000000E+00  0.00000000E+00
  0.00000000E+00  0.00000000E+00  0.00000000E+00
  0.00000000E+00  0.00000000E+00  0.00000000E+00
  0.00000000E+00  0.00000000E+00  0.00000000E+00
  0.00000000E+00  0.00000000E+00  0.00000000E+00
  0.00000000E+00  0.00000000E+00  0.00000000E+00
  0.00000000E+00  0.00000000E+00  0.00000000E+00
  0.00000000E+00  0.00000000E+00  0.00000000E+00
  0.00000000E+00  0.00000000E+00  0.00000000E+00
  0.00000000E+00  0.00000000E+00  0.00000000E+00
  0.00000000E+00  0.00000000E+00  0.00000000E+00
  0.00000000E+00  0.00000000E+00  0.00000000E+00
  0.00000000E+00  0.00000000E+00  0.00000000E+00
  0.00000000E+00  0.00000000E+00  0.00000000E+00
  0.00000000E+00  0.00000000E+00  0.00000000E+00
  0.00000000E+00  0.00000000E+00  0.00000000E+00
  0.00000000E+00  0.00000000E+00  0.00000000E+00
  0.00000000E+00  0.00000000E+00  0.00000000E+00
  0.00000000E+00  0.00000000E+00  0.00000000E+00
  0.00000000E+00  0.00000000E+00  0.00000000E+00
  0.00000000E+00  0.00000000E+00  0.00000000E+00
  0.00000000E+00  0.00000000E+00  0.00000000E+00
  0.00000000E+00  0.00000000E+00  0.00000000E+00
  0.00000000E+00  0.00000000E+00  0.00000000E+00
  0.00000000E+00  0.00000000E+00  0.00000000E+00
  0.00000000E+00  0.00000000E+00  0.00000000E+00
  0.00000000E+00  0.00000000E+00  0.00000000E+00
  0.00000000E+00  0.00000000E+00  0.00000000E+00
  0.00000000E+00  0.00000000E+00  0.00000000E+00
  0.00000000E+00  0.00000000E+00  0.00000000E+00
  0.00000000E+00  0.00000000E+00  0.00000000E+00
  0.00000000E+00  0.00000000E+00  0.00000000E+00
  0.00000000E+00  0.00000000E+00  0.00000000E+00
  0.00000000E+00  0.00000000E+00  0.00000000E+00
  0.00000000E+00  0.00000000E+00  0.00000000E+00
  0.00000000E+00  0.00000000E+00  0.00000000E+00
  0.00000000E+00  0.00000000E+00  0.00000000E+00
  0.00000000E+00  0.00000000E+00  0.00000000E+00
  0.00000000E+00  0.00000000E+00  0.00000000E+00
  0.00000000E+00  0.00000000E+00  0.00000000E+00
  0.00000000E+00  0.00000000E+00  0.00000000E+00
  0.00000000E+00  0.00000000E+00  0.00000000E+00
  0.00000000E+00  0.00000000E+00  0.00000000E+00
  0.00000000E+00  0.00000000E+00  0.00000000E+00
  0.00000000E+00  0.00000000E+00  0.00000000E+00
  0.00000000E+00  0.00000000E+00  0.00000000E+00
  0.00000000E+00  0.00000000E+00  0.00000000E+00
  0.00000000E+00  0.00000000E+00  0.00000000E+00
  0.00000000E+00  0.00000000E+00  0.00000000E+00
  0.00000000E+00  0.00000000E+00  0.00000000E+00
  0.00000000E+00  0.00000000E+00  0.00000000E+00
  0.00000000E+00  0.00000000E+00  0.00000000E+00
  0.00000000E+00  0.00000000E+00  0.00000000E+00
  0.00000000E+00  0.00000000E+00  0.00000000E+00
  0.00000000E+00  0.00000000E+00  0.00000000E+00
  0.00000000E+00  0.00000000E+00  0.00000000E+00
  0.00000000E+00  0.00000000E+00  0.00000000E+00
  0.00000000E+00  0.00000000E+00  0.00000000E+00
  0.00000000E+00  0.00000000E+00  0.00000000E+00
  0.00000000E+00  0.00000000E+00  0.00000000E+00
  0.00000000E+00  0.00000000E+00  0.00000000E+00
  0.00000000E+00  0.00000000E+00  0.00000000E+00
  0.00000000E+00  0.00000000E+00  0.00000000E+00
  0.00000000E+00  0.00000000E+00  0.00000000E+00
  0.00000000E+00  0.00000000E+00  0.00000000E+00
  0.00000000E+00  0.00000000E+00  0.00000000E+00
  0.00000000E+00  0.00000000E+00  0.00000000E+00
  0.00000000E+00  0.00000000E+00  0.00000000E+00
  0.00000000E+00  0.00000000E+00  0.00000000E+00
  0.00000000E+00  0.00000000E+00  0.00000000E+00
  0.00000000E+00  0.00000000E+00  0.00000000E+00
  0.00000000E+00  0.00000000E+00  0.00000000E+00
  0.00000000E+00  0.00000000E+00  0.00000000E+00
  0.00000000E+00  0.00000000E+00  0.00000000E+00
  0.00000000E+00  0.00000000E+00  0.00000000E+00
  0.00000000E+00  0.00000000E+00  0.00000000E+00
  0.00000000E+00  0.00000000E+00  0.00000000E+00
  0.00000000E+00  0.00000000E+00  0.00000000E+00
  0.00000000E+00  0.00000000E+00  0.00000000E+00
  0.00000000E+00  0.00000000E+00  0.00000000E+00
  0.00000000E+00  0.00000000E+00  0.00000000E+00
  0.00000000E+00  0.00000000E+00  0.00000000E+00
  0.00000000E+00  0.00000000E+00  0.00000000E+00
  0.00000000E+00  0.00000000E+00  0.00000000E+00
  0.00000000E+00  0.00000000E+00  0.00000000E+00
  0.00000000E+00  0.00000000E+00  0.00000000E+00
  0.00000000E+00  0.00000000E+00  0.00000000E+00
  0.00000000E+00  0.00000000E+00  0.00000000E+00
  0.00000000E+00  0.00000000E+00  0.00000000E+00
  0.00000000E+00  0.00000000E+00  0.00000000E+00
  0.00000000E+00  0.00000000E+00  0.00000000E+00
  0.00000000E+00  0.00000000E+00  0.00000000E+00
  0.00000000E+00  0.00000000E+00  0.00000000E+00
  0.00000000E+00  0.00000000E+00  0.00000000E+00
  0.00000000E+00  0.00000000E+00  0.00000000E+00
  0.00000000E+00  0.00000000E+00  0.00000000E+00
  0.00000000E+00  0.00000000E+00  0.00000000E+00
  0.00000000E+00  0.00000000E+00  0.00000000E+00
  0.00000000E+00  0.00000000E+00  0.00000000E+00
  0.00000000E+00  0.00000000E+00  0.00000000E+00
  0.00000000E+00  0.00000000E+00  0.00000000E+00
