Al Mg O Rh                              
   1.00000000000000     
    16.8282433949600012    0.0000000000000000    0.0000000000000000
     0.0000000000000000    8.4141216974800006    0.0000000000000000
     0.0000000000000000    0.0000000000000000   23.4141216974799988
   Al   Mg   O    Rh
     2    62    64     1
Selective dynamics
Direct
  0.1252555431732768  0.2496187746320616  0.2677302444789928   T   T   T
  0.6247444568267232  0.2496187746320616  0.2677302444789928   T   T   T
  0.1251489562108797  0.9997888713040434  0.0046433573980661   T   T   T
  0.6248510437891203  0.9997888713040434  0.0046433573980661   T   T   T
  0.1251521612867265  0.5002045332829507  0.0046474551663532   T   T   T
  0.6248478387132737  0.5002045332829507  0.0046474551663532   T   T   T
  0.3750000000000000  0.9998174866158617  0.0049857867185601   T   T   T
  0.8750000000000000  0.9997883146319998  0.0047647971646206   T   T   T
  0.3750000000000000  0.5001851551440695  0.0049612886021311   T   T   T
  0.8750000000000000  0.5002123814364418  0.0047571870086512   T   T   T
  0.9999946203221874  0.2500159548349295  0.0045631145126136   T   T   T
  0.4997584470307700  0.2500508142807896  0.0047484594404447   T   T   T
  0.9999937406060017  0.7499832895678681  0.0048003874627512   T   T   T
  0.4997729583961961  0.7499525509269311  0.0049859499063140   T   T   T
  0.2502415529692300  0.2500508142807896  0.0047484594404447   T   T   T
  0.7500053796778126  0.2500159548349295  0.0045631145126136   T   T   T
  0.2502270416038039  0.7499525509269311  0.0049859499063140   T   T   T
  0.7500062593939983  0.7499832895678681  0.0048003874627512   T   T   T
  0.9999007726149625  0.9995508567078641  0.0943604658095106   T   T   T
  0.4996129872428631  0.9995388124030085  0.0946847059312416   T   T   T
  0.9999528436905889  0.5004464943868405  0.0943823075906259   T   T   T
  0.4998012053141881  0.5004998042199363  0.0947563765809295   T   T   T
  0.2503870127571369  0.9995388124030085  0.0946847059312416   T   T   T
  0.7500992273850375  0.9995508567078641  0.0943604658095106   T   T   T
  0.2501987946858119  0.5004998042199363  0.0947563765809295   T   T   T
  0.7500471563094111  0.5004464943868405  0.0943823075906259   T   T   T
  0.1252102662039785  0.2500214937304534  0.0935237743247280   T   T   T
  0.6247897337960215  0.2500214937304534  0.0935237743247280   T   T   T
  0.1252088643109963  0.7499540093350292  0.0942816586417999   T   T   T
  0.6247911356890037  0.7499540093350292  0.0942816586417999   T   T   T
  0.3750000000000000  0.2496102306139045  0.0946134330994137   T   T   T
  0.8750000000000000  0.2499741673629506  0.0940716784018679   T   T   T
  0.3750000000000000  0.7504509126414765  0.0951242269977193   T   T   T
  0.8750000000000000  0.7500297469124771  0.0945354823293221   T   T   T
  0.1254776561082757  0.9973011149957118  0.1839696673879636   T   T   T
  0.6245223438917243  0.9973011149957118  0.1839696673879636   T   T   T
  0.1261750895759568  0.5025673846779176  0.1842927292990871   T   T   T
  0.6238249104240431  0.5025673846779176  0.1842927292990871   T   T   T
  0.3750000000000000  0.9994181462064247  0.1861583082328654   T   T   T
  0.8750000000000000  0.9993530863860639  0.1853349356521004   T   T   T
  0.3750000000000000  0.5008898022868326  0.1847753266313310   T   T   T
  0.8750000000000000  0.5006431016102273  0.1853036959584284   T   T   T
  0.9988440578833516  0.2500550652354536  0.1839072091255257   T   T   T
  0.4975970387132618  0.2516873911321394  0.1848145518453051   T   T   T
  0.9998287903787826  0.7499165914819010  0.1852770849150374   T   T   T
  0.4986123160079452  0.7484798182809898  0.1862542517725517   T   T   T
  0.2524029612867382  0.2516873911321394  0.1848145518453051   T   T   T
  0.7511559421166484  0.2500550652354536  0.1839072091255257   T   T   T
  0.2513876839920548  0.7484798182809898  0.1862542517725517   T   T   T
  0.7501712096212174  0.7499165914819010  0.1852770849150374   T   T   T
  0.0003243260722387  0.0002373231470850  0.2753339801629553   T   T   T
  0.5000259072597132  0.0003556355729813  0.2747612163393628   T   T   T
  0.0003429944430804  0.4995766238567069  0.2752905859746105   T   T   T
  0.5002253621250793  0.4996104849157649  0.2815641585499481   T   T   T
  0.2499740927402869  0.0003556355729813  0.2747612163393628   T   T   T
  0.7496756739277612  0.0002373231470850  0.2753339801629553   T   T   T
  0.2497746378749207  0.4996104849157649  0.2815641585499481   T   T   T
  0.7496570055569195  0.4995766238567069  0.2752905859746105   T   T   T
  0.1251642915087440  0.7500653753098212  0.2749629087878466   T   T   T
  0.6248357084912558  0.7500653753098212  0.2749629087878466   T   T   T
  0.3750000000000000  0.2498313585305199  0.2820905258122664   T   T   T
  0.8750000000000000  0.2498969122300096  0.2755611408650237   T   T   T
  0.3750000000000000  0.7504688281143138  0.2818191672920489   T   T   T
  0.8750000000000000  0.7500368294670181  0.2765041727482753   T   T   T
 -0.0000745467026152  0.0000572507625762  0.0033853617408621   T   T   T
  0.5001380222687338  0.0000432335156733  0.0033226081212267   T   T   T
 -0.0000859621427038  0.4999414974026204  0.0033825385736184   T   T   T
  0.5001431258373586  0.4999628430183422  0.0033271754526845   T   T   T
  0.2498619777312662  0.0000432335156733  0.0033226081212267   T   T   T
  0.7500745467026152  0.0000572507625762  0.0033853617408621   T   T   T
  0.2498568741626414  0.4999628430183422  0.0033271754526845   T   T   T
  0.7500859621427038  0.4999414974026204  0.0033825385736184   T   T   T
  0.1248489154465323  0.2499711516158298  0.0031359674475541   T   T   T
  0.6251510845534676  0.2499711516158298  0.0031359674475541   T   T   T
  0.1248482531263450  0.7500221539589541  0.0034231130525042   T   T   T
  0.6251517468736549  0.7500221539589541  0.0034231130525042   T   T   T
  0.3750000000000000  0.2499755085357015  0.0033925118429832   T   T   T
  0.8750000000000000  0.2499931028103447  0.0034652972708073   T   T   T
  0.3750000000000000  0.7500309259262801  0.0034510822660057   T   T   T
  0.8750000000000000  0.7500072804694022  0.0035196171156168   T   T   T
  0.1247218170115633  0.0006667368367248  0.0953135004899808   T   T   T
  0.6252781829884367  0.0006667368367248  0.0953135004899808   T   T   T
  0.1246325627451273  0.4993070071747448  0.0952768249314356   T   T   T
  0.6253674372548728  0.4993070071747448  0.0952768249314356   T   T   T
  0.3750000000000000  0.0003525724819214  0.0951475065400680   T   T   T
  0.8750000000000000  0.0002572462618926  0.0955053639904545   T   T   T
  0.3750000000000000  0.4996792003432902  0.0950923885320234   T   T   T
  0.8750000000000000  0.4997450841287293  0.0954895629907423   T   T   T
  0.0001051469708182  0.2499744987825097  0.0953716648783095   T   T   T
  0.5005136236554927  0.2500265494276281  0.0952653670431145   T   T   T
 -0.0001141720588928  0.7500190592097192  0.0954147025158673   T   T   T
  0.5003492781748269  0.7500174207482647  0.0952682575836028   T   T   T
  0.2494863763445074  0.2500265494276281  0.0952653670431145   T   T   T
  0.7498948530291820  0.2499744987825097  0.0953716648783095   T   T   T
  0.2496507218251731  0.7500174207482647  0.0952682575836028   T   T   T
  0.7501141720588929  0.7500190592097192  0.0954147025158673   T   T   T
 -0.0001721491426543  0.0000813154895658  0.1853619795647892   T   T   T
  0.5005234719991464  0.0004581793801171  0.1846963409977638   T   T   T
 -0.0001735868729465  0.4998721555362698  0.1853544225402979   T   T   T
  0.5008418352673011  0.4997953515092322  0.1849108070540846   T   T   T
  0.2494765280008537  0.0004581793801171  0.1846963409977638   T   T   T
  0.7501721491426543  0.0000813154895658  0.1853619795647892   T   T   T
  0.2491581647326988  0.4997953515092322  0.1849108070540846   T   T   T
  0.7501735868729466  0.4998721555362698  0.1853544225402979   T   T   T
  0.1238798156269970  0.2497501891491918  0.1869115883344341   T   T   T
  0.6261201843730030  0.2497501891491918  0.1869115883344341   T   T   T
  0.1241052170034797  0.7501067625649149  0.1858612598915240   T   T   T
  0.6258947829965201  0.7501067625649149  0.1858612598915240   T   T   T
  0.3750000000000000  0.2489474135346633  0.1861888697836054   T   T   T
  0.8750000000000000  0.2499913529737725  0.1863999645221935   T   T   T
  0.3750000000000000  0.7512888617420557  0.1857135819173638   T   T   T
  0.8750000000000000  0.7500017610741367  0.1864828338833356   T   T   T
  0.1237300534208905  0.0184975948059705  0.2755443282424593   T   T   T
  0.6262698961451130  0.0184975948059705  0.2755443282424593   T   T   T
  0.1241307600032193  0.4809224462897351  0.2756035673357924   T   T   T
  0.6258691895627841  0.4809224462897351  0.2756035673357924   T   T   T
  0.3749999747830017  0.0040486461096940  0.2775671488506332   T   T   T
  0.8749999747830017  0.0041098894691706  0.2776732820124372   T   T   T
  0.3749999243470015  0.4983506525249051  0.2695517829106563   T   T   T
  0.8749999747830017  0.4958066163731986  0.2776743492054808   T   T   T
  0.0091756917636040  0.2499829824268009  0.2755783166790858   T   T   T
  0.5123753784904549  0.2467868967661031  0.2740763695804534   T   T   T
  0.0020181194211646  0.7498569083807872  0.2777254930712832   T   T   T
  0.5043790712438880  0.7543066389284470  0.2759614709244729   T   T   T
  0.2376246215095450  0.2467868967661031  0.2740763695804534   T   T   T
  0.7408243082363959  0.2499829824268009  0.2755783166790858   T   T   T
  0.2456209287561119  0.7543066389284470  0.2759614709244729   T   T   T
  0.7479818805788353  0.7498569083807872  0.2777254930712832   T   T   T
  0.3749999243470015  0.4928589640984412  0.3570228984473868   T   T   T
 
  0.00000000E+00  0.00000000E+00  0.00000000E+00
  0.00000000E+00  0.00000000E+00  0.00000000E+00
  0.00000000E+00  0.00000000E+00  0.00000000E+00
  0.00000000E+00  0.00000000E+00  0.00000000E+00
  0.00000000E+00  0.00000000E+00  0.00000000E+00
  0.00000000E+00  0.00000000E+00  0.00000000E+00
  0.00000000E+00  0.00000000E+00  0.00000000E+00
  0.00000000E+00  0.00000000E+00  0.00000000E+00
  0.00000000E+00  0.00000000E+00  0.00000000E+00
  0.00000000E+00  0.00000000E+00  0.00000000E+00
  0.00000000E+00  0.00000000E+00  0.00000000E+00
  0.00000000E+00  0.00000000E+00  0.00000000E+00
  0.00000000E+00  0.00000000E+00  0.00000000E+00
  0.00000000E+00  0.00000000E+00  0.00000000E+00
  0.00000000E+00  0.00000000E+00  0.00000000E+00
  0.00000000E+00  0.00000000E+00  0.00000000E+00
  0.00000000E+00  0.00000000E+00  0.00000000E+00
  0.00000000E+00  0.00000000E+00  0.00000000E+00
  0.00000000E+00  0.00000000E+00  0.00000000E+00
  0.00000000E+00  0.00000000E+00  0.00000000E+00
  0.00000000E+00  0.00000000E+00  0.00000000E+00
  0.00000000E+00  0.00000000E+00  0.00000000E+00
  0.00000000E+00  0.00000000E+00  0.00000000E+00
  0.00000000E+00  0.00000000E+00  0.00000000E+00
  0.00000000E+00  0.00000000E+00  0.00000000E+00
  0.00000000E+00  0.00000000E+00  0.00000000E+00
  0.00000000E+00  0.00000000E+00  0.00000000E+00
  0.00000000E+00  0.00000000E+00  0.00000000E+00
  0.00000000E+00  0.00000000E+00  0.00000000E+00
  0.00000000E+00  0.00000000E+00  0.00000000E+00
  0.00000000E+00  0.00000000E+00  0.00000000E+00
  0.00000000E+00  0.00000000E+00  0.00000000E+00
  0.00000000E+00  0.00000000E+00  0.00000000E+00
  0.00000000E+00  0.00000000E+00  0.00000000E+00
  0.00000000E+00  0.00000000E+00  0.00000000E+00
  0.00000000E+00  0.00000000E+00  0.00000000E+00
  0.00000000E+00  0.00000000E+00  0.00000000E+00
  0.00000000E+00  0.00000000E+00  0.00000000E+00
  0.00000000E+00  0.00000000E+00  0.00000000E+00
  0.00000000E+00  0.00000000E+00  0.00000000E+00
  0.00000000E+00  0.00000000E+00  0.00000000E+00
  0.00000000E+00  0.00000000E+00  0.00000000E+00
  0.00000000E+00  0.00000000E+00  0.00000000E+00
  0.00000000E+00  0.00000000E+00  0.00000000E+00
  0.00000000E+00  0.00000000E+00  0.00000000E+00
  0.00000000E+00  0.00000000E+00  0.00000000E+00
  0.00000000E+00  0.00000000E+00  0.00000000E+00
  0.00000000E+00  0.00000000E+00  0.00000000E+00
  0.00000000E+00  0.00000000E+00  0.00000000E+00
  0.00000000E+00  0.00000000E+00  0.00000000E+00
  0.00000000E+00  0.00000000E+00  0.00000000E+00
  0.00000000E+00  0.00000000E+00  0.00000000E+00
  0.00000000E+00  0.00000000E+00  0.00000000E+00
  0.00000000E+00  0.00000000E+00  0.00000000E+00
  0.00000000E+00  0.00000000E+00  0.00000000E+00
  0.00000000E+00  0.00000000E+00  0.00000000E+00
  0.00000000E+00  0.00000000E+00  0.00000000E+00
  0.00000000E+00  0.00000000E+00  0.00000000E+00
  0.00000000E+00  0.00000000E+00  0.00000000E+00
  0.00000000E+00  0.00000000E+00  0.00000000E+00
  0.00000000E+00  0.00000000E+00  0.00000000E+00
  0.00000000E+00  0.00000000E+00  0.00000000E+00
  0.00000000E+00  0.00000000E+00  0.00000000E+00
  0.00000000E+00  0.00000000E+00  0.00000000E+00
  0.00000000E+00  0.00000000E+00  0.00000000E+00
  0.00000000E+00  0.00000000E+00  0.00000000E+00
  0.00000000E+00  0.00000000E+00  0.00000000E+00
  0.00000000E+00  0.00000000E+00  0.00000000E+00
  0.00000000E+00  0.00000000E+00  0.00000000E+00
  0.00000000E+00  0.00000000E+00  0.00000000E+00
  0.00000000E+00  0.00000000E+00  0.00000000E+00
  0.00000000E+00  0.00000000E+00  0.00000000E+00
  0.00000000E+00  0.00000000E+00  0.00000000E+00
  0.00000000E+00  0.00000000E+00  0.00000000E+00
  0.00000000E+00  0.00000000E+00  0.00000000E+00
  0.00000000E+00  0.00000000E+00  0.00000000E+00
  0.00000000E+00  0.00000000E+00  0.00000000E+00
  0.00000000E+00  0.00000000E+00  0.00000000E+00
  0.00000000E+00  0.00000000E+00  0.00000000E+00
  0.00000000E+00  0.00000000E+00  0.00000000E+00
  0.00000000E+00  0.00000000E+00  0.00000000E+00
  0.00000000E+00  0.00000000E+00  0.00000000E+00
  0.00000000E+00  0.00000000E+00  0.00000000E+00
  0.00000000E+00  0.00000000E+00  0.00000000E+00
  0.00000000E+00  0.00000000E+00  0.00000000E+00
  0.00000000E+00  0.00000000E+00  0.00000000E+00
  0.00000000E+00  0.00000000E+00  0.00000000E+00
  0.00000000E+00  0.00000000E+00  0.00000000E+00
  0.00000000E+00  0.00000000E+00  0.00000000E+00
  0.00000000E+00  0.00000000E+00  0.00000000E+00
  0.00000000E+00  0.00000000E+00  0.00000000E+00
  0.00000000E+00  0.00000000E+00  0.00000000E+00
  0.00000000E+00  0.00000000E+00  0.00000000E+00
  0.00000000E+00  0.00000000E+00  0.00000000E+00
  0.00000000E+00  0.00000000E+00  0.00000000E+00
  0.00000000E+00  0.00000000E+00  0.00000000E+00
  0.00000000E+00  0.00000000E+00  0.00000000E+00
  0.00000000E+00  0.00000000E+00  0.00000000E+00
  0.00000000E+00  0.00000000E+00  0.00000000E+00
  0.00000000E+00  0.00000000E+00  0.00000000E+00
  0.00000000E+00  0.00000000E+00  0.00000000E+00
  0.00000000E+00  0.00000000E+00  0.00000000E+00
  0.00000000E+00  0.00000000E+00  0.00000000E+00
  0.00000000E+00  0.00000000E+00  0.00000000E+00
  0.00000000E+00  0.00000000E+00  0.00000000E+00
  0.00000000E+00  0.00000000E+00  0.00000000E+00
  0.00000000E+00  0.00000000E+00  0.00000000E+00
  0.00000000E+00  0.00000000E+00  0.00000000E+00
  0.00000000E+00  0.00000000E+00  0.00000000E+00
  0.00000000E+00  0.00000000E+00  0.00000000E+00
  0.00000000E+00  0.00000000E+00  0.00000000E+00
  0.00000000E+00  0.00000000E+00  0.00000000E+00
  0.00000000E+00  0.00000000E+00  0.00000000E+00
  0.00000000E+00  0.00000000E+00  0.00000000E+00
  0.00000000E+00  0.00000000E+00  0.00000000E+00
  0.00000000E+00  0.00000000E+00  0.00000000E+00
  0.00000000E+00  0.00000000E+00  0.00000000E+00
  0.00000000E+00  0.00000000E+00  0.00000000E+00
  0.00000000E+00  0.00000000E+00  0.00000000E+00
  0.00000000E+00  0.00000000E+00  0.00000000E+00
  0.00000000E+00  0.00000000E+00  0.00000000E+00
  0.00000000E+00  0.00000000E+00  0.00000000E+00
  0.00000000E+00  0.00000000E+00  0.00000000E+00
  0.00000000E+00  0.00000000E+00  0.00000000E+00
  0.00000000E+00  0.00000000E+00  0.00000000E+00
  0.00000000E+00  0.00000000E+00  0.00000000E+00
  0.00000000E+00  0.00000000E+00  0.00000000E+00
  0.00000000E+00  0.00000000E+00  0.00000000E+00
  0.00000000E+00  0.00000000E+00  0.00000000E+00
