Al Mg O Fe                              
   1.00000000000000     
    16.8282433949600012    0.0000000000000000    0.0000000000000000
     0.0000000000000000    8.4141216974800006    0.0000000000000000
     0.0000000000000000    0.0000000000000000   23.4141216974799988
   Al   Mg   O    Fe
     2    62    64     1
Selective dynamics
Direct
  0.1247684846575862  0.2493289608117336  0.2677473603430141   T   T   T
  0.6252315153424136  0.2493289608117336  0.2677473603430141   T   T   T
  0.1250995968188659  0.9997196324652394  0.0043948264419440   T   T   T
  0.6249004031811340  0.9997196324652394  0.0043948264419440   T   T   T
  0.1251125417645993  0.5001188094091576  0.0044284075717611   T   T   T
  0.6248874582354005  0.5001188094091576  0.0044284075717611   T   T   T
  0.3750000000000000  0.9998531690395177  0.0049964150123423   T   T   T
  0.8750000000000000  0.9997801891783111  0.0043574659796395   T   T   T
  0.3750000000000000  0.5002644057142296  0.0049915257331484   T   T   T
  0.8750000000000000  0.5001160758805835  0.0045002585999274   T   T   T
  0.9999581448108021  0.2499483520159056  0.0042191403816774   T   T   T
  0.4998139642188812  0.2499662103731616  0.0046515551309371   T   T   T
  0.9999858387633637  0.7498674139617600  0.0045020565303967   T   T   T
  0.4997976576277584  0.7499995193162735  0.0049182377619704   T   T   T
  0.2501860357811188  0.2499662103731616  0.0046515551309371   T   T   T
  0.7500418551891979  0.2499483520159056  0.0042191403816774   T   T   T
  0.2502023423722416  0.7499995193162735  0.0049182377619704   T   T   T
  0.7500141612366363  0.7498674139617600  0.0045020565303967   T   T   T
  0.9997731351816285  0.9993034449661181  0.0940046339195471   T   T   T
  0.4996951250071378  0.9994362625503049  0.0946196853992663   T   T   T
  0.9998657096160102  0.5003122805582942  0.0941490633410600   T   T   T
  0.4997064193694679  0.5005459990062212  0.0947979280633912   T   T   T
  0.2503048749928622  0.9994362625503049  0.0946196853992663   T   T   T
  0.7502268648183715  0.9993034449661181  0.0940046339195471   T   T   T
  0.2502935806305321  0.5005459990062212  0.0947979280633912   T   T   T
  0.7501342903839898  0.5003122805582942  0.0941490633410600   T   T   T
  0.1250476638404092  0.2499737803659860  0.0932799431768701   T   T   T
  0.6249523361595908  0.2499737803659860  0.0932799431768701   T   T   T
  0.1251131439487096  0.7497312367766503  0.0941217349272077   T   T   T
  0.6248868560512902  0.7497312367766503  0.0941217349272077   T   T   T
  0.3750000000000000  0.2500054709328460  0.0945812229131273   T   T   T
  0.8750000000000000  0.2499063307922936  0.0937550036573949   T   T   T
  0.3750000000000000  0.7501272310400169  0.0951206664670991   T   T   T
  0.8750000000000000  0.7497188664184801  0.0942659193901060   T   T   T
  0.1250656211893915  0.9971074977021182  0.1836793005018124   T   T   T
  0.6249343788106085  0.9971074977021182  0.1836793005018124   T   T   T
  0.1256576041736476  0.5023855601963165  0.1841555794745827   T   T   T
  0.6243423958263523  0.5023855601963165  0.1841555794745827   T   T   T
  0.3750000000000000  0.9989283626446532  0.1857365144108289   T   T   T
  0.8750000000000000  0.9989674002197676  0.1849380589649954   T   T   T
  0.3750000000000000  0.5013917190165882  0.1858451208817407   T   T   T
  0.8750000000000000  0.5003044022510907  0.1851052630592123   T   T   T
  0.9986396875165487  0.2498051725496558  0.1836400344782888   T   T   T
  0.4984401432772657  0.2512590854908620  0.1844690484436231   T   T   T
  0.9996375879561007  0.7495022826119518  0.1849955624374340   T   T   T
  0.4991750948945565  0.7485352346198397  0.1861770175981892   T   T   T
  0.2515598567227343  0.2512590854908620  0.1844690484436231   T   T   T
  0.7513603124834513  0.2498051725496558  0.1836400344782888   T   T   T
  0.2508249051054435  0.7485352346198397  0.1861770175981892   T   T   T
  0.7503624120438993  0.7495022826119518  0.1849955624374340   T   T   T
 -0.0001274688291902 -0.0002643973731084  0.2749240767159164   T   T   T
  0.5005111317585905 -0.0000629184772956  0.2749483442098638   T   T   T
  0.0000328816216377  0.4991112124525114  0.2752427197831038   T   T   T
  0.5005609709888014  0.4987773476984664  0.2806150747271945   T   T   T
  0.2494888682414097 -0.0000629184772956  0.2749483442098638   T   T   T
  0.7501274688291902 -0.0002643973731084  0.2749240767159164   T   T   T
  0.2494390290111987  0.4987773476984664  0.2806150747271945   T   T   T
  0.7499671183783623  0.4991112124525114  0.2752427197831038   T   T   T
  0.1247473207519349  0.7500113832932463  0.2749928848420732   T   T   T
  0.6252526792480650  0.7500113832932463  0.2749928848420732   T   T   T
  0.3750000000000000  0.2490564417496483  0.2775461450499415   T   T   T
  0.8750000000000000  0.2494366423304302  0.2754586438739361   T   T   T
  0.3750000000000000  0.7525282743021269  0.2807875274002913   T   T   T
  0.8750000000000000  0.7495156563770926  0.2763627091201627   T   T   T
 -0.0000186942124429 -0.0000602516738872  0.0032279337352642   T   T   T
  0.5000828752925202  0.0000154583774151  0.0035800582356052   T   T   T
 -0.0000645283955709  0.4998820152680830  0.0033223730227058   T   T   T
  0.5000331038256810  0.4999635857289145  0.0036010642370426   T   T   T
  0.2499171247074799  0.0000154583774151  0.0035800582356052   T   T   T
  0.7500186942124432 -0.0000602516738872  0.0032279337352642   T   T   T
  0.2499668961743189  0.4999635857289145  0.0036010642370426   T   T   T
  0.7500645283955710  0.4998820152680830  0.0033223730227058   T   T   T
  0.1249354841405472  0.2499162524631628  0.0031738980684345   T   T   T
  0.6250645158594531  0.2499162524631628  0.0031738980684345   T   T   T
  0.1249625282283810  0.7499375914165763  0.0034868263010635   T   T   T
  0.6250374717716189  0.7499375914165763  0.0034868263010635   T   T   T
  0.3750000000000000  0.2500807941732792  0.0037917102505612   T   T   T
  0.8750000000000000  0.2500752201924883  0.0033006838541588   T   T   T
  0.3750000000000000  0.7500353642806481  0.0038229819114339   T   T   T
  0.8750000000000000  0.7497869103179470  0.0033799089667464   T   T   T
  0.1247051647775778  0.0005986221969195  0.0952346385274664   T   T   T
  0.6252948352224222  0.0005986221969195  0.0952346385274664   T   T   T
  0.1247363525582070  0.4991281071979262  0.0952942653204539   T   T   T
  0.6252636474417931  0.4991281071979262  0.0952942653204539   T   T   T
  0.3750000000000000  0.0002708746474850  0.0954974758647617   T   T   T
  0.8750000000000000  0.0000711585916441  0.0952298422861408   T   T   T
  0.3750000000000000  0.4997852958074108  0.0957318835876588   T   T   T
  0.8750000000000000  0.4995440897902786  0.0952653464938931   T   T   T
  0.0001331548490069  0.2498613504119207  0.0952022024341794   T   T   T
  0.5005160210866284  0.2500490564643838  0.0954841137334192   T   T   T
 -0.0000828369629117  0.7497491754991477  0.0952653608720517   T   T   T
  0.5002491713712305  0.7499229547732310  0.0955659235018633   T   T   T
  0.2494839789133715  0.2500490564643838  0.0954841137334192   T   T   T
  0.7498668451509930  0.2498613504119207  0.0952022024341794   T   T   T
  0.2497508286287696  0.7499229547732310  0.0955659235018633   T   T   T
  0.7500828369629118  0.7497491754991477  0.0952653608720517   T   T   T
 -0.0002753406240057 -0.0001988079208479  0.1849524782194367   T   T   T
  0.5005506067878467  0.0002981801724208  0.1849363598550895   T   T   T
 -0.0001414649875208  0.4995110647954757  0.1851551584959322   T   T   T
  0.5007621451948403  0.4995718514890201  0.1854647276755085   T   T   T
  0.2494493932121533  0.0002981801724208  0.1849363598550895   T   T   T
  0.7502753406240057 -0.0001988079208479  0.1849524782194367   T   T   T
  0.2492378548051598  0.4995718514890201  0.1854647276755085   T   T   T
  0.7501414649875209  0.4995110647954757  0.1851551584959322   T   T   T
  0.1241125267068771  0.2495794853417833  0.1869388080267508   T   T   T
  0.6258874732931232  0.2495794853417833  0.1869388080267508   T   T   T
  0.1242122916718688  0.7498133672493271  0.1858542239649738   T   T   T
  0.6257877083281312  0.7498133672493271  0.1858542239649738   T   T   T
  0.3750000000000000  0.2492081871051998  0.1864063594138151   T   T   T
  0.8750000000000000  0.2495837048778952  0.1861151931110485   T   T   T
  0.3750000000000000  0.7507971496150672  0.1865901702091315   T   T   T
  0.8750000000000000  0.7496985437846054  0.1861870986187659   T   T   T
  0.1237607857929388  0.0183071336889336  0.2751099153849740   T   T   T
  0.6262391637730644  0.0183071336889336  0.2751099153849740   T   T   T
  0.1238863359027717  0.4800051227794455  0.2753823946324878   T   T   T
  0.6261136136632320  0.4800051227794455  0.2753823946324878   T   T   T
  0.3749999747830017  0.0055599031333896  0.2770431646727047   T   T   T
  0.8749999747830017  0.0034622406557730  0.2771758610716306   T   T   T
  0.3749999243470015  0.4947084930830696  0.2735290781637444   T   T   T
  0.8749999747830017  0.4954073878506029  0.2774031972136866   T   T   T
  0.0090169131741422  0.2493158698312574  0.2751896156361975   T   T   T
  0.5116078607431788  0.2468809184715745  0.2744535812734926   T   T   T
  0.0019309449792581  0.7496308245841214  0.2772906519043264   T   T   T
  0.5042250054426695  0.7528843070373303  0.2763507534892946   T   T   T
  0.2383921392568211  0.2468809184715745  0.2744535812734926   T   T   T
  0.7409830868258579  0.2493158698312574  0.2751896156361975   T   T   T
  0.2457749945573306  0.7528843070373303  0.2763507534892946   T   T   T
  0.7480690550207421  0.7496308245841214  0.2772906519043264   T   T   T
  0.3749999243470015  0.5199221690835236  0.3695169487978986   T   T   T
 
  0.00000000E+00  0.00000000E+00  0.00000000E+00
  0.00000000E+00  0.00000000E+00  0.00000000E+00
  0.00000000E+00  0.00000000E+00  0.00000000E+00
  0.00000000E+00  0.00000000E+00  0.00000000E+00
  0.00000000E+00  0.00000000E+00  0.00000000E+00
  0.00000000E+00  0.00000000E+00  0.00000000E+00
  0.00000000E+00  0.00000000E+00  0.00000000E+00
  0.00000000E+00  0.00000000E+00  0.00000000E+00
  0.00000000E+00  0.00000000E+00  0.00000000E+00
  0.00000000E+00  0.00000000E+00  0.00000000E+00
  0.00000000E+00  0.00000000E+00  0.00000000E+00
  0.00000000E+00  0.00000000E+00  0.00000000E+00
  0.00000000E+00  0.00000000E+00  0.00000000E+00
  0.00000000E+00  0.00000000E+00  0.00000000E+00
  0.00000000E+00  0.00000000E+00  0.00000000E+00
  0.00000000E+00  0.00000000E+00  0.00000000E+00
  0.00000000E+00  0.00000000E+00  0.00000000E+00
  0.00000000E+00  0.00000000E+00  0.00000000E+00
  0.00000000E+00  0.00000000E+00  0.00000000E+00
  0.00000000E+00  0.00000000E+00  0.00000000E+00
  0.00000000E+00  0.00000000E+00  0.00000000E+00
  0.00000000E+00  0.00000000E+00  0.00000000E+00
  0.00000000E+00  0.00000000E+00  0.00000000E+00
  0.00000000E+00  0.00000000E+00  0.00000000E+00
  0.00000000E+00  0.00000000E+00  0.00000000E+00
  0.00000000E+00  0.00000000E+00  0.00000000E+00
  0.00000000E+00  0.00000000E+00  0.00000000E+00
  0.00000000E+00  0.00000000E+00  0.00000000E+00
  0.00000000E+00  0.00000000E+00  0.00000000E+00
  0.00000000E+00  0.00000000E+00  0.00000000E+00
  0.00000000E+00  0.00000000E+00  0.00000000E+00
  0.00000000E+00  0.00000000E+00  0.00000000E+00
  0.00000000E+00  0.00000000E+00  0.00000000E+00
  0.00000000E+00  0.00000000E+00  0.00000000E+00
  0.00000000E+00  0.00000000E+00  0.00000000E+00
  0.00000000E+00  0.00000000E+00  0.00000000E+00
  0.00000000E+00  0.00000000E+00  0.00000000E+00
  0.00000000E+00  0.00000000E+00  0.00000000E+00
  0.00000000E+00  0.00000000E+00  0.00000000E+00
  0.00000000E+00  0.00000000E+00  0.00000000E+00
  0.00000000E+00  0.00000000E+00  0.00000000E+00
  0.00000000E+00  0.00000000E+00  0.00000000E+00
  0.00000000E+00  0.00000000E+00  0.00000000E+00
  0.00000000E+00  0.00000000E+00  0.00000000E+00
  0.00000000E+00  0.00000000E+00  0.00000000E+00
  0.00000000E+00  0.00000000E+00  0.00000000E+00
  0.00000000E+00  0.00000000E+00  0.00000000E+00
  0.00000000E+00  0.00000000E+00  0.00000000E+00
  0.00000000E+00  0.00000000E+00  0.00000000E+00
  0.00000000E+00  0.00000000E+00  0.00000000E+00
  0.00000000E+00  0.00000000E+00  0.00000000E+00
  0.00000000E+00  0.00000000E+00  0.00000000E+00
  0.00000000E+00  0.00000000E+00  0.00000000E+00
  0.00000000E+00  0.00000000E+00  0.00000000E+00
  0.00000000E+00  0.00000000E+00  0.00000000E+00
  0.00000000E+00  0.00000000E+00  0.00000000E+00
  0.00000000E+00  0.00000000E+00  0.00000000E+00
  0.00000000E+00  0.00000000E+00  0.00000000E+00
  0.00000000E+00  0.00000000E+00  0.00000000E+00
  0.00000000E+00  0.00000000E+00  0.00000000E+00
  0.00000000E+00  0.00000000E+00  0.00000000E+00
  0.00000000E+00  0.00000000E+00  0.00000000E+00
  0.00000000E+00  0.00000000E+00  0.00000000E+00
  0.00000000E+00  0.00000000E+00  0.00000000E+00
  0.00000000E+00  0.00000000E+00  0.00000000E+00
  0.00000000E+00  0.00000000E+00  0.00000000E+00
  0.00000000E+00  0.00000000E+00  0.00000000E+00
  0.00000000E+00  0.00000000E+00  0.00000000E+00
  0.00000000E+00  0.00000000E+00  0.00000000E+00
  0.00000000E+00  0.00000000E+00  0.00000000E+00
  0.00000000E+00  0.00000000E+00  0.00000000E+00
  0.00000000E+00  0.00000000E+00  0.00000000E+00
  0.00000000E+00  0.00000000E+00  0.00000000E+00
  0.00000000E+00  0.00000000E+00  0.00000000E+00
  0.00000000E+00  0.00000000E+00  0.00000000E+00
  0.00000000E+00  0.00000000E+00  0.00000000E+00
  0.00000000E+00  0.00000000E+00  0.00000000E+00
  0.00000000E+00  0.00000000E+00  0.00000000E+00
  0.00000000E+00  0.00000000E+00  0.00000000E+00
  0.00000000E+00  0.00000000E+00  0.00000000E+00
  0.00000000E+00  0.00000000E+00  0.00000000E+00
  0.00000000E+00  0.00000000E+00  0.00000000E+00
  0.00000000E+00  0.00000000E+00  0.00000000E+00
  0.00000000E+00  0.00000000E+00  0.00000000E+00
  0.00000000E+00  0.00000000E+00  0.00000000E+00
  0.00000000E+00  0.00000000E+00  0.00000000E+00
  0.00000000E+00  0.00000000E+00  0.00000000E+00
  0.00000000E+00  0.00000000E+00  0.00000000E+00
  0.00000000E+00  0.00000000E+00  0.00000000E+00
  0.00000000E+00  0.00000000E+00  0.00000000E+00
  0.00000000E+00  0.00000000E+00  0.00000000E+00
  0.00000000E+00  0.00000000E+00  0.00000000E+00
  0.00000000E+00  0.00000000E+00  0.00000000E+00
  0.00000000E+00  0.00000000E+00  0.00000000E+00
  0.00000000E+00  0.00000000E+00  0.00000000E+00
  0.00000000E+00  0.00000000E+00  0.00000000E+00
  0.00000000E+00  0.00000000E+00  0.00000000E+00
  0.00000000E+00  0.00000000E+00  0.00000000E+00
  0.00000000E+00  0.00000000E+00  0.00000000E+00
  0.00000000E+00  0.00000000E+00  0.00000000E+00
  0.00000000E+00  0.00000000E+00  0.00000000E+00
  0.00000000E+00  0.00000000E+00  0.00000000E+00
  0.00000000E+00  0.00000000E+00  0.00000000E+00
  0.00000000E+00  0.00000000E+00  0.00000000E+00
  0.00000000E+00  0.00000000E+00  0.00000000E+00
  0.00000000E+00  0.00000000E+00  0.00000000E+00
  0.00000000E+00  0.00000000E+00  0.00000000E+00
  0.00000000E+00  0.00000000E+00  0.00000000E+00
  0.00000000E+00  0.00000000E+00  0.00000000E+00
  0.00000000E+00  0.00000000E+00  0.00000000E+00
  0.00000000E+00  0.00000000E+00  0.00000000E+00
  0.00000000E+00  0.00000000E+00  0.00000000E+00
  0.00000000E+00  0.00000000E+00  0.00000000E+00
  0.00000000E+00  0.00000000E+00  0.00000000E+00
  0.00000000E+00  0.00000000E+00  0.00000000E+00
  0.00000000E+00  0.00000000E+00  0.00000000E+00
  0.00000000E+00  0.00000000E+00  0.00000000E+00
  0.00000000E+00  0.00000000E+00  0.00000000E+00
  0.00000000E+00  0.00000000E+00  0.00000000E+00
  0.00000000E+00  0.00000000E+00  0.00000000E+00
  0.00000000E+00  0.00000000E+00  0.00000000E+00
  0.00000000E+00  0.00000000E+00  0.00000000E+00
  0.00000000E+00  0.00000000E+00  0.00000000E+00
  0.00000000E+00  0.00000000E+00  0.00000000E+00
  0.00000000E+00  0.00000000E+00  0.00000000E+00
  0.00000000E+00  0.00000000E+00  0.00000000E+00
  0.00000000E+00  0.00000000E+00  0.00000000E+00
  0.00000000E+00  0.00000000E+00  0.00000000E+00
  0.00000000E+00  0.00000000E+00  0.00000000E+00
