Al Mg O Ru                              
   1.00000000000000     
    16.8282433949600012    0.0000000000000000    0.0000000000000000
     0.0000000000000000    8.4141216974800006    0.0000000000000000
     0.0000000000000000    0.0000000000000000   23.4141216974799988
   Al   Mg   O    Ru
     2    62    64     1
Selective dynamics
Direct
  0.1250235973440736  0.2496169456120706  0.2676502984092380   T   T   T
  0.6249764026559265  0.2496169456120706  0.2676502984092380   T   T   T
  0.1251531938832320  0.9998093009891692  0.0047020221421621   T   T   T
  0.6248468061167680  0.9998093009891692  0.0047020221421621   T   T   T
  0.1251163639600269  0.5001741478104420  0.0047117822120307   T   T   T
  0.6248836360399729  0.5001741478104420  0.0047117822120307   T   T   T
  0.3750000000000000  0.9998260540990345  0.0051091005423889   T   T   T
  0.8750000000000000  0.9997968910484940  0.0047708504257897   T   T   T
  0.3750000000000000  0.5001940998248854  0.0051621546185827   T   T   T
  0.8750000000000000  0.5002027231463481  0.0047782939881479   T   T   T
  0.0000013875824159  0.2500068293376249  0.0045843348293430   T   T   T
  0.4997789435165126  0.2500226613122370  0.0049040043878745   T   T   T
 -0.0000064823906191  0.7499940028414794  0.0048299537113125   T   T   T
  0.4997776030213956  0.7499984685411123  0.0051276952068135   T   T   T
  0.2502210564834874  0.2500226613122370  0.0049040043878745   T   T   T
  0.7499986124175840  0.2500068293376249  0.0045843348293430   T   T   T
  0.2502223969786044  0.7499984685411123  0.0051276952068135   T   T   T
  0.7500064823906192  0.7499940028414794  0.0048299537113125   T   T   T
  0.9998235581267085  0.9995063226508170  0.0943352237926553   T   T   T
  0.4995474497359242  0.9995544793784827  0.0947773876928251   T   T   T
 -0.0000815869205452  0.5004751620542716  0.0944062900354579   T   T   T
  0.4997868008396548  0.5005334492601512  0.0947378640875363   T   T   T
  0.2504525502640758  0.9995544793784827  0.0947773876928251   T   T   T
  0.7501764418732915  0.9995063226508170  0.0943352237926553   T   T   T
  0.2502131991603452  0.5005334492601512  0.0947378640875363   T   T   T
  0.7500815869205452  0.5004751620542716  0.0944062900354579   T   T   T
  0.1252062896494305  0.2500685884480223  0.0935847096458449   T   T   T
  0.6247937103505694  0.2500685884480223  0.0935847096458449   T   T   T
  0.1252102757340712  0.7498567729342915  0.0943305573778701   T   T   T
  0.6247897242659287  0.7498567729342915  0.0943305573778701   T   T   T
  0.3750000000000000  0.2495285220688914  0.0947162963031487   T   T   T
  0.8750000000000000  0.2500090390410756  0.0940205026230446   T   T   T
  0.3750000000000000  0.7506115023027047  0.0951468515942299   T   T   T
  0.8750000000000000  0.7499861209900589  0.0945223765579831   T   T   T
  0.1253726617278361  0.9972794798200024  0.1838406198206362   T   T   T
  0.6246273382721639  0.9972794798200024  0.1838406198206362   T   T   T
  0.1260897562352946  0.5025634717377337  0.1842982268135138   T   T   T
  0.6239102437647056  0.5025634717377337  0.1842982268135138   T   T   T
  0.3750000000000000  0.9996815004900927  0.1862523728102659   T   T   T
  0.8750000000000000  0.9992621467991435  0.1852732376224919   T   T   T
  0.3750000000000000  0.5008654771822828  0.1851138103704617   T   T   T
  0.8750000000000000  0.5006952276225456  0.1852905079329129   T   T   T
  0.9987385905453586  0.2500955458071998  0.1838186727930766   T   T   T
  0.4975499682759906  0.2519739502746062  0.1849565820821144   T   T   T
  0.9997340956608731  0.7497901708428240  0.1851693822940839   T   T   T
  0.4985760480380103  0.7482537994409092  0.1863620073741020   T   T   T
  0.2524500317240094  0.2519739502746062  0.1849565820821144   T   T   T
  0.7512614094546414  0.2500955458071998  0.1838186727930766   T   T   T
  0.2514239519619897  0.7482537994409092  0.1863620073741020   T   T   T
  0.7502659043391269  0.7497901708428240  0.1851693822940839   T   T   T
  0.0001420852618309  0.0001225937314918  0.2751511737966972   T   T   T
  0.5000975712638686  0.0003784589243712  0.2747157507609891   T   T   T
  0.0002973582730287  0.4995750590662322  0.2751523716564555   T   T   T
  0.5000959023760708  0.4995619831915329  0.2819903649546658   T   T   T
  0.2499024287361315  0.0003784589243712  0.2747157507609891   T   T   T
  0.7498579147381690  0.0001225937314918  0.2751511737966972   T   T   T
  0.2499040976239291  0.4995619831915329  0.2819903649546658   T   T   T
  0.7497026417269712  0.4995750590662322  0.2751523716564555   T   T   T
  0.1251238910620366  0.7503001768603353  0.2747969159965558   T   T   T
  0.6248761089379635  0.7503001768603353  0.2747969159965558   T   T   T
  0.3750000000000000  0.2502253705353758  0.2825592903919489   T   T   T
  0.8750000000000000  0.2500180355208792  0.2753926621812479   T   T   T
  0.3750000000000000  0.7504596972038496  0.2820787097714559   T   T   T
  0.8750000000000000  0.7498079292653228  0.2764067016150561   T   T   T
 -0.0000729297660005  0.0000391388573435  0.0033742750469388   T   T   T
  0.5001300337973846  0.0000685780013675  0.0032814138542019   T   T   T
 -0.0000944165543011  0.4999566272756685  0.0033512108668082   T   T   T
  0.5001234813049353  0.4999513826404083  0.0032951978282421   T   T   T
  0.2498699662026154  0.0000685780013675  0.0032814138542019   T   T   T
  0.7500729297660005  0.0000391388573435  0.0033742750469388   T   T   T
  0.2498765186950648  0.4999513826404083  0.0032951978282421   T   T   T
  0.7500944165543012  0.4999566272756685  0.0033512108668082   T   T   T
  0.1248781321864967  0.2499740301245598  0.0031444593793022   T   T   T
  0.6251218678135033  0.2499740301245598  0.0031444593793022   T   T   T
  0.1248569898131737  0.7500089125140383  0.0034060569883576   T   T   T
  0.6251430101868263  0.7500089125140383  0.0034060569883576   T   T   T
  0.3750000000000000  0.2500515230257694  0.0033389052822740   T   T   T
  0.8750000000000000  0.2499763105033375  0.0034432024917833   T   T   T
  0.3750000000000000  0.7499714623263340  0.0033966831241963   T   T   T
  0.8750000000000000  0.7500229599073925  0.0035038108485237   T   T   T
  0.1246323715007108  0.0007206796344814  0.0952085830224272   T   T   T
  0.6253676284992891  0.0007206796344814  0.0952085830224272   T   T   T
  0.1245538939571899  0.4992126728902549  0.0952030911680399   T   T   T
  0.6254461060428101  0.4992126728902549  0.0952030911680399   T   T   T
  0.3750000000000000  0.0004213374723752  0.0950226271271360   T   T   T
  0.8750000000000000  0.0002342519454102  0.0954626067219706   T   T   T
  0.3750000000000000  0.4996922727785755  0.0950541873785122   T   T   T
  0.8750000000000000  0.4997553185127840  0.0954574984077768   T   T   T
  0.0000655521735513  0.2499219188744724  0.0952907695113946   T   T   T
  0.5005958095996818  0.2500590902304218  0.0952402243609984   T   T   T
 -0.0001790593692526  0.7500524862806950  0.0953366135390424   T   T   T
  0.5003951285049096  0.7500234403773636  0.0951822853059100   T   T   T
  0.2494041904003180  0.2500590902304218  0.0952402243609984   T   T   T
  0.7499344478264488  0.2499219188744724  0.0952907695113946   T   T   T
  0.2496048714950903  0.7500234403773636  0.0951822853059100   T   T   T
  0.7501790593692526  0.7500524862806950  0.0953366135390424   T   T   T
 -0.0003928244465618  0.0000233792583421  0.1852375567014268   T   T   T
  0.5005729956705494  0.0005406930688229  0.1846814014110067   T   T   T
 -0.0002365458793450  0.4998636720884036  0.1852961572135104   T   T   T
  0.5009081629080925  0.4997642907843868  0.1846445686004677   T   T   T
  0.2494270043294507  0.0005406930688229  0.1846814014110067   T   T   T
  0.7503928244465620  0.0000233792583421  0.1852375567014268   T   T   T
  0.2490918370919076  0.4997642907843868  0.1846445686004677   T   T   T
  0.7502365458793452  0.4998636720884036  0.1852961572135104   T   T   T
  0.1237370752318769  0.2498364869054413  0.1868049980946567   T   T   T
  0.6262629247681230  0.2498364869054413  0.1868049980946567   T   T   T
  0.1240400441542654  0.7499704901938735  0.1857512884424329   T   T   T
  0.6259599558457346  0.7499704901938735  0.1857512884424329   T   T   T
  0.3750000000000000  0.2488607295989213  0.1859679945624772   T   T   T
  0.8750000000000000  0.2499341797180274  0.1863419823328118   T   T   T
  0.3750000000000000  0.7516062609478754  0.1854784123782103   T   T   T
  0.8750000000000000  0.7500158763471001  0.1864670376889017   T   T   T
  0.1232840630837266  0.0182854835091140  0.2752196183298131   T   T   T
  0.6267158864822766  0.0182854835091140  0.2752196183298131   T   T   T
  0.1236526861018002  0.4808026069259246  0.2754719746891385   T   T   T
  0.6263472634642032  0.4808026069259246  0.2754719746891385   T   T   T
  0.3749999747830017  0.0040700242835403  0.2772938588422519   T   T   T
  0.8749999747830017  0.0040914077052036  0.2777880807064371   T   T   T
  0.3749999243470015  0.4986833815901990  0.2698340428502314   T   T   T
  0.8749999747830017  0.4956893473313309  0.2777643548631727   T   T   T
  0.0087757323630740  0.2498863130278847  0.2755364246509754   T   T   T
  0.5130219965843832  0.2465248006199751  0.2740142062942622   T   T   T
  0.0017408153789356  0.7498093041945268  0.2777035129445988   T   T   T
  0.5047898584091953  0.7545045326811231  0.2759001702999558   T   T   T
  0.2369780034156168  0.2465248006199751  0.2740142062942622   T   T   T
  0.7412242676369261  0.2498863130278847  0.2755364246509754   T   T   T
  0.2452101415908047  0.7545045326811231  0.2759001702999558   T   T   T
  0.7482591846210646  0.7498093041945268  0.2777035129445988   T   T   T
  0.3749999243470015  0.4929906780602257  0.3594889447086044   T   T   T
 
  0.00000000E+00  0.00000000E+00  0.00000000E+00
  0.00000000E+00  0.00000000E+00  0.00000000E+00
  0.00000000E+00  0.00000000E+00  0.00000000E+00
  0.00000000E+00  0.00000000E+00  0.00000000E+00
  0.00000000E+00  0.00000000E+00  0.00000000E+00
  0.00000000E+00  0.00000000E+00  0.00000000E+00
  0.00000000E+00  0.00000000E+00  0.00000000E+00
  0.00000000E+00  0.00000000E+00  0.00000000E+00
  0.00000000E+00  0.00000000E+00  0.00000000E+00
  0.00000000E+00  0.00000000E+00  0.00000000E+00
  0.00000000E+00  0.00000000E+00  0.00000000E+00
  0.00000000E+00  0.00000000E+00  0.00000000E+00
  0.00000000E+00  0.00000000E+00  0.00000000E+00
  0.00000000E+00  0.00000000E+00  0.00000000E+00
  0.00000000E+00  0.00000000E+00  0.00000000E+00
  0.00000000E+00  0.00000000E+00  0.00000000E+00
  0.00000000E+00  0.00000000E+00  0.00000000E+00
  0.00000000E+00  0.00000000E+00  0.00000000E+00
  0.00000000E+00  0.00000000E+00  0.00000000E+00
  0.00000000E+00  0.00000000E+00  0.00000000E+00
  0.00000000E+00  0.00000000E+00  0.00000000E+00
  0.00000000E+00  0.00000000E+00  0.00000000E+00
  0.00000000E+00  0.00000000E+00  0.00000000E+00
  0.00000000E+00  0.00000000E+00  0.00000000E+00
  0.00000000E+00  0.00000000E+00  0.00000000E+00
  0.00000000E+00  0.00000000E+00  0.00000000E+00
  0.00000000E+00  0.00000000E+00  0.00000000E+00
  0.00000000E+00  0.00000000E+00  0.00000000E+00
  0.00000000E+00  0.00000000E+00  0.00000000E+00
  0.00000000E+00  0.00000000E+00  0.00000000E+00
  0.00000000E+00  0.00000000E+00  0.00000000E+00
  0.00000000E+00  0.00000000E+00  0.00000000E+00
  0.00000000E+00  0.00000000E+00  0.00000000E+00
  0.00000000E+00  0.00000000E+00  0.00000000E+00
  0.00000000E+00  0.00000000E+00  0.00000000E+00
  0.00000000E+00  0.00000000E+00  0.00000000E+00
  0.00000000E+00  0.00000000E+00  0.00000000E+00
  0.00000000E+00  0.00000000E+00  0.00000000E+00
  0.00000000E+00  0.00000000E+00  0.00000000E+00
  0.00000000E+00  0.00000000E+00  0.00000000E+00
  0.00000000E+00  0.00000000E+00  0.00000000E+00
  0.00000000E+00  0.00000000E+00  0.00000000E+00
  0.00000000E+00  0.00000000E+00  0.00000000E+00
  0.00000000E+00  0.00000000E+00  0.00000000E+00
  0.00000000E+00  0.00000000E+00  0.00000000E+00
  0.00000000E+00  0.00000000E+00  0.00000000E+00
  0.00000000E+00  0.00000000E+00  0.00000000E+00
  0.00000000E+00  0.00000000E+00  0.00000000E+00
  0.00000000E+00  0.00000000E+00  0.00000000E+00
  0.00000000E+00  0.00000000E+00  0.00000000E+00
  0.00000000E+00  0.00000000E+00  0.00000000E+00
  0.00000000E+00  0.00000000E+00  0.00000000E+00
  0.00000000E+00  0.00000000E+00  0.00000000E+00
  0.00000000E+00  0.00000000E+00  0.00000000E+00
  0.00000000E+00  0.00000000E+00  0.00000000E+00
  0.00000000E+00  0.00000000E+00  0.00000000E+00
  0.00000000E+00  0.00000000E+00  0.00000000E+00
  0.00000000E+00  0.00000000E+00  0.00000000E+00
  0.00000000E+00  0.00000000E+00  0.00000000E+00
  0.00000000E+00  0.00000000E+00  0.00000000E+00
  0.00000000E+00  0.00000000E+00  0.00000000E+00
  0.00000000E+00  0.00000000E+00  0.00000000E+00
  0.00000000E+00  0.00000000E+00  0.00000000E+00
  0.00000000E+00  0.00000000E+00  0.00000000E+00
  0.00000000E+00  0.00000000E+00  0.00000000E+00
  0.00000000E+00  0.00000000E+00  0.00000000E+00
  0.00000000E+00  0.00000000E+00  0.00000000E+00
  0.00000000E+00  0.00000000E+00  0.00000000E+00
  0.00000000E+00  0.00000000E+00  0.00000000E+00
  0.00000000E+00  0.00000000E+00  0.00000000E+00
  0.00000000E+00  0.00000000E+00  0.00000000E+00
  0.00000000E+00  0.00000000E+00  0.00000000E+00
  0.00000000E+00  0.00000000E+00  0.00000000E+00
  0.00000000E+00  0.00000000E+00  0.00000000E+00
  0.00000000E+00  0.00000000E+00  0.00000000E+00
  0.00000000E+00  0.00000000E+00  0.00000000E+00
  0.00000000E+00  0.00000000E+00  0.00000000E+00
  0.00000000E+00  0.00000000E+00  0.00000000E+00
  0.00000000E+00  0.00000000E+00  0.00000000E+00
  0.00000000E+00  0.00000000E+00  0.00000000E+00
  0.00000000E+00  0.00000000E+00  0.00000000E+00
  0.00000000E+00  0.00000000E+00  0.00000000E+00
  0.00000000E+00  0.00000000E+00  0.00000000E+00
  0.00000000E+00  0.00000000E+00  0.00000000E+00
  0.00000000E+00  0.00000000E+00  0.00000000E+00
  0.00000000E+00  0.00000000E+00  0.00000000E+00
  0.00000000E+00  0.00000000E+00  0.00000000E+00
  0.00000000E+00  0.00000000E+00  0.00000000E+00
  0.00000000E+00  0.00000000E+00  0.00000000E+00
  0.00000000E+00  0.00000000E+00  0.00000000E+00
  0.00000000E+00  0.00000000E+00  0.00000000E+00
  0.00000000E+00  0.00000000E+00  0.00000000E+00
  0.00000000E+00  0.00000000E+00  0.00000000E+00
  0.00000000E+00  0.00000000E+00  0.00000000E+00
  0.00000000E+00  0.00000000E+00  0.00000000E+00
  0.00000000E+00  0.00000000E+00  0.00000000E+00
  0.00000000E+00  0.00000000E+00  0.00000000E+00
  0.00000000E+00  0.00000000E+00  0.00000000E+00
  0.00000000E+00  0.00000000E+00  0.00000000E+00
  0.00000000E+00  0.00000000E+00  0.00000000E+00
  0.00000000E+00  0.00000000E+00  0.00000000E+00
  0.00000000E+00  0.00000000E+00  0.00000000E+00
  0.00000000E+00  0.00000000E+00  0.00000000E+00
  0.00000000E+00  0.00000000E+00  0.00000000E+00
  0.00000000E+00  0.00000000E+00  0.00000000E+00
  0.00000000E+00  0.00000000E+00  0.00000000E+00
  0.00000000E+00  0.00000000E+00  0.00000000E+00
  0.00000000E+00  0.00000000E+00  0.00000000E+00
  0.00000000E+00  0.00000000E+00  0.00000000E+00
  0.00000000E+00  0.00000000E+00  0.00000000E+00
  0.00000000E+00  0.00000000E+00  0.00000000E+00
  0.00000000E+00  0.00000000E+00  0.00000000E+00
  0.00000000E+00  0.00000000E+00  0.00000000E+00
  0.00000000E+00  0.00000000E+00  0.00000000E+00
  0.00000000E+00  0.00000000E+00  0.00000000E+00
  0.00000000E+00  0.00000000E+00  0.00000000E+00
  0.00000000E+00  0.00000000E+00  0.00000000E+00
  0.00000000E+00  0.00000000E+00  0.00000000E+00
  0.00000000E+00  0.00000000E+00  0.00000000E+00
  0.00000000E+00  0.00000000E+00  0.00000000E+00
  0.00000000E+00  0.00000000E+00  0.00000000E+00
  0.00000000E+00  0.00000000E+00  0.00000000E+00
  0.00000000E+00  0.00000000E+00  0.00000000E+00
  0.00000000E+00  0.00000000E+00  0.00000000E+00
  0.00000000E+00  0.00000000E+00  0.00000000E+00
  0.00000000E+00  0.00000000E+00  0.00000000E+00
  0.00000000E+00  0.00000000E+00  0.00000000E+00
  0.00000000E+00  0.00000000E+00  0.00000000E+00
  0.00000000E+00  0.00000000E+00  0.00000000E+00
