Al Mg O Cu                              
   1.00000000000000     
    16.8282433949600012    0.0000000000000000    0.0000000000000000
     0.0000000000000000    8.4141216974800006    0.0000000000000000
     0.0000000000000000    0.0000000000000000   23.4141216974799988
   Al   Mg   O    Cu
     2    62    64     1
Selective dynamics
Direct
  0.1253059388530331  0.2516241706353047  0.2676116065195168   T   T   T
  0.6246940611469669  0.2516241706353047  0.2676116065195168   T   T   T
  0.1253784934295415  0.0012518032940288  0.0042124659343442   T   T   T
  0.6246215065704586  0.0012518032940288  0.0042124659343442   T   T   T
  0.1253322651697873  0.5013810524850428  0.0041734993559278   T   T   T
  0.6246677348302199  0.5013810524850428  0.0041734993559278   T   T   T
  0.3750000000000000  0.0016989924786137  0.0044397530208358   T   T   T
  0.8750000000000000  0.0008652910565919  0.0044253167340296   T   T   T
  0.3750000000000000  0.5017650071099417  0.0045315168584377   T   T   T
  0.8750000000000000  0.5013895091937342  0.0045338109978199   T   T   T
  0.0002397072628089  0.2512683405026974  0.0042407823397337   T   T   T
  0.4996864423875536  0.2515587226986427  0.0042583690489294   T   T   T
  0.0001495775046204  0.7511624847108547  0.0044275259650060   T   T   T
  0.4996882025597111  0.7516798036389815  0.0044483735323211   T   T   T
  0.2503135576124464  0.2515587226986427  0.0042583690489294   T   T   T
  0.7497602927371910  0.2512683405026974  0.0042407823397337   T   T   T
  0.2503117974402889  0.7516798036389815  0.0044483735323211   T   T   T
  0.7498504224953796  0.7511624847108547  0.0044275259650060   T   T   T
  0.0000417931706763  0.0007012236509987  0.0939955595179354   T   T   T
  0.4993714825995609  0.0013277995406539  0.0943802129552485   T   T   T
  0.0000300044234411  0.5018132035656874  0.0939949806544422   T   T   T
  0.4994183874793626  0.5019036767406981  0.0942898878257437   T   T   T
  0.2506285174004391  0.0013277995406539  0.0943802129552485   T   T   T
  0.7499582068293237  0.0007012236509987  0.0939955595179354   T   T   T
  0.2505816125206374  0.5019036767406981  0.0942898878257437   T   T   T
  0.7499699955765590  0.5018132035656874  0.0939949806544422   T   T   T
  0.1254122998359766  0.2514559768529889  0.0932092744468141   T   T   T
  0.6245877001640233  0.2514559768529889  0.0932092744468141   T   T   T
  0.1254348997404664  0.7512976197746437  0.0938214568780751   T   T   T
  0.6245651002595337  0.7512976197746437  0.0938214568780751   T   T   T
  0.3750000000000000  0.2517131561894624  0.0942937663328208   T   T   T
  0.8750000000000000  0.2512812579655001  0.0937265977371765   T   T   T
  0.3750000000000000  0.7518809824937264  0.0946976293112623   T   T   T
  0.8750000000000000  0.7511484421224318  0.0942806802847669   T   T   T
  0.1256200146578859  0.9989732820758964  0.1837573486494720   T   T   T
  0.6243799853421143  0.9989732820758964  0.1837573486494720   T   T   T
  0.1256761111931559  0.5039629900612917  0.1838069240191098   T   T   T
  0.6243238888068441  0.5039629900612917  0.1838069240191098   T   T   T
  0.3750000000000000  0.0034208391461121  0.1860439334182269   T   T   T
  0.8750000000000000  0.0005251466833229  0.1847339054930622   T   T   T
  0.3750000000000000  0.5007491476876484  0.1857365446151172   T   T   T
  0.8750000000000000  0.5017603263375142  0.1849498769073294   T   T   T
  0.9989185701803791  0.2512262580404328  0.1835672474961288   T   T   T
  0.4972759310543721  0.2520179847852978  0.1846242134030845   T   T   T
  0.9999866960302909  0.7511973260517341  0.1849367068770970   T   T   T
  0.4990436866779220  0.7515075712368766  0.1853209586029338   T   T   T
  0.2527240689456279  0.2520179847852978  0.1846242134030845   T   T   T
  0.7510814298196209  0.2512262580404328  0.1835672474961288   T   T   T
  0.2509563133220780  0.7515075712368766  0.1853209586029338   T   T   T
  0.7500133039697091  0.7511973260517341  0.1849367068770970   T   T   T
  0.0002970990612190  0.0013560011310417  0.2748608101508319   T   T   T
  0.4990932608983103  0.0034482848619833  0.2758767023227877   T   T   T
  0.0004012891074663  0.5011137998998435  0.2749542444348148   T   T   T
  0.4986207748392836  0.4999793893863859  0.2768634187319750   T   T   T
  0.2509067391016897  0.0034482848619833  0.2758767023227877   T   T   T
  0.7497029009387809  0.0013560011310417  0.2748608101508319   T   T   T
  0.2513792251607164  0.4999793893863859  0.2768634187319750   T   T   T
  0.7495987108925338  0.5011137998998435  0.2749542444348148   T   T   T
  0.1255122845643753  0.7515588275296127  0.2748606779265367   T   T   T
  0.6244877154356244  0.7515588275296127  0.2748606779265367   T   T   T
  0.3750000000000000  0.2528719165393193  0.2872192974656486   T   T   T
  0.8750000000000000  0.2512168431824168  0.2752181921234367   T   T   T
  0.3750000000000000  0.7516957819052269  0.2759696049319362   T   T   T
  0.8750000000000000  0.7513173052004768  0.2761135226394906   T   T   T
  0.0001479636434337  0.0013251843703998  0.0032312700549787   T   T   T
  0.4999503822771578  0.0016962901514603  0.0030073688691258   T   T   T
  0.0000699215289141  0.5011193762596278  0.0032229724007865   T   T   T
  0.4999668223557752  0.5015877040064908  0.0031303439283079   T   T   T
  0.2500496177228422  0.0016962901514603  0.0030073688691258   T   T   T
  0.7498520363565663  0.0013251843703998  0.0032312700549787   T   T   T
  0.2500331776442248  0.5015877040064908  0.0031303439283079   T   T   T
  0.7499300784710861  0.5011193762596278  0.0032229724007865   T   T   T
  0.1250723701682097  0.2512967012719932  0.0029847244745812   T   T   T
  0.6249276298317902  0.2512967012719932  0.0029847244745812   T   T   T
  0.1251654860854178  0.7514707548024380  0.0031016594314356   T   T   T
  0.6248345139145821  0.7514707548024380  0.0031016594314356   T   T   T
  0.3750000000000000  0.2516399063087971  0.0031775588699732   T   T   T
  0.8750000000000000  0.2510674704307861  0.0032749618611136   T   T   T
  0.3750000000000000  0.7517566751993981  0.0031514897573878   T   T   T
  0.8750000000000000  0.7512344372067192  0.0035297703340324   T   T   T
  0.1251566139595819  0.0020204301169650  0.0951132552847646   T   T   T
  0.6248433860404180  0.0020204301169650  0.0951132552847646   T   T   T
  0.1250599409639645  0.5007742754450879  0.0950508535096123   T   T   T
  0.6249400590360356  0.5007742754450879  0.0950508535096123   T   T   T
  0.3750000000000000  0.0019912624564190  0.0949420904647714   T   T   T
  0.8750000000000000  0.0015113870403786  0.0950683639044021   T   T   T
  0.3750000000000000  0.5014910824129390  0.0950466618607491   T   T   T
  0.8750000000000000  0.5008350789589616  0.0951862644923157   T   T   T
  0.0004028726120646  0.2512563374879500  0.0950832252077614   T   T   T
  0.5004233672841265  0.2514881981717726  0.0951494395726575   T   T   T
  0.0002611982534507  0.7512920664529462  0.0951449089824176   T   T   T
  0.5001520749579016  0.7517517136161551  0.0950013263401220   T   T   T
  0.2495766327158734  0.2514881981717726  0.0951494395726575   T   T   T
  0.7495971273879354  0.2512563374879500  0.0950832252077614   T   T   T
  0.2498479250420984  0.7517517136161551  0.0950013263401220   T   T   T
  0.7497388017465491  0.7512920664529462  0.0951449089824176   T   T   T
  0.0001158811224197  0.0013695268036900  0.1848689339528504   T   T   T
  0.5002946050795157  0.0017070085660936  0.1851042507154430   T   T   T
  0.0001325846642591  0.5012132345531199  0.1849716962975195   T   T   T
  0.5005175476050326  0.5016769161127844  0.1850375625837865   T   T   T
  0.2497053949204843  0.0017070085660936  0.1851042507154430   T   T   T
  0.7498841188775802  0.0013695268036900  0.1848689339528504   T   T   T
  0.2494824523949671  0.5016769161127844  0.1850375625837865   T   T   T
  0.7498674153357410  0.5012132345531199  0.1849716962975195   T   T   T
  0.1245844247353249  0.2514466799372368  0.1867851932396118   T   T   T
  0.6254155752646748  0.2514466799372368  0.1867851932396118   T   T   T
  0.1250404010314518  0.7514569790605330  0.1858946225168458   T   T   T
  0.6249595989685484  0.7514569790605330  0.1858946225168458   T   T   T
  0.3750000000000000  0.2517749370591684  0.1858325548891197   T   T   T
  0.8750000000000000  0.2510835265312733  0.1859184450290665   T   T   T
  0.3750000000000000  0.7526375428087135  0.1853647253816821   T   T   T
  0.8750000000000000  0.7512523922689565  0.1859855833394982   T   T   T
  0.1244739759464521  0.0194082338499692  0.2751151662368844   T   T   T
  0.6255259736195514  0.0194082338499692  0.2751151662368844   T   T   T
  0.1246161403784106  0.4831949844102496  0.2752908948448396   T   T   T
  0.6253838091875928  0.4831949844102496  0.2752908948448396   T   T   T
  0.3749999747830017  0.0022012106355913  0.2760424834165220   T   T   T
  0.8749999747830017  0.0053751582022847  0.2769124049206606   T   T   T
  0.3749999243470015  0.5040157101137227  0.2739512334716906   T   T   T
  0.8749999747830017  0.4969118001148835  0.2770079754304328   T   T   T
  0.0096320991266997  0.2511692500902766  0.2750691935803405   T   T   T
  0.5122442028919387  0.2511319910439780  0.2742022676128290   T   T   T
  0.0022277047593571  0.7512866689459708  0.2770664905521515   T   T   T
  0.5027144972356211  0.7521346699861114  0.2774407907630651   T   T   T
  0.2377557971080613  0.2511319910439780  0.2742022676128290   T   T   T
  0.7403679008733003  0.2511692500902766  0.2750691935803405   T   T   T
  0.2472855027643789  0.7521346699861114  0.2774407907630651   T   T   T
  0.7477722952406431  0.7512866689459708  0.2770664905521515   T   T   T
  0.3749999243470015  0.3056982624771515  0.3942886171221370   T   T   T
 
  0.00000000E+00  0.00000000E+00  0.00000000E+00
  0.00000000E+00  0.00000000E+00  0.00000000E+00
  0.00000000E+00  0.00000000E+00  0.00000000E+00
  0.00000000E+00  0.00000000E+00  0.00000000E+00
  0.00000000E+00  0.00000000E+00  0.00000000E+00
  0.00000000E+00  0.00000000E+00  0.00000000E+00
  0.00000000E+00  0.00000000E+00  0.00000000E+00
  0.00000000E+00  0.00000000E+00  0.00000000E+00
  0.00000000E+00  0.00000000E+00  0.00000000E+00
  0.00000000E+00  0.00000000E+00  0.00000000E+00
  0.00000000E+00  0.00000000E+00  0.00000000E+00
  0.00000000E+00  0.00000000E+00  0.00000000E+00
  0.00000000E+00  0.00000000E+00  0.00000000E+00
  0.00000000E+00  0.00000000E+00  0.00000000E+00
  0.00000000E+00  0.00000000E+00  0.00000000E+00
  0.00000000E+00  0.00000000E+00  0.00000000E+00
  0.00000000E+00  0.00000000E+00  0.00000000E+00
  0.00000000E+00  0.00000000E+00  0.00000000E+00
  0.00000000E+00  0.00000000E+00  0.00000000E+00
  0.00000000E+00  0.00000000E+00  0.00000000E+00
  0.00000000E+00  0.00000000E+00  0.00000000E+00
  0.00000000E+00  0.00000000E+00  0.00000000E+00
  0.00000000E+00  0.00000000E+00  0.00000000E+00
  0.00000000E+00  0.00000000E+00  0.00000000E+00
  0.00000000E+00  0.00000000E+00  0.00000000E+00
  0.00000000E+00  0.00000000E+00  0.00000000E+00
  0.00000000E+00  0.00000000E+00  0.00000000E+00
  0.00000000E+00  0.00000000E+00  0.00000000E+00
  0.00000000E+00  0.00000000E+00  0.00000000E+00
  0.00000000E+00  0.00000000E+00  0.00000000E+00
  0.00000000E+00  0.00000000E+00  0.00000000E+00
  0.00000000E+00  0.00000000E+00  0.00000000E+00
  0.00000000E+00  0.00000000E+00  0.00000000E+00
  0.00000000E+00  0.00000000E+00  0.00000000E+00
  0.00000000E+00  0.00000000E+00  0.00000000E+00
  0.00000000E+00  0.00000000E+00  0.00000000E+00
  0.00000000E+00  0.00000000E+00  0.00000000E+00
  0.00000000E+00  0.00000000E+00  0.00000000E+00
  0.00000000E+00  0.00000000E+00  0.00000000E+00
  0.00000000E+00  0.00000000E+00  0.00000000E+00
  0.00000000E+00  0.00000000E+00  0.00000000E+00
  0.00000000E+00  0.00000000E+00  0.00000000E+00
  0.00000000E+00  0.00000000E+00  0.00000000E+00
  0.00000000E+00  0.00000000E+00  0.00000000E+00
  0.00000000E+00  0.00000000E+00  0.00000000E+00
  0.00000000E+00  0.00000000E+00  0.00000000E+00
  0.00000000E+00  0.00000000E+00  0.00000000E+00
  0.00000000E+00  0.00000000E+00  0.00000000E+00
  0.00000000E+00  0.00000000E+00  0.00000000E+00
  0.00000000E+00  0.00000000E+00  0.00000000E+00
  0.00000000E+00  0.00000000E+00  0.00000000E+00
  0.00000000E+00  0.00000000E+00  0.00000000E+00
  0.00000000E+00  0.00000000E+00  0.00000000E+00
  0.00000000E+00  0.00000000E+00  0.00000000E+00
  0.00000000E+00  0.00000000E+00  0.00000000E+00
  0.00000000E+00  0.00000000E+00  0.00000000E+00
  0.00000000E+00  0.00000000E+00  0.00000000E+00
  0.00000000E+00  0.00000000E+00  0.00000000E+00
  0.00000000E+00  0.00000000E+00  0.00000000E+00
  0.00000000E+00  0.00000000E+00  0.00000000E+00
  0.00000000E+00  0.00000000E+00  0.00000000E+00
  0.00000000E+00  0.00000000E+00  0.00000000E+00
  0.00000000E+00  0.00000000E+00  0.00000000E+00
  0.00000000E+00  0.00000000E+00  0.00000000E+00
  0.00000000E+00  0.00000000E+00  0.00000000E+00
  0.00000000E+00  0.00000000E+00  0.00000000E+00
  0.00000000E+00  0.00000000E+00  0.00000000E+00
  0.00000000E+00  0.00000000E+00  0.00000000E+00
  0.00000000E+00  0.00000000E+00  0.00000000E+00
  0.00000000E+00  0.00000000E+00  0.00000000E+00
  0.00000000E+00  0.00000000E+00  0.00000000E+00
  0.00000000E+00  0.00000000E+00  0.00000000E+00
  0.00000000E+00  0.00000000E+00  0.00000000E+00
  0.00000000E+00  0.00000000E+00  0.00000000E+00
  0.00000000E+00  0.00000000E+00  0.00000000E+00
  0.00000000E+00  0.00000000E+00  0.00000000E+00
  0.00000000E+00  0.00000000E+00  0.00000000E+00
  0.00000000E+00  0.00000000E+00  0.00000000E+00
  0.00000000E+00  0.00000000E+00  0.00000000E+00
  0.00000000E+00  0.00000000E+00  0.00000000E+00
  0.00000000E+00  0.00000000E+00  0.00000000E+00
  0.00000000E+00  0.00000000E+00  0.00000000E+00
  0.00000000E+00  0.00000000E+00  0.00000000E+00
  0.00000000E+00  0.00000000E+00  0.00000000E+00
  0.00000000E+00  0.00000000E+00  0.00000000E+00
  0.00000000E+00  0.00000000E+00  0.00000000E+00
  0.00000000E+00  0.00000000E+00  0.00000000E+00
  0.00000000E+00  0.00000000E+00  0.00000000E+00
  0.00000000E+00  0.00000000E+00  0.00000000E+00
  0.00000000E+00  0.00000000E+00  0.00000000E+00
  0.00000000E+00  0.00000000E+00  0.00000000E+00
  0.00000000E+00  0.00000000E+00  0.00000000E+00
  0.00000000E+00  0.00000000E+00  0.00000000E+00
  0.00000000E+00  0.00000000E+00  0.00000000E+00
  0.00000000E+00  0.00000000E+00  0.00000000E+00
  0.00000000E+00  0.00000000E+00  0.00000000E+00
  0.00000000E+00  0.00000000E+00  0.00000000E+00
  0.00000000E+00  0.00000000E+00  0.00000000E+00
  0.00000000E+00  0.00000000E+00  0.00000000E+00
  0.00000000E+00  0.00000000E+00  0.00000000E+00
  0.00000000E+00  0.00000000E+00  0.00000000E+00
  0.00000000E+00  0.00000000E+00  0.00000000E+00
  0.00000000E+00  0.00000000E+00  0.00000000E+00
  0.00000000E+00  0.00000000E+00  0.00000000E+00
  0.00000000E+00  0.00000000E+00  0.00000000E+00
  0.00000000E+00  0.00000000E+00  0.00000000E+00
  0.00000000E+00  0.00000000E+00  0.00000000E+00
  0.00000000E+00  0.00000000E+00  0.00000000E+00
  0.00000000E+00  0.00000000E+00  0.00000000E+00
  0.00000000E+00  0.00000000E+00  0.00000000E+00
  0.00000000E+00  0.00000000E+00  0.00000000E+00
  0.00000000E+00  0.00000000E+00  0.00000000E+00
  0.00000000E+00  0.00000000E+00  0.00000000E+00
  0.00000000E+00  0.00000000E+00  0.00000000E+00
  0.00000000E+00  0.00000000E+00  0.00000000E+00
  0.00000000E+00  0.00000000E+00  0.00000000E+00
  0.00000000E+00  0.00000000E+00  0.00000000E+00
  0.00000000E+00  0.00000000E+00  0.00000000E+00
  0.00000000E+00  0.00000000E+00  0.00000000E+00
  0.00000000E+00  0.00000000E+00  0.00000000E+00
  0.00000000E+00  0.00000000E+00  0.00000000E+00
  0.00000000E+00  0.00000000E+00  0.00000000E+00
  0.00000000E+00  0.00000000E+00  0.00000000E+00
  0.00000000E+00  0.00000000E+00  0.00000000E+00
  0.00000000E+00  0.00000000E+00  0.00000000E+00
  0.00000000E+00  0.00000000E+00  0.00000000E+00
  0.00000000E+00  0.00000000E+00  0.00000000E+00
  0.00000000E+00  0.00000000E+00  0.00000000E+00
  0.00000000E+00  0.00000000E+00  0.00000000E+00
