Al Mg O Co                              
   1.00000000000000     
    16.8282433949600012    0.0000000000000000    0.0000000000000000
     0.0000000000000000    8.4141216974800006    0.0000000000000000
     0.0000000000000000    0.0000000000000000   23.4141216974799988
   Al   Mg   O    Co
     2    62    64     1
Selective dynamics
Direct
  0.1252024513153394  0.2499125931859411  0.2679019381306035   T   T   T
  0.6247975486846606  0.2499125931859411  0.2679019381306035   T   T   T
  0.1251175984608915  0.9998099295107528  0.0044986399983712   T   T   T
  0.6248824015391087  0.9998099295107528  0.0044986399983712   T   T   T
  0.1250482081546207  0.5001792518292675  0.0044797351339879   T   T   T
  0.6249517918453792  0.5001792518292675  0.0044797351339879   T   T   T
  0.3750000000000000  0.9997764736650092  0.0048127215579252   T   T   T
  0.8750000000000000  0.9998016744755549  0.0046674377267817   T   T   T
  0.3750000000000000  0.5002313766306682  0.0049560109016487   T   T   T
  0.8750000000000000  0.5001990068379072  0.0046743389938871   T   T   T
  0.9999659536954316  0.2499916347297355  0.0044377303313802   T   T   T
  0.4998162031117799  0.2499999336202804  0.0046372939982249   T   T   T
  0.9999623563217416  0.7500023673523771  0.0046954515871168   T   T   T
  0.4997997950531645  0.7500088468957411  0.0048878689984028   T   T   T
  0.2501837968882201  0.2499999336202804  0.0046372939982249   T   T   T
  0.7500340463045684  0.2499916347297355  0.0044377303313802   T   T   T
  0.2502002049468355  0.7500088468957411  0.0048878689984028   T   T   T
  0.7500376436782584  0.7500023673523771  0.0046954515871168   T   T   T
  0.9998049049986123  0.9994846307054193  0.0942930336004725   T   T   T
  0.4996313877232557  0.9995247952164806  0.0945600001931868   T   T   T
  0.9998322898912252  0.5005000706899428  0.0943331820223335   T   T   T
  0.4998760627106293  0.5005333758403180  0.0944707664559048   T   T   T
  0.2503686122767443  0.9995247952164806  0.0945600001931868   T   T   T
  0.7501950950013877  0.9994846307054193  0.0942930336004725   T   T   T
  0.2501239372893707  0.5005333758403180  0.0944707664559048   T   T   T
  0.7501677101087748  0.5005000706899428  0.0943331820223335   T   T   T
  0.1251513864002307  0.2500072030038961  0.0933882093464374   T   T   T
  0.6248486135997693  0.2500072030038961  0.0933882093464374   T   T   T
  0.1251400358098128  0.7499501155506891  0.0942003673586236   T   T   T
  0.6248599641901873  0.7499501155506891  0.0942003673586236   T   T   T
  0.3750000000000000  0.2494697984512418  0.0943919215400432   T   T   T
  0.8750000000000000  0.2500364814561152  0.0940052053460247   T   T   T
  0.3750000000000000  0.7506671189798593  0.0948013918003078   T   T   T
  0.8750000000000000  0.7499590902681069  0.0945174175183729   T   T   T
  0.1251486467868218  0.9973575551683963  0.1838370948078592   T   T   T
  0.6248513532131781  0.9973575551683963  0.1838370948078592   T   T   T
  0.1257190797371710  0.5025727922047771  0.1841395408720457   T   T   T
  0.6242809202628290  0.5025727922047771  0.1841395408720457   T   T   T
  0.3750000000000000  0.9998090015696804  0.1859219961230212   T   T   T
  0.8750000000000000  0.9992860598836678  0.1853440487846830   T   T   T
  0.3750000000000000  0.5007414518133131  0.1846371559999194   T   T   T
  0.8750000000000000  0.5006784823271473  0.1853624123379837   T   T   T
  0.9987031327012437  0.2500352174356530  0.1838919042285014   T   T   T
  0.4978957535987776  0.2515154923807659  0.1844985040891998   T   T   T
  0.9996604869123297  0.7498689401935567  0.1852279691922351   T   T   T
  0.4989630962206617  0.7486743133055292  0.1858520863720089   T   T   T
  0.2521042464012224  0.2515154923807659  0.1844985040891998   T   T   T
  0.7512968672987563  0.2500352174356530  0.1838919042285014   T   T   T
  0.2510369037793383  0.7486743133055292  0.1858520863720089   T   T   T
  0.7503395130876703  0.7498689401935567  0.1852279691922351   T   T   T
  0.0001436023601319  0.0001609834549974  0.2753932131777559   T   T   T
  0.4999297608837903  0.0003841596271438  0.2748628376069505   T   T   T
  0.0002556170960428  0.4996152415674970  0.2754013819373645   T   T   T
  0.4994943662556404  0.4997615837621564  0.2796206923185124   T   T   T
  0.2500702391162097  0.0003841596271438  0.2748628376069505   T   T   T
  0.7498563976398681  0.0001609834549974  0.2753932131777559   T   T   T
  0.2505056337443596  0.4997615837621564  0.2796206923185124   T   T   T
  0.7497443829039571  0.4996152415674970  0.2754013819373645   T   T   T
  0.1252249113608410  0.7499264737908635  0.2750023214626889   T   T   T
  0.6247750886391591  0.7499264737908635  0.2750023214626889   T   T   T
  0.3750000000000000  0.2516574893164185  0.2803943801111010   T   T   T
  0.8750000000000000  0.2500706278501075  0.2756999963501694   T   T   T
  0.3750000000000000  0.7492758495471575  0.2799651519672909   T   T   T
  0.8750000000000000  0.7498068369612578  0.2766552203444493   T   T   T
 -0.0000605313723874  0.0000385978555905  0.0034929728839820   T   T   T
  0.5001259852481428  0.0000557224633166  0.0034378227089799   T   T   T
 -0.0000997749367557  0.4999628843627618  0.0034411134804715   T   T   T
  0.5001571498412176  0.4999551039907527  0.0034517226248794   T   T   T
  0.2498740147518572  0.0000557224633166  0.0034378227089799   T   T   T
  0.7500605313723874  0.0000385978555905  0.0034929728839820   T   T   T
  0.2498428501587824  0.4999551039907527  0.0034517226248794   T   T   T
  0.7500997749367556  0.4999628843627618  0.0034411134804715   T   T   T
  0.1248872339705722  0.2499806206674348  0.0032520137792703   T   T   T
  0.6251127660294279  0.2499806206674348  0.0032520137792703   T   T   T
  0.1248727891341245  0.7500054916508629  0.0035234326746299   T   T   T
  0.6251272108658753  0.7500054916508629  0.0035234326746299   T   T   T
  0.3750000000000000  0.2500220475004230  0.0034775431694293   T   T   T
  0.8750000000000000  0.2499630373234904  0.0035346043512246   T   T   T
  0.3750000000000000  0.7499920206624927  0.0035477548446962   T   T   T
  0.8750000000000000  0.7500344862822882  0.0035938481288152   T   T   T
  0.1247090920495455  0.0007588520669078  0.0952888392420294   T   T   T
  0.6252909079504545  0.0007588520669078  0.0952888392420294   T   T   T
  0.1245256976493248  0.4991970802074973  0.0952570393637085   T   T   T
  0.6254743023506750  0.4991970802074973  0.0952570393637085   T   T   T
  0.3750000000000000  0.0003682605046255  0.0951304340951386   T   T   T
  0.8750000000000000  0.0002488319397371  0.0955361458607110   T   T   T
  0.3750000000000000  0.4997391542746902  0.0950392945222577   T   T   T
  0.8750000000000000  0.4997485102599028  0.0955246071000016   T   T   T
  0.0001536661500405  0.2499128344131059  0.0953821655491796   T   T   T
  0.5006314073585012  0.2499333762920400  0.0953193654724347   T   T   T
 -0.0001056914781844  0.7500700772946663  0.0954267027392294   T   T   T
  0.5004008787580931  0.7501270232342063  0.0952949087353678   T   T   T
  0.2493685926414986  0.2499333762920400  0.0953193654724347   T   T   T
  0.7498463338499595  0.2499128344131059  0.0953821655491796   T   T   T
  0.2495991212419069  0.7501270232342063  0.0952949087353678   T   T   T
  0.7501056914781845  0.7500700772946663  0.0954267027392294   T   T   T
 -0.0002051841671027  0.0000785682653004  0.1852946198988653   T   T   T
  0.5005227332673508  0.0004124160062222  0.1849729814373371   T   T   T
 -0.0000110013750181  0.4998355671488445  0.1853568486173764   T   T   T
  0.5008784321563441  0.4997884193099443  0.1847902882548924   T   T   T
  0.2494772667326491  0.0004124160062222  0.1849729814373371   T   T   T
  0.7502051841671026  0.0000785682653004  0.1852946198988653   T   T   T
  0.2491215678436558  0.4997884193099443  0.1847902882548924   T   T   T
  0.7500110013750181  0.4998355671488445  0.1853568486173764   T   T   T
  0.1242175976757546  0.2498113415341915  0.1870809257663327   T   T   T
  0.6257824023242452  0.2498113415341915  0.1870809257663327   T   T   T
  0.1243596794089104  0.7500309810860513  0.1859752125202071   T   T   T
  0.6256403205910896  0.7500309810860513  0.1859752125202071   T   T   T
  0.3750000000000000  0.2487516301639172  0.1860927621378945   T   T   T
  0.8750000000000000  0.2499293840068360  0.1863688820521161   T   T   T
  0.3750000000000000  0.7517784438781316  0.1857104653284879   T   T   T
  0.8750000000000000  0.7500078729572200  0.1864575081986707   T   T   T
  0.1241160380146704  0.0185862306088409  0.2752920611491941   T   T   T
  0.6258839115513332  0.0185862306088409  0.2752920611491941   T   T   T
  0.1242754428231002  0.4809124740330131  0.2754525453740111   T   T   T
  0.6257245067429031  0.4809124740330131  0.2754525453740111   T   T   T
  0.3749999747830017  0.0045102930377920  0.2773665284775946   T   T   T
  0.8749999747830017  0.0041085329210815  0.2775827093545103   T   T   T
  0.3749999243470015  0.4980090278801602  0.2708167543052127   T   T   T
  0.8749999747830017  0.4957135337282684  0.2775588403926544   T   T   T
  0.0093025529558269  0.2500155304549077  0.2754693304569728   T   T   T
  0.5117316609546166  0.2479658948605710  0.2744352209722800   T   T   T
  0.0020081830859752  0.7498116939876794  0.2775824624875465   T   T   T
  0.5036905699609039  0.7526654232511052  0.2763598853964888   T   T   T
  0.2382683390453833  0.2479658948605710  0.2744352209722800   T   T   T
  0.7406974470441730  0.2500155304549077  0.2754693304569728   T   T   T
  0.2463094300390961  0.7526654232511052  0.2763598853964888   T   T   T
  0.7479918169140247  0.7498116939876794  0.2775824624875465   T   T   T
  0.3749999243470015  0.4920920233577426  0.3662884711652571   T   T   T
 
  0.00000000E+00  0.00000000E+00  0.00000000E+00
  0.00000000E+00  0.00000000E+00  0.00000000E+00
  0.00000000E+00  0.00000000E+00  0.00000000E+00
  0.00000000E+00  0.00000000E+00  0.00000000E+00
  0.00000000E+00  0.00000000E+00  0.00000000E+00
  0.00000000E+00  0.00000000E+00  0.00000000E+00
  0.00000000E+00  0.00000000E+00  0.00000000E+00
  0.00000000E+00  0.00000000E+00  0.00000000E+00
  0.00000000E+00  0.00000000E+00  0.00000000E+00
  0.00000000E+00  0.00000000E+00  0.00000000E+00
  0.00000000E+00  0.00000000E+00  0.00000000E+00
  0.00000000E+00  0.00000000E+00  0.00000000E+00
  0.00000000E+00  0.00000000E+00  0.00000000E+00
  0.00000000E+00  0.00000000E+00  0.00000000E+00
  0.00000000E+00  0.00000000E+00  0.00000000E+00
  0.00000000E+00  0.00000000E+00  0.00000000E+00
  0.00000000E+00  0.00000000E+00  0.00000000E+00
  0.00000000E+00  0.00000000E+00  0.00000000E+00
  0.00000000E+00  0.00000000E+00  0.00000000E+00
  0.00000000E+00  0.00000000E+00  0.00000000E+00
  0.00000000E+00  0.00000000E+00  0.00000000E+00
  0.00000000E+00  0.00000000E+00  0.00000000E+00
  0.00000000E+00  0.00000000E+00  0.00000000E+00
  0.00000000E+00  0.00000000E+00  0.00000000E+00
  0.00000000E+00  0.00000000E+00  0.00000000E+00
  0.00000000E+00  0.00000000E+00  0.00000000E+00
  0.00000000E+00  0.00000000E+00  0.00000000E+00
  0.00000000E+00  0.00000000E+00  0.00000000E+00
  0.00000000E+00  0.00000000E+00  0.00000000E+00
  0.00000000E+00  0.00000000E+00  0.00000000E+00
  0.00000000E+00  0.00000000E+00  0.00000000E+00
  0.00000000E+00  0.00000000E+00  0.00000000E+00
  0.00000000E+00  0.00000000E+00  0.00000000E+00
  0.00000000E+00  0.00000000E+00  0.00000000E+00
  0.00000000E+00  0.00000000E+00  0.00000000E+00
  0.00000000E+00  0.00000000E+00  0.00000000E+00
  0.00000000E+00  0.00000000E+00  0.00000000E+00
  0.00000000E+00  0.00000000E+00  0.00000000E+00
  0.00000000E+00  0.00000000E+00  0.00000000E+00
  0.00000000E+00  0.00000000E+00  0.00000000E+00
  0.00000000E+00  0.00000000E+00  0.00000000E+00
  0.00000000E+00  0.00000000E+00  0.00000000E+00
  0.00000000E+00  0.00000000E+00  0.00000000E+00
  0.00000000E+00  0.00000000E+00  0.00000000E+00
  0.00000000E+00  0.00000000E+00  0.00000000E+00
  0.00000000E+00  0.00000000E+00  0.00000000E+00
  0.00000000E+00  0.00000000E+00  0.00000000E+00
  0.00000000E+00  0.00000000E+00  0.00000000E+00
  0.00000000E+00  0.00000000E+00  0.00000000E+00
  0.00000000E+00  0.00000000E+00  0.00000000E+00
  0.00000000E+00  0.00000000E+00  0.00000000E+00
  0.00000000E+00  0.00000000E+00  0.00000000E+00
  0.00000000E+00  0.00000000E+00  0.00000000E+00
  0.00000000E+00  0.00000000E+00  0.00000000E+00
  0.00000000E+00  0.00000000E+00  0.00000000E+00
  0.00000000E+00  0.00000000E+00  0.00000000E+00
  0.00000000E+00  0.00000000E+00  0.00000000E+00
  0.00000000E+00  0.00000000E+00  0.00000000E+00
  0.00000000E+00  0.00000000E+00  0.00000000E+00
  0.00000000E+00  0.00000000E+00  0.00000000E+00
  0.00000000E+00  0.00000000E+00  0.00000000E+00
  0.00000000E+00  0.00000000E+00  0.00000000E+00
  0.00000000E+00  0.00000000E+00  0.00000000E+00
  0.00000000E+00  0.00000000E+00  0.00000000E+00
  0.00000000E+00  0.00000000E+00  0.00000000E+00
  0.00000000E+00  0.00000000E+00  0.00000000E+00
  0.00000000E+00  0.00000000E+00  0.00000000E+00
  0.00000000E+00  0.00000000E+00  0.00000000E+00
  0.00000000E+00  0.00000000E+00  0.00000000E+00
  0.00000000E+00  0.00000000E+00  0.00000000E+00
  0.00000000E+00  0.00000000E+00  0.00000000E+00
  0.00000000E+00  0.00000000E+00  0.00000000E+00
  0.00000000E+00  0.00000000E+00  0.00000000E+00
  0.00000000E+00  0.00000000E+00  0.00000000E+00
  0.00000000E+00  0.00000000E+00  0.00000000E+00
  0.00000000E+00  0.00000000E+00  0.00000000E+00
  0.00000000E+00  0.00000000E+00  0.00000000E+00
  0.00000000E+00  0.00000000E+00  0.00000000E+00
  0.00000000E+00  0.00000000E+00  0.00000000E+00
  0.00000000E+00  0.00000000E+00  0.00000000E+00
  0.00000000E+00  0.00000000E+00  0.00000000E+00
  0.00000000E+00  0.00000000E+00  0.00000000E+00
  0.00000000E+00  0.00000000E+00  0.00000000E+00
  0.00000000E+00  0.00000000E+00  0.00000000E+00
  0.00000000E+00  0.00000000E+00  0.00000000E+00
  0.00000000E+00  0.00000000E+00  0.00000000E+00
  0.00000000E+00  0.00000000E+00  0.00000000E+00
  0.00000000E+00  0.00000000E+00  0.00000000E+00
  0.00000000E+00  0.00000000E+00  0.00000000E+00
  0.00000000E+00  0.00000000E+00  0.00000000E+00
  0.00000000E+00  0.00000000E+00  0.00000000E+00
  0.00000000E+00  0.00000000E+00  0.00000000E+00
  0.00000000E+00  0.00000000E+00  0.00000000E+00
  0.00000000E+00  0.00000000E+00  0.00000000E+00
  0.00000000E+00  0.00000000E+00  0.00000000E+00
  0.00000000E+00  0.00000000E+00  0.00000000E+00
  0.00000000E+00  0.00000000E+00  0.00000000E+00
  0.00000000E+00  0.00000000E+00  0.00000000E+00
  0.00000000E+00  0.00000000E+00  0.00000000E+00
  0.00000000E+00  0.00000000E+00  0.00000000E+00
  0.00000000E+00  0.00000000E+00  0.00000000E+00
  0.00000000E+00  0.00000000E+00  0.00000000E+00
  0.00000000E+00  0.00000000E+00  0.00000000E+00
  0.00000000E+00  0.00000000E+00  0.00000000E+00
  0.00000000E+00  0.00000000E+00  0.00000000E+00
  0.00000000E+00  0.00000000E+00  0.00000000E+00
  0.00000000E+00  0.00000000E+00  0.00000000E+00
  0.00000000E+00  0.00000000E+00  0.00000000E+00
  0.00000000E+00  0.00000000E+00  0.00000000E+00
  0.00000000E+00  0.00000000E+00  0.00000000E+00
  0.00000000E+00  0.00000000E+00  0.00000000E+00
  0.00000000E+00  0.00000000E+00  0.00000000E+00
  0.00000000E+00  0.00000000E+00  0.00000000E+00
  0.00000000E+00  0.00000000E+00  0.00000000E+00
  0.00000000E+00  0.00000000E+00  0.00000000E+00
  0.00000000E+00  0.00000000E+00  0.00000000E+00
  0.00000000E+00  0.00000000E+00  0.00000000E+00
  0.00000000E+00  0.00000000E+00  0.00000000E+00
  0.00000000E+00  0.00000000E+00  0.00000000E+00
  0.00000000E+00  0.00000000E+00  0.00000000E+00
  0.00000000E+00  0.00000000E+00  0.00000000E+00
  0.00000000E+00  0.00000000E+00  0.00000000E+00
  0.00000000E+00  0.00000000E+00  0.00000000E+00
  0.00000000E+00  0.00000000E+00  0.00000000E+00
  0.00000000E+00  0.00000000E+00  0.00000000E+00
  0.00000000E+00  0.00000000E+00  0.00000000E+00
  0.00000000E+00  0.00000000E+00  0.00000000E+00
  0.00000000E+00  0.00000000E+00  0.00000000E+00
  0.00000000E+00  0.00000000E+00  0.00000000E+00
