Al Mg O Mn                              
   1.00000000000000     
    16.8282433949600012    0.0000000000000000    0.0000000000000000
     0.0000000000000000    8.4141216974800006    0.0000000000000000
     0.0000000000000000    0.0000000000000000   23.4141216974799988
   Al   Mg   O    Mn
     2    62    64     1
Selective dynamics
Direct
  0.1241974511134777  0.2494518972937094  0.2676334082815360   T   T   T
  0.6258025488865222  0.2494518972937094  0.2676334082815360   T   T   T
  0.1250490533180627  0.9998203130268339  0.0043273163461309   T   T   T
  0.6249509466819375  0.9998203130268339  0.0043273163461309   T   T   T
  0.1251225066301768  0.5001489602194639  0.0043784482319970   T   T   T
  0.6248774933698232  0.5001489602194639  0.0043784482319970   T   T   T
  0.3750000000000000  0.9998990573942811  0.0047218657715950   T   T   T
  0.8750000000000000  0.9997786142379971  0.0045745121804591   T   T   T
  0.3750000000000000  0.5002508307301825  0.0047117528765953   T   T   T
  0.8750000000000000  0.5002245903265903  0.0045713037898373   T   T   T
  0.9999336569326033  0.2500362427432531  0.0043207570809651   T   T   T
  0.4998049075634493  0.2501934291807720  0.0044536405713829   T   T   T
  0.9998957437376996  0.7499531869512879  0.0045681153636875   T   T   T
  0.4998137704968176  0.7498712197783562  0.0046910355976869   T   T   T
  0.2501950924365507  0.2501934291807720  0.0044536405713829   T   T   T
  0.7500663430673967  0.2500362427432531  0.0043207570809651   T   T   T
  0.2501862295031824  0.7498712197783562  0.0046910355976869   T   T   T
  0.7501042562623004  0.7499531869512879  0.0045681153636875   T   T   T
  0.9996336696601661  0.9995470088237399  0.0941415465332268   T   T   T
  0.4997014750752318  0.9998642280927961  0.0944335384974166   T   T   T
  0.9997705517294255  0.5003542726546717  0.0942234768178546   T   T   T
  0.4996342945560584  0.5003929455890834  0.0946077277176328   T   T   T
  0.2502985249247682  0.9998642280927961  0.0944335384974166   T   T   T
  0.7503663303398339  0.9995470088237399  0.0941415465332268   T   T   T
  0.2503657054439416  0.5003929455890834  0.0946077277176328   T   T   T
  0.7502294482705745  0.5003542726546717  0.0942234768178546   T   T   T
  0.1250917904735854  0.2501505769609260  0.0932932641370728   T   T   T
  0.6249082095264148  0.2501505769609260  0.0932932641370728   T   T   T
  0.1250166791991594  0.7498113652486921  0.0939893683447459   T   T   T
  0.6249833208008406  0.7498113652486921  0.0939893683447459   T   T   T
  0.3750000000000000  0.2505145646406588  0.0945041151165538   T   T   T
  0.8750000000000000  0.2500160106037304  0.0938852456803927   T   T   T
  0.3750000000000000  0.7500278728077140  0.0949532245106983   T   T   T
  0.8750000000000000  0.7499484768366795  0.0944863659813260   T   T   T
  0.1248406635937970  0.9974810678454882  0.1835417571632359   T   T   T
  0.6251593364062031  0.9974810678454882  0.1835417571632359   T   T   T
  0.1249808572525635  0.5026589985635712  0.1839744375329676   T   T   T
  0.6250191427474366  0.5026589985635712  0.1839744375329676   T   T   T
  0.3750000000000000  0.0009968336086328  0.1855324028722369   T   T   T
  0.8750000000000000  0.9991364538446439  0.1852374020350318   T   T   T
  0.3750000000000000  0.5003690851637468  0.1861383822855805   T   T   T
  0.8750000000000000  0.5006637030704713  0.1852378277817796   T   T   T
  0.9984601298301823  0.2499899514474705  0.1837143153164576   T   T   T
  0.4982169029070135  0.2510779095047352  0.1847716276882590   T   T   T
  0.9994768809195631  0.7498188105191609  0.1851627994526492   T   T   T
  0.4996225164407863  0.7497458313334749  0.1855348288306731   T   T   T
  0.2517830970929865  0.2510779095047352  0.1847716276882590   T   T   T
  0.7515398701698177  0.2499899514474705  0.1837143153164576   T   T   T
  0.2503774835592137  0.7497458313334749  0.1855348288306731   T   T   T
  0.7505231190804369  0.7498188105191609  0.1851627994526492   T   T   T
 -0.0003818847115637  0.0000761080500559  0.2753266039506318   T   T   T
  0.5008116957999852  0.0008342636662043  0.2749536742900117   T   T   T
 -0.0001368507408430  0.4999120565847724  0.2754259178504966   T   T   T
  0.5032651274749684  0.5004806870121951  0.2783462456204332   T   T   T
  0.2491883042000149  0.0008342636662043  0.2749536742900117   T   T   T
  0.7503818847115635  0.0000761080500559  0.2753266039506318   T   T   T
  0.2467348725250315  0.5004806870121951  0.2783462456204332   T   T   T
  0.7501368507408429  0.4999120565847724  0.2754259178504966   T   T   T
  0.1244569249058351  0.7520123604334740  0.2750794847877419   T   T   T
  0.6255430750941647  0.7520123604334740  0.2750794847877419   T   T   T
  0.3750000000000000  0.2444773746455813  0.2821244219041180   T   T   T
  0.8750000000000000  0.2498732366091343  0.2758086958305928   T   T   T
  0.3750000000000000  0.7555172363654278  0.2768224283879810   T   T   T
  0.8750000000000000  0.7498057175287963  0.2767215773955246   T   T   T
 -0.0001515162403414  0.0000085653687485  0.0034608623417832   T   T   T
  0.5000676376799739  0.0001404243049767  0.0035854650170409   T   T   T
 -0.0000477619182743  0.4999662532574983  0.0035120190639400   T   T   T
  0.5000580552243380  0.4999441223173161  0.0036020143770169   T   T   T
  0.2499323623200262  0.0001404243049767  0.0035854650170409   T   T   T
  0.7501515162403416  0.0000085653687485  0.0034608623417832   T   T   T
  0.2499419447756621  0.4999441223173161  0.0036020143770169   T   T   T
  0.7500477619182744  0.4999662532574983  0.0035120190639400   T   T   T
  0.1249009577026816  0.2500534456873567  0.0032734409166481   T   T   T
  0.6250990422973185  0.2500534456873567  0.0032734409166481   T   T   T
  0.1248181408419131  0.7499118008186652  0.0035476660424753   T   T   T
  0.6251818591580870  0.7499118008186652  0.0035476660424753   T   T   T
  0.3750000000000000  0.2501271009914175  0.0036512979396096   T   T   T
  0.8750000000000000  0.2499397204933207  0.0034869501846795   T   T   T
  0.3750000000000000  0.7500726145511800  0.0038822890875081   T   T   T
  0.8750000000000000  0.7500746687177452  0.0036979684488816   T   T   T
  0.1247279183885484  0.0007540107163772  0.0952224662843837   T   T   T
  0.6252720816114515  0.0007540107163772  0.0952224662843837   T   T   T
  0.1248496283863417  0.4992357327040140  0.0954356359805071   T   T   T
  0.6251503716136582  0.4992357327040140  0.0954356359805071   T   T   T
  0.3750000000000000  0.0008955605363528  0.0955985601665833   T   T   T
  0.8750000000000000  0.0002318937207738  0.0953713492229989   T   T   T
  0.3750000000000000  0.4996784313925294  0.0958376315371404   T   T   T
  0.8750000000000000  0.4997103818999119  0.0954489367435651   T   T   T
  0.0001228332519788  0.2500185101331766  0.0952863421070586   T   T   T
  0.5003383369078002  0.2503883695564066  0.0956879702379947   T   T   T
 -0.0000961447120915  0.7498797523973888  0.0953428150528094   T   T   T
  0.5002294950289576  0.7498878833702903  0.0955040492351868   T   T   T
  0.2496616630921998  0.2503883695564066  0.0956879702379947   T   T   T
  0.7498771667480211  0.2500185101331766  0.0952863421070586   T   T   T
  0.2497705049710424  0.7498878833702903  0.0955040492351868   T   T   T
  0.7500961447120913  0.7498797523973888  0.0953428150528094   T   T   T
 -0.0003544184271582  0.0000961255886885  0.1850975619232926   T   T   T
  0.5005439203302159  0.0007641286673323  0.1848549009552319   T   T   T
 -0.0004229533129997  0.4997487154677421  0.1851405142947030   T   T   T
  0.5005681322729175  0.5001032040600505  0.1858019378534315   T   T   T
  0.2494560796697839  0.0007641286673323  0.1848549009552319   T   T   T
  0.7503544184271581  0.0000961255886885  0.1850975619232926   T   T   T
  0.2494318677270825  0.5001032040600505  0.1858019378534315   T   T   T
  0.7504229533129996  0.4997487154677421  0.1851405142947030   T   T   T
  0.1239140005980898  0.2499843394509017  0.1867888189181503   T   T   T
  0.6260859994019102  0.2499843394509017  0.1867888189181503   T   T   T
  0.1242716610593823  0.7501360520757030  0.1858291303709171   T   T   T
  0.6257283389406180  0.7501360520757030  0.1858291303709171   T   T   T
  0.3750000000000000  0.2507979027889778  0.1876992824630814   T   T   T
  0.8750000000000000  0.2500296053614843  0.1862929329883075   T   T   T
  0.3750000000000000  0.7505847654380070  0.1860788538010253   T   T   T
  0.8750000000000000  0.7497734694775731  0.1863077743479294   T   T   T
  0.1236125101122781  0.0178973907438838  0.2748777313249528   T   T   T
  0.6263874394537253  0.0178973907438838  0.2748777313249528   T   T   T
  0.1231752776027520  0.4812845237634221  0.2749574814255132   T   T   T
  0.6268246719632516  0.4812845237634221  0.2749574814255132   T   T   T
  0.3749999747830017  0.0013993241559629  0.2761429942190267   T   T   T
  0.8749999747830017  0.0041949652003906  0.2774911363102793   T   T   T
  0.3749999243470015  0.5025489923784112  0.2768548074650108   T   T   T
  0.8749999747830017  0.4957087027254606  0.2774528909427574   T   T   T
  0.0089409113705250  0.2495217365613111  0.2753303069706289   T   T   T
  0.5128792030211030  0.2483397750790604  0.2744378133207958   T   T   T
  0.0017106553582142  0.7501057196669454  0.2773565053789669   T   T   T
  0.5038420959607789  0.7532893780118430  0.2761357076855661   T   T   T
  0.2371207969788969  0.2483397750790604  0.2744378133207958   T   T   T
  0.7410590886294748  0.2495217365613111  0.2753303069706289   T   T   T
  0.2461579040392210  0.7532893780118430  0.2761357076855661   T   T   T
  0.7482893446417859  0.7501057196669454  0.2773565053789669   T   T   T
  0.3749999243470015  0.4783082620176523  0.3674662840634879   T   T   T
 
  0.00000000E+00  0.00000000E+00  0.00000000E+00
  0.00000000E+00  0.00000000E+00  0.00000000E+00
  0.00000000E+00  0.00000000E+00  0.00000000E+00
  0.00000000E+00  0.00000000E+00  0.00000000E+00
  0.00000000E+00  0.00000000E+00  0.00000000E+00
  0.00000000E+00  0.00000000E+00  0.00000000E+00
  0.00000000E+00  0.00000000E+00  0.00000000E+00
  0.00000000E+00  0.00000000E+00  0.00000000E+00
  0.00000000E+00  0.00000000E+00  0.00000000E+00
  0.00000000E+00  0.00000000E+00  0.00000000E+00
  0.00000000E+00  0.00000000E+00  0.00000000E+00
  0.00000000E+00  0.00000000E+00  0.00000000E+00
  0.00000000E+00  0.00000000E+00  0.00000000E+00
  0.00000000E+00  0.00000000E+00  0.00000000E+00
  0.00000000E+00  0.00000000E+00  0.00000000E+00
  0.00000000E+00  0.00000000E+00  0.00000000E+00
  0.00000000E+00  0.00000000E+00  0.00000000E+00
  0.00000000E+00  0.00000000E+00  0.00000000E+00
  0.00000000E+00  0.00000000E+00  0.00000000E+00
  0.00000000E+00  0.00000000E+00  0.00000000E+00
  0.00000000E+00  0.00000000E+00  0.00000000E+00
  0.00000000E+00  0.00000000E+00  0.00000000E+00
  0.00000000E+00  0.00000000E+00  0.00000000E+00
  0.00000000E+00  0.00000000E+00  0.00000000E+00
  0.00000000E+00  0.00000000E+00  0.00000000E+00
  0.00000000E+00  0.00000000E+00  0.00000000E+00
  0.00000000E+00  0.00000000E+00  0.00000000E+00
  0.00000000E+00  0.00000000E+00  0.00000000E+00
  0.00000000E+00  0.00000000E+00  0.00000000E+00
  0.00000000E+00  0.00000000E+00  0.00000000E+00
  0.00000000E+00  0.00000000E+00  0.00000000E+00
  0.00000000E+00  0.00000000E+00  0.00000000E+00
  0.00000000E+00  0.00000000E+00  0.00000000E+00
  0.00000000E+00  0.00000000E+00  0.00000000E+00
  0.00000000E+00  0.00000000E+00  0.00000000E+00
  0.00000000E+00  0.00000000E+00  0.00000000E+00
  0.00000000E+00  0.00000000E+00  0.00000000E+00
  0.00000000E+00  0.00000000E+00  0.00000000E+00
  0.00000000E+00  0.00000000E+00  0.00000000E+00
  0.00000000E+00  0.00000000E+00  0.00000000E+00
  0.00000000E+00  0.00000000E+00  0.00000000E+00
  0.00000000E+00  0.00000000E+00  0.00000000E+00
  0.00000000E+00  0.00000000E+00  0.00000000E+00
  0.00000000E+00  0.00000000E+00  0.00000000E+00
  0.00000000E+00  0.00000000E+00  0.00000000E+00
  0.00000000E+00  0.00000000E+00  0.00000000E+00
  0.00000000E+00  0.00000000E+00  0.00000000E+00
  0.00000000E+00  0.00000000E+00  0.00000000E+00
  0.00000000E+00  0.00000000E+00  0.00000000E+00
  0.00000000E+00  0.00000000E+00  0.00000000E+00
  0.00000000E+00  0.00000000E+00  0.00000000E+00
  0.00000000E+00  0.00000000E+00  0.00000000E+00
  0.00000000E+00  0.00000000E+00  0.00000000E+00
  0.00000000E+00  0.00000000E+00  0.00000000E+00
  0.00000000E+00  0.00000000E+00  0.00000000E+00
  0.00000000E+00  0.00000000E+00  0.00000000E+00
  0.00000000E+00  0.00000000E+00  0.00000000E+00
  0.00000000E+00  0.00000000E+00  0.00000000E+00
  0.00000000E+00  0.00000000E+00  0.00000000E+00
  0.00000000E+00  0.00000000E+00  0.00000000E+00
  0.00000000E+00  0.00000000E+00  0.00000000E+00
  0.00000000E+00  0.00000000E+00  0.00000000E+00
  0.00000000E+00  0.00000000E+00  0.00000000E+00
  0.00000000E+00  0.00000000E+00  0.00000000E+00
  0.00000000E+00  0.00000000E+00  0.00000000E+00
  0.00000000E+00  0.00000000E+00  0.00000000E+00
  0.00000000E+00  0.00000000E+00  0.00000000E+00
  0.00000000E+00  0.00000000E+00  0.00000000E+00
  0.00000000E+00  0.00000000E+00  0.00000000E+00
  0.00000000E+00  0.00000000E+00  0.00000000E+00
  0.00000000E+00  0.00000000E+00  0.00000000E+00
  0.00000000E+00  0.00000000E+00  0.00000000E+00
  0.00000000E+00  0.00000000E+00  0.00000000E+00
  0.00000000E+00  0.00000000E+00  0.00000000E+00
  0.00000000E+00  0.00000000E+00  0.00000000E+00
  0.00000000E+00  0.00000000E+00  0.00000000E+00
  0.00000000E+00  0.00000000E+00  0.00000000E+00
  0.00000000E+00  0.00000000E+00  0.00000000E+00
  0.00000000E+00  0.00000000E+00  0.00000000E+00
  0.00000000E+00  0.00000000E+00  0.00000000E+00
  0.00000000E+00  0.00000000E+00  0.00000000E+00
  0.00000000E+00  0.00000000E+00  0.00000000E+00
  0.00000000E+00  0.00000000E+00  0.00000000E+00
  0.00000000E+00  0.00000000E+00  0.00000000E+00
  0.00000000E+00  0.00000000E+00  0.00000000E+00
  0.00000000E+00  0.00000000E+00  0.00000000E+00
  0.00000000E+00  0.00000000E+00  0.00000000E+00
  0.00000000E+00  0.00000000E+00  0.00000000E+00
  0.00000000E+00  0.00000000E+00  0.00000000E+00
  0.00000000E+00  0.00000000E+00  0.00000000E+00
  0.00000000E+00  0.00000000E+00  0.00000000E+00
  0.00000000E+00  0.00000000E+00  0.00000000E+00
  0.00000000E+00  0.00000000E+00  0.00000000E+00
  0.00000000E+00  0.00000000E+00  0.00000000E+00
  0.00000000E+00  0.00000000E+00  0.00000000E+00
  0.00000000E+00  0.00000000E+00  0.00000000E+00
  0.00000000E+00  0.00000000E+00  0.00000000E+00
  0.00000000E+00  0.00000000E+00  0.00000000E+00
  0.00000000E+00  0.00000000E+00  0.00000000E+00
  0.00000000E+00  0.00000000E+00  0.00000000E+00
  0.00000000E+00  0.00000000E+00  0.00000000E+00
  0.00000000E+00  0.00000000E+00  0.00000000E+00
  0.00000000E+00  0.00000000E+00  0.00000000E+00
  0.00000000E+00  0.00000000E+00  0.00000000E+00
  0.00000000E+00  0.00000000E+00  0.00000000E+00
  0.00000000E+00  0.00000000E+00  0.00000000E+00
  0.00000000E+00  0.00000000E+00  0.00000000E+00
  0.00000000E+00  0.00000000E+00  0.00000000E+00
  0.00000000E+00  0.00000000E+00  0.00000000E+00
  0.00000000E+00  0.00000000E+00  0.00000000E+00
  0.00000000E+00  0.00000000E+00  0.00000000E+00
  0.00000000E+00  0.00000000E+00  0.00000000E+00
  0.00000000E+00  0.00000000E+00  0.00000000E+00
  0.00000000E+00  0.00000000E+00  0.00000000E+00
  0.00000000E+00  0.00000000E+00  0.00000000E+00
  0.00000000E+00  0.00000000E+00  0.00000000E+00
  0.00000000E+00  0.00000000E+00  0.00000000E+00
  0.00000000E+00  0.00000000E+00  0.00000000E+00
  0.00000000E+00  0.00000000E+00  0.00000000E+00
  0.00000000E+00  0.00000000E+00  0.00000000E+00
  0.00000000E+00  0.00000000E+00  0.00000000E+00
  0.00000000E+00  0.00000000E+00  0.00000000E+00
  0.00000000E+00  0.00000000E+00  0.00000000E+00
  0.00000000E+00  0.00000000E+00  0.00000000E+00
  0.00000000E+00  0.00000000E+00  0.00000000E+00
  0.00000000E+00  0.00000000E+00  0.00000000E+00
  0.00000000E+00  0.00000000E+00  0.00000000E+00
  0.00000000E+00  0.00000000E+00  0.00000000E+00
  0.00000000E+00  0.00000000E+00  0.00000000E+00
