Al Mg O Ir                              
   1.00000000000000     
    16.8282433949600012    0.0000000000000000    0.0000000000000000
     0.0000000000000000    8.4141216974800006    0.0000000000000000
     0.0000000000000000    0.0000000000000000   23.4141216974799988
   Al   Mg   O    Ir
     2    62    64     1
Selective dynamics
Direct
  0.1248102838757080  0.2502600456837057  0.2674477880765335   T   T   T
  0.6251897161242922  0.2502600456837057  0.2674477880765335   T   T   T
  0.1252697326483966  0.9999049024604402  0.0049920291044536   T   T   T
  0.6247302673516035  0.9999049024604402  0.0049920291044536   T   T   T
  0.1250995003364900  0.5001895190696873  0.0048403684235753   T   T   T
  0.6249004996635101  0.5001895190696873  0.0048403684235753   T   T   T
  0.3750000000000000  0.0000566226903019  0.0051778266838860   T   T   T
  0.8750000000000000  0.9997570131437417  0.0047496810565948   T   T   T
  0.3750000000000000  0.5002931596528081  0.0050180611013936   T   T   T
  0.8750000000000000  0.5001714269489486  0.0047376213812756   T   T   T
  0.0000942929436518  0.2499826378461001  0.0046755756944778   T   T   T
  0.4998058035255515  0.2499288486837054  0.0051222411539994   T   T   T
  0.0000706864407749  0.7499937656828901  0.0048812923130853   T   T   T
  0.4997906916220747  0.7503174830279085  0.0052433073638366   T   T   T
  0.2501941964744485  0.2499288486837054  0.0051222411539994   T   T   T
  0.7499057070563483  0.2499826378461001  0.0046755756944778   T   T   T
  0.2502093083779254  0.7503174830279085  0.0052433073638366   T   T   T
  0.7499293135592250  0.7499937656828901  0.0048812923130853   T   T   T
  0.9999430742967518  0.9995020336992221  0.0941190725181259   T   T   T
  0.4992319407453205  0.9997489252970444  0.0952627702267202   T   T   T
  0.0000796853019021  0.5004455999964404  0.0942040466142701   T   T   T
  0.4999032427061056  0.5006728513044847  0.0945511583741453   T   T   T
  0.2507680592546795  0.9997489252970444  0.0952627702267202   T   T   T
  0.7500569257032482  0.9995020336992221  0.0941190725181259   T   T   T
  0.2500967572938944  0.5006728513044847  0.0945511583741453   T   T   T
  0.7499203146980979  0.5004455999964404  0.0942040466142701   T   T   T
  0.1254801579917231  0.2502703200852022  0.0938104431557475   T   T   T
  0.6245198420082767  0.2502703200852022  0.0938104431557475   T   T   T
  0.1255677555848604  0.7498245024290322  0.0944542006677282   T   T   T
  0.6244322444151397  0.7498245024290322  0.0944542006677282   T   T   T
  0.3750000000000000  0.2489725375949376  0.0947789931976146   T   T   T
  0.8750000000000000  0.2499628084457819  0.0936596358813146   T   T   T
  0.3750000000000000  0.7515605220885200  0.0950852835821561   T   T   T
  0.8750000000000000  0.7499153075087245  0.0941364323799594   T   T   T
  0.1257237240744440  0.9974605358118181  0.1838811686044210   T   T   T
  0.6242762759255558  0.9974605358118181  0.1838811686044210   T   T   T
  0.1269917913423767  0.5025260552343548  0.1844960626372782   T   T   T
  0.6230082086576231  0.5025260552343548  0.1844960626372782   T   T   T
  0.3750000000000000 -0.0000630663966787  0.1874170381991265   T   T   T
  0.8750000000000000  0.9991372996120861  0.1844527405429356   T   T   T
  0.3750000000000000  0.5009855016678604  0.1835448689969339   T   T   T
  0.8750000000000000  0.5006361006397477  0.1846976363110466   T   T   T
  0.9987473401790771  0.2502057697518008  0.1833548265635296   T   T   T
  0.4965581529183796  0.2538178775756577  0.1858258758493605   T   T   T
 -0.0001860895150066  0.7495967247768471  0.1846508623633870   T   T   T
  0.4974051843467198  0.7467290160786851  0.1872735880193794   T   T   T
  0.2534418470816204  0.2538178775756577  0.1858258758493605   T   T   T
  0.7512526598209229  0.2502057697518008  0.1833548265635296   T   T   T
  0.2525948156532802  0.7467290160786851  0.1872735880193794   T   T   T
  0.7501860895150069  0.7495967247768471  0.1846508623633870   T   T   T
 -0.0001482404766478 -0.0000409819616453  0.2740907708715204   T   T   T
  0.4995155746074979  0.0004897703670221  0.2751208833472265   T   T   T
  0.0001729301130981  0.4994635963300387  0.2744269798267730   T   T   T
  0.4963152222600663  0.4990197171672586  0.2875322275992040   T   T   T
  0.2504844253925021  0.0004897703670221  0.2751208833472265   T   T   T
  0.7501482404766479 -0.0000409819616453  0.2740907708715204   T   T   T
  0.2536847777399337  0.4990197171672586  0.2875322275992040   T   T   T
  0.7498270698869017  0.4994635963300387  0.2744269798267730   T   T   T
  0.1252158297718126  0.7492858293105098  0.2744582052919766   T   T   T
  0.6247841702281876  0.7492858293105098  0.2744582052919766   T   T   T
  0.3750000000000000  0.2562152180269737  0.2884539085208601   T   T   T
  0.8750000000000000  0.2499075756933109  0.2742817455769577   T   T   T
  0.3750000000000000  0.7421987284946321  0.2877987751385397   T   T   T
  0.8750000000000000  0.7496395207288636  0.2753506616966299   T   T   T
 -0.0002814642305264  0.0000331848345721  0.0030064282753244   T   T   T
  0.5004215513665211  0.0001868551047476  0.0029047497062272   T   T   T
 -0.0003926664290883  0.4999573943117016  0.0028701411026061   T   T   T
  0.5004834504593825  0.5000529414641508  0.0027989893521377   T   T   T
  0.2495784486334790  0.0001868551047476  0.0029047497062272   T   T   T
  0.7502814642305262  0.0000331848345721  0.0030064282753244   T   T   T
  0.2495165495406179  0.5000529414641508  0.0027989893521377   T   T   T
  0.7503926664290886  0.4999573943117016  0.0028701411026061   T   T   T
  0.1244390589989995  0.2499439929423679  0.0029053606056603   T   T   T
  0.6255609410010006  0.2499439929423679  0.0029053606056603   T   T   T
  0.1244436492080602  0.7501496474395328  0.0030982325510280   T   T   T
  0.6255563507919399  0.7501496474395328  0.0030982325510280   T   T   T
  0.3750000000000000  0.2501407139417161  0.0028011112412309   T   T   T
  0.8750000000000000  0.2498957762139303  0.0029802705111497   T   T   T
  0.3750000000000000  0.7501863629721203  0.0027132272989213   T   T   T
  0.8750000000000000  0.7500448539713385  0.0030335766243831   T   T   T
  0.1243070394288309  0.0007591347289056  0.0951051297084315   T   T   T
  0.6256929605711689  0.0007591347289056  0.0951051297084315   T   T   T
  0.1238404847276085  0.4993618612140661  0.0947576541440562   T   T   T
  0.6261595152723916  0.4993618612140661  0.0947576541440562   T   T   T
  0.3750000000000000  0.0005047063271443  0.0942741091760516   T   T   T
  0.8750000000000000  0.0001118752658730  0.0949265743618460   T   T   T
  0.3750000000000000  0.4999591836639684  0.0938613647264404   T   T   T
  0.8750000000000000  0.4997724877709439  0.0950226694812077   T   T   T
 -0.0002465778018536  0.2499651575444629  0.0949063858757728   T   T   T
  0.5010495957089618  0.2497075863378118  0.0948171186772576   T   T   T
 -0.0004573990405233  0.7499853635698809  0.0949704297345459   T   T   T
  0.5007881471397340  0.7506973043012393  0.0946496174072999   T   T   T
  0.2489504042910383  0.2497075863378118  0.0948171186772576   T   T   T
  0.7502465778018537  0.2499651575444629  0.0949063858757728   T   T   T
  0.2492118528602660  0.7506973043012393  0.0946496174072999   T   T   T
  0.7504573990405229  0.7499853635698809  0.0949704297345459   T   T   T
 -0.0009444539122430 -0.0001707739127086  0.1846792311427644   T   T   T
  0.5009359262448674  0.0007011399710896  0.1850439505550105   T   T   T
 -0.0006541474008690  0.5000094762171750  0.1849431938879631   T   T   T
  0.5016431171428197  0.4998867703687236  0.1829447540830735   T   T   T
  0.2490640737551326  0.0007011399710896  0.1850439505550105   T   T   T
  0.7509444539122430 -0.0001707739127086  0.1846792311427644   T   T   T
  0.2483568828571803  0.4998867703687236  0.1829447540830735   T   T   T
  0.7506541474008691  0.5000094762171750  0.1849431938879631   T   T   T
  0.1229391857231304  0.2500214195196870  0.1867521482813976   T   T   T
  0.6270608142768695  0.2500214195196870  0.1867521482813976   T   T   T
  0.1234959235830801  0.7500427773370041  0.1856513739730874   T   T   T
  0.6265040764169197  0.7500427773370041  0.1856513739730874   T   T   T
  0.3750000000000000  0.2472518653156697  0.1841917995245611   T   T   T
  0.8750000000000000  0.2499674176644778  0.1857157515443426   T   T   T
  0.3750000000000000  0.7533390730751760  0.1839785019741116   T   T   T
  0.8750000000000000  0.7497740974177080  0.1859042260687341   T   T   T
  0.1219212269471485  0.0183984660280586  0.2749310617796291   T   T   T
  0.6280787226188549  0.0183984660280586  0.2749310617796291   T   T   T
  0.1227355399810629  0.4807333508182188  0.2758299063249854   T   T   T
  0.6272644095849401  0.4807333508182188  0.2758299063249854   T   T   T
  0.3749999747830017  0.0059273461305415  0.2786897986329616   T   T   T
  0.8749999747830017  0.0038168200644895  0.2772996211634303   T   T   T
  0.3749999243470015  0.4978427387395458  0.2657068489602548   T   T   T
  0.8749999747830017  0.4956698177339458  0.2775940197441875   T   T   T
  0.0072304119088449  0.2498846090234357  0.2751555148147908   T   T   T
  0.5144137443316409  0.2465137446190669  0.2746583613674906   T   T   T
  0.0009125675094487  0.7496754694093613  0.2773047907555302   T   T   T
  0.5054840010524612  0.7545495325205748  0.2766191390419841   T   T   T
  0.2355862556683590  0.2465137446190669  0.2746583613674906   T   T   T
  0.7427695880911549  0.2498846090234357  0.2751555148147908   T   T   T
  0.2445159989475390  0.7545495325205748  0.2766191390419841   T   T   T
  0.7490874324905512  0.7496754694093613  0.2773047907555302   T   T   T
  0.3749999243470015  0.4910284071961746  0.3666452536012947   T   T   T
 
  0.00000000E+00  0.00000000E+00  0.00000000E+00
  0.00000000E+00  0.00000000E+00  0.00000000E+00
  0.00000000E+00  0.00000000E+00  0.00000000E+00
  0.00000000E+00  0.00000000E+00  0.00000000E+00
  0.00000000E+00  0.00000000E+00  0.00000000E+00
  0.00000000E+00  0.00000000E+00  0.00000000E+00
  0.00000000E+00  0.00000000E+00  0.00000000E+00
  0.00000000E+00  0.00000000E+00  0.00000000E+00
  0.00000000E+00  0.00000000E+00  0.00000000E+00
  0.00000000E+00  0.00000000E+00  0.00000000E+00
  0.00000000E+00  0.00000000E+00  0.00000000E+00
  0.00000000E+00  0.00000000E+00  0.00000000E+00
  0.00000000E+00  0.00000000E+00  0.00000000E+00
  0.00000000E+00  0.00000000E+00  0.00000000E+00
  0.00000000E+00  0.00000000E+00  0.00000000E+00
  0.00000000E+00  0.00000000E+00  0.00000000E+00
  0.00000000E+00  0.00000000E+00  0.00000000E+00
  0.00000000E+00  0.00000000E+00  0.00000000E+00
  0.00000000E+00  0.00000000E+00  0.00000000E+00
  0.00000000E+00  0.00000000E+00  0.00000000E+00
  0.00000000E+00  0.00000000E+00  0.00000000E+00
  0.00000000E+00  0.00000000E+00  0.00000000E+00
  0.00000000E+00  0.00000000E+00  0.00000000E+00
  0.00000000E+00  0.00000000E+00  0.00000000E+00
  0.00000000E+00  0.00000000E+00  0.00000000E+00
  0.00000000E+00  0.00000000E+00  0.00000000E+00
  0.00000000E+00  0.00000000E+00  0.00000000E+00
  0.00000000E+00  0.00000000E+00  0.00000000E+00
  0.00000000E+00  0.00000000E+00  0.00000000E+00
  0.00000000E+00  0.00000000E+00  0.00000000E+00
  0.00000000E+00  0.00000000E+00  0.00000000E+00
  0.00000000E+00  0.00000000E+00  0.00000000E+00
  0.00000000E+00  0.00000000E+00  0.00000000E+00
  0.00000000E+00  0.00000000E+00  0.00000000E+00
  0.00000000E+00  0.00000000E+00  0.00000000E+00
  0.00000000E+00  0.00000000E+00  0.00000000E+00
  0.00000000E+00  0.00000000E+00  0.00000000E+00
  0.00000000E+00  0.00000000E+00  0.00000000E+00
  0.00000000E+00  0.00000000E+00  0.00000000E+00
  0.00000000E+00  0.00000000E+00  0.00000000E+00
  0.00000000E+00  0.00000000E+00  0.00000000E+00
  0.00000000E+00  0.00000000E+00  0.00000000E+00
  0.00000000E+00  0.00000000E+00  0.00000000E+00
  0.00000000E+00  0.00000000E+00  0.00000000E+00
  0.00000000E+00  0.00000000E+00  0.00000000E+00
  0.00000000E+00  0.00000000E+00  0.00000000E+00
  0.00000000E+00  0.00000000E+00  0.00000000E+00
  0.00000000E+00  0.00000000E+00  0.00000000E+00
  0.00000000E+00  0.00000000E+00  0.00000000E+00
  0.00000000E+00  0.00000000E+00  0.00000000E+00
  0.00000000E+00  0.00000000E+00  0.00000000E+00
  0.00000000E+00  0.00000000E+00  0.00000000E+00
  0.00000000E+00  0.00000000E+00  0.00000000E+00
  0.00000000E+00  0.00000000E+00  0.00000000E+00
  0.00000000E+00  0.00000000E+00  0.00000000E+00
  0.00000000E+00  0.00000000E+00  0.00000000E+00
  0.00000000E+00  0.00000000E+00  0.00000000E+00
  0.00000000E+00  0.00000000E+00  0.00000000E+00
  0.00000000E+00  0.00000000E+00  0.00000000E+00
  0.00000000E+00  0.00000000E+00  0.00000000E+00
  0.00000000E+00  0.00000000E+00  0.00000000E+00
  0.00000000E+00  0.00000000E+00  0.00000000E+00
  0.00000000E+00  0.00000000E+00  0.00000000E+00
  0.00000000E+00  0.00000000E+00  0.00000000E+00
  0.00000000E+00  0.00000000E+00  0.00000000E+00
  0.00000000E+00  0.00000000E+00  0.00000000E+00
  0.00000000E+00  0.00000000E+00  0.00000000E+00
  0.00000000E+00  0.00000000E+00  0.00000000E+00
  0.00000000E+00  0.00000000E+00  0.00000000E+00
  0.00000000E+00  0.00000000E+00  0.00000000E+00
  0.00000000E+00  0.00000000E+00  0.00000000E+00
  0.00000000E+00  0.00000000E+00  0.00000000E+00
  0.00000000E+00  0.00000000E+00  0.00000000E+00
  0.00000000E+00  0.00000000E+00  0.00000000E+00
  0.00000000E+00  0.00000000E+00  0.00000000E+00
  0.00000000E+00  0.00000000E+00  0.00000000E+00
  0.00000000E+00  0.00000000E+00  0.00000000E+00
  0.00000000E+00  0.00000000E+00  0.00000000E+00
  0.00000000E+00  0.00000000E+00  0.00000000E+00
  0.00000000E+00  0.00000000E+00  0.00000000E+00
  0.00000000E+00  0.00000000E+00  0.00000000E+00
  0.00000000E+00  0.00000000E+00  0.00000000E+00
  0.00000000E+00  0.00000000E+00  0.00000000E+00
  0.00000000E+00  0.00000000E+00  0.00000000E+00
  0.00000000E+00  0.00000000E+00  0.00000000E+00
  0.00000000E+00  0.00000000E+00  0.00000000E+00
  0.00000000E+00  0.00000000E+00  0.00000000E+00
  0.00000000E+00  0.00000000E+00  0.00000000E+00
  0.00000000E+00  0.00000000E+00  0.00000000E+00
  0.00000000E+00  0.00000000E+00  0.00000000E+00
  0.00000000E+00  0.00000000E+00  0.00000000E+00
  0.00000000E+00  0.00000000E+00  0.00000000E+00
  0.00000000E+00  0.00000000E+00  0.00000000E+00
  0.00000000E+00  0.00000000E+00  0.00000000E+00
  0.00000000E+00  0.00000000E+00  0.00000000E+00
  0.00000000E+00  0.00000000E+00  0.00000000E+00
  0.00000000E+00  0.00000000E+00  0.00000000E+00
  0.00000000E+00  0.00000000E+00  0.00000000E+00
  0.00000000E+00  0.00000000E+00  0.00000000E+00
  0.00000000E+00  0.00000000E+00  0.00000000E+00
  0.00000000E+00  0.00000000E+00  0.00000000E+00
  0.00000000E+00  0.00000000E+00  0.00000000E+00
  0.00000000E+00  0.00000000E+00  0.00000000E+00
  0.00000000E+00  0.00000000E+00  0.00000000E+00
  0.00000000E+00  0.00000000E+00  0.00000000E+00
  0.00000000E+00  0.00000000E+00  0.00000000E+00
  0.00000000E+00  0.00000000E+00  0.00000000E+00
  0.00000000E+00  0.00000000E+00  0.00000000E+00
  0.00000000E+00  0.00000000E+00  0.00000000E+00
  0.00000000E+00  0.00000000E+00  0.00000000E+00
  0.00000000E+00  0.00000000E+00  0.00000000E+00
  0.00000000E+00  0.00000000E+00  0.00000000E+00
  0.00000000E+00  0.00000000E+00  0.00000000E+00
  0.00000000E+00  0.00000000E+00  0.00000000E+00
  0.00000000E+00  0.00000000E+00  0.00000000E+00
  0.00000000E+00  0.00000000E+00  0.00000000E+00
  0.00000000E+00  0.00000000E+00  0.00000000E+00
  0.00000000E+00  0.00000000E+00  0.00000000E+00
  0.00000000E+00  0.00000000E+00  0.00000000E+00
  0.00000000E+00  0.00000000E+00  0.00000000E+00
  0.00000000E+00  0.00000000E+00  0.00000000E+00
  0.00000000E+00  0.00000000E+00  0.00000000E+00
  0.00000000E+00  0.00000000E+00  0.00000000E+00
  0.00000000E+00  0.00000000E+00  0.00000000E+00
  0.00000000E+00  0.00000000E+00  0.00000000E+00
  0.00000000E+00  0.00000000E+00  0.00000000E+00
  0.00000000E+00  0.00000000E+00  0.00000000E+00
  0.00000000E+00  0.00000000E+00  0.00000000E+00
  0.00000000E+00  0.00000000E+00  0.00000000E+00
