Al Mg O                                 
   1.00000000000000     
    16.8282433949600012    0.0000000000000000    0.0000000000000000
     0.0000000000000000    8.4141216974800006    0.0000000000000000
     0.0000000000000000    0.0000000000000000   23.4141216974799988
   Al   Mg   O 
     2    62    64
Selective dynamics
Direct
  0.1250000000000000  0.2500000000000000  0.2685352982280023   T   T   T
  0.6250000000000000  0.2500000000000000  0.2685352982280023   T   T   T
  0.1250000000000000  0.9998085618619967  0.0044200452620018   T   T   T
  0.6250000000000000  0.9998085618619967  0.0044200452620018   T   T   T
  0.1250000000000000  0.5001914381380033  0.0044200452620018   T   T   T
  0.6250000000000000  0.5001914381380033  0.0044200452620018   T   T   T
  0.3750000000000000  0.9998119396139984  0.0046505980210014   T   T   T
  0.8750000000000000  0.9998119396139984  0.0046505980210014   T   T   T
  0.3750000000000000  0.5001880603860016  0.0046505980210014   T   T   T
  0.8750000000000000  0.5001880603860016  0.0046505980210014   T   T   T
  0.9999033257900010  0.2500000000000000  0.0044240965959972   T   T   T
  0.4999033257900010  0.2500000000000000  0.0044240965959972   T   T   T
  0.9999059719079995  0.7500000000000000  0.0046520788069984   T   T   T
  0.4999059719079995  0.7500000000000000  0.0046520788069984   T   T   T
  0.2500966742099990  0.2500000000000000  0.0044240965959972   T   T   T
  0.7500966742099990  0.2500000000000000  0.0044240965959972   T   T   T
  0.2500940280920005  0.7500000000000000  0.0046520788069984   T   T   T
  0.7500940280920005  0.7500000000000000  0.0046520788069984   T   T   T
  0.9997639046690026  0.9995295489580016  0.0943637429760003   T   T   T
  0.4997639046690026  0.9995295489580016  0.0943637429760003   T   T   T
  0.9997639046690026  0.5004704510419984  0.0943637429760003   T   T   T
  0.4997639046690026  0.5004704510419984  0.0943637429760003   T   T   T
  0.2502360953309974  0.9995295489580016  0.0943637429760003   T   T   T
  0.7502360953309974  0.9995295489580016  0.0943637429760003   T   T   T
  0.2502360953309974  0.5004704510419984  0.0943637429760003   T   T   T
  0.7502360953309974  0.5004704510419984  0.0943637429760003   T   T   T
  0.1250000000000000  0.2500000000000000  0.0933237858619975   T   T   T
  0.6250000000000000  0.2500000000000000  0.0933237858619975   T   T   T
  0.1250000000000000  0.7500000000000000  0.0941295787449974   T   T   T
  0.6250000000000000  0.7500000000000000  0.0941295787449974   T   T   T
  0.3750000000000000  0.2500000000000000  0.0941334792429984   T   T   T
  0.8750000000000000  0.2500000000000000  0.0941334792429984   T   T   T
  0.3750000000000000  0.7500000000000000  0.0946311801399986   T   T   T
  0.8750000000000000  0.7500000000000000  0.0946311801399986   T   T   T
  0.1250000000000000  0.9974022491210022  0.1841042999200013   T   T   T
  0.6250000000000000  0.9974022491210022  0.1841042999200013   T   T   T
  0.1250000000000000  0.5025977508789978  0.1841042999200013   T   T   T
  0.6250000000000000  0.5025977508789978  0.1841042999200013   T   T   T
  0.3750000000000000  0.9993508162299989  0.1854933193859978   T   T   T
  0.8750000000000000  0.9993508162299989  0.1854933193859978   T   T   T
  0.3750000000000000  0.5006491837700011  0.1854933193859978   T   T   T
  0.8750000000000000  0.5006491837700011  0.1854933193859978   T   T   T
  0.9987002881630005  0.2500000000000000  0.1840986257410009   T   T   T
  0.4987002881630005  0.2500000000000000  0.1840986257410009   T   T   T
  0.9996727607739970  0.7500000000000000  0.1854826794649966   T   T   T
  0.4996727607739970  0.7500000000000000  0.1854826794649966   T   T   T
  0.2512997118369995  0.2500000000000000  0.1840986257410009   T   T   T
  0.7512997118369995  0.2500000000000000  0.1840986257410009   T   T   T
  0.2503272392260030  0.7500000000000000  0.1854826794649966   T   T   T
  0.7503272392260030  0.7500000000000000  0.1854826794649966   T   T   T
  0.0000993487189973  0.0001994008630035  0.2759059071389984   T   T   T
  0.5000993487189973  0.0001994008630035  0.2759059071389984   T   T   T
  0.0000993487189973  0.4998005991369965  0.2759059071389984   T   T   T
  0.5000993487189973  0.4998005991369965  0.2759059071389984   T   T   T
  0.2499006512810027  0.0001994008630035  0.2759059071389984   T   T   T
  0.7499006512810027  0.0001994008630035  0.2759059071389984   T   T   T
  0.2499006512810027  0.4998005991369965  0.2759059071389984   T   T   T
  0.7499006512810027  0.4998005991369965  0.2759059071389984   T   T   T
  0.1250000000000000  0.7500000000000000  0.2760907189549968   T   T   T
  0.6250000000000000  0.7500000000000000  0.2760907189549968   T   T   T
  0.3750000000000000  0.2500000000000000  0.2760965465219982   T   T   T
  0.8750000000000000  0.2500000000000000  0.2760965465219982   T   T   T
  0.3750000000000000  0.7500000000000000  0.2768743144799970   T   T   T
  0.8750000000000000  0.7500000000000000  0.2768743144799970   T   T   T
  0.0000284322159985  0.0000579582159972  0.0034750884380017   T   T   T
  0.5000284322159985  0.0000579582159972  0.0034750884380017   T   T   T
  0.0000284322159985  0.4999420417840028  0.0034750884380017   T   T   T
  0.5000284322159985  0.4999420417840028  0.0034750884380017   T   T   T
  0.2499715677840015  0.0000579582159972  0.0034750884380017   T   T   T
  0.7499715677840015  0.0000579582159972  0.0034750884380017   T   T   T
  0.2499715677840015  0.4999420417840028  0.0034750884380017   T   T   T
  0.7499715677840015  0.4999420417840028  0.0034750884380017   T   T   T
  0.1250000000000000  0.2500000000000000  0.0032477955179999   T   T   T
  0.6250000000000000  0.2500000000000000  0.0032477955179999   T   T   T
  0.1250000000000000  0.7500000000000000  0.0035255360009998   T   T   T
  0.6250000000000000  0.7500000000000000  0.0035255360009998   T   T   T
  0.3750000000000000  0.2500000000000000  0.0035275793170015   T   T   T
  0.8750000000000000  0.2500000000000000  0.0035275793170015   T   T   T
  0.3750000000000000  0.7500000000000000  0.0035928202330027   T   T   T
  0.8750000000000000  0.7500000000000000  0.0035928202330027   T   T   T
  0.1250000000000000  0.0007156889950011  0.0954194371590020   T   T   T
  0.6250000000000000  0.0007156889950011  0.0954194371590020   T   T   T
  0.1250000000000000  0.4992843110049989  0.0954194371590020   T   T   T
  0.6250000000000000  0.4992843110049989  0.0954194371590020   T   T   T
  0.3750000000000000  0.0002735251290034  0.0954430758409970   T   T   T
  0.8750000000000000  0.0002735251290034  0.0954430758409970   T   T   T
  0.3750000000000000  0.4997264748709966  0.0954430758409970   T   T   T
  0.8750000000000000  0.4997264748709966  0.0954430758409970   T   T   T
  0.0003559802419986  0.2500000000000000  0.0954139610979965   T   T   T
  0.5003559802419986  0.2500000000000000  0.0954139610979965   T   T   T
  0.0001367639650027  0.7500000000000000  0.0954365750399973   T   T   T
  0.5001367639650027  0.7500000000000000  0.0954365750399973   T   T   T
  0.2496440197580014  0.2500000000000000  0.0954139610979965   T   T   T
  0.7496440197580014  0.2500000000000000  0.0954139610979965   T   T   T
  0.2498632360349973  0.7500000000000000  0.0954365750399973   T   T   T
  0.7498632360349973  0.7500000000000000  0.0954365750399973   T   T   T
  0.0000938190540012  0.0001906373160026  0.1852547119559986   T   T   T
  0.5000938190540012  0.0001906373160026  0.1852547119559986   T   T   T
  0.0000938190540012  0.4998093626839974  0.1852547119559986   T   T   T
  0.5000938190540012  0.4998093626839974  0.1852547119559986   T   T   T
  0.2499061809459988  0.0001906373160026  0.1852547119559986   T   T   T
  0.7499061809459988  0.0001906373160026  0.1852547119559986   T   T   T
  0.2499061809459988  0.4998093626839974  0.1852547119559986   T   T   T
  0.7499061809459988  0.4998093626839974  0.1852547119559986   T   T   T
  0.1250000000000000  0.2500000000000000  0.1873237635030023   T   T   T
  0.6250000000000000  0.2500000000000000  0.1873237635030023   T   T   T
  0.1250000000000000  0.7500000000000000  0.1862543464280009   T   T   T
  0.6250000000000000  0.7500000000000000  0.1862543464280009   T   T   T
  0.3750000000000000  0.2500000000000000  0.1862556221780025   T   T   T
  0.8750000000000000  0.2500000000000000  0.1862556221780025   T   T   T
  0.3750000000000000  0.7500000000000000  0.1862230810610015   T   T   T
  0.8750000000000000  0.7500000000000000  0.1862230810610015   T   T   T
  0.1249999747830017  0.0190253781940015  0.2752916687690004   T   T   T
  0.6249999747830017  0.0190253781940015  0.2752916687690004   T   T   T
  0.1249999747830017  0.4809746218059985  0.2752916687690004   T   T   T
  0.6249999747830017  0.4809746218059985  0.2752916687690004   T   T   T
  0.3749999747830017  0.0041377096439987  0.2772633065190035   T   T   T
  0.8749999747830017  0.0041377096439987  0.2772633065190035   T   T   T
  0.3749999747830017  0.4958622903560013  0.2772633065190035   T   T   T
  0.8749999747830017  0.4958622903560013  0.2772633065190035   T   T   T
  0.0095061311239988  0.2500000000000000  0.2752842758349985   T   T   T
  0.5095061311239988  0.2500000000000000  0.2752842758349985   T   T   T
  0.0020714480560002  0.7500000000000000  0.2772494159690027   T   T   T
  0.5020714480560002  0.7500000000000000  0.2772494159690027   T   T   T
  0.2404938688760012  0.2500000000000000  0.2752842758349985   T   T   T
  0.7404938688760012  0.2500000000000000  0.2752842758349985   T   T   T
  0.2479285519439998  0.7500000000000000  0.2772494159690027   T   T   T
  0.7479285519439998  0.7500000000000000  0.2772494159690027   T   T   T
 
  0.00000000E+00  0.00000000E+00  0.00000000E+00
  0.00000000E+00  0.00000000E+00  0.00000000E+00
  0.00000000E+00  0.00000000E+00  0.00000000E+00
  0.00000000E+00  0.00000000E+00  0.00000000E+00
  0.00000000E+00  0.00000000E+00  0.00000000E+00
  0.00000000E+00  0.00000000E+00  0.00000000E+00
  0.00000000E+00  0.00000000E+00  0.00000000E+00
  0.00000000E+00  0.00000000E+00  0.00000000E+00
  0.00000000E+00  0.00000000E+00  0.00000000E+00
  0.00000000E+00  0.00000000E+00  0.00000000E+00
  0.00000000E+00  0.00000000E+00  0.00000000E+00
  0.00000000E+00  0.00000000E+00  0.00000000E+00
  0.00000000E+00  0.00000000E+00  0.00000000E+00
  0.00000000E+00  0.00000000E+00  0.00000000E+00
  0.00000000E+00  0.00000000E+00  0.00000000E+00
  0.00000000E+00  0.00000000E+00  0.00000000E+00
  0.00000000E+00  0.00000000E+00  0.00000000E+00
  0.00000000E+00  0.00000000E+00  0.00000000E+00
  0.00000000E+00  0.00000000E+00  0.00000000E+00
  0.00000000E+00  0.00000000E+00  0.00000000E+00
  0.00000000E+00  0.00000000E+00  0.00000000E+00
  0.00000000E+00  0.00000000E+00  0.00000000E+00
  0.00000000E+00  0.00000000E+00  0.00000000E+00
  0.00000000E+00  0.00000000E+00  0.00000000E+00
  0.00000000E+00  0.00000000E+00  0.00000000E+00
  0.00000000E+00  0.00000000E+00  0.00000000E+00
  0.00000000E+00  0.00000000E+00  0.00000000E+00
  0.00000000E+00  0.00000000E+00  0.00000000E+00
  0.00000000E+00  0.00000000E+00  0.00000000E+00
  0.00000000E+00  0.00000000E+00  0.00000000E+00
  0.00000000E+00  0.00000000E+00  0.00000000E+00
  0.00000000E+00  0.00000000E+00  0.00000000E+00
  0.00000000E+00  0.00000000E+00  0.00000000E+00
  0.00000000E+00  0.00000000E+00  0.00000000E+00
  0.00000000E+00  0.00000000E+00  0.00000000E+00
  0.00000000E+00  0.00000000E+00  0.00000000E+00
  0.00000000E+00  0.00000000E+00  0.00000000E+00
  0.00000000E+00  0.00000000E+00  0.00000000E+00
  0.00000000E+00  0.00000000E+00  0.00000000E+00
  0.00000000E+00  0.00000000E+00  0.00000000E+00
  0.00000000E+00  0.00000000E+00  0.00000000E+00
  0.00000000E+00  0.00000000E+00  0.00000000E+00
  0.00000000E+00  0.00000000E+00  0.00000000E+00
  0.00000000E+00  0.00000000E+00  0.00000000E+00
  0.00000000E+00  0.00000000E+00  0.00000000E+00
  0.00000000E+00  0.00000000E+00  0.00000000E+00
  0.00000000E+00  0.00000000E+00  0.00000000E+00
  0.00000000E+00  0.00000000E+00  0.00000000E+00
  0.00000000E+00  0.00000000E+00  0.00000000E+00
  0.00000000E+00  0.00000000E+00  0.00000000E+00
  0.00000000E+00  0.00000000E+00  0.00000000E+00
  0.00000000E+00  0.00000000E+00  0.00000000E+00
  0.00000000E+00  0.00000000E+00  0.00000000E+00
  0.00000000E+00  0.00000000E+00  0.00000000E+00
  0.00000000E+00  0.00000000E+00  0.00000000E+00
  0.00000000E+00  0.00000000E+00  0.00000000E+00
  0.00000000E+00  0.00000000E+00  0.00000000E+00
  0.00000000E+00  0.00000000E+00  0.00000000E+00
  0.00000000E+00  0.00000000E+00  0.00000000E+00
  0.00000000E+00  0.00000000E+00  0.00000000E+00
  0.00000000E+00  0.00000000E+00  0.00000000E+00
  0.00000000E+00  0.00000000E+00  0.00000000E+00
  0.00000000E+00  0.00000000E+00  0.00000000E+00
  0.00000000E+00  0.00000000E+00  0.00000000E+00
  0.00000000E+00  0.00000000E+00  0.00000000E+00
  0.00000000E+00  0.00000000E+00  0.00000000E+00
  0.00000000E+00  0.00000000E+00  0.00000000E+00
  0.00000000E+00  0.00000000E+00  0.00000000E+00
  0.00000000E+00  0.00000000E+00  0.00000000E+00
  0.00000000E+00  0.00000000E+00  0.00000000E+00
  0.00000000E+00  0.00000000E+00  0.00000000E+00
  0.00000000E+00  0.00000000E+00  0.00000000E+00
  0.00000000E+00  0.00000000E+00  0.00000000E+00
  0.00000000E+00  0.00000000E+00  0.00000000E+00
  0.00000000E+00  0.00000000E+00  0.00000000E+00
  0.00000000E+00  0.00000000E+00  0.00000000E+00
  0.00000000E+00  0.00000000E+00  0.00000000E+00
  0.00000000E+00  0.00000000E+00  0.00000000E+00
  0.00000000E+00  0.00000000E+00  0.00000000E+00
  0.00000000E+00  0.00000000E+00  0.00000000E+00
  0.00000000E+00  0.00000000E+00  0.00000000E+00
  0.00000000E+00  0.00000000E+00  0.00000000E+00
  0.00000000E+00  0.00000000E+00  0.00000000E+00
  0.00000000E+00  0.00000000E+00  0.00000000E+00
  0.00000000E+00  0.00000000E+00  0.00000000E+00
  0.00000000E+00  0.00000000E+00  0.00000000E+00
  0.00000000E+00  0.00000000E+00  0.00000000E+00
  0.00000000E+00  0.00000000E+00  0.00000000E+00
  0.00000000E+00  0.00000000E+00  0.00000000E+00
  0.00000000E+00  0.00000000E+00  0.00000000E+00
  0.00000000E+00  0.00000000E+00  0.00000000E+00
  0.00000000E+00  0.00000000E+00  0.00000000E+00
  0.00000000E+00  0.00000000E+00  0.00000000E+00
  0.00000000E+00  0.00000000E+00  0.00000000E+00
  0.00000000E+00  0.00000000E+00  0.00000000E+00
  0.00000000E+00  0.00000000E+00  0.00000000E+00
  0.00000000E+00  0.00000000E+00  0.00000000E+00
  0.00000000E+00  0.00000000E+00  0.00000000E+00
  0.00000000E+00  0.00000000E+00  0.00000000E+00
  0.00000000E+00  0.00000000E+00  0.00000000E+00
  0.00000000E+00  0.00000000E+00  0.00000000E+00
  0.00000000E+00  0.00000000E+00  0.00000000E+00
  0.00000000E+00  0.00000000E+00  0.00000000E+00
  0.00000000E+00  0.00000000E+00  0.00000000E+00
  0.00000000E+00  0.00000000E+00  0.00000000E+00
  0.00000000E+00  0.00000000E+00  0.00000000E+00
  0.00000000E+00  0.00000000E+00  0.00000000E+00
  0.00000000E+00  0.00000000E+00  0.00000000E+00
  0.00000000E+00  0.00000000E+00  0.00000000E+00
  0.00000000E+00  0.00000000E+00  0.00000000E+00
  0.00000000E+00  0.00000000E+00  0.00000000E+00
  0.00000000E+00  0.00000000E+00  0.00000000E+00
  0.00000000E+00  0.00000000E+00  0.00000000E+00
  0.00000000E+00  0.00000000E+00  0.00000000E+00
  0.00000000E+00  0.00000000E+00  0.00000000E+00
  0.00000000E+00  0.00000000E+00  0.00000000E+00
  0.00000000E+00  0.00000000E+00  0.00000000E+00
  0.00000000E+00  0.00000000E+00  0.00000000E+00
  0.00000000E+00  0.00000000E+00  0.00000000E+00
  0.00000000E+00  0.00000000E+00  0.00000000E+00
  0.00000000E+00  0.00000000E+00  0.00000000E+00
  0.00000000E+00  0.00000000E+00  0.00000000E+00
  0.00000000E+00  0.00000000E+00  0.00000000E+00
  0.00000000E+00  0.00000000E+00  0.00000000E+00
  0.00000000E+00  0.00000000E+00  0.00000000E+00
  0.00000000E+00  0.00000000E+00  0.00000000E+00
  0.00000000E+00  0.00000000E+00  0.00000000E+00
  0.00000000E+00  0.00000000E+00  0.00000000E+00
