Al Mg O Au                              
   1.00000000000000     
    16.8282433949600012    0.0000000000000000    0.0000000000000000
     0.0000000000000000    8.4141216974800006    0.0000000000000000
     0.0000000000000000    0.0000000000000000   23.4141216974799988
   Al   Mg   O    Au
     2    62    64     1
Selective dynamics
Direct
  0.1254432940451862  0.2514264084513892  0.2676254126265722   T   T   T
  0.6245567059548138  0.2514264084513892  0.2676254126265722   T   T   T
  0.1249858750549061  0.0008078920340058  0.0044729572869501   T   T   T
  0.6250141249450939  0.0008078920340058  0.0044729572869501   T   T   T
  0.1249431148623195  0.5011436901773066  0.0044033174837367   T   T   T
  0.6250568851376807  0.5011436901773066  0.0044033174837367   T   T   T
  0.3750000000000000  0.0011695743924914  0.0045469197771848   T   T   T
  0.8750000000000000  0.0004875488406079  0.0047157957955070   T   T   T
  0.3750000000000000  0.5012712696769202  0.0045154247253318   T   T   T
  0.8750000000000000  0.5009232250956237  0.0045575004965574   T   T   T
 -0.0000827162690110  0.2508197238614425  0.0044441697067237   T   T   T
  0.4998862739425190  0.2511532482912748  0.0043846220759655   T   T   T
 -0.0000996243434624  0.7506868588471627  0.0046528693311429   T   T   T
  0.4999041757909552  0.7510762705028756  0.0045384079343210   T   T   T
  0.2501137260574811  0.2511532482912748  0.0043846220759655   T   T   T
  0.7500827162690108  0.2508197238614425  0.0044441697067237   T   T   T
  0.2500958242090449  0.7510762705028756  0.0045384079343210   T   T   T
  0.7500996243434623  0.7506868588471627  0.0046528693311429   T   T   T
 -0.0002307952629421  0.0003578246256810  0.0942671545330012   T   T   T
  0.4996735805522354  0.0008254586417928  0.0942947794306917   T   T   T
 -0.0001461823515005  0.5012865049146404  0.0942278672168553   T   T   T
  0.4998547959374381  0.5016483230473526  0.0942308318363480   T   T   T
  0.2503264194477646  0.0008254586417928  0.0942947794306917   T   T   T
  0.7502307952629420  0.0003578246256810  0.0942671545330012   T   T   T
  0.2501452040625619  0.5016483230473526  0.0942308318363480   T   T   T
  0.7501461823515004  0.5012865049146404  0.0942278672168553   T   T   T
  0.1251559861783622  0.2511494669322043  0.0933240183118712   T   T   T
  0.6248440138216380  0.2511494669322043  0.0933240183118712   T   T   T
  0.1251344242667219  0.7509642076067706  0.0939964387233216   T   T   T
  0.6248655757332782  0.7509642076067706  0.0939964387233216   T   T   T
  0.3750000000000000  0.2510817445137244  0.0941246886433829   T   T   T
  0.8750000000000000  0.2507608206518369  0.0939546724091460   T   T   T
  0.3750000000000000  0.7519611350316879  0.0944593399802157   T   T   T
  0.8750000000000000  0.7507561570456521  0.0945044355725913   T   T   T
  0.1253094901290423  0.9986401948839145  0.1838023193312386   T   T   T
  0.6246905098709579  0.9986401948839145  0.1838023193312386   T   T   T
  0.1257234549226348  0.5035814012341236  0.1839823635646961   T   T   T
  0.6242765450773650  0.5035814012341236  0.1839823635646961   T   T   T
  0.3750000000000000  0.0026510035696650  0.1854356894227980   T   T   T
  0.8750000000000000  0.0001911618557200  0.1854097408180606   T   T   T
  0.3750000000000000  0.5013159673451147  0.1843813101924163   T   T   T
  0.8750000000000000  0.5015750068314868  0.1852551244152408   T   T   T
  0.9987824307105092  0.2510355072310391  0.1838340315533097   T   T   T
  0.4976538490454673  0.2520148775180284  0.1843157730546829   T   T   T
 -0.0001521007583020  0.7508556618679164  0.1852037640333938   T   T   T
  0.4992541800332776  0.7506046250595737  0.1852676311020511   T   T   T
  0.2523461509545327  0.2520148775180284  0.1843157730546829   T   T   T
  0.7512175692894908  0.2510355072310391  0.1838340315533097   T   T   T
  0.2507458199667224  0.7506046250595737  0.1852676311020511   T   T   T
  0.7501521007583022  0.7508556618679164  0.1852037640333938   T   T   T
  0.0005425455600402  0.0011873251499635  0.2754043131168180   T   T   T
  0.4992480156234974  0.0027608881769720  0.2751751259401056   T   T   T
  0.0003912594439921  0.5007138273630660  0.2752915088624779   T   T   T
  0.4975393508515190  0.4991163836729580  0.2776388524350992   T   T   T
  0.2507519843765026  0.0027608881769720  0.2751751259401056   T   T   T
  0.7494574544399595  0.0011873251499635  0.2754043131168180   T   T   T
  0.2524606491484810  0.4991163836729580  0.2776388524350992   T   T   T
  0.7496087405560078  0.5007138273630660  0.2752915088624779   T   T   T
  0.1256528517422462  0.7499264432076719  0.2749822759476248   T   T   T
  0.6243471482577538  0.7499264432076719  0.2749822759476248   T   T   T
  0.3750000000000000  0.2535958402251863  0.2832006201910401   T   T   T
  0.8750000000000000  0.2510283549619647  0.2756603004303074   T   T   T
  0.3750000000000000  0.7510920951169411  0.2752697721761062   T   T   T
  0.8750000000000000  0.7508815826361365  0.2765108243385856   T   T   T
 -0.0001596302613907  0.0008224342952906  0.0035024938139141   T   T   T
  0.5002466769853630  0.0012333850865270  0.0033043174537359   T   T   T
 -0.0001398896537897  0.5007357287541947  0.0034047247016280   T   T   T
  0.5002400291503760  0.5010349102145660  0.0031849616071689   T   T   T
  0.2497533230146375  0.0012333850865270  0.0033043174537359   T   T   T
  0.7501596302613905  0.0008224342952906  0.0035024938139141   T   T   T
  0.2497599708496240  0.5010349102145660  0.0031849616071689   T   T   T
  0.7501398896537893  0.5007357287541947  0.0034047247016280   T   T   T
  0.1247708763273887  0.2509437050205977  0.0031892210741577   T   T   T
  0.6252291236726115  0.2509437050205977  0.0031892210741577   T   T   T
  0.1247398445630402  0.7510022463726234  0.0034488841325902   T   T   T
  0.6252601554369597  0.7510022463726234  0.0034488841325902   T   T   T
  0.3750000000000000  0.2511927364104916  0.0032118214346930   T   T   T
  0.8750000000000000  0.2507184040586636  0.0034499596640924   T   T   T
  0.3750000000000000  0.7512829316700681  0.0033095739690423   T   T   T
  0.8750000000000000  0.7507689961554467  0.0035578723846124   T   T   T
  0.1247204206977354  0.0017534562121731  0.0952880479598118   T   T   T
  0.6252795793022641  0.0017534562121731  0.0952880479598118   T   T   T
  0.1246585912038153  0.5003633554325186  0.0951862091025476   T   T   T
  0.6253414087961849  0.5003633554325186  0.0951862091025476   T   T   T
  0.3750000000000000  0.0020369578950110  0.0949103008887293   T   T   T
  0.8750000000000000  0.0009929915513901  0.0955428450858953   T   T   T
  0.3750000000000000  0.5009448096482590  0.0948550083939296   T   T   T
  0.8750000000000000  0.5005246315471912  0.0954010234745466   T   T   T
  0.0001066585817433  0.2508814320668239  0.0953522802031950   T   T   T
  0.5004622534622817  0.2512732902934848  0.0951695843792977   T   T   T
 -0.0000141791050398  0.7508165977417215  0.0954319443763927   T   T   T
  0.5003263945615432  0.7512123689725930  0.0950050350474134   T   T   T
  0.2495377465377184  0.2512732902934848  0.0951695843792977   T   T   T
  0.7498933414182567  0.2508814320668239  0.0953522802031950   T   T   T
  0.2496736054384567  0.7512123689725930  0.0950050350474134   T   T   T
  0.7500141791050399  0.7508165977417215  0.0954319443763927   T   T   T
 -0.0000399560214740  0.0010532916114898  0.1852962786817185   T   T   T
  0.5005663090252102  0.0011849341804379  0.1848247604577716   T   T   T
  0.0000033365090142  0.5009059872362889  0.1852269469843753   T   T   T
  0.5009206733663456  0.5013651838521235  0.1844815886333223   T   T   T
  0.2494336909747896  0.0011849341804379  0.1848247604577716   T   T   T
  0.7500399560214744  0.0010532916114898  0.1852962786817185   T   T   T
  0.2490793266336546  0.5013651838521235  0.1844815886333223   T   T   T
  0.7499966634909856  0.5009059872362889  0.1852269469843753   T   T   T
  0.1241955189890312  0.2511302898010271  0.1867881415147878   T   T   T
  0.6258044810109686  0.2511302898010271  0.1867881415147878   T   T   T
  0.1247389999774672  0.7512041213752705  0.1860146011408286   T   T   T
  0.6252610000225325  0.7512041213752705  0.1860146011408286   T   T   T
  0.3750000000000000  0.2507210635466425  0.1859332594140426   T   T   T
  0.8750000000000000  0.2509259898575555  0.1863029368555192   T   T   T
  0.3750000000000000  0.7537351724954433  0.1846536423105553   T   T   T
  0.8750000000000000  0.7508341779817820  0.1863506311091196   T   T   T
  0.1246764997561624  0.0196950740716503  0.2752922322857205   T   T   T
  0.6253234498098408  0.0196950740716503  0.2752922322857205   T   T   T
  0.1249499300443595  0.4827861091721838  0.2754033537191788   T   T   T
  0.6250500195216437  0.4827861091721838  0.2754033537191788   T   T   T
  0.3749999747830017  0.0029159963465790  0.2759041482157888   T   T   T
  0.8749999747830017  0.0051737961193114  0.2775022549960172   T   T   T
  0.3749999243470015  0.5057937230037192  0.2707344757325811   T   T   T
  0.8749999747830017  0.4967477322856533  0.2773075799905133   T   T   T
  0.0097208536420610  0.2512137551787043  0.2753887760197485   T   T   T
  0.5117821216996296  0.2502827094551777  0.2736615338595283   T   T   T
  0.0023231583283318  0.7508507336022281  0.2774614509949975   T   T   T
  0.5025482428069962  0.7521195646656875  0.2771709111673645   T   T   T
  0.2382178783003705  0.2502827094551777  0.2736615338595283   T   T   T
  0.7402791463579390  0.2512137551787043  0.2753887760197485   T   T   T
  0.2474517571930040  0.7521195646656875  0.2771709111673645   T   T   T
  0.7476768416716685  0.7508507336022281  0.2774614509949975   T   T   T
  0.3749999243470015  0.3505153685550051  0.3888107876954127   T   T   T
 
  0.00000000E+00  0.00000000E+00  0.00000000E+00
  0.00000000E+00  0.00000000E+00  0.00000000E+00
  0.00000000E+00  0.00000000E+00  0.00000000E+00
  0.00000000E+00  0.00000000E+00  0.00000000E+00
  0.00000000E+00  0.00000000E+00  0.00000000E+00
  0.00000000E+00  0.00000000E+00  0.00000000E+00
  0.00000000E+00  0.00000000E+00  0.00000000E+00
  0.00000000E+00  0.00000000E+00  0.00000000E+00
  0.00000000E+00  0.00000000E+00  0.00000000E+00
  0.00000000E+00  0.00000000E+00  0.00000000E+00
  0.00000000E+00  0.00000000E+00  0.00000000E+00
  0.00000000E+00  0.00000000E+00  0.00000000E+00
  0.00000000E+00  0.00000000E+00  0.00000000E+00
  0.00000000E+00  0.00000000E+00  0.00000000E+00
  0.00000000E+00  0.00000000E+00  0.00000000E+00
  0.00000000E+00  0.00000000E+00  0.00000000E+00
  0.00000000E+00  0.00000000E+00  0.00000000E+00
  0.00000000E+00  0.00000000E+00  0.00000000E+00
  0.00000000E+00  0.00000000E+00  0.00000000E+00
  0.00000000E+00  0.00000000E+00  0.00000000E+00
  0.00000000E+00  0.00000000E+00  0.00000000E+00
  0.00000000E+00  0.00000000E+00  0.00000000E+00
  0.00000000E+00  0.00000000E+00  0.00000000E+00
  0.00000000E+00  0.00000000E+00  0.00000000E+00
  0.00000000E+00  0.00000000E+00  0.00000000E+00
  0.00000000E+00  0.00000000E+00  0.00000000E+00
  0.00000000E+00  0.00000000E+00  0.00000000E+00
  0.00000000E+00  0.00000000E+00  0.00000000E+00
  0.00000000E+00  0.00000000E+00  0.00000000E+00
  0.00000000E+00  0.00000000E+00  0.00000000E+00
  0.00000000E+00  0.00000000E+00  0.00000000E+00
  0.00000000E+00  0.00000000E+00  0.00000000E+00
  0.00000000E+00  0.00000000E+00  0.00000000E+00
  0.00000000E+00  0.00000000E+00  0.00000000E+00
  0.00000000E+00  0.00000000E+00  0.00000000E+00
  0.00000000E+00  0.00000000E+00  0.00000000E+00
  0.00000000E+00  0.00000000E+00  0.00000000E+00
  0.00000000E+00  0.00000000E+00  0.00000000E+00
  0.00000000E+00  0.00000000E+00  0.00000000E+00
  0.00000000E+00  0.00000000E+00  0.00000000E+00
  0.00000000E+00  0.00000000E+00  0.00000000E+00
  0.00000000E+00  0.00000000E+00  0.00000000E+00
  0.00000000E+00  0.00000000E+00  0.00000000E+00
  0.00000000E+00  0.00000000E+00  0.00000000E+00
  0.00000000E+00  0.00000000E+00  0.00000000E+00
  0.00000000E+00  0.00000000E+00  0.00000000E+00
  0.00000000E+00  0.00000000E+00  0.00000000E+00
  0.00000000E+00  0.00000000E+00  0.00000000E+00
  0.00000000E+00  0.00000000E+00  0.00000000E+00
  0.00000000E+00  0.00000000E+00  0.00000000E+00
  0.00000000E+00  0.00000000E+00  0.00000000E+00
  0.00000000E+00  0.00000000E+00  0.00000000E+00
  0.00000000E+00  0.00000000E+00  0.00000000E+00
  0.00000000E+00  0.00000000E+00  0.00000000E+00
  0.00000000E+00  0.00000000E+00  0.00000000E+00
  0.00000000E+00  0.00000000E+00  0.00000000E+00
  0.00000000E+00  0.00000000E+00  0.00000000E+00
  0.00000000E+00  0.00000000E+00  0.00000000E+00
  0.00000000E+00  0.00000000E+00  0.00000000E+00
  0.00000000E+00  0.00000000E+00  0.00000000E+00
  0.00000000E+00  0.00000000E+00  0.00000000E+00
  0.00000000E+00  0.00000000E+00  0.00000000E+00
  0.00000000E+00  0.00000000E+00  0.00000000E+00
  0.00000000E+00  0.00000000E+00  0.00000000E+00
  0.00000000E+00  0.00000000E+00  0.00000000E+00
  0.00000000E+00  0.00000000E+00  0.00000000E+00
  0.00000000E+00  0.00000000E+00  0.00000000E+00
  0.00000000E+00  0.00000000E+00  0.00000000E+00
  0.00000000E+00  0.00000000E+00  0.00000000E+00
  0.00000000E+00  0.00000000E+00  0.00000000E+00
  0.00000000E+00  0.00000000E+00  0.00000000E+00
  0.00000000E+00  0.00000000E+00  0.00000000E+00
  0.00000000E+00  0.00000000E+00  0.00000000E+00
  0.00000000E+00  0.00000000E+00  0.00000000E+00
  0.00000000E+00  0.00000000E+00  0.00000000E+00
  0.00000000E+00  0.00000000E+00  0.00000000E+00
  0.00000000E+00  0.00000000E+00  0.00000000E+00
  0.00000000E+00  0.00000000E+00  0.00000000E+00
  0.00000000E+00  0.00000000E+00  0.00000000E+00
  0.00000000E+00  0.00000000E+00  0.00000000E+00
  0.00000000E+00  0.00000000E+00  0.00000000E+00
  0.00000000E+00  0.00000000E+00  0.00000000E+00
  0.00000000E+00  0.00000000E+00  0.00000000E+00
  0.00000000E+00  0.00000000E+00  0.00000000E+00
  0.00000000E+00  0.00000000E+00  0.00000000E+00
  0.00000000E+00  0.00000000E+00  0.00000000E+00
  0.00000000E+00  0.00000000E+00  0.00000000E+00
  0.00000000E+00  0.00000000E+00  0.00000000E+00
  0.00000000E+00  0.00000000E+00  0.00000000E+00
  0.00000000E+00  0.00000000E+00  0.00000000E+00
  0.00000000E+00  0.00000000E+00  0.00000000E+00
  0.00000000E+00  0.00000000E+00  0.00000000E+00
  0.00000000E+00  0.00000000E+00  0.00000000E+00
  0.00000000E+00  0.00000000E+00  0.00000000E+00
  0.00000000E+00  0.00000000E+00  0.00000000E+00
  0.00000000E+00  0.00000000E+00  0.00000000E+00
  0.00000000E+00  0.00000000E+00  0.00000000E+00
  0.00000000E+00  0.00000000E+00  0.00000000E+00
  0.00000000E+00  0.00000000E+00  0.00000000E+00
  0.00000000E+00  0.00000000E+00  0.00000000E+00
  0.00000000E+00  0.00000000E+00  0.00000000E+00
  0.00000000E+00  0.00000000E+00  0.00000000E+00
  0.00000000E+00  0.00000000E+00  0.00000000E+00
  0.00000000E+00  0.00000000E+00  0.00000000E+00
  0.00000000E+00  0.00000000E+00  0.00000000E+00
  0.00000000E+00  0.00000000E+00  0.00000000E+00
  0.00000000E+00  0.00000000E+00  0.00000000E+00
  0.00000000E+00  0.00000000E+00  0.00000000E+00
  0.00000000E+00  0.00000000E+00  0.00000000E+00
  0.00000000E+00  0.00000000E+00  0.00000000E+00
  0.00000000E+00  0.00000000E+00  0.00000000E+00
  0.00000000E+00  0.00000000E+00  0.00000000E+00
  0.00000000E+00  0.00000000E+00  0.00000000E+00
  0.00000000E+00  0.00000000E+00  0.00000000E+00
  0.00000000E+00  0.00000000E+00  0.00000000E+00
  0.00000000E+00  0.00000000E+00  0.00000000E+00
  0.00000000E+00  0.00000000E+00  0.00000000E+00
  0.00000000E+00  0.00000000E+00  0.00000000E+00
  0.00000000E+00  0.00000000E+00  0.00000000E+00
  0.00000000E+00  0.00000000E+00  0.00000000E+00
  0.00000000E+00  0.00000000E+00  0.00000000E+00
  0.00000000E+00  0.00000000E+00  0.00000000E+00
  0.00000000E+00  0.00000000E+00  0.00000000E+00
  0.00000000E+00  0.00000000E+00  0.00000000E+00
  0.00000000E+00  0.00000000E+00  0.00000000E+00
  0.00000000E+00  0.00000000E+00  0.00000000E+00
  0.00000000E+00  0.00000000E+00  0.00000000E+00
  0.00000000E+00  0.00000000E+00  0.00000000E+00
  0.00000000E+00  0.00000000E+00  0.00000000E+00
