Ba Li O Rh                              
   1.00000000000000     
    11.1568587867069997    0.0000000000000000    0.0000000000000000
     0.0000000000000000   11.1568587867069997    0.0000000000000000
     0.0000000000000000    0.0000000000000000   26.1568587867070015
   Ba   Li   O    Rh
    31     1    32     1
Selective dynamics
Direct
  0.2500000000000000  0.9993871766011844  0.1069835559400058   T   T   T
  0.7500000000000000  0.9994222394352623  0.1072652078626518   T   T   T
  0.9997848974842234  0.2494755135466738  0.1072522984130360   T   T   T
  0.5002151025157766  0.2494755135466738  0.1072522984130360   T   T   T
  0.2500000000000000  0.4993065596745797  0.1074814906087369   T   T   T
  0.7500000000000000  0.4996803089834125  0.1089565909787543   T   T   T
  0.0001027613780802  0.7496459536295844  0.1077990645084877   T   T   T
  0.4998972386219198  0.7496459536295844  0.1077990645084877   T   T   T
  0.9995181661585147  0.9991037508747803  0.2129979928802724   T   T   T
  0.5004818338414853  0.9991037508747803  0.2129979928802724   T   T   T
  0.2500000000000000  0.2490155980031403  0.2128321898518543   T   T   T
  0.7500000000000000  0.2482177215244304  0.2132272730915923   T   T   T
  0.0014224338632172  0.4997758915496621  0.2134295640238326   T   T   T
  0.4985775661367828  0.4997758915496621  0.2134295640238326   T   T   T
  0.2500000000000000  0.7480537923936927  0.2133055769282113   T   T   T
  0.7500000000000000  0.7510636294691121  0.2137677512061858   T   T   T
  0.2500000000000000  0.9947301075015397  0.3154714994498584   T   T   T
  0.7500000000000000  0.0013567697337596  0.3211537755719646   T   T   T
  0.0016745974288214  0.2495968146122290  0.3208807640066930   T   T   T
  0.4983254025711787  0.2495968146122290  0.3208807640066930   T   T   T
  0.2500000000000000  0.4962344784327268  0.3219613375734426   T   T   T
  0.7500000000000000  0.4980973958522624  0.3198968316253897   T   T   T
  0.9986271154690983  0.7479716931365714  0.3239852547251867   T   T   T
  0.5013728845309017  0.7479716931365714  0.3239852547251867   T   T   T
  0.0137172790060744  0.0138584451863024  0.4266842834850925   T   T   T
  0.4862827209939256  0.0138584451863024  0.4266842834850925   T   T   T
  0.7500000000000000  0.2355754904520203  0.4277887804921773   T   T   T
  0.0252989078180803  0.4836793053059716  0.4296865519532074   T   T   T
  0.4747010921819197  0.4836793053059716  0.4296865519532074   T   T   T
  0.2500000000000000  0.7579506751296929  0.4259640003701817   T   T   T
  0.7500000000000000  0.7712346607088996  0.4292359971057666   T   T   T
  0.2500000000000000  0.1928904925907499  0.3945306039529524   T   T   T
  0.9989817017552668  0.9991289041773079  0.1131669471611814   T   T   T
  0.5010182982447332  0.9991289041773079  0.1131669471611814   T   T   T
  0.2500000000000000  0.2501737213873091  0.1128127574040538   T   T   T
  0.7500000000000000  0.2508315249107169  0.1131666806446925   T   T   T
  0.9989253444005856  0.4999935262068621  0.1142580240583032   T   T   T
  0.5010746555994144  0.4999935262068621  0.1142580240583032   T   T   T
  0.2500000000000000  0.7481508076329448  0.1133673469744710   T   T   T
  0.7500000000000000  0.7483394749034237  0.1143409274442397   T   T   T
  0.2500000000000000  0.0000360344197022  0.2066612426526939   T   T   T
  0.7500000000000000  0.9994088141810046  0.2085319965181036   T   T   T
  0.9997415884582881  0.2502864996217038  0.2070131646820128   T   T   T
  0.5002584115417119  0.2502864996217038  0.2070131646820128   T   T   T
  0.2500000000000000  0.4999641454004038  0.2089334066683095   T   T   T
  0.7500000000000000  0.5002927877312935  0.2134578759555271   T   T   T
  0.9997900998850575  0.7497027751181913  0.2081129795186301   T   T   T
  0.5002099001149425  0.7497027751181913  0.2081129795186301   T   T   T
  0.9997582907374930  0.0003193706644151  0.3245686247101121   T   T   T
  0.5002417092625070  0.0003193706644151  0.3245686247101121   T   T   T
  0.2500000000000000  0.2439587255143546  0.3237461499169180   T   T   T
  0.7500000000000000  0.2516762161532824  0.3234092039367238   T   T   T
  0.9992695945478423  0.4985904191260099  0.3276475729886051   T   T   T
  0.5007304054521577  0.4985904191260099  0.3276475729886051   T   T   T
  0.2500000000000000  0.7493098783862151  0.3245692161684267   T   T   T
  0.7500000000000000  0.7472799303326104  0.3275740373018969   T   T   T
  0.2500000000000000  0.0243631513783895  0.4132415147779607   T   T   T
  0.7500000000000000  0.0031595592955866  0.4212942581615780   T   T   T
  0.9863211147870621  0.2515520056997326  0.4178608652638083   T   T   T
  0.5136788852129379  0.2515520056997326  0.4178608652638083   T   T   T
  0.2500000000000000  0.5285888841632543  0.4200483321300099   T   T   T
  0.7499996334070005  0.5042290104771706  0.4303073872508841   T   T   T
  0.0019863792419972  0.7610991085121005  0.4220085686349566   T   T   T
  0.4980134343170032  0.7610991085121005  0.4220085686349566   T   T   T
  0.7499996334070005  0.5048561344307154  0.4994315419049841   T   T   T
 
  0.00000000E+00  0.00000000E+00  0.00000000E+00
  0.00000000E+00  0.00000000E+00  0.00000000E+00
  0.00000000E+00  0.00000000E+00  0.00000000E+00
  0.00000000E+00  0.00000000E+00  0.00000000E+00
  0.00000000E+00  0.00000000E+00  0.00000000E+00
  0.00000000E+00  0.00000000E+00  0.00000000E+00
  0.00000000E+00  0.00000000E+00  0.00000000E+00
  0.00000000E+00  0.00000000E+00  0.00000000E+00
  0.00000000E+00  0.00000000E+00  0.00000000E+00
  0.00000000E+00  0.00000000E+00  0.00000000E+00
  0.00000000E+00  0.00000000E+00  0.00000000E+00
  0.00000000E+00  0.00000000E+00  0.00000000E+00
  0.00000000E+00  0.00000000E+00  0.00000000E+00
  0.00000000E+00  0.00000000E+00  0.00000000E+00
  0.00000000E+00  0.00000000E+00  0.00000000E+00
  0.00000000E+00  0.00000000E+00  0.00000000E+00
  0.00000000E+00  0.00000000E+00  0.00000000E+00
  0.00000000E+00  0.00000000E+00  0.00000000E+00
  0.00000000E+00  0.00000000E+00  0.00000000E+00
  0.00000000E+00  0.00000000E+00  0.00000000E+00
  0.00000000E+00  0.00000000E+00  0.00000000E+00
  0.00000000E+00  0.00000000E+00  0.00000000E+00
  0.00000000E+00  0.00000000E+00  0.00000000E+00
  0.00000000E+00  0.00000000E+00  0.00000000E+00
  0.00000000E+00  0.00000000E+00  0.00000000E+00
  0.00000000E+00  0.00000000E+00  0.00000000E+00
  0.00000000E+00  0.00000000E+00  0.00000000E+00
  0.00000000E+00  0.00000000E+00  0.00000000E+00
  0.00000000E+00  0.00000000E+00  0.00000000E+00
  0.00000000E+00  0.00000000E+00  0.00000000E+00
  0.00000000E+00  0.00000000E+00  0.00000000E+00
  0.00000000E+00  0.00000000E+00  0.00000000E+00
  0.00000000E+00  0.00000000E+00  0.00000000E+00
  0.00000000E+00  0.00000000E+00  0.00000000E+00
  0.00000000E+00  0.00000000E+00  0.00000000E+00
  0.00000000E+00  0.00000000E+00  0.00000000E+00
  0.00000000E+00  0.00000000E+00  0.00000000E+00
  0.00000000E+00  0.00000000E+00  0.00000000E+00
  0.00000000E+00  0.00000000E+00  0.00000000E+00
  0.00000000E+00  0.00000000E+00  0.00000000E+00
  0.00000000E+00  0.00000000E+00  0.00000000E+00
  0.00000000E+00  0.00000000E+00  0.00000000E+00
  0.00000000E+00  0.00000000E+00  0.00000000E+00
  0.00000000E+00  0.00000000E+00  0.00000000E+00
  0.00000000E+00  0.00000000E+00  0.00000000E+00
  0.00000000E+00  0.00000000E+00  0.00000000E+00
  0.00000000E+00  0.00000000E+00  0.00000000E+00
  0.00000000E+00  0.00000000E+00  0.00000000E+00
  0.00000000E+00  0.00000000E+00  0.00000000E+00
  0.00000000E+00  0.00000000E+00  0.00000000E+00
  0.00000000E+00  0.00000000E+00  0.00000000E+00
  0.00000000E+00  0.00000000E+00  0.00000000E+00
  0.00000000E+00  0.00000000E+00  0.00000000E+00
  0.00000000E+00  0.00000000E+00  0.00000000E+00
  0.00000000E+00  0.00000000E+00  0.00000000E+00
  0.00000000E+00  0.00000000E+00  0.00000000E+00
  0.00000000E+00  0.00000000E+00  0.00000000E+00
  0.00000000E+00  0.00000000E+00  0.00000000E+00
  0.00000000E+00  0.00000000E+00  0.00000000E+00
  0.00000000E+00  0.00000000E+00  0.00000000E+00
  0.00000000E+00  0.00000000E+00  0.00000000E+00
  0.00000000E+00  0.00000000E+00  0.00000000E+00
  0.00000000E+00  0.00000000E+00  0.00000000E+00
  0.00000000E+00  0.00000000E+00  0.00000000E+00
  0.00000000E+00  0.00000000E+00  0.00000000E+00
