Ba Li O V                               
   1.00000000000000     
    11.1568587867069997    0.0000000000000000    0.0000000000000000
     0.0000000000000000   11.1568587867069997    0.0000000000000000
     0.0000000000000000    0.0000000000000000   26.1568587867070015
   Ba   Li   O    V 
    31     1    32     1
Selective dynamics
Direct
  0.2500000000000000  0.9995127912648571  0.1060650480534489   T   T   T
  0.7500000000000000  0.9995647075413164  0.1071913090666372   T   T   T
  0.9995640073727113  0.2496663673375781  0.1071717804705353   T   T   T
  0.5004359926272887  0.2496663673375781  0.1071717804705353   T   T   T
  0.2500000000000000  0.4993318432695354  0.1074160139833265   T   T   T
  0.7500000000000000  0.4995553257910832  0.1093133004678283   T   T   T
 -0.0001692353491193  0.7494445266524526  0.1073407278290919   T   T   T
  0.5001692353491194  0.7494445266524526  0.1073407278290919   T   T   T
  0.9996018422769882  0.9985972374246130  0.2123925447037062   T   T   T
  0.5003981577230118  0.9985972374246130  0.2123925447037062   T   T   T
  0.2500000000000000  0.2488252983293551  0.2121507988340509   T   T   T
  0.7500000000000000  0.2484743064073958  0.2135499345788921   T   T   T
  0.0011975219327927  0.5003324610780150  0.2136163432187115   T   T   T
  0.4988024780672072  0.5003324610780150  0.2136163432187115   T   T   T
  0.2500000000000000  0.7483857685862810  0.2125117091194220   T   T   T
  0.7500000000000000  0.7507530483299912  0.2138855992143910   T   T   T
  0.2500000000000000  0.9939792902747957  0.3148592381482405   T   T   T
  0.7500000000000000  0.0002452498985003  0.3199425916887441   T   T   T
  0.0026935754498345  0.2489401054221684  0.3202129478330226   T   T   T
  0.4973064245501656  0.2489401054221684  0.3202129478330226   T   T   T
  0.2500000000000000  0.4964301870023219  0.3209464185794607   T   T   T
  0.7500000000000000  0.4981166963155573  0.3209831629397245   T   T   T
  0.9992595062830728  0.7479726614033502  0.3243314415103975   T   T   T
  0.5007404937169272  0.7479726614033502  0.3243314415103975   T   T   T
  0.0146434925073174  0.0127814758372091  0.4259194625354432   T   T   T
  0.4853565074926826  0.0127814758372091  0.4259194625354432   T   T   T
  0.7500000000000000  0.2341348579660378  0.4256560505415413   T   T   T
  0.0271968008232888  0.4812964268039753  0.4292711484569374   T   T   T
  0.4728031991767112  0.4812964268039753  0.4292711484569374   T   T   T
  0.2500000000000000  0.7570831449332532  0.4261214035531660   T   T   T
  0.7500000000000000  0.7730836169381398  0.4285105953467009   T   T   T
  0.2500000000000000  0.1932829293638170  0.3935330041023600   T   T   T
  0.9985877580215491  0.9992075390364427  0.1124560736940235   T   T   T
  0.5014122419784509  0.9992075390364427  0.1124560736940235   T   T   T
  0.2500000000000000  0.2505630279368345  0.1123324674336607   T   T   T
  0.7500000000000000  0.2516167260522055  0.1135452271596202   T   T   T
  0.9981113671448542  0.4999113690958534  0.1144679098901645   T   T   T
  0.5018886328551458  0.4999113690958534  0.1144679098901645   T   T   T
  0.2500000000000000  0.7480265301009120  0.1127645462267647   T   T   T
  0.7500000000000000  0.7474881774197860  0.1145185285066124   T   T   T
  0.2500000000000000  0.0001081745187846  0.2056738347475011   T   T   T
  0.7500000000000000  0.9994228630375503  0.2084308652951671   T   T   T
  0.9996539155075945  0.2504875612273073  0.2069962470071584   T   T   T
  0.5003460844924055  0.2504875612273073  0.2069962470071584   T   T   T
  0.2500000000000000  0.5002464667481880  0.2087258258020123   T   T   T
  0.7500000000000000  0.5004380961823157  0.2156563975517246   T   T   T
  0.9996580452768151  0.7496158777034269  0.2074988659260527   T   T   T
  0.5003419547231849  0.7496158777034269  0.2074988659260527   T   T   T
 -0.0002249447420004  0.0006260968522941  0.3232781024776585   T   T   T
  0.5002249447420003  0.0006260968522941  0.3232781024776585   T   T   T
  0.2500000000000000  0.2449660068573502  0.3227015574918081   T   T   T
  0.7500000000000000  0.2516770851700273  0.3238708189724782   T   T   T
  0.9990410515213656  0.4981477134513167  0.3282631056339564   T   T   T
  0.5009589484786344  0.4981477134513167  0.3282631056339564   T   T   T
  0.2500000000000000  0.7490315713367438  0.3241305237190408   T   T   T
  0.7500000000000000  0.7469462677120459  0.3284291500062256   T   T   T
  0.2500000000000000  0.0254311741075885  0.4120858640639507   T   T   T
  0.7500000000000000  0.0030579607124643  0.4201332251063102   T   T   T
  0.9859643641241437  0.2529617675976792  0.4173363178104058   T   T   T
  0.5140356358758563  0.2529617675976792  0.4173363178104058   T   T   T
  0.2500000000000000  0.5270006967147725  0.4192439626674580   T   T   T
  0.7499996334070005  0.5039438681786662  0.4424144087735685   T   T   T
  0.0014207082064373  0.7651299211156857  0.4212539675756525   T   T   T
  0.4985791053525632  0.7651299211156857  0.4212539675756525   T   T   T
  0.7499996334070005  0.5034338800437793  0.5085140255603261   T   T   T
 
  0.00000000E+00  0.00000000E+00  0.00000000E+00
  0.00000000E+00  0.00000000E+00  0.00000000E+00
  0.00000000E+00  0.00000000E+00  0.00000000E+00
  0.00000000E+00  0.00000000E+00  0.00000000E+00
  0.00000000E+00  0.00000000E+00  0.00000000E+00
  0.00000000E+00  0.00000000E+00  0.00000000E+00
  0.00000000E+00  0.00000000E+00  0.00000000E+00
  0.00000000E+00  0.00000000E+00  0.00000000E+00
  0.00000000E+00  0.00000000E+00  0.00000000E+00
  0.00000000E+00  0.00000000E+00  0.00000000E+00
  0.00000000E+00  0.00000000E+00  0.00000000E+00
  0.00000000E+00  0.00000000E+00  0.00000000E+00
  0.00000000E+00  0.00000000E+00  0.00000000E+00
  0.00000000E+00  0.00000000E+00  0.00000000E+00
  0.00000000E+00  0.00000000E+00  0.00000000E+00
  0.00000000E+00  0.00000000E+00  0.00000000E+00
  0.00000000E+00  0.00000000E+00  0.00000000E+00
  0.00000000E+00  0.00000000E+00  0.00000000E+00
  0.00000000E+00  0.00000000E+00  0.00000000E+00
  0.00000000E+00  0.00000000E+00  0.00000000E+00
  0.00000000E+00  0.00000000E+00  0.00000000E+00
  0.00000000E+00  0.00000000E+00  0.00000000E+00
  0.00000000E+00  0.00000000E+00  0.00000000E+00
  0.00000000E+00  0.00000000E+00  0.00000000E+00
  0.00000000E+00  0.00000000E+00  0.00000000E+00
  0.00000000E+00  0.00000000E+00  0.00000000E+00
  0.00000000E+00  0.00000000E+00  0.00000000E+00
  0.00000000E+00  0.00000000E+00  0.00000000E+00
  0.00000000E+00  0.00000000E+00  0.00000000E+00
  0.00000000E+00  0.00000000E+00  0.00000000E+00
  0.00000000E+00  0.00000000E+00  0.00000000E+00
  0.00000000E+00  0.00000000E+00  0.00000000E+00
  0.00000000E+00  0.00000000E+00  0.00000000E+00
  0.00000000E+00  0.00000000E+00  0.00000000E+00
  0.00000000E+00  0.00000000E+00  0.00000000E+00
  0.00000000E+00  0.00000000E+00  0.00000000E+00
  0.00000000E+00  0.00000000E+00  0.00000000E+00
  0.00000000E+00  0.00000000E+00  0.00000000E+00
  0.00000000E+00  0.00000000E+00  0.00000000E+00
  0.00000000E+00  0.00000000E+00  0.00000000E+00
  0.00000000E+00  0.00000000E+00  0.00000000E+00
  0.00000000E+00  0.00000000E+00  0.00000000E+00
  0.00000000E+00  0.00000000E+00  0.00000000E+00
  0.00000000E+00  0.00000000E+00  0.00000000E+00
  0.00000000E+00  0.00000000E+00  0.00000000E+00
  0.00000000E+00  0.00000000E+00  0.00000000E+00
  0.00000000E+00  0.00000000E+00  0.00000000E+00
  0.00000000E+00  0.00000000E+00  0.00000000E+00
  0.00000000E+00  0.00000000E+00  0.00000000E+00
  0.00000000E+00  0.00000000E+00  0.00000000E+00
  0.00000000E+00  0.00000000E+00  0.00000000E+00
  0.00000000E+00  0.00000000E+00  0.00000000E+00
  0.00000000E+00  0.00000000E+00  0.00000000E+00
  0.00000000E+00  0.00000000E+00  0.00000000E+00
  0.00000000E+00  0.00000000E+00  0.00000000E+00
  0.00000000E+00  0.00000000E+00  0.00000000E+00
  0.00000000E+00  0.00000000E+00  0.00000000E+00
  0.00000000E+00  0.00000000E+00  0.00000000E+00
  0.00000000E+00  0.00000000E+00  0.00000000E+00
  0.00000000E+00  0.00000000E+00  0.00000000E+00
  0.00000000E+00  0.00000000E+00  0.00000000E+00
  0.00000000E+00  0.00000000E+00  0.00000000E+00
  0.00000000E+00  0.00000000E+00  0.00000000E+00
  0.00000000E+00  0.00000000E+00  0.00000000E+00
  0.00000000E+00  0.00000000E+00  0.00000000E+00
