Ba Li O Fe                              
   1.00000000000000     
    11.1568587867069997    0.0000000000000000    0.0000000000000000
     0.0000000000000000   11.1568587867069997    0.0000000000000000
     0.0000000000000000    0.0000000000000000   26.1568587867070015
   Ba   Li   O    Fe
    31     1    32     1
Selective dynamics
Direct
  0.2500000000000000  0.9994218375963859  0.1060472974883279   T   T   T
  0.7500000000000000  0.9994751632706119  0.1071731495370989   T   T   T
  0.9995388009955694  0.2495937287749269  0.1072206120264555   T   T   T
  0.5004611990044306  0.2495937287749269  0.1072206120264555   T   T   T
  0.2500000000000000  0.4993464444633522  0.1074859228828185   T   T   T
  0.7500000000000000  0.4995596280876151  0.1093465237902781   T   T   T
 -0.0001835554982062  0.7495431628156275  0.1074938663112049   T   T   T
  0.5001835554982063  0.7495431628156275  0.1074938663112049   T   T   T
  0.9996891848684606  0.9986042438849748  0.2124998246927785   T   T   T
  0.5003108151315394  0.9986042438849748  0.2124998246927785   T   T   T
  0.2500000000000000  0.2485958220395383  0.2122974376877195   T   T   T
  0.7500000000000000  0.2481323669378497  0.2136133203127606   T   T   T
  0.0013565393148808  0.5002725148629591  0.2137219526620119   T   T   T
  0.4986434606851193  0.5002725148629591  0.2137219526620119   T   T   T
  0.2500000000000000  0.7486554024294176  0.2127337891916362   T   T   T
  0.7500000000000000  0.7511237573498940  0.2139975835938215   T   T   T
  0.2500000000000000  0.9940085054650070  0.3149112627434626   T   T   T
  0.7500000000000000  0.0003755321110391  0.3202469068679457   T   T   T
  0.0023851329985051  0.2489834103376965  0.3201758356503943   T   T   T
  0.4976148670014950  0.2489834103376965  0.3201758356503943   T   T   T
  0.2500000000000000  0.4965418612170956  0.3210056550863519   T   T   T
  0.7500000000000000  0.4980126446249155  0.3207050819727296   T   T   T
  0.9987976002795329  0.7480576809401728  0.3244038391284179   T   T   T
  0.5012023997204671  0.7480576809401728  0.3244038391284179   T   T   T
  0.0147334205267304  0.0127629154092112  0.4259503071975512   T   T   T
  0.4852665794732696  0.0127629154092112  0.4259503071975512   T   T   T
  0.7500000000000000  0.2342707461740953  0.4262529506874940   T   T   T
  0.0264541217571857  0.4814905077351249  0.4289473835059068   T   T   T
  0.4735458782428144  0.4814905077351249  0.4289473835059068   T   T   T
  0.2500000000000000  0.7570143814854755  0.4257568365892004   T   T   T
  0.7500000000000000  0.7732748435563422  0.4289893277446485   T   T   T
  0.2500000000000000  0.1933928721386913  0.3936062805371053   T   T   T
  0.9986273272883479  0.9992005854039404  0.1125609999840806   T   T   T
  0.5013726727116521  0.9992005854039404  0.1125609999840806   T   T   T
  0.2500000000000000  0.2507318698308637  0.1123269576113713   T   T   T
  0.7500000000000000  0.2518006504105764  0.1136147211997226   T   T   T
  0.9980537390129215  0.4998715191894659  0.1146437501011329   T   T   T
  0.5019462609870785  0.4998715191894659  0.1146437501011329   T   T   T
  0.2500000000000000  0.7478243566197875  0.1127950389679673   T   T   T
  0.7500000000000000  0.7471821835908262  0.1145994213717484   T   T   T
  0.2500000000000000  0.0000573942113520  0.2058016721755143   T   T   T
  0.7500000000000000  0.9994612408512961  0.2083784040110576   T   T   T
  0.9996162099756863  0.2505671273903110  0.2069499613066885   T   T   T
  0.5003837900243137  0.2505671273903110  0.2069499613066885   T   T   T
  0.2500000000000000  0.5002224322096555  0.2089796104874995   T   T   T
  0.7500000000000000  0.5003154394727465  0.2161576308888360   T   T   T
  0.9996575098249474  0.7495251784492841  0.2075086390829790   T   T   T
  0.5003424901750526  0.7495251784492841  0.2075086390829790   T   T   T
 -0.0001120364790338  0.0006232227775544  0.3235353149024465   T   T   T
  0.5001120364790339  0.0006232227775544  0.3235353149024465   T   T   T
  0.2500000000000000  0.2448723055870806  0.3228562117018486   T   T   T
  0.7500000000000000  0.2518918844965756  0.3236895470215949   T   T   T
  0.9990024239834631  0.4982265348425412  0.3285075516292051   T   T   T
  0.5009975760165369  0.4982265348425412  0.3285075516292051   T   T   T
  0.2500000000000000  0.7489988638665900  0.3243019082432024   T   T   T
  0.7500000000000000  0.7471568801863966  0.3281732262456376   T   T   T
  0.2500000000000000  0.0253977953703814  0.4123043748156518   T   T   T
  0.7500000000000000  0.0032884760430236  0.4202336867751654   T   T   T
  0.9864001401940916  0.2524932629113718  0.4175408663410656   T   T   T
  0.5135998598059084  0.2524932629113718  0.4175408663410656   T   T   T
  0.2500000000000000  0.5268986015296542  0.4194517072217958   T   T   T
  0.7499996334070005  0.5034591790734608  0.4403347765146591   T   T   T
  0.0016649169190856  0.7650997344765741  0.4215571211860208   T   T   T
  0.4983348966399148  0.7650997344765741  0.4215571211860208   T   T   T
  0.7499996334070005  0.5038038284199368  0.5048175070646537   T   T   T
 
  0.00000000E+00  0.00000000E+00  0.00000000E+00
  0.00000000E+00  0.00000000E+00  0.00000000E+00
  0.00000000E+00  0.00000000E+00  0.00000000E+00
  0.00000000E+00  0.00000000E+00  0.00000000E+00
  0.00000000E+00  0.00000000E+00  0.00000000E+00
  0.00000000E+00  0.00000000E+00  0.00000000E+00
  0.00000000E+00  0.00000000E+00  0.00000000E+00
  0.00000000E+00  0.00000000E+00  0.00000000E+00
  0.00000000E+00  0.00000000E+00  0.00000000E+00
  0.00000000E+00  0.00000000E+00  0.00000000E+00
  0.00000000E+00  0.00000000E+00  0.00000000E+00
  0.00000000E+00  0.00000000E+00  0.00000000E+00
  0.00000000E+00  0.00000000E+00  0.00000000E+00
  0.00000000E+00  0.00000000E+00  0.00000000E+00
  0.00000000E+00  0.00000000E+00  0.00000000E+00
  0.00000000E+00  0.00000000E+00  0.00000000E+00
  0.00000000E+00  0.00000000E+00  0.00000000E+00
  0.00000000E+00  0.00000000E+00  0.00000000E+00
  0.00000000E+00  0.00000000E+00  0.00000000E+00
  0.00000000E+00  0.00000000E+00  0.00000000E+00
  0.00000000E+00  0.00000000E+00  0.00000000E+00
  0.00000000E+00  0.00000000E+00  0.00000000E+00
  0.00000000E+00  0.00000000E+00  0.00000000E+00
  0.00000000E+00  0.00000000E+00  0.00000000E+00
  0.00000000E+00  0.00000000E+00  0.00000000E+00
  0.00000000E+00  0.00000000E+00  0.00000000E+00
  0.00000000E+00  0.00000000E+00  0.00000000E+00
  0.00000000E+00  0.00000000E+00  0.00000000E+00
  0.00000000E+00  0.00000000E+00  0.00000000E+00
  0.00000000E+00  0.00000000E+00  0.00000000E+00
  0.00000000E+00  0.00000000E+00  0.00000000E+00
  0.00000000E+00  0.00000000E+00  0.00000000E+00
  0.00000000E+00  0.00000000E+00  0.00000000E+00
  0.00000000E+00  0.00000000E+00  0.00000000E+00
  0.00000000E+00  0.00000000E+00  0.00000000E+00
  0.00000000E+00  0.00000000E+00  0.00000000E+00
  0.00000000E+00  0.00000000E+00  0.00000000E+00
  0.00000000E+00  0.00000000E+00  0.00000000E+00
  0.00000000E+00  0.00000000E+00  0.00000000E+00
  0.00000000E+00  0.00000000E+00  0.00000000E+00
  0.00000000E+00  0.00000000E+00  0.00000000E+00
  0.00000000E+00  0.00000000E+00  0.00000000E+00
  0.00000000E+00  0.00000000E+00  0.00000000E+00
  0.00000000E+00  0.00000000E+00  0.00000000E+00
  0.00000000E+00  0.00000000E+00  0.00000000E+00
  0.00000000E+00  0.00000000E+00  0.00000000E+00
  0.00000000E+00  0.00000000E+00  0.00000000E+00
  0.00000000E+00  0.00000000E+00  0.00000000E+00
  0.00000000E+00  0.00000000E+00  0.00000000E+00
  0.00000000E+00  0.00000000E+00  0.00000000E+00
  0.00000000E+00  0.00000000E+00  0.00000000E+00
  0.00000000E+00  0.00000000E+00  0.00000000E+00
  0.00000000E+00  0.00000000E+00  0.00000000E+00
  0.00000000E+00  0.00000000E+00  0.00000000E+00
  0.00000000E+00  0.00000000E+00  0.00000000E+00
  0.00000000E+00  0.00000000E+00  0.00000000E+00
  0.00000000E+00  0.00000000E+00  0.00000000E+00
  0.00000000E+00  0.00000000E+00  0.00000000E+00
  0.00000000E+00  0.00000000E+00  0.00000000E+00
  0.00000000E+00  0.00000000E+00  0.00000000E+00
  0.00000000E+00  0.00000000E+00  0.00000000E+00
  0.00000000E+00  0.00000000E+00  0.00000000E+00
  0.00000000E+00  0.00000000E+00  0.00000000E+00
  0.00000000E+00  0.00000000E+00  0.00000000E+00
  0.00000000E+00  0.00000000E+00  0.00000000E+00
