Ba Li O Ir                              
   1.00000000000000     
    11.1568587867069997    0.0000000000000000    0.0000000000000000
     0.0000000000000000   11.1568587867069997    0.0000000000000000
     0.0000000000000000    0.0000000000000000   26.1568587867070015
   Ba   Li   O    Ir
    31     1    32     1
Selective dynamics
Direct
  0.2500000000000000  0.9994334927477841  0.1068715324984524   T   T   T
  0.7500000000000000  0.9994019302624074  0.1072815719031770   T   T   T
  0.0000003794391301  0.2492244951205199  0.1071349344633647   T   T   T
  0.4999996205608699  0.2492244951205199  0.1071349344633647   T   T   T
  0.2500000000000000  0.4992636606284073  0.1074231657318206   T   T   T
  0.7500000000000000  0.4995698217003052  0.1093259406851102   T   T   T
  0.0002567544758284  0.7498803936125252  0.1076911124510367   T   T   T
  0.4997432455241716  0.7498803936125252  0.1076911124510367   T   T   T
 -0.0001362435750596  0.9990411521769796  0.2130872107898420   T   T   T
  0.5001362435750595  0.9990411521769796  0.2130872107898420   T   T   T
  0.2500000000000000  0.2488360256319043  0.2129599761210375   T   T   T
  0.7500000000000000  0.2474287637274636  0.2130683841797403   T   T   T
  0.0023216368015758  0.4998322951114395  0.2132979433507610   T   T   T
  0.4976783631984242  0.4998322951114395  0.2132979433507610   T   T   T
  0.2500000000000000  0.7484212132242259  0.2133610308133353   T   T   T
  0.7500000000000000  0.7518126425900826  0.2136420559740489   T   T   T
  0.2500000000000000  0.9947423308205489  0.3152581118479338   T   T   T
  0.7500000000000000  0.0014579946542319  0.3206249540640794   T   T   T
  0.0012603147880352  0.2501818044978184  0.3209890472595857   T   T   T
  0.4987396852119648  0.2501818044978184  0.3209890472595857   T   T   T
  0.2500000000000000  0.4968712277701869  0.3216283103352960   T   T   T
  0.7500000000000000  0.4979612202296007  0.3187093644416098   T   T   T
  0.9976591601276255  0.7474607616456007  0.3245591719019530   T   T   T
  0.5023408398723745  0.7474607616456007  0.3245591719019530   T   T   T
  0.0156779617000026  0.0140274804953488  0.4264775010977908   T   T   T
  0.4843220382999974  0.0140274804953488  0.4264775010977908   T   T   T
  0.7500000000000000  0.2330108919264545  0.4282715163047010   T   T   T
  0.0274559809924428  0.4810371339237497  0.4304288158956344   T   T   T
  0.4725440190075572  0.4810371339237497  0.4304288158956344   T   T   T
  0.2500000000000000  0.7580075150533606  0.4257200505496578   T   T   T
  0.7500000000000000  0.7740825253815967  0.4300311668136036   T   T   T
  0.2500000000000000  0.1931296247122216  0.3941704881414735   T   T   T
  0.9987857614699100  0.9991582095553434  0.1131389970392948   T   T   T
  0.5012142385300900  0.9991582095553434  0.1131389970392948   T   T   T
  0.2500000000000000  0.2504814476504441  0.1128109380140912   T   T   T
  0.7500000000000000  0.2513475874558089  0.1131858173519532   T   T   T
  0.9985306361270856  0.5000090864975799  0.1142590548635268   T   T   T
  0.5014693638729144  0.5000090864975799  0.1142590548635268   T   T   T
  0.2500000000000000  0.7479432582477357  0.1133323642714144   T   T   T
  0.7500000000000000  0.7478508234508814  0.1143915441605286   T   T   T
  0.2500000000000000 -0.0000293713776520  0.2064810514137590   T   T   T
  0.7500000000000000  0.9993537642597000  0.2086247319272745   T   T   T
  0.9997387639534993  0.2503354327660401  0.2066886950591527   T   T   T
  0.5002612360465007  0.2503354327660401  0.2066886950591527   T   T   T
  0.2500000000000000  0.5000010995679146  0.2090560867134741   T   T   T
  0.7500000000000000  0.5002554577438981  0.2150674509920166   T   T   T
  0.9997395611249347  0.7496664813625858  0.2077398593464733   T   T   T
  0.5002604388750653  0.7496664813625858  0.2077398593464733   T   T   T
  0.0000875898218151  0.0007697089463285  0.3242912968671599   T   T   T
  0.4999124101781848  0.0007697089463285  0.3242912968671599   T   T   T
  0.2500000000000000  0.2444201222000290  0.3235530125437200   T   T   T
  0.7500000000000000  0.2515049972059838  0.3237000618672994   T   T   T
  0.9993081105550985  0.4983539140059444  0.3282261693698116   T   T   T
  0.5006918894449015  0.4983539140059444  0.3282261693698116   T   T   T
  0.2500000000000000  0.7492827766719342  0.3244077728902612   T   T   T
  0.7500000000000000  0.7477266847767574  0.3282139536886619   T   T   T
  0.2500000000000000  0.0246897235775114  0.4127972567426925   T   T   T
  0.7500000000000000  0.0032091110825299  0.4207057058998932   T   T   T
  0.9873464507975200  0.2514544689608989  0.4180454012859652   T   T   T
  0.5126535492024800  0.2514544689608989  0.4180454012859652   T   T   T
  0.2500000000000000  0.5275708678929262  0.4199291506473082   T   T   T
  0.7499996334070005  0.5048640747533760  0.4303047342165009   T   T   T
  0.0027110493829868  0.7632442446833542  0.4220928275951457   T   T   T
  0.4972887641760136  0.7632442446833542  0.4220928275951457   T   T   T
  0.7499996334070005  0.5031384181763294  0.4982160494290827   T   T   T
 
  0.00000000E+00  0.00000000E+00  0.00000000E+00
  0.00000000E+00  0.00000000E+00  0.00000000E+00
  0.00000000E+00  0.00000000E+00  0.00000000E+00
  0.00000000E+00  0.00000000E+00  0.00000000E+00
  0.00000000E+00  0.00000000E+00  0.00000000E+00
  0.00000000E+00  0.00000000E+00  0.00000000E+00
  0.00000000E+00  0.00000000E+00  0.00000000E+00
  0.00000000E+00  0.00000000E+00  0.00000000E+00
  0.00000000E+00  0.00000000E+00  0.00000000E+00
  0.00000000E+00  0.00000000E+00  0.00000000E+00
  0.00000000E+00  0.00000000E+00  0.00000000E+00
  0.00000000E+00  0.00000000E+00  0.00000000E+00
  0.00000000E+00  0.00000000E+00  0.00000000E+00
  0.00000000E+00  0.00000000E+00  0.00000000E+00
  0.00000000E+00  0.00000000E+00  0.00000000E+00
  0.00000000E+00  0.00000000E+00  0.00000000E+00
  0.00000000E+00  0.00000000E+00  0.00000000E+00
  0.00000000E+00  0.00000000E+00  0.00000000E+00
  0.00000000E+00  0.00000000E+00  0.00000000E+00
  0.00000000E+00  0.00000000E+00  0.00000000E+00
  0.00000000E+00  0.00000000E+00  0.00000000E+00
  0.00000000E+00  0.00000000E+00  0.00000000E+00
  0.00000000E+00  0.00000000E+00  0.00000000E+00
  0.00000000E+00  0.00000000E+00  0.00000000E+00
  0.00000000E+00  0.00000000E+00  0.00000000E+00
  0.00000000E+00  0.00000000E+00  0.00000000E+00
  0.00000000E+00  0.00000000E+00  0.00000000E+00
  0.00000000E+00  0.00000000E+00  0.00000000E+00
  0.00000000E+00  0.00000000E+00  0.00000000E+00
  0.00000000E+00  0.00000000E+00  0.00000000E+00
  0.00000000E+00  0.00000000E+00  0.00000000E+00
  0.00000000E+00  0.00000000E+00  0.00000000E+00
  0.00000000E+00  0.00000000E+00  0.00000000E+00
  0.00000000E+00  0.00000000E+00  0.00000000E+00
  0.00000000E+00  0.00000000E+00  0.00000000E+00
  0.00000000E+00  0.00000000E+00  0.00000000E+00
  0.00000000E+00  0.00000000E+00  0.00000000E+00
  0.00000000E+00  0.00000000E+00  0.00000000E+00
  0.00000000E+00  0.00000000E+00  0.00000000E+00
  0.00000000E+00  0.00000000E+00  0.00000000E+00
  0.00000000E+00  0.00000000E+00  0.00000000E+00
  0.00000000E+00  0.00000000E+00  0.00000000E+00
  0.00000000E+00  0.00000000E+00  0.00000000E+00
  0.00000000E+00  0.00000000E+00  0.00000000E+00
  0.00000000E+00  0.00000000E+00  0.00000000E+00
  0.00000000E+00  0.00000000E+00  0.00000000E+00
  0.00000000E+00  0.00000000E+00  0.00000000E+00
  0.00000000E+00  0.00000000E+00  0.00000000E+00
  0.00000000E+00  0.00000000E+00  0.00000000E+00
  0.00000000E+00  0.00000000E+00  0.00000000E+00
  0.00000000E+00  0.00000000E+00  0.00000000E+00
  0.00000000E+00  0.00000000E+00  0.00000000E+00
  0.00000000E+00  0.00000000E+00  0.00000000E+00
  0.00000000E+00  0.00000000E+00  0.00000000E+00
  0.00000000E+00  0.00000000E+00  0.00000000E+00
  0.00000000E+00  0.00000000E+00  0.00000000E+00
  0.00000000E+00  0.00000000E+00  0.00000000E+00
  0.00000000E+00  0.00000000E+00  0.00000000E+00
  0.00000000E+00  0.00000000E+00  0.00000000E+00
  0.00000000E+00  0.00000000E+00  0.00000000E+00
  0.00000000E+00  0.00000000E+00  0.00000000E+00
  0.00000000E+00  0.00000000E+00  0.00000000E+00
  0.00000000E+00  0.00000000E+00  0.00000000E+00
  0.00000000E+00  0.00000000E+00  0.00000000E+00
  0.00000000E+00  0.00000000E+00  0.00000000E+00
