Ba Li O Pd                              
   1.00000000000000     
    11.1568587867069997    0.0000000000000000    0.0000000000000000
     0.0000000000000000   11.1568587867069997    0.0000000000000000
     0.0000000000000000    0.0000000000000000   26.1568587867070015
   Ba   Li   O    Pd
    31     1    32     1
Selective dynamics
Direct
  0.2500000000000000  0.9992985643666470  0.1072763503120983   T   T   T
  0.7500000000000000  0.9994064545848192  0.1073903291204579   T   T   T
  0.9995182128501271  0.2497445409030006  0.1074921341499459   T   T   T
  0.5004817871498729  0.2497445409030006  0.1074921341499459   T   T   T
  0.2500000000000000  0.4994333355272805  0.1076434781356568   T   T   T
  0.7500000000000000  0.4998371620713120  0.1089286255010388   T   T   T
  0.9998977973189492  0.7493827895184246  0.1079936202868493   T   T   T
  0.5001022026810508  0.7493827895184246  0.1079936202868493   T   T   T
  0.9989206691014310  0.9991065122927694  0.2132721324785505   T   T   T
  0.5010793308985690  0.9991065122927694  0.2132721324785505   T   T   T
  0.2500000000000000  0.2495026862515529  0.2130553775748010   T   T   T
  0.7500000000000000  0.2492955717016078  0.2139458156930976   T   T   T
  0.0002297035613376  0.4998307184998612  0.2141829640095513   T   T   T
  0.4997702964386624  0.4998307184998612  0.2141829640095513   T   T   T
  0.2500000000000000  0.7474185301825829  0.2136170027286188   T   T   T
  0.7500000000000000  0.7500692324125655  0.2144635262202839   T   T   T
  0.2500000000000000  0.9944704900135269  0.3159255295123387   T   T   T
  0.7500000000000000  0.0013031058530060  0.3221437829534601   T   T   T
  0.0011575673720390  0.2500765105529737  0.3208774241147659   T   T   T
  0.4988424326279611  0.2500765105529737  0.3208774241147659   T   T   T
  0.2500000000000000  0.4955996968944202  0.3232394114679635   T   T   T
  0.7500000000000000  0.4985920289518529  0.3236348362974779   T   T   T
  0.9986177055292463  0.7475023479834514  0.3237231441579271   T   T   T
  0.5013822944707537  0.7475023479834514  0.3237231441579271   T   T   T
  0.0117945449757191  0.0132995894315906  0.4269550721363506   T   T   T
  0.4882054550242809  0.0132995894315906  0.4269550721363506   T   T   T
  0.7500000000000000  0.2420975281803586  0.4286236497566942   T   T   T
  0.0193784373782999  0.4862358423575085  0.4301362367132220   T   T   T
  0.4806215626217001  0.4862358423575085  0.4301362367132220   T   T   T
  0.2500000000000000  0.7574426965347615  0.4263081139748930   T   T   T
  0.7500000000000000  0.7643151539068402  0.4295450644473349   T   T   T
  0.2500000000000000  0.1923607166814020  0.3948521201466257   T   T   T
  0.9991938539839593  0.9991266555625835  0.1130029479240926   T   T   T
  0.5008061460160407  0.9991266555625835  0.1130029479240926   T   T   T
  0.2500000000000000  0.2499141675761531  0.1127037033078695   T   T   T
  0.7500000000000000  0.2504874801561314  0.1128411305080226   T   T   T
  0.9992660528808964  0.4999289370614819  0.1139450898099619   T   T   T
  0.5007339471191036  0.4999289370614819  0.1139450898099619   T   T   T
  0.2500000000000000  0.7483934036402334  0.1131471758703874   T   T   T
  0.7500000000000000  0.7486784344359056  0.1140138466261441   T   T   T
  0.2500000000000000  0.0002783463227383  0.2066308981904796   T   T   T
  0.7500000000000000  0.9994426590180265  0.2078680857908184   T   T   T
  0.9998874053043197  0.2500912578545462  0.2071635685370377   T   T   T
  0.5001125946956803  0.2500912578545462  0.2071635685370377   T   T   T
  0.2500000000000000  0.4999457092111856  0.2082226282568204   T   T   T
  0.7500000000000000  0.5003472879598256  0.2112641982684312   T   T   T
 -0.0001102893532246  0.7498166971616540  0.2082404504818648   T   T   T
  0.5001102893532247  0.7498166971616540  0.2082404504818648   T   T   T
 -0.0001722594668318  0.9999154425860053  0.3245050095283470   T   T   T
  0.5001722594668319  0.9999154425860053  0.3245050095283470   T   T   T
  0.2500000000000000  0.2435212821763292  0.3239046924202656   T   T   T
  0.7500000000000000  0.2506429971067667  0.3225437812556635   T   T   T
  0.0008163313716757  0.4987113191960503  0.3265351723818039   T   T   T
  0.4991836686283243  0.4987113191960503  0.3265351723818039   T   T   T
  0.2500000000000000  0.7496400772920696  0.3243166597294019   T   T   T
  0.7500000000000000  0.7487547646128164  0.3265809410280623   T   T   T
  0.2500000000000000  0.0245034738243319  0.4136321464489384   T   T   T
  0.7500000000000000  0.0022237860445126  0.4214825263695064   T   T   T
  0.9850228380224494  0.2507648434174979  0.4177515406427694   T   T   T
  0.5149771619775506  0.2507648434174979  0.4177515406427694   T   T   T
  0.2500000000000000  0.5299764423532143  0.4203148156808886   T   T   T
  0.7499996334070005  0.5045529418226933  0.4242935343771512   T   T   T
  0.0025991656970241  0.7606006704285725  0.4220858223131927   T   T   T
  0.4974006478619763  0.7606006704285725  0.4220858223131927   T   T   T
  0.7499996334070005  0.5043802938376044  0.4993429431438628   T   T   T
 
  0.00000000E+00  0.00000000E+00  0.00000000E+00
  0.00000000E+00  0.00000000E+00  0.00000000E+00
  0.00000000E+00  0.00000000E+00  0.00000000E+00
  0.00000000E+00  0.00000000E+00  0.00000000E+00
  0.00000000E+00  0.00000000E+00  0.00000000E+00
  0.00000000E+00  0.00000000E+00  0.00000000E+00
  0.00000000E+00  0.00000000E+00  0.00000000E+00
  0.00000000E+00  0.00000000E+00  0.00000000E+00
  0.00000000E+00  0.00000000E+00  0.00000000E+00
  0.00000000E+00  0.00000000E+00  0.00000000E+00
  0.00000000E+00  0.00000000E+00  0.00000000E+00
  0.00000000E+00  0.00000000E+00  0.00000000E+00
  0.00000000E+00  0.00000000E+00  0.00000000E+00
  0.00000000E+00  0.00000000E+00  0.00000000E+00
  0.00000000E+00  0.00000000E+00  0.00000000E+00
  0.00000000E+00  0.00000000E+00  0.00000000E+00
  0.00000000E+00  0.00000000E+00  0.00000000E+00
  0.00000000E+00  0.00000000E+00  0.00000000E+00
  0.00000000E+00  0.00000000E+00  0.00000000E+00
  0.00000000E+00  0.00000000E+00  0.00000000E+00
  0.00000000E+00  0.00000000E+00  0.00000000E+00
  0.00000000E+00  0.00000000E+00  0.00000000E+00
  0.00000000E+00  0.00000000E+00  0.00000000E+00
  0.00000000E+00  0.00000000E+00  0.00000000E+00
  0.00000000E+00  0.00000000E+00  0.00000000E+00
  0.00000000E+00  0.00000000E+00  0.00000000E+00
  0.00000000E+00  0.00000000E+00  0.00000000E+00
  0.00000000E+00  0.00000000E+00  0.00000000E+00
  0.00000000E+00  0.00000000E+00  0.00000000E+00
  0.00000000E+00  0.00000000E+00  0.00000000E+00
  0.00000000E+00  0.00000000E+00  0.00000000E+00
  0.00000000E+00  0.00000000E+00  0.00000000E+00
  0.00000000E+00  0.00000000E+00  0.00000000E+00
  0.00000000E+00  0.00000000E+00  0.00000000E+00
  0.00000000E+00  0.00000000E+00  0.00000000E+00
  0.00000000E+00  0.00000000E+00  0.00000000E+00
  0.00000000E+00  0.00000000E+00  0.00000000E+00
  0.00000000E+00  0.00000000E+00  0.00000000E+00
  0.00000000E+00  0.00000000E+00  0.00000000E+00
  0.00000000E+00  0.00000000E+00  0.00000000E+00
  0.00000000E+00  0.00000000E+00  0.00000000E+00
  0.00000000E+00  0.00000000E+00  0.00000000E+00
  0.00000000E+00  0.00000000E+00  0.00000000E+00
  0.00000000E+00  0.00000000E+00  0.00000000E+00
  0.00000000E+00  0.00000000E+00  0.00000000E+00
  0.00000000E+00  0.00000000E+00  0.00000000E+00
  0.00000000E+00  0.00000000E+00  0.00000000E+00
  0.00000000E+00  0.00000000E+00  0.00000000E+00
  0.00000000E+00  0.00000000E+00  0.00000000E+00
  0.00000000E+00  0.00000000E+00  0.00000000E+00
  0.00000000E+00  0.00000000E+00  0.00000000E+00
  0.00000000E+00  0.00000000E+00  0.00000000E+00
  0.00000000E+00  0.00000000E+00  0.00000000E+00
  0.00000000E+00  0.00000000E+00  0.00000000E+00
  0.00000000E+00  0.00000000E+00  0.00000000E+00
  0.00000000E+00  0.00000000E+00  0.00000000E+00
  0.00000000E+00  0.00000000E+00  0.00000000E+00
  0.00000000E+00  0.00000000E+00  0.00000000E+00
  0.00000000E+00  0.00000000E+00  0.00000000E+00
  0.00000000E+00  0.00000000E+00  0.00000000E+00
  0.00000000E+00  0.00000000E+00  0.00000000E+00
  0.00000000E+00  0.00000000E+00  0.00000000E+00
  0.00000000E+00  0.00000000E+00  0.00000000E+00
  0.00000000E+00  0.00000000E+00  0.00000000E+00
  0.00000000E+00  0.00000000E+00  0.00000000E+00
