Ba Li O Mn                              
   1.00000000000000     
    11.1568587867069997    0.0000000000000000    0.0000000000000000
     0.0000000000000000   11.1568587867069997    0.0000000000000000
     0.0000000000000000    0.0000000000000000   26.1568587867070015
   Ba   Li   O    Mn
    31     1    32     1
Selective dynamics
Direct
  0.2499995951189325  0.9995368716005107  0.1059033886520291   T   T   T
  0.7500004987595466  0.9996010848241746  0.1071775816047416   T   T   T
  0.9995208344947913  0.2497293116123033  0.1070423958144899   T   T   T
  0.5004791958009475  0.2497277318981261  0.1070427795666449   T   T   T
  0.2500009942730685  0.4993786342814860  0.1074069258909031   T   T   T
  0.7499996465289739  0.4995795911338656  0.1094503236947365   T   T   T
  0.9997678513046548  0.7495015179613187  0.1072918596802491   T   T   T
  0.5002319189210311  0.7494995496700311  0.1072918652303883   T   T   T
  0.9996883013680405  0.9987403403799993  0.2121889001919062   T   T   T
  0.5003122763171939  0.9987398834298548  0.2121893670855946   T   T   T
  0.2500003198099831  0.2487274209676854  0.2120050823090447   T   T   T
  0.7500004882132374  0.2482524167409555  0.2135862223671550   T   T   T
  0.0013255179812350  0.5003289228621721  0.2137093880658053   T   T   T
  0.4986752024149458  0.5003288207295435  0.2137094946463254   T   T   T
  0.2499999606008703  0.7485740712980897  0.2124393836382004   T   T   T
  0.7499980482093891  0.7510302518478221  0.2139934100739302   T   T   T
  0.2499997591533278  0.9941734657271817  0.3146331295799845   T   T   T
  0.7500000984950991  0.0005137764681857  0.3199819228439456   T   T   T
  0.0024373949345933  0.2490393935827759  0.3201257220880966   T   T   T
  0.4975620750092362  0.2490394219610188  0.3201249568705603   T   T   T
  0.2499992583093818  0.4965524510600611  0.3206094299735621   T   T   T
  0.7500001916661000  0.4980785524036356  0.3202003746212553   T   T   T
  0.9989170018791945  0.7483564653588931  0.3240857412192090   T   T   T
  0.5010823202428440  0.7483561498979197  0.3240852831198876   T   T   T
  0.0145031730201040  0.0129960601875112  0.4258044268142619   T   T   T
  0.4854987180936833  0.0129950609307092  0.4258038468006319   T   T   T
  0.7500012073208288  0.2345549740265004  0.4261834217446948   T   T   T
  0.0262860213568134  0.4825972279520396  0.4288049924781455   T   T   T
  0.4737116701960513  0.4825981464942663  0.4288043127794061   T   T   T
  0.2500013630408389  0.7571964193100743  0.4257720684653865   T   T   T
  0.7499998045572626  0.7724478443585959  0.4288175998675225   T   T   T
  0.2500025754381659  0.1934671060180955  0.3934193588238243   T   T   T
  0.9986552181116704  0.9992262842808705  0.1124352797993591   T   T   T
  0.5013479086212134  0.9992258908768898  0.1124358007071176   T   T   T
  0.2500000464605037  0.2507671171361118  0.1122106818852058   T   T   T
  0.7500000057077072  0.2518826172602814  0.1134731662855245   T   T   T
  0.9979508214756887  0.4999090614016312  0.1145119384967932   T   T   T
  0.5020488791961030  0.4999092201355144  0.1145118904140476   T   T   T
  0.2500003190396912  0.7479841129166630  0.1126945734676026   T   T   T
  0.7500001897762942  0.7472325820200266  0.1145041258838756   T   T   T
  0.2499999756726114  0.0001413013859120  0.2055252937314095   T   T   T
  0.7500004952805726  0.9994193578219597  0.2083037236227148   T   T   T
  0.9996634139358660  0.2504618076260863  0.2068636576363957   T   T   T
  0.5003367583091940  0.2504618655277638  0.2068634885302295   T   T   T
  0.2500003534845011  0.5002520951756484  0.2087905797447210   T   T   T
  0.7500000885957868  0.5003864579028263  0.2163611474519327   T   T   T
  0.9996901639586152  0.7496764763670981  0.2074405388825357   T   T   T
  0.5003100586713480  0.7496761722464281  0.2074406150391003   T   T   T
  0.9998861842350127  0.0005951496965858  0.3234528483880286   T   T   T
  0.5001136462008313  0.0005946352837397  0.3234528355861546   T   T   T
  0.2499996042972892  0.2447622902169246  0.3226122313265420   T   T   T
  0.7499998552379310  0.2520355707483616  0.3236014051613944   T   T   T
  0.9985340148982983  0.4984003959060442  0.3281308449660786   T   T   T
  0.5014657694559582  0.4984007838718252  0.3281307906116535   T   T   T
  0.2499998589451184  0.7491699337245742  0.3239927292637435   T   T   T
  0.7499999009432170  0.7464126198311511  0.3281177717570928   T   T   T
  0.2500000646667870  0.0252487941978562  0.4121302034920937   T   T   T
  0.7499980522879177  0.0029563619053252  0.4200300026607108   T   T   T
  0.9860413216548135  0.2525042012381055  0.4172131979021306   T   T   T
  0.5139552637032440  0.2525038616810959  0.4172125825326007   T   T   T
  0.2499997378152322  0.5273694987636638  0.4190753813911698   T   T   T
  0.7499996017441767  0.5028431280368110  0.4452255063426211   T   T   T
  0.0012351869598846  0.7625849276733755  0.4212066032128187   T   T   T
  0.4987632618451915  0.7625821630152922  0.4212061931815625   T   T   T
  0.7499997763544151  0.5045801782731580  0.5105787944905545   T   T   T
 
  0.00000000E+00  0.00000000E+00  0.00000000E+00
  0.00000000E+00  0.00000000E+00  0.00000000E+00
  0.00000000E+00  0.00000000E+00  0.00000000E+00
  0.00000000E+00  0.00000000E+00  0.00000000E+00
  0.00000000E+00  0.00000000E+00  0.00000000E+00
  0.00000000E+00  0.00000000E+00  0.00000000E+00
  0.00000000E+00  0.00000000E+00  0.00000000E+00
  0.00000000E+00  0.00000000E+00  0.00000000E+00
  0.00000000E+00  0.00000000E+00  0.00000000E+00
  0.00000000E+00  0.00000000E+00  0.00000000E+00
  0.00000000E+00  0.00000000E+00  0.00000000E+00
  0.00000000E+00  0.00000000E+00  0.00000000E+00
  0.00000000E+00  0.00000000E+00  0.00000000E+00
  0.00000000E+00  0.00000000E+00  0.00000000E+00
  0.00000000E+00  0.00000000E+00  0.00000000E+00
  0.00000000E+00  0.00000000E+00  0.00000000E+00
  0.00000000E+00  0.00000000E+00  0.00000000E+00
  0.00000000E+00  0.00000000E+00  0.00000000E+00
  0.00000000E+00  0.00000000E+00  0.00000000E+00
  0.00000000E+00  0.00000000E+00  0.00000000E+00
  0.00000000E+00  0.00000000E+00  0.00000000E+00
  0.00000000E+00  0.00000000E+00  0.00000000E+00
  0.00000000E+00  0.00000000E+00  0.00000000E+00
  0.00000000E+00  0.00000000E+00  0.00000000E+00
  0.00000000E+00  0.00000000E+00  0.00000000E+00
  0.00000000E+00  0.00000000E+00  0.00000000E+00
  0.00000000E+00  0.00000000E+00  0.00000000E+00
  0.00000000E+00  0.00000000E+00  0.00000000E+00
  0.00000000E+00  0.00000000E+00  0.00000000E+00
  0.00000000E+00  0.00000000E+00  0.00000000E+00
  0.00000000E+00  0.00000000E+00  0.00000000E+00
  0.00000000E+00  0.00000000E+00  0.00000000E+00
  0.00000000E+00  0.00000000E+00  0.00000000E+00
  0.00000000E+00  0.00000000E+00  0.00000000E+00
  0.00000000E+00  0.00000000E+00  0.00000000E+00
  0.00000000E+00  0.00000000E+00  0.00000000E+00
  0.00000000E+00  0.00000000E+00  0.00000000E+00
  0.00000000E+00  0.00000000E+00  0.00000000E+00
  0.00000000E+00  0.00000000E+00  0.00000000E+00
  0.00000000E+00  0.00000000E+00  0.00000000E+00
  0.00000000E+00  0.00000000E+00  0.00000000E+00
  0.00000000E+00  0.00000000E+00  0.00000000E+00
  0.00000000E+00  0.00000000E+00  0.00000000E+00
  0.00000000E+00  0.00000000E+00  0.00000000E+00
  0.00000000E+00  0.00000000E+00  0.00000000E+00
  0.00000000E+00  0.00000000E+00  0.00000000E+00
  0.00000000E+00  0.00000000E+00  0.00000000E+00
  0.00000000E+00  0.00000000E+00  0.00000000E+00
  0.00000000E+00  0.00000000E+00  0.00000000E+00
  0.00000000E+00  0.00000000E+00  0.00000000E+00
  0.00000000E+00  0.00000000E+00  0.00000000E+00
  0.00000000E+00  0.00000000E+00  0.00000000E+00
  0.00000000E+00  0.00000000E+00  0.00000000E+00
  0.00000000E+00  0.00000000E+00  0.00000000E+00
  0.00000000E+00  0.00000000E+00  0.00000000E+00
  0.00000000E+00  0.00000000E+00  0.00000000E+00
  0.00000000E+00  0.00000000E+00  0.00000000E+00
  0.00000000E+00  0.00000000E+00  0.00000000E+00
  0.00000000E+00  0.00000000E+00  0.00000000E+00
  0.00000000E+00  0.00000000E+00  0.00000000E+00
  0.00000000E+00  0.00000000E+00  0.00000000E+00
  0.00000000E+00  0.00000000E+00  0.00000000E+00
  0.00000000E+00  0.00000000E+00  0.00000000E+00
  0.00000000E+00  0.00000000E+00  0.00000000E+00
  0.00000000E+00  0.00000000E+00  0.00000000E+00
