Ba Li O Ag                              
   1.00000000000000     
    11.1568587867069997    0.0000000000000000    0.0000000000000000
     0.0000000000000000   11.1568587867069997    0.0000000000000000
     0.0000000000000000    0.0000000000000000   26.1568587867070015
   Ba   Li   O    Ag
    31     1    32     1
Selective dynamics
Direct
  0.2500000000000000  0.9994302987086683  0.1067330241583043   T   T   T
  0.7500000000000000  0.9995842313529358  0.1076518936945567   T   T   T
  0.9995818148224704  0.2496662165594344  0.1072731502259505   T   T   T
  0.5004181851775296  0.2496662165594344  0.1072731502259505   T   T   T
  0.2500000000000000  0.4993537078141590  0.1078231573057295   T   T   T
  0.7500000000000000  0.4997180093985331  0.1092287720622529   T   T   T
 -0.0001276762293548  0.7493309967402378  0.1077390514246476   T   T   T
  0.5001276762293549  0.7493309967402378  0.1077390514246476   T   T   T
  0.9993751883714092  0.9989756095217811  0.2126517447025738   T   T   T
  0.5006248116285908  0.9989756095217811  0.2126517447025738   T   T   T
  0.2500000000000000  0.2491705819816541  0.2124759812780233   T   T   T
  0.7500000000000000  0.2494597526259633  0.2139238061697311   T   T   T
  0.0002437188365184  0.4999457458493172  0.2141085319682746   T   T   T
  0.4997562811634816  0.4999457458493172  0.2141085319682746   T   T   T
  0.2500000000000000  0.7481667382111276  0.2129763852845493   T   T   T
  0.7500000000000000  0.7500403191300667  0.2143505202708664   T   T   T
  0.2500000000000000  0.9949954546145673  0.3152564359370240   T   T   T
  0.7500000000000000  0.0010449925732543  0.3204226452196259   T   T   T
  0.0030827919164130  0.2486624489279870  0.3203857482803583   T   T   T
  0.4969172080835869  0.2486624489279870  0.3203857482803583   T   T   T
  0.2500000000000000  0.4962685181786937  0.3210054085257663   T   T   T
  0.7500000000000000  0.4985112306310460  0.3241150145042228   T   T   T
  0.9996536838859733  0.7489984605368970  0.3236325540828589   T   T   T
  0.5003463161140267  0.7489984605368970  0.3236325540828589   T   T   T
  0.0132463053081185  0.0134512666169767  0.4264058298968836   T   T   T
  0.4867536946918815  0.0134512666169767  0.4264058298968836   T   T   T
  0.7500000000000000  0.2379646109648359  0.4257158116952286   T   T   T
  0.0232975063571906  0.4837026211820300  0.4279552764060880   T   T   T
  0.4767024936428094  0.4837026211820300  0.4279552764060880   T   T   T
  0.2500000000000000  0.7568319803717579  0.4259057211797205   T   T   T
  0.7500000000000000  0.7681241229640057  0.4277629363363606   T   T   T
  0.2500000000000000  0.1935372806313082  0.3945282360223171   T   T   T
  0.9990148826748380  0.9990930847907378  0.1129027343520177   T   T   T
  0.5009851173251620  0.9990930847907378  0.1129027343520177   T   T   T
  0.2500000000000000  0.2503162819984472  0.1126425534440108   T   T   T
  0.7500000000000000  0.2515490271403125  0.1134900280901721   T   T   T
  0.9983890444275962  0.4999355320140683  0.1145343126578166   T   T   T
  0.5016109555724038  0.4999355320140683  0.1145343126578166   T   T   T
  0.2500000000000000  0.7482040055150875  0.1130595285950677   T   T   T
  0.7500000000000000  0.7476447961654309  0.1145335598899155   T   T   T
  0.2500000000000000  0.0001324747646893  0.2062266403842826   T   T   T
  0.7500000000000000  0.9995165677712798  0.2082266582124281   T   T   T
  0.9998439978687094  0.2501768034019662  0.2072216665235753   T   T   T
  0.5001560021312906  0.2501768034019662  0.2072216665235753   T   T   T
  0.2500000000000000  0.5000830999558971  0.2087042712929797   T   T   T
  0.7500000000000000  0.5004201505557845  0.2144631123997445   T   T   T
 -0.0002081922087831  0.7495912834775990  0.2082186846861495   T   T   T
  0.5002081922087830  0.7495912834775990  0.2082186846861495   T   T   T
  0.0004808976280930  0.0001386010258117  0.3240583349390100   T   T   T
  0.4995191023719071  0.0001386010258117  0.3240583349390100   T   T   T
  0.2500000000000000  0.2440922350414263  0.3232624703178850   T   T   T
  0.7500000000000000  0.2511642473750594  0.3236275260111626   T   T   T
  0.0002118011200024  0.4983914713219674  0.3273857166804168   T   T   T
  0.4997881988799976  0.4983914713219674  0.3273857166804168   T   T   T
  0.2500000000000000  0.7499306204414753  0.3240287899052903   T   T   T
  0.7500000000000000  0.7486691181142918  0.3273580629874873   T   T   T
  0.2500000000000000  0.0246255152329874  0.4131288587282342   T   T   T
  0.7500000000000000  0.0024611059985640  0.4197912726901158   T   T   T
  0.9868987820513239  0.2518321436326347  0.4177231390928497   T   T   T
  0.5131012179486761  0.2518321436326347  0.4177231390928497   T   T   T
  0.2500000000000000  0.5286461681490358  0.4188074699506674   T   T   T
  0.7499996334070005  0.5038124253281481  0.4307945393393708   T   T   T
  0.0014529291064558  0.7611170102378122  0.4220519056130289   T   T   T
  0.4985468844525446  0.7611170102378122  0.4220519056130289   T   T   T
  0.7499996334070005  0.5049075897460072  0.5089035254999269   T   T   T
 
  0.00000000E+00  0.00000000E+00  0.00000000E+00
  0.00000000E+00  0.00000000E+00  0.00000000E+00
  0.00000000E+00  0.00000000E+00  0.00000000E+00
  0.00000000E+00  0.00000000E+00  0.00000000E+00
  0.00000000E+00  0.00000000E+00  0.00000000E+00
  0.00000000E+00  0.00000000E+00  0.00000000E+00
  0.00000000E+00  0.00000000E+00  0.00000000E+00
  0.00000000E+00  0.00000000E+00  0.00000000E+00
  0.00000000E+00  0.00000000E+00  0.00000000E+00
  0.00000000E+00  0.00000000E+00  0.00000000E+00
  0.00000000E+00  0.00000000E+00  0.00000000E+00
  0.00000000E+00  0.00000000E+00  0.00000000E+00
  0.00000000E+00  0.00000000E+00  0.00000000E+00
  0.00000000E+00  0.00000000E+00  0.00000000E+00
  0.00000000E+00  0.00000000E+00  0.00000000E+00
  0.00000000E+00  0.00000000E+00  0.00000000E+00
  0.00000000E+00  0.00000000E+00  0.00000000E+00
  0.00000000E+00  0.00000000E+00  0.00000000E+00
  0.00000000E+00  0.00000000E+00  0.00000000E+00
  0.00000000E+00  0.00000000E+00  0.00000000E+00
  0.00000000E+00  0.00000000E+00  0.00000000E+00
  0.00000000E+00  0.00000000E+00  0.00000000E+00
  0.00000000E+00  0.00000000E+00  0.00000000E+00
  0.00000000E+00  0.00000000E+00  0.00000000E+00
  0.00000000E+00  0.00000000E+00  0.00000000E+00
  0.00000000E+00  0.00000000E+00  0.00000000E+00
  0.00000000E+00  0.00000000E+00  0.00000000E+00
  0.00000000E+00  0.00000000E+00  0.00000000E+00
  0.00000000E+00  0.00000000E+00  0.00000000E+00
  0.00000000E+00  0.00000000E+00  0.00000000E+00
  0.00000000E+00  0.00000000E+00  0.00000000E+00
  0.00000000E+00  0.00000000E+00  0.00000000E+00
  0.00000000E+00  0.00000000E+00  0.00000000E+00
  0.00000000E+00  0.00000000E+00  0.00000000E+00
  0.00000000E+00  0.00000000E+00  0.00000000E+00
  0.00000000E+00  0.00000000E+00  0.00000000E+00
  0.00000000E+00  0.00000000E+00  0.00000000E+00
  0.00000000E+00  0.00000000E+00  0.00000000E+00
  0.00000000E+00  0.00000000E+00  0.00000000E+00
  0.00000000E+00  0.00000000E+00  0.00000000E+00
  0.00000000E+00  0.00000000E+00  0.00000000E+00
  0.00000000E+00  0.00000000E+00  0.00000000E+00
  0.00000000E+00  0.00000000E+00  0.00000000E+00
  0.00000000E+00  0.00000000E+00  0.00000000E+00
  0.00000000E+00  0.00000000E+00  0.00000000E+00
  0.00000000E+00  0.00000000E+00  0.00000000E+00
  0.00000000E+00  0.00000000E+00  0.00000000E+00
  0.00000000E+00  0.00000000E+00  0.00000000E+00
  0.00000000E+00  0.00000000E+00  0.00000000E+00
  0.00000000E+00  0.00000000E+00  0.00000000E+00
  0.00000000E+00  0.00000000E+00  0.00000000E+00
  0.00000000E+00  0.00000000E+00  0.00000000E+00
  0.00000000E+00  0.00000000E+00  0.00000000E+00
  0.00000000E+00  0.00000000E+00  0.00000000E+00
  0.00000000E+00  0.00000000E+00  0.00000000E+00
  0.00000000E+00  0.00000000E+00  0.00000000E+00
  0.00000000E+00  0.00000000E+00  0.00000000E+00
  0.00000000E+00  0.00000000E+00  0.00000000E+00
  0.00000000E+00  0.00000000E+00  0.00000000E+00
  0.00000000E+00  0.00000000E+00  0.00000000E+00
  0.00000000E+00  0.00000000E+00  0.00000000E+00
  0.00000000E+00  0.00000000E+00  0.00000000E+00
  0.00000000E+00  0.00000000E+00  0.00000000E+00
  0.00000000E+00  0.00000000E+00  0.00000000E+00
  0.00000000E+00  0.00000000E+00  0.00000000E+00
