Ba Li O Co                              
   1.00000000000000     
    11.1568587867069997    0.0000000000000000    0.0000000000000000
     0.0000000000000000   11.1568587867069997    0.0000000000000000
     0.0000000000000000    0.0000000000000000   26.1568587867070015
   Ba   Li   O    Co
    31     1    32     1
Selective dynamics
Direct
  0.2500000000000000  0.9994573318215849  0.1064298707649562   T   T   T
  0.7500000000000000  0.9995791664928827  0.1075136613498767   T   T   T
  0.9998516011533495  0.2493732264293673  0.1071517558906491   T   T   T
  0.5001483988466505  0.2493732264293673  0.1071517558906491   T   T   T
  0.2500000000000000  0.4993752994800756  0.1076621547695353   T   T   T
  0.7500000000000000  0.4994074932350575  0.1096360972934099   T   T   T
  0.0001013823833124  0.7495838999982651  0.1073650952301793   T   T   T
  0.4998986176166876  0.7495838999982651  0.1073650952301793   T   T   T
  0.9997781516257398  0.9986453182826222  0.2125672561257586   T   T   T
  0.5002218483742602  0.9986453182826222  0.2125672561257586   T   T   T
  0.2500000000000000  0.2487539451677368  0.2123269496063006   T   T   T
  0.7500000000000000  0.2482078120977811  0.2136614335873851   T   T   T
  0.0012914466094904  0.5002414239903779  0.2137165812949341   T   T   T
  0.4987085533905096  0.5002414239903779  0.2137165812949341   T   T   T
  0.2500000000000000  0.7485894609663688  0.2127925949182653   T   T   T
  0.7500000000000000  0.7507973702187549  0.2139518721850535   T   T   T
  0.2500000000000000  0.9943706912417390  0.3148885084116201   T   T   T
  0.7500000000000000  0.0003773482275651  0.3202409472890549   T   T   T
  0.0027076064413829  0.2489343640234170  0.3205872314896036   T   T   T
  0.4972923935586172  0.2489343640234170  0.3205872314896036   T   T   T
  0.2500000000000000  0.4965848928439710  0.3209347180290251   T   T   T
  0.7500000000000000  0.4981080597588344  0.3208707637482074   T   T   T
  0.9987297426539143  0.7484487190070752  0.3245441624296559   T   T   T
  0.5012702573460857  0.7484487190070752  0.3245441624296559   T   T   T
  0.0146324472029342  0.0125495978186076  0.4261621401108429   T   T   T
  0.4853675527970658  0.0125495978186076  0.4261621401108429   T   T   T
  0.7500000000000000  0.2345052742874355  0.4261590964406513   T   T   T
  0.0254684783645645  0.4817576203969940  0.4291424041584196   T   T   T
  0.4745315216354354  0.4817576203969940  0.4291424041584196   T   T   T
  0.2500000000000000  0.7564690884885076  0.4258497837281957   T   T   T
  0.7500000000000000  0.7711232210519664  0.4291988054420798   T   T   T
  0.2500000000000000  0.1937763690614103  0.3938725399998816   T   T   T
  0.9988128682128884  0.9992712421025176  0.1127243106531460   T   T   T
  0.5011871317871116  0.9992712421025176  0.1127243106531460   T   T   T
  0.2500000000000000  0.2505833073903654  0.1125341437111177   T   T   T
  0.7500000000000000  0.2517783468217822  0.1136539153857296   T   T   T
  0.9981526373512916  0.4998309723922097  0.1146410514225306   T   T   T
  0.5018473626487084  0.4998309723922097  0.1146410514225306   T   T   T
  0.2500000000000000  0.7478730254229812  0.1129110471284764   T   T   T
  0.7500000000000000  0.7471088737879510  0.1145952781224832   T   T   T
  0.2500000000000000 -0.0000075933128662  0.2058871650226731   T   T   T
  0.7500000000000000  0.9993372986246174  0.2084880326168390   T   T   T
  0.9997709018256981  0.2505194358954244  0.2070707412039623   T   T   T
  0.5002290981743019  0.2505194358954244  0.2070707412039623   T   T   T
  0.2500000000000000  0.5000623850318925  0.2090621812108797   T   T   T
  0.7500000000000000  0.5002521360786054  0.2164292287076747   T   T   T
  0.9996706644247669  0.7495892799480015  0.2075310808715442   T   T   T
  0.5003293355752331  0.7495892799480015  0.2075310808715442   T   T   T
  0.0003644329496812  0.0008546283798272  0.3234549221062056   T   T   T
  0.4996355670503187  0.0008546283798272  0.3234549221062056   T   T   T
  0.2500000000000000  0.2449822990239554  0.3229455440666013   T   T   T
  0.7500000000000000  0.2515496921145295  0.3241462643050740   T   T   T
  0.9991938327420526  0.4983681440730865  0.3287225822382280   T   T   T
  0.5008061672579474  0.4983681440730865  0.3287225822382280   T   T   T
  0.2500000000000000  0.7490095089335184  0.3240002480716039   T   T   T
  0.7500000000000000  0.7475791085532225  0.3285111790281689   T   T   T
  0.2500000000000000  0.0255300717402735  0.4125367386733574   T   T   T
  0.7500000000000000  0.0023759379186723  0.4202646119350602   T   T   T
  0.9863227160644490  0.2525404543839361  0.4178067631006235   T   T   T
  0.5136772839355510  0.2525404543839361  0.4178067631006235   T   T   T
  0.2500000000000000  0.5266134672697556  0.4195850753448572   T   T   T
  0.7499996334070005  0.5053874021255066  0.4372884105137830   T   T   T
  0.0018493082304026  0.7651077784955903  0.4216044217843331   T   T   T
  0.4981505053285979  0.7651077784955903  0.4216044217843331   T   T   T
  0.7499996334070005  0.5036655479199101  0.5010075188189521   T   T   T
 
  0.00000000E+00  0.00000000E+00  0.00000000E+00
  0.00000000E+00  0.00000000E+00  0.00000000E+00
  0.00000000E+00  0.00000000E+00  0.00000000E+00
  0.00000000E+00  0.00000000E+00  0.00000000E+00
  0.00000000E+00  0.00000000E+00  0.00000000E+00
  0.00000000E+00  0.00000000E+00  0.00000000E+00
  0.00000000E+00  0.00000000E+00  0.00000000E+00
  0.00000000E+00  0.00000000E+00  0.00000000E+00
  0.00000000E+00  0.00000000E+00  0.00000000E+00
  0.00000000E+00  0.00000000E+00  0.00000000E+00
  0.00000000E+00  0.00000000E+00  0.00000000E+00
  0.00000000E+00  0.00000000E+00  0.00000000E+00
  0.00000000E+00  0.00000000E+00  0.00000000E+00
  0.00000000E+00  0.00000000E+00  0.00000000E+00
  0.00000000E+00  0.00000000E+00  0.00000000E+00
  0.00000000E+00  0.00000000E+00  0.00000000E+00
  0.00000000E+00  0.00000000E+00  0.00000000E+00
  0.00000000E+00  0.00000000E+00  0.00000000E+00
  0.00000000E+00  0.00000000E+00  0.00000000E+00
  0.00000000E+00  0.00000000E+00  0.00000000E+00
  0.00000000E+00  0.00000000E+00  0.00000000E+00
  0.00000000E+00  0.00000000E+00  0.00000000E+00
  0.00000000E+00  0.00000000E+00  0.00000000E+00
  0.00000000E+00  0.00000000E+00  0.00000000E+00
  0.00000000E+00  0.00000000E+00  0.00000000E+00
  0.00000000E+00  0.00000000E+00  0.00000000E+00
  0.00000000E+00  0.00000000E+00  0.00000000E+00
  0.00000000E+00  0.00000000E+00  0.00000000E+00
  0.00000000E+00  0.00000000E+00  0.00000000E+00
  0.00000000E+00  0.00000000E+00  0.00000000E+00
  0.00000000E+00  0.00000000E+00  0.00000000E+00
  0.00000000E+00  0.00000000E+00  0.00000000E+00
  0.00000000E+00  0.00000000E+00  0.00000000E+00
  0.00000000E+00  0.00000000E+00  0.00000000E+00
  0.00000000E+00  0.00000000E+00  0.00000000E+00
  0.00000000E+00  0.00000000E+00  0.00000000E+00
  0.00000000E+00  0.00000000E+00  0.00000000E+00
  0.00000000E+00  0.00000000E+00  0.00000000E+00
  0.00000000E+00  0.00000000E+00  0.00000000E+00
  0.00000000E+00  0.00000000E+00  0.00000000E+00
  0.00000000E+00  0.00000000E+00  0.00000000E+00
  0.00000000E+00  0.00000000E+00  0.00000000E+00
  0.00000000E+00  0.00000000E+00  0.00000000E+00
  0.00000000E+00  0.00000000E+00  0.00000000E+00
  0.00000000E+00  0.00000000E+00  0.00000000E+00
  0.00000000E+00  0.00000000E+00  0.00000000E+00
  0.00000000E+00  0.00000000E+00  0.00000000E+00
  0.00000000E+00  0.00000000E+00  0.00000000E+00
  0.00000000E+00  0.00000000E+00  0.00000000E+00
  0.00000000E+00  0.00000000E+00  0.00000000E+00
  0.00000000E+00  0.00000000E+00  0.00000000E+00
  0.00000000E+00  0.00000000E+00  0.00000000E+00
  0.00000000E+00  0.00000000E+00  0.00000000E+00
  0.00000000E+00  0.00000000E+00  0.00000000E+00
  0.00000000E+00  0.00000000E+00  0.00000000E+00
  0.00000000E+00  0.00000000E+00  0.00000000E+00
  0.00000000E+00  0.00000000E+00  0.00000000E+00
  0.00000000E+00  0.00000000E+00  0.00000000E+00
  0.00000000E+00  0.00000000E+00  0.00000000E+00
  0.00000000E+00  0.00000000E+00  0.00000000E+00
  0.00000000E+00  0.00000000E+00  0.00000000E+00
  0.00000000E+00  0.00000000E+00  0.00000000E+00
  0.00000000E+00  0.00000000E+00  0.00000000E+00
  0.00000000E+00  0.00000000E+00  0.00000000E+00
  0.00000000E+00  0.00000000E+00  0.00000000E+00
