Ba Li O Au                              
   1.00000000000000     
    11.1568587867069997    0.0000000000000000    0.0000000000000000
     0.0000000000000000   11.1568587867069997    0.0000000000000000
     0.0000000000000000    0.0000000000000000   26.1568587867070015
   Ba   Li   O    Au
    31     1    32     1
Selective dynamics
Direct
  0.2500000000000000  0.9993544399193481  0.1070447305211068   T   T   T
  0.7500000000000000  0.9994003923331666  0.1072424624980307   T   T   T
  0.9996233532399981  0.2496261828213940  0.1073793318563489   T   T   T
  0.5003766467600019  0.2496261828213940  0.1073793318563489   T   T   T
  0.2500000000000000  0.4993587959661754  0.1075504580866399   T   T   T
  0.7500000000000000  0.4997254195387610  0.1092167188623488   T   T   T
  0.9999542230920200  0.7495111267868618  0.1078996327858608   T   T   T
  0.5000457769079800  0.7495111267868618  0.1078996327858608   T   T   T
  0.9993303934587827  0.9991280209512203  0.2130132228689603   T   T   T
  0.5006696065412173  0.9991280209512203  0.2130132228689603   T   T   T
  0.2500000000000000  0.2491759593200176  0.2128734120894868   T   T   T
  0.7500000000000000  0.2492088991959447  0.2136849973232170   T   T   T
  0.0005024284892975  0.4997148659901287  0.2139150648647175   T   T   T
  0.4994975715107025  0.4997148659901287  0.2139150648647175   T   T   T
  0.2500000000000000  0.7478958050106231  0.2133265672423272   T   T   T
  0.7500000000000000  0.7503197926814469  0.2142150886912799   T   T   T
  0.2500000000000000  0.9945982134226603  0.3155656487435350   T   T   T
  0.7500000000000000  0.0014025233104835  0.3211181735448028   T   T   T
  0.0014911602370618  0.2497018524709680  0.3208018489813130   T   T   T
  0.4985088397629381  0.2497018524709680  0.3208018489813130   T   T   T
  0.2500000000000000  0.4962632933825665  0.3218967502642949   T   T   T
  0.7500000000000000  0.4985839101688953  0.3236633445314384   T   T   T
  0.9986700457081295  0.7478844682254496  0.3237183700208642   T   T   T
  0.5013299542918705  0.7478844682254496  0.3237183700208642   T   T   T
  0.0132233278212779  0.0140379273877984  0.4267825665078582   T   T   T
  0.4867766721787221  0.0140379273877984  0.4267825665078582   T   T   T
  0.7500000000000000  0.2375945826750728  0.4274711492810449   T   T   T
  0.0229273409365888  0.4841025853386665  0.4290761511803214   T   T   T
  0.4770726590634112  0.4841025853386665  0.4290761511803214   T   T   T
  0.2500000000000000  0.7574026263802459  0.4260990674595261   T   T   T
  0.7500000000000000  0.7685538958565248  0.4286163624589895   T   T   T
  0.2500000000000000  0.1926979850375851  0.3947210944717345   T   T   T
  0.9990872505431967  0.9991044670941657  0.1131575791504806   T   T   T
  0.5009127494568033  0.9991044670941657  0.1131575791504806   T   T   T
  0.2500000000000000  0.2501007302081466  0.1128121448440359   T   T   T
  0.7500000000000000  0.2510329329693216  0.1130200322233461   T   T   T
  0.9987746422734179  0.4999544879147204  0.1141283794082942   T   T   T
  0.5012253577265821  0.4999544879147204  0.1141283794082942   T   T   T
  0.2500000000000000  0.7482842852120648  0.1132872186322646   T   T   T
  0.7500000000000000  0.7481552153995223  0.1142059529044593   T   T   T
  0.2500000000000000  0.0001385569096872  0.2067162024915082   T   T   T
  0.7500000000000000  0.9994288279375199  0.2080104670307824   T   T   T
  0.9999368497826232  0.2499826766631165  0.2070697848000222   T   T   T
  0.5000631502173768  0.2499826766631165  0.2070697848000222   T   T   T
  0.2500000000000000  0.5000231154642418  0.2085674454603625   T   T   T
  0.7500000000000000  0.5003181362859377  0.2133819361169551   T   T   T
 -0.0000155132253378  0.7499154624021122  0.2082037328849384   T   T   T
  0.5000155132253378  0.7499154624021122  0.2082037328849384   T   T   T
  0.0003002938502367  0.0000442674819272  0.3245129428808833   T   T   T
  0.4996997061497632  0.0000442674819272  0.3245129428808833   T   T   T
  0.2500000000000000  0.2436106764037397  0.3238819766656354   T   T   T
  0.7500000000000000  0.2508950861721114  0.3230313910232261   T   T   T
  0.0008029415198105  0.4984544100557167  0.3270550195763360   T   T   T
  0.4991970584801895  0.4984544100557167  0.3270550195763360   T   T   T
  0.2500000000000000  0.7498930903438605  0.3244269405051913   T   T   T
  0.7500000000000000  0.7490422255156858  0.3270632976591935   T   T   T
  0.2500000000000000  0.0241444454454726  0.4134124257399682   T   T   T
  0.7500000000000000  0.0024681562208133  0.4203522055656416   T   T   T
  0.9862707057430200  0.2513998025650807  0.4179250689436093   T   T   T
  0.5137292942569800  0.2513998025650807  0.4179250689436093   T   T   T
  0.2500000000000000  0.5294875449634870  0.4194740591463229   T   T   T
  0.7499996334070005  0.5046177029416462  0.4260118786327843   T   T   T
  0.0022687312483161  0.7608650650283643  0.4222731592329234   T   T   T
  0.4977310823106843  0.7608650650283643  0.4222731592329234   T   T   T
  0.7499996334070005  0.5043632501728592  0.5036360678490761   T   T   T
 
  0.00000000E+00  0.00000000E+00  0.00000000E+00
  0.00000000E+00  0.00000000E+00  0.00000000E+00
  0.00000000E+00  0.00000000E+00  0.00000000E+00
  0.00000000E+00  0.00000000E+00  0.00000000E+00
  0.00000000E+00  0.00000000E+00  0.00000000E+00
  0.00000000E+00  0.00000000E+00  0.00000000E+00
  0.00000000E+00  0.00000000E+00  0.00000000E+00
  0.00000000E+00  0.00000000E+00  0.00000000E+00
  0.00000000E+00  0.00000000E+00  0.00000000E+00
  0.00000000E+00  0.00000000E+00  0.00000000E+00
  0.00000000E+00  0.00000000E+00  0.00000000E+00
  0.00000000E+00  0.00000000E+00  0.00000000E+00
  0.00000000E+00  0.00000000E+00  0.00000000E+00
  0.00000000E+00  0.00000000E+00  0.00000000E+00
  0.00000000E+00  0.00000000E+00  0.00000000E+00
  0.00000000E+00  0.00000000E+00  0.00000000E+00
  0.00000000E+00  0.00000000E+00  0.00000000E+00
  0.00000000E+00  0.00000000E+00  0.00000000E+00
  0.00000000E+00  0.00000000E+00  0.00000000E+00
  0.00000000E+00  0.00000000E+00  0.00000000E+00
  0.00000000E+00  0.00000000E+00  0.00000000E+00
  0.00000000E+00  0.00000000E+00  0.00000000E+00
  0.00000000E+00  0.00000000E+00  0.00000000E+00
  0.00000000E+00  0.00000000E+00  0.00000000E+00
  0.00000000E+00  0.00000000E+00  0.00000000E+00
  0.00000000E+00  0.00000000E+00  0.00000000E+00
  0.00000000E+00  0.00000000E+00  0.00000000E+00
  0.00000000E+00  0.00000000E+00  0.00000000E+00
  0.00000000E+00  0.00000000E+00  0.00000000E+00
  0.00000000E+00  0.00000000E+00  0.00000000E+00
  0.00000000E+00  0.00000000E+00  0.00000000E+00
  0.00000000E+00  0.00000000E+00  0.00000000E+00
  0.00000000E+00  0.00000000E+00  0.00000000E+00
  0.00000000E+00  0.00000000E+00  0.00000000E+00
  0.00000000E+00  0.00000000E+00  0.00000000E+00
  0.00000000E+00  0.00000000E+00  0.00000000E+00
  0.00000000E+00  0.00000000E+00  0.00000000E+00
  0.00000000E+00  0.00000000E+00  0.00000000E+00
  0.00000000E+00  0.00000000E+00  0.00000000E+00
  0.00000000E+00  0.00000000E+00  0.00000000E+00
  0.00000000E+00  0.00000000E+00  0.00000000E+00
  0.00000000E+00  0.00000000E+00  0.00000000E+00
  0.00000000E+00  0.00000000E+00  0.00000000E+00
  0.00000000E+00  0.00000000E+00  0.00000000E+00
  0.00000000E+00  0.00000000E+00  0.00000000E+00
  0.00000000E+00  0.00000000E+00  0.00000000E+00
  0.00000000E+00  0.00000000E+00  0.00000000E+00
  0.00000000E+00  0.00000000E+00  0.00000000E+00
  0.00000000E+00  0.00000000E+00  0.00000000E+00
  0.00000000E+00  0.00000000E+00  0.00000000E+00
  0.00000000E+00  0.00000000E+00  0.00000000E+00
  0.00000000E+00  0.00000000E+00  0.00000000E+00
  0.00000000E+00  0.00000000E+00  0.00000000E+00
  0.00000000E+00  0.00000000E+00  0.00000000E+00
  0.00000000E+00  0.00000000E+00  0.00000000E+00
  0.00000000E+00  0.00000000E+00  0.00000000E+00
  0.00000000E+00  0.00000000E+00  0.00000000E+00
  0.00000000E+00  0.00000000E+00  0.00000000E+00
  0.00000000E+00  0.00000000E+00  0.00000000E+00
  0.00000000E+00  0.00000000E+00  0.00000000E+00
  0.00000000E+00  0.00000000E+00  0.00000000E+00
  0.00000000E+00  0.00000000E+00  0.00000000E+00
  0.00000000E+00  0.00000000E+00  0.00000000E+00
  0.00000000E+00  0.00000000E+00  0.00000000E+00
  0.00000000E+00  0.00000000E+00  0.00000000E+00
