Ba Li O                                 
   1.00000000000000     
    11.1568587867069997    0.0000000000000000    0.0000000000000000
     0.0000000000000000   11.1568587867069997    0.0000000000000000
     0.0000000000000000    0.0000000000000000   26.1568587867070015
   Ba   Li   O 
    31     1    32
Selective dynamics
Direct
  0.2500000000000000  0.9993301167345953  0.1070946796973991   T   T   T
  0.7500000000000000  0.9993453390894721  0.1074195951159789   T   T   T
  0.9995772284421679  0.2498293417442178  0.1075180228232144   T   T   T
  0.5004227715578321  0.2498293417442178  0.1075180228232144   T   T   T
  0.2500000000000000  0.4994970507986942  0.1075663217631226   T   T   T
  0.7500000000000000  0.4999200755022388  0.1084074903739636   T   T   T
  0.9998876647656156  0.7494350181362112  0.1080823398481883   T   T   T
  0.5001123352343844  0.7494350181362112  0.1080823398481883   T   T   T
  0.9985912746565840  0.9991286578640830  0.2130117316160088   T   T   T
  0.5014087253434160  0.9991286578640830  0.2130117316160088   T   T   T
  0.2500000000000000  0.2499605497581023  0.2129448792282893   T   T   T
  0.7500000000000000  0.2495635314172955  0.2137253878255503   T   T   T
  0.9999953952855620  0.4996801661671983  0.2140870075418013   T   T   T
  0.5000046047144380  0.4996801661671983  0.2140870075418013   T   T   T
  0.2500000000000000  0.7470094906805754  0.2133967935037877   T   T   T
  0.7500000000000000  0.7496106656963637  0.2142688214451788   T   T   T
  0.2500000000000000  0.9945222383742640  0.3158061393654161   T   T   T
  0.7500000000000000  0.0004603255734373  0.3229899894031179   T   T   T
  0.0016469360481496  0.2490448232268316  0.3206264869813542   T   T   T
  0.4983530639518504  0.2490448232268316  0.3206264869813542   T   T   T
  0.2500000000000000  0.4952729369358393  0.3237433210181356   T   T   T
  0.7500000000000000  0.4985825848133756  0.3244456072461238   T   T   T
  0.9993167620488091  0.7481943505256634  0.3234537397556128   T   T   T
  0.5006832379511909  0.7481943505256634  0.3234537397556128   T   T   T
  0.0101105505814807  0.0130013395419695  0.4270480932472397   T   T   T
  0.4898894494185193  0.0130013395419695  0.4270480932472397   T   T   T
  0.7500000000000000  0.2501904961900732  0.4273372139288373   T   T   T
  0.0140034780392822  0.4881951658768632  0.4290424079107202   T   T   T
  0.4859965219607178  0.4881951658768632  0.4290424079107202   T   T   T
  0.2500000000000000  0.7563026389402363  0.4265305945886169   T   T   T
  0.7500000000000000  0.7522913087383537  0.4287667767707620   T   T   T
  0.2500000000000000  0.1925634972653453  0.3947569426771030   T   T   T
  0.9993174938799819  0.9991221027875545  0.1130244610343704   T   T   T
  0.5006825061200181  0.9991221027875545  0.1130244610343704   T   T   T
  0.2500000000000000  0.2497865502754722  0.1127399902747574   T   T   T
  0.7500000000000000  0.2499588721550929  0.1129010542056829   T   T   T
  0.9997002961148159  0.5000356113064740  0.1140127865441618   T   T   T
  0.5002997038851841  0.5000356113064740  0.1140127865441618   T   T   T
  0.2500000000000000  0.7484458318326731  0.1134004636530957   T   T   T
  0.7500000000000000  0.7493247500778761  0.1140766901653228   T   T   T
  0.2500000000000000  0.0001952180684317  0.2065501672368464   T   T   T
  0.7500000000000000  0.9995000674278863  0.2082194154744386   T   T   T
  0.9999407232521507  0.2502247876132093  0.2074475356192580   T   T   T
  0.5000592767478493  0.2502247876132093  0.2074475356192580   T   T   T
  0.2500000000000000  0.4999532564254560  0.2082655746554572   T   T   T
  0.7500000000000000  0.5005576017635781  0.2090660784911562   T   T   T
  0.0000643265365976  0.7499138805139058  0.2086432701712453   T   T   T
  0.4999356734634023  0.7499138805139058  0.2086432701712453   T   T   T
 -0.0000606116299895  0.9996297479692317  0.3245669438276948   T   T   T
  0.5000606116299896  0.9996297479692317  0.3245669438276948   T   T   T
  0.2500000000000000  0.2426687477201861  0.3237306985878197   T   T   T
  0.7500000000000000  0.2496070369332627  0.3231379184608875   T   T   T
  0.0014522107550072  0.4986409925287937  0.3267865371741744   T   T   T
  0.4985477892449928  0.4986409925287937  0.3267865371741744   T   T   T
  0.2500000000000000  0.7497836843919494  0.3246390646879015   T   T   T
  0.7500000000000000  0.7486141143538676  0.3266841997984332   T   T   T
  0.2500000000000000  0.0252174881936182  0.4134297626688090   T   T   T
  0.7500000000000000  0.0036398118026054  0.4224688116288293   T   T   T
  0.9842617398880440  0.2521389499726652  0.4182891289523482   T   T   T
  0.5157382601119560  0.2521389499726652  0.4182891289523482   T   T   T
  0.2500000000000000  0.5305177278952740  0.4201210390289509   T   T   T
  0.7499996334070005  0.5061006767144109  0.4237709333472179   T   T   T
  0.0009856997806147  0.7587858491401690  0.4227532613396250   T   T   T
  0.4990143002193854  0.7587858491401690  0.4227532613396250   T   T   T
 
  0.00000000E+00  0.00000000E+00  0.00000000E+00
  0.00000000E+00  0.00000000E+00  0.00000000E+00
  0.00000000E+00  0.00000000E+00  0.00000000E+00
  0.00000000E+00  0.00000000E+00  0.00000000E+00
  0.00000000E+00  0.00000000E+00  0.00000000E+00
  0.00000000E+00  0.00000000E+00  0.00000000E+00
  0.00000000E+00  0.00000000E+00  0.00000000E+00
  0.00000000E+00  0.00000000E+00  0.00000000E+00
  0.00000000E+00  0.00000000E+00  0.00000000E+00
  0.00000000E+00  0.00000000E+00  0.00000000E+00
  0.00000000E+00  0.00000000E+00  0.00000000E+00
  0.00000000E+00  0.00000000E+00  0.00000000E+00
  0.00000000E+00  0.00000000E+00  0.00000000E+00
  0.00000000E+00  0.00000000E+00  0.00000000E+00
  0.00000000E+00  0.00000000E+00  0.00000000E+00
  0.00000000E+00  0.00000000E+00  0.00000000E+00
  0.00000000E+00  0.00000000E+00  0.00000000E+00
  0.00000000E+00  0.00000000E+00  0.00000000E+00
  0.00000000E+00  0.00000000E+00  0.00000000E+00
  0.00000000E+00  0.00000000E+00  0.00000000E+00
  0.00000000E+00  0.00000000E+00  0.00000000E+00
  0.00000000E+00  0.00000000E+00  0.00000000E+00
  0.00000000E+00  0.00000000E+00  0.00000000E+00
  0.00000000E+00  0.00000000E+00  0.00000000E+00
  0.00000000E+00  0.00000000E+00  0.00000000E+00
  0.00000000E+00  0.00000000E+00  0.00000000E+00
  0.00000000E+00  0.00000000E+00  0.00000000E+00
  0.00000000E+00  0.00000000E+00  0.00000000E+00
  0.00000000E+00  0.00000000E+00  0.00000000E+00
  0.00000000E+00  0.00000000E+00  0.00000000E+00
  0.00000000E+00  0.00000000E+00  0.00000000E+00
  0.00000000E+00  0.00000000E+00  0.00000000E+00
  0.00000000E+00  0.00000000E+00  0.00000000E+00
  0.00000000E+00  0.00000000E+00  0.00000000E+00
  0.00000000E+00  0.00000000E+00  0.00000000E+00
  0.00000000E+00  0.00000000E+00  0.00000000E+00
  0.00000000E+00  0.00000000E+00  0.00000000E+00
  0.00000000E+00  0.00000000E+00  0.00000000E+00
  0.00000000E+00  0.00000000E+00  0.00000000E+00
  0.00000000E+00  0.00000000E+00  0.00000000E+00
  0.00000000E+00  0.00000000E+00  0.00000000E+00
  0.00000000E+00  0.00000000E+00  0.00000000E+00
  0.00000000E+00  0.00000000E+00  0.00000000E+00
  0.00000000E+00  0.00000000E+00  0.00000000E+00
  0.00000000E+00  0.00000000E+00  0.00000000E+00
  0.00000000E+00  0.00000000E+00  0.00000000E+00
  0.00000000E+00  0.00000000E+00  0.00000000E+00
  0.00000000E+00  0.00000000E+00  0.00000000E+00
  0.00000000E+00  0.00000000E+00  0.00000000E+00
  0.00000000E+00  0.00000000E+00  0.00000000E+00
  0.00000000E+00  0.00000000E+00  0.00000000E+00
  0.00000000E+00  0.00000000E+00  0.00000000E+00
  0.00000000E+00  0.00000000E+00  0.00000000E+00
  0.00000000E+00  0.00000000E+00  0.00000000E+00
  0.00000000E+00  0.00000000E+00  0.00000000E+00
  0.00000000E+00  0.00000000E+00  0.00000000E+00
  0.00000000E+00  0.00000000E+00  0.00000000E+00
  0.00000000E+00  0.00000000E+00  0.00000000E+00
  0.00000000E+00  0.00000000E+00  0.00000000E+00
  0.00000000E+00  0.00000000E+00  0.00000000E+00
  0.00000000E+00  0.00000000E+00  0.00000000E+00
  0.00000000E+00  0.00000000E+00  0.00000000E+00
  0.00000000E+00  0.00000000E+00  0.00000000E+00
  0.00000000E+00  0.00000000E+00  0.00000000E+00
