Ba Li O Cu                              
   1.00000000000000     
    11.1568587867069997    0.0000000000000000    0.0000000000000000
     0.0000000000000000   11.1568587867069997    0.0000000000000000
     0.0000000000000000    0.0000000000000000   26.1568587867070015
   Ba   Li   O    Cu
    31     1    32     1
Selective dynamics
Direct
  0.2500000000000000  0.9994038452195941  0.1068217508678805   T   T   T
  0.7500000000000000  0.9995374929267583  0.1075397608906926   T   T   T
  0.9997707848329651  0.2494446014013579  0.1072768213247300   T   T   T
  0.5002292151670349  0.2494446014013579  0.1072768213247300   T   T   T
  0.2500000000000000  0.4993156451901752  0.1077103527854945   T   T   T
  0.7500000000000000  0.4996354225939910  0.1093312977873551   T   T   T
  0.0000272104759992  0.7495423092344656  0.1077537704209458   T   T   T
  0.4999727895240008  0.7495423092344656  0.1077537704209458   T   T   T
  0.9995586814694195  0.9989445466907008  0.2127319145208585   T   T   T
  0.5004413185305805  0.9989445466907008  0.2127319145208585   T   T   T
  0.2500000000000000  0.2489914483698397  0.2125496755920361   T   T   T
  0.7500000000000000  0.2489641896098204  0.2137421855425012   T   T   T
  0.0007076913878996  0.4999170983818053  0.2139000953400067   T   T   T
  0.4992923086121003  0.4999170983818053  0.2139000953400067   T   T   T
  0.2500000000000000  0.7482678267529392  0.2130531766799431   T   T   T
  0.7500000000000000  0.7504631653463434  0.2141966356487305   T   T   T
  0.2500000000000000  0.9948691869727927  0.3152751384001652   T   T   T
  0.7500000000000000  0.0011278181316359  0.3204444366451870   T   T   T
  0.0028388648713640  0.2489668321837823  0.3206902440582914   T   T   T
  0.4971611351286360  0.2489668321837823  0.3206902440582914   T   T   T
  0.2500000000000000  0.4964323786110452  0.3211918692500091   T   T   T
  0.7500000000000000  0.4984469490882285  0.3226482029279090   T   T   T
  0.9993321074603024  0.7487507999986993  0.3239864766299359   T   T   T
  0.5006678925396976  0.7487507999986993  0.3239864766299359   T   T   T
  0.0137267219627664  0.0134972017289705  0.4265013143138981   T   T   T
  0.4862732780372335  0.0134972017289705  0.4265013143138981   T   T   T
  0.7500000000000000  0.2370991467773121  0.4260267497761229   T   T   T
  0.0239976942547391  0.4836282370594805  0.4284178902170712   T   T   T
  0.4760023057452609  0.4836282370594805  0.4284178902170712   T   T   T
  0.2500000000000000  0.7571068693271807  0.4259872843883173   T   T   T
  0.7500000000000000  0.7694984518068256  0.4281697269511373   T   T   T
  0.2500000000000000  0.1934301259148918  0.3945475376618290   T   T   T
  0.9989395976754667  0.9991346635791294  0.1131012821752935   T   T   T
  0.5010604023245333  0.9991346635791294  0.1131012821752935   T   T   T
  0.2500000000000000  0.2503809824759155  0.1128024696895951   T   T   T
  0.7500000000000000  0.2515418960867954  0.1135476260289598   T   T   T
  0.9983429763087724  0.4999159293419025  0.1145386129534637   T   T   T
  0.5016570236912276  0.4999159293419025  0.1145386129534637   T   T   T
  0.2500000000000000  0.7480705223659786  0.1132559483417354   T   T   T
  0.7500000000000000  0.7475557982536307  0.1145790705918979   T   T   T
  0.2500000000000000  0.0000540026910327  0.2063999929603712   T   T   T
  0.7500000000000000  0.9994700401966097  0.2083967023364562   T   T   T
  0.9998499501752091  0.2501625188110428  0.2072059443654115   T   T   T
  0.5001500498247909  0.2501625188110428  0.2072059443654115   T   T   T
  0.2500000000000000  0.4999937917849387  0.2089275343849833   T   T   T
  0.7500000000000000  0.5002909754733600  0.2152347174464298   T   T   T
  0.9998101921532891  0.7496389830992105  0.2081567107295904   T   T   T
  0.5001898078467109  0.7496389830992105  0.2081567107295904   T   T   T
  0.0003456659831717  0.0003534222654353  0.3242913967778909   T   T   T
  0.4996543340168282  0.0003534222654353  0.3242913967778909   T   T   T
  0.2500000000000000  0.2441046450143149  0.3234358774486534   T   T   T
  0.7500000000000000  0.2512415294656077  0.3239167648913702   T   T   T
  0.9999687399476129  0.4984245580816372  0.3278568074505382   T   T   T
  0.5000312600523871  0.4984245580816372  0.3278568074505382   T   T   T
  0.2500000000000000  0.7497487670580395  0.3242636242386031   T   T   T
  0.7500000000000000  0.7483831498689151  0.3277268537145336   T   T   T
  0.2500000000000000  0.0245745893807528  0.4131318595263831   T   T   T
  0.7500000000000000  0.0026781680071018  0.4200597001582816   T   T   T
  0.9870030667579567  0.2517628931794032  0.4180303732070595   T   T   T
  0.5129969332420433  0.2517628931794032  0.4180303732070595   T   T   T
  0.2500000000000000  0.5286439005840420  0.4191496732364046   T   T   T
  0.7499996334070005  0.5038531403077920  0.4324744361966967   T   T   T
  0.0015351192604522  0.7612968318074368  0.4221790125265742   T   T   T
  0.4984646942985483  0.7612968318074368  0.4221790125265742   T   T   T
  0.7499996334070005  0.5044571357779107  0.4996454134382499   T   T   T
 
  0.00000000E+00  0.00000000E+00  0.00000000E+00
  0.00000000E+00  0.00000000E+00  0.00000000E+00
  0.00000000E+00  0.00000000E+00  0.00000000E+00
  0.00000000E+00  0.00000000E+00  0.00000000E+00
  0.00000000E+00  0.00000000E+00  0.00000000E+00
  0.00000000E+00  0.00000000E+00  0.00000000E+00
  0.00000000E+00  0.00000000E+00  0.00000000E+00
  0.00000000E+00  0.00000000E+00  0.00000000E+00
  0.00000000E+00  0.00000000E+00  0.00000000E+00
  0.00000000E+00  0.00000000E+00  0.00000000E+00
  0.00000000E+00  0.00000000E+00  0.00000000E+00
  0.00000000E+00  0.00000000E+00  0.00000000E+00
  0.00000000E+00  0.00000000E+00  0.00000000E+00
  0.00000000E+00  0.00000000E+00  0.00000000E+00
  0.00000000E+00  0.00000000E+00  0.00000000E+00
  0.00000000E+00  0.00000000E+00  0.00000000E+00
  0.00000000E+00  0.00000000E+00  0.00000000E+00
  0.00000000E+00  0.00000000E+00  0.00000000E+00
  0.00000000E+00  0.00000000E+00  0.00000000E+00
  0.00000000E+00  0.00000000E+00  0.00000000E+00
  0.00000000E+00  0.00000000E+00  0.00000000E+00
  0.00000000E+00  0.00000000E+00  0.00000000E+00
  0.00000000E+00  0.00000000E+00  0.00000000E+00
  0.00000000E+00  0.00000000E+00  0.00000000E+00
  0.00000000E+00  0.00000000E+00  0.00000000E+00
  0.00000000E+00  0.00000000E+00  0.00000000E+00
  0.00000000E+00  0.00000000E+00  0.00000000E+00
  0.00000000E+00  0.00000000E+00  0.00000000E+00
  0.00000000E+00  0.00000000E+00  0.00000000E+00
  0.00000000E+00  0.00000000E+00  0.00000000E+00
  0.00000000E+00  0.00000000E+00  0.00000000E+00
  0.00000000E+00  0.00000000E+00  0.00000000E+00
  0.00000000E+00  0.00000000E+00  0.00000000E+00
  0.00000000E+00  0.00000000E+00  0.00000000E+00
  0.00000000E+00  0.00000000E+00  0.00000000E+00
  0.00000000E+00  0.00000000E+00  0.00000000E+00
  0.00000000E+00  0.00000000E+00  0.00000000E+00
  0.00000000E+00  0.00000000E+00  0.00000000E+00
  0.00000000E+00  0.00000000E+00  0.00000000E+00
  0.00000000E+00  0.00000000E+00  0.00000000E+00
  0.00000000E+00  0.00000000E+00  0.00000000E+00
  0.00000000E+00  0.00000000E+00  0.00000000E+00
  0.00000000E+00  0.00000000E+00  0.00000000E+00
  0.00000000E+00  0.00000000E+00  0.00000000E+00
  0.00000000E+00  0.00000000E+00  0.00000000E+00
  0.00000000E+00  0.00000000E+00  0.00000000E+00
  0.00000000E+00  0.00000000E+00  0.00000000E+00
  0.00000000E+00  0.00000000E+00  0.00000000E+00
  0.00000000E+00  0.00000000E+00  0.00000000E+00
  0.00000000E+00  0.00000000E+00  0.00000000E+00
  0.00000000E+00  0.00000000E+00  0.00000000E+00
  0.00000000E+00  0.00000000E+00  0.00000000E+00
  0.00000000E+00  0.00000000E+00  0.00000000E+00
  0.00000000E+00  0.00000000E+00  0.00000000E+00
  0.00000000E+00  0.00000000E+00  0.00000000E+00
  0.00000000E+00  0.00000000E+00  0.00000000E+00
  0.00000000E+00  0.00000000E+00  0.00000000E+00
  0.00000000E+00  0.00000000E+00  0.00000000E+00
  0.00000000E+00  0.00000000E+00  0.00000000E+00
  0.00000000E+00  0.00000000E+00  0.00000000E+00
  0.00000000E+00  0.00000000E+00  0.00000000E+00
  0.00000000E+00  0.00000000E+00  0.00000000E+00
  0.00000000E+00  0.00000000E+00  0.00000000E+00
  0.00000000E+00  0.00000000E+00  0.00000000E+00
  0.00000000E+00  0.00000000E+00  0.00000000E+00
