Ba Li O Pt                              
   1.00000000000000     
    11.1568587867069997    0.0000000000000000    0.0000000000000000
     0.0000000000000000   11.1568587867069997    0.0000000000000000
     0.0000000000000000    0.0000000000000000   26.1568587867070015
   Ba   Li   O    Pt
    31     1    32     1
Selective dynamics
Direct
  0.2500000000000000  0.9992830590189854  0.1072294234436768   T   T   T
  0.7500000000000000  0.9993735706617670  0.1074550098919502   T   T   T
  0.9995572910829580  0.2497217711926183  0.1074032468665536   T   T   T
  0.5004427089170420  0.2497217711926183  0.1074032468665536   T   T   T
  0.2500000000000000  0.4994443636538293  0.1077063202128343   T   T   T
  0.7500000000000000  0.4998407498569506  0.1092380333073919   T   T   T
  0.9998918044594944  0.7494040665509516  0.1079187632516110   T   T   T
  0.5001081955405056  0.7494040665509516  0.1079187632516110   T   T   T
  0.9989680973796524  0.9990166242820138  0.2133593095488848   T   T   T
  0.5010319026203476  0.9990166242820138  0.2133593095488848   T   T   T
  0.2500000000000000  0.2494747068402461  0.2131908629137840   T   T   T
  0.7500000000000000  0.2488864596764628  0.2138967310534383   T   T   T
  0.0007755558468148  0.4998841723135925  0.2141731251078340   T   T   T
  0.4992244441531852  0.4998841723135925  0.2141731251078340   T   T   T
  0.2500000000000000  0.7474943013493700  0.2137499273446366   T   T   T
  0.7500000000000000  0.7505753454745516  0.2145498867970517   T   T   T
  0.2500000000000000  0.9942511047811422  0.3158117677578645   T   T   T
  0.7500000000000000  0.0012865111720402  0.3222701672079893   T   T   T
  0.0007803390233718  0.2503368397921619  0.3210225949842140   T   T   T
  0.4992196609766282  0.2503368397921619  0.3210225949842140   T   T   T
  0.2500000000000000  0.4960152892479783  0.3232888780383689   T   T   T
  0.7500000000000000  0.4985334432710715  0.3227113196792146   T   T   T
  0.9980385253397017  0.7472312048835335  0.3242358501123945   T   T   T
  0.5019614746602983  0.7472312048835335  0.3242358501123945   T   T   T
  0.0127964228561055  0.0131835722565654  0.4269106640836000   T   T   T
  0.4872035771438945  0.0131835722565654  0.4269106640836000   T   T   T
  0.7500000000000000  0.2394244472548124  0.4297922901859437   T   T   T
  0.0212432804605101  0.4845405837679380  0.4309799001233969   T   T   T
  0.4787567195394899  0.4845405837679380  0.4309799001233969   T   T   T
  0.2500000000000000  0.7574628044239731  0.4265298337814301   T   T   T
  0.7500000000000000  0.7670042154976926  0.4306738744296226   T   T   T
  0.2500000000000000  0.1927261399863127  0.3947899921551539   T   T   T
  0.9991443833592726  0.9991508895190151  0.1129637087572348   T   T   T
  0.5008556166407274  0.9991508895190151  0.1129637087572348   T   T   T
  0.2500000000000000  0.2499816988643957  0.1126382400492787   T   T   T
  0.7500000000000000  0.2507791899978997  0.1128060244769884   T   T   T
  0.9989938854257332  0.4999070195726318  0.1140236508158523   T   T   T
  0.5010061145742668  0.4999070195726318  0.1140236508158523   T   T   T
  0.2500000000000000  0.7483329263398488  0.1130897663566373   T   T   T
  0.7500000000000000  0.7483630384563895  0.1140214829791475   T   T   T
  0.2500000000000000  0.0002251834969371  0.2066157063860814   T   T   T
  0.7500000000000000  0.9994020327517248  0.2078885532518342   T   T   T
  0.9999313385316952  0.2501204648945574  0.2068824335843544   T   T   T
  0.5000686614683048  0.2501204648945574  0.2068824335843544   T   T   T
  0.2500000000000000  0.4999347245226460  0.2083258327638688   T   T   T
  0.7500000000000000  0.5003208273464210  0.2124218540344103   T   T   T
  0.9999013221342494  0.7497812344291717  0.2078668635164149   T   T   T
  0.5000986778657506  0.7497812344291717  0.2078668635164149   T   T   T
  0.0000102354541056  0.0003024524738180  0.3242587873962606   T   T   T
  0.4999897645458944  0.0003024524738180  0.3242587873962606   T   T   T
  0.2500000000000000  0.2435400362056228  0.3237746636655316   T   T   T
  0.7500000000000000  0.2508345566478809  0.3224201304410172   T   T   T
  0.0006389264607947  0.4984436858086951  0.3266872701978372   T   T   T
  0.4993610735392053  0.4984436858086951  0.3266872701978372   T   T   T
  0.2500000000000000  0.7494284677855916  0.3240592734523986   T   T   T
  0.7500000000000000  0.7488190609122825  0.3265085934258138   T   T   T
  0.2500000000000000  0.0245148951195020  0.4134203818779412   T   T   T
  0.7500000000000000  0.0027846512681791  0.4214684941413722   T   T   T
  0.9860817993396509  0.2509364809396999  0.4178617695339497   T   T   T
  0.5139182006603491  0.2509364809396999  0.4178617695339497   T   T   T
  0.2500000000000000  0.5293345080884890  0.4205005488616251   T   T   T
  0.7499996334070005  0.5042474613029810  0.4234379829226569   T   T   T
  0.0029078155842939  0.7624154890571830  0.4218412290586073   T   T   T
  0.4970919979747066  0.7624154890571830  0.4218412290586073   T   T   T
  0.7499996334070005  0.5037229763787394  0.4963611992830508   T   T   T
 
  0.00000000E+00  0.00000000E+00  0.00000000E+00
  0.00000000E+00  0.00000000E+00  0.00000000E+00
  0.00000000E+00  0.00000000E+00  0.00000000E+00
  0.00000000E+00  0.00000000E+00  0.00000000E+00
  0.00000000E+00  0.00000000E+00  0.00000000E+00
  0.00000000E+00  0.00000000E+00  0.00000000E+00
  0.00000000E+00  0.00000000E+00  0.00000000E+00
  0.00000000E+00  0.00000000E+00  0.00000000E+00
  0.00000000E+00  0.00000000E+00  0.00000000E+00
  0.00000000E+00  0.00000000E+00  0.00000000E+00
  0.00000000E+00  0.00000000E+00  0.00000000E+00
  0.00000000E+00  0.00000000E+00  0.00000000E+00
  0.00000000E+00  0.00000000E+00  0.00000000E+00
  0.00000000E+00  0.00000000E+00  0.00000000E+00
  0.00000000E+00  0.00000000E+00  0.00000000E+00
  0.00000000E+00  0.00000000E+00  0.00000000E+00
  0.00000000E+00  0.00000000E+00  0.00000000E+00
  0.00000000E+00  0.00000000E+00  0.00000000E+00
  0.00000000E+00  0.00000000E+00  0.00000000E+00
  0.00000000E+00  0.00000000E+00  0.00000000E+00
  0.00000000E+00  0.00000000E+00  0.00000000E+00
  0.00000000E+00  0.00000000E+00  0.00000000E+00
  0.00000000E+00  0.00000000E+00  0.00000000E+00
  0.00000000E+00  0.00000000E+00  0.00000000E+00
  0.00000000E+00  0.00000000E+00  0.00000000E+00
  0.00000000E+00  0.00000000E+00  0.00000000E+00
  0.00000000E+00  0.00000000E+00  0.00000000E+00
  0.00000000E+00  0.00000000E+00  0.00000000E+00
  0.00000000E+00  0.00000000E+00  0.00000000E+00
  0.00000000E+00  0.00000000E+00  0.00000000E+00
  0.00000000E+00  0.00000000E+00  0.00000000E+00
  0.00000000E+00  0.00000000E+00  0.00000000E+00
  0.00000000E+00  0.00000000E+00  0.00000000E+00
  0.00000000E+00  0.00000000E+00  0.00000000E+00
  0.00000000E+00  0.00000000E+00  0.00000000E+00
  0.00000000E+00  0.00000000E+00  0.00000000E+00
  0.00000000E+00  0.00000000E+00  0.00000000E+00
  0.00000000E+00  0.00000000E+00  0.00000000E+00
  0.00000000E+00  0.00000000E+00  0.00000000E+00
  0.00000000E+00  0.00000000E+00  0.00000000E+00
  0.00000000E+00  0.00000000E+00  0.00000000E+00
  0.00000000E+00  0.00000000E+00  0.00000000E+00
  0.00000000E+00  0.00000000E+00  0.00000000E+00
  0.00000000E+00  0.00000000E+00  0.00000000E+00
  0.00000000E+00  0.00000000E+00  0.00000000E+00
  0.00000000E+00  0.00000000E+00  0.00000000E+00
  0.00000000E+00  0.00000000E+00  0.00000000E+00
  0.00000000E+00  0.00000000E+00  0.00000000E+00
  0.00000000E+00  0.00000000E+00  0.00000000E+00
  0.00000000E+00  0.00000000E+00  0.00000000E+00
  0.00000000E+00  0.00000000E+00  0.00000000E+00
  0.00000000E+00  0.00000000E+00  0.00000000E+00
  0.00000000E+00  0.00000000E+00  0.00000000E+00
  0.00000000E+00  0.00000000E+00  0.00000000E+00
  0.00000000E+00  0.00000000E+00  0.00000000E+00
  0.00000000E+00  0.00000000E+00  0.00000000E+00
  0.00000000E+00  0.00000000E+00  0.00000000E+00
  0.00000000E+00  0.00000000E+00  0.00000000E+00
  0.00000000E+00  0.00000000E+00  0.00000000E+00
  0.00000000E+00  0.00000000E+00  0.00000000E+00
  0.00000000E+00  0.00000000E+00  0.00000000E+00
  0.00000000E+00  0.00000000E+00  0.00000000E+00
  0.00000000E+00  0.00000000E+00  0.00000000E+00
  0.00000000E+00  0.00000000E+00  0.00000000E+00
  0.00000000E+00  0.00000000E+00  0.00000000E+00
