Ba Li O Ru                              
   1.00000000000000     
    11.1568587867069997    0.0000000000000000    0.0000000000000000
     0.0000000000000000   11.1568587867069997    0.0000000000000000
     0.0000000000000000    0.0000000000000000   26.1568587867070015
   Ba   Li   O    Ru
    31     1    32     1
Selective dynamics
Direct
  0.2500000000000000  0.9994145399012199  0.1067360842912991   T   T   T
  0.7500000000000000  0.9994712143451064  0.1074403726260544   T   T   T
 -0.0000901902079659  0.2493832294015437  0.1070701642992252   T   T   T
  0.5000901902079659  0.2493832294015437  0.1070701642992252   T   T   T
  0.2500000000000000  0.4993348388743253  0.1076088394810607   T   T   T
  0.7500000000000000  0.4996185586569294  0.1093548217892096   T   T   T
  0.0001565573207463  0.7496287754997711  0.1075747767538264   T   T   T
  0.4998434426792537  0.7496287754997711  0.1075747767538264   T   T   T
  0.9995853489120332  0.9988557404808622  0.2127762624038935   T   T   T
  0.5004146510879668  0.9988557404808622  0.2127762624038935   T   T   T
  0.2500000000000000  0.2490083073016321  0.2125456190179506   T   T   T
  0.7500000000000000  0.2485320794231307  0.2133839509110493   T   T   T
  0.0011695498202240  0.5000303689590065  0.2136492182605532   T   T   T
  0.4988304501797760  0.5000303689590065  0.2136492182605532   T   T   T
  0.2500000000000000  0.7482543266713452  0.2131020691377072   T   T   T
  0.7500000000000000  0.7507219497694664  0.2139836570047378   T   T   T
  0.2500000000000000  0.9944738630542245  0.3150425961969796   T   T   T
  0.7500000000000000  0.0011497976029102  0.3205024940772276   T   T   T
  0.0019965003049502  0.2494289263522910  0.3203860468538658   T   T   T
  0.4980034996950498  0.2494289263522910  0.3203860468538658   T   T   T
  0.2500000000000000  0.4965730262935033  0.3213573032755188   T   T   T
  0.7500000000000000  0.4979809413142504  0.3211563615888668   T   T   T
  0.9983727070224671  0.7478924714205885  0.3242179901214939   T   T   T
  0.5016272929775329  0.7478924714205885  0.3242179901214939   T   T   T
  0.0151526107922013  0.0136720510678611  0.4264969686426072   T   T   T
  0.4848473892077987  0.0136720510678611  0.4264969686426072   T   T   T
  0.7500000000000000  0.2341602758781563  0.4273433000600015   T   T   T
  0.0264145130890857  0.4802201833335180  0.4301135946235597   T   T   T
  0.4735854869109143  0.4802201833335180  0.4301135946235597   T   T   T
  0.2500000000000000  0.7566064657971756  0.4258359691262712   T   T   T
  0.7500000000000000  0.7730632882784770  0.4295833932521976   T   T   T
  0.2500000000000000  0.1935453095214510  0.3938921037612096   T   T   T
  0.9989043880472857  0.9991404444171821  0.1128660241793099   T   T   T
  0.5010956119527143  0.9991404444171821  0.1128660241793099   T   T   T
  0.2500000000000000  0.2504207267778304  0.1126202775627444   T   T   T
  0.7500000000000000  0.2514317729726016  0.1132864067840779   T   T   T
  0.9984748944338789  0.4999784687588174  0.1143697801564077   T   T   T
  0.5015251055661211  0.4999784687588174  0.1143697801564077   T   T   T
  0.2500000000000000  0.7480475412258168  0.1131274303181467   T   T   T
  0.7500000000000000  0.7477013650917490  0.1144831411062447   T   T   T
  0.2500000000000000  0.0000501839077442  0.2061911541363274   T   T   T
  0.7500000000000000  0.9994298948242551  0.2084551101386864   T   T   T
  0.9997869053014562  0.2502844005340260  0.2067838316981274   T   T   T
  0.5002130946985438  0.2502844005340260  0.2067838316981274   T   T   T
  0.2500000000000000  0.4999868667148632  0.2089343368839303   T   T   T
  0.7500000000000000  0.5002663751137685  0.2151679479570651   T   T   T
  0.9997541885025173  0.7496428600080600  0.2078082032923723   T   T   T
  0.5002458114974827  0.7496428600080600  0.2078082032923723   T   T   T
  0.0003140126798580  0.0007232634699240  0.3237092626775817   T   T   T
  0.4996859873201421  0.0007232634699240  0.3237092626775817   T   T   T
  0.2500000000000000  0.2446430980665270  0.3230948815866639   T   T   T
  0.7500000000000000  0.2516251282759699  0.3237413846407936   T   T   T
  0.9992397629578007  0.4983038485468214  0.3280892336921293   T   T   T
  0.5007602370421993  0.4983038485468214  0.3280892336921293   T   T   T
  0.2500000000000000  0.7492415670497218  0.3241191534284444   T   T   T
  0.7500000000000000  0.7478535573991030  0.3281573670443495   T   T   T
  0.2500000000000000  0.0254139481867297  0.4126660298656076   T   T   T
  0.7500000000000000  0.0032375292493789  0.4203702315581226   T   T   T
  0.9872946379955991  0.2511736829586166  0.4174394530732883   T   T   T
  0.5127053620044009  0.2511736829586166  0.4174394530732883   T   T   T
  0.2500000000000000  0.5272672243523987  0.4196112812723124   T   T   T
  0.7499996334070005  0.5035436821558994  0.4338042448594262   T   T   T
  0.0028428302697987  0.7655754824143176  0.4217914839706112   T   T   T
  0.4971569832892018  0.7655754824143176  0.4217914839706112   T   T   T
  0.7499996334070005  0.5044582118269357  0.5024374763100435   T   T   T
 
  0.00000000E+00  0.00000000E+00  0.00000000E+00
  0.00000000E+00  0.00000000E+00  0.00000000E+00
  0.00000000E+00  0.00000000E+00  0.00000000E+00
  0.00000000E+00  0.00000000E+00  0.00000000E+00
  0.00000000E+00  0.00000000E+00  0.00000000E+00
  0.00000000E+00  0.00000000E+00  0.00000000E+00
  0.00000000E+00  0.00000000E+00  0.00000000E+00
  0.00000000E+00  0.00000000E+00  0.00000000E+00
  0.00000000E+00  0.00000000E+00  0.00000000E+00
  0.00000000E+00  0.00000000E+00  0.00000000E+00
  0.00000000E+00  0.00000000E+00  0.00000000E+00
  0.00000000E+00  0.00000000E+00  0.00000000E+00
  0.00000000E+00  0.00000000E+00  0.00000000E+00
  0.00000000E+00  0.00000000E+00  0.00000000E+00
  0.00000000E+00  0.00000000E+00  0.00000000E+00
  0.00000000E+00  0.00000000E+00  0.00000000E+00
  0.00000000E+00  0.00000000E+00  0.00000000E+00
  0.00000000E+00  0.00000000E+00  0.00000000E+00
  0.00000000E+00  0.00000000E+00  0.00000000E+00
  0.00000000E+00  0.00000000E+00  0.00000000E+00
  0.00000000E+00  0.00000000E+00  0.00000000E+00
  0.00000000E+00  0.00000000E+00  0.00000000E+00
  0.00000000E+00  0.00000000E+00  0.00000000E+00
  0.00000000E+00  0.00000000E+00  0.00000000E+00
  0.00000000E+00  0.00000000E+00  0.00000000E+00
  0.00000000E+00  0.00000000E+00  0.00000000E+00
  0.00000000E+00  0.00000000E+00  0.00000000E+00
  0.00000000E+00  0.00000000E+00  0.00000000E+00
  0.00000000E+00  0.00000000E+00  0.00000000E+00
  0.00000000E+00  0.00000000E+00  0.00000000E+00
  0.00000000E+00  0.00000000E+00  0.00000000E+00
  0.00000000E+00  0.00000000E+00  0.00000000E+00
  0.00000000E+00  0.00000000E+00  0.00000000E+00
  0.00000000E+00  0.00000000E+00  0.00000000E+00
  0.00000000E+00  0.00000000E+00  0.00000000E+00
  0.00000000E+00  0.00000000E+00  0.00000000E+00
  0.00000000E+00  0.00000000E+00  0.00000000E+00
  0.00000000E+00  0.00000000E+00  0.00000000E+00
  0.00000000E+00  0.00000000E+00  0.00000000E+00
  0.00000000E+00  0.00000000E+00  0.00000000E+00
  0.00000000E+00  0.00000000E+00  0.00000000E+00
  0.00000000E+00  0.00000000E+00  0.00000000E+00
  0.00000000E+00  0.00000000E+00  0.00000000E+00
  0.00000000E+00  0.00000000E+00  0.00000000E+00
  0.00000000E+00  0.00000000E+00  0.00000000E+00
  0.00000000E+00  0.00000000E+00  0.00000000E+00
  0.00000000E+00  0.00000000E+00  0.00000000E+00
  0.00000000E+00  0.00000000E+00  0.00000000E+00
  0.00000000E+00  0.00000000E+00  0.00000000E+00
  0.00000000E+00  0.00000000E+00  0.00000000E+00
  0.00000000E+00  0.00000000E+00  0.00000000E+00
  0.00000000E+00  0.00000000E+00  0.00000000E+00
  0.00000000E+00  0.00000000E+00  0.00000000E+00
  0.00000000E+00  0.00000000E+00  0.00000000E+00
  0.00000000E+00  0.00000000E+00  0.00000000E+00
  0.00000000E+00  0.00000000E+00  0.00000000E+00
  0.00000000E+00  0.00000000E+00  0.00000000E+00
  0.00000000E+00  0.00000000E+00  0.00000000E+00
  0.00000000E+00  0.00000000E+00  0.00000000E+00
  0.00000000E+00  0.00000000E+00  0.00000000E+00
  0.00000000E+00  0.00000000E+00  0.00000000E+00
  0.00000000E+00  0.00000000E+00  0.00000000E+00
  0.00000000E+00  0.00000000E+00  0.00000000E+00
  0.00000000E+00  0.00000000E+00  0.00000000E+00
  0.00000000E+00  0.00000000E+00  0.00000000E+00
