Ba Li O Ni                              
   1.00000000000000     
    11.1568587867069997    0.0000000000000000    0.0000000000000000
     0.0000000000000000   11.1568587867069997    0.0000000000000000
     0.0000000000000000    0.0000000000000000   26.1568587867070015
   Ba   Li   O    Ni
    31     1    32     1
Selective dynamics
Direct
  0.2500000000000000  0.9994026146186451  0.1069652917969386   T   T   T
  0.7500000000000000  0.9995041278711280  0.1075580674282286   T   T   T
  0.9996717270780587  0.2495501505435855  0.1072696146819937   T   T   T
  0.5003282729219413  0.2495501505435855  0.1072696146819937   T   T   T
  0.2500000000000000  0.4993561281923070  0.1077367987137868   T   T   T
  0.7500000000000000  0.4996919075225000  0.1094280464744887   T   T   T
  0.0000003167275065  0.7494964565318996  0.1077364491262181   T   T   T
  0.4999996832724936  0.7494964565318996  0.1077364491262181   T   T   T
  0.9994414228393746  0.9989981527396297  0.2129217911373791   T   T   T
  0.5005585771606254  0.9989981527396297  0.2129217911373791   T   T   T
  0.2500000000000000  0.2491694683768591  0.2127760045897721   T   T   T
  0.7500000000000000  0.2488263755838545  0.2136921685040955   T   T   T
  0.0009085441210321  0.4998897041653464  0.2138943929862477   T   T   T
  0.4990914558789680  0.4998897041653464  0.2138943929862477   T   T   T
  0.2500000000000000  0.7480254231058736  0.2132473914341946   T   T   T
  0.7500000000000000  0.7505893611372145  0.2141653216559106   T   T   T
  0.2500000000000000  0.9947466549039988  0.3152894111790473   T   T   T
  0.7500000000000000  0.0012498624561069  0.3210429845897539   T   T   T
  0.0022374291654835  0.2493603538971791  0.3207383778031663   T   T   T
  0.4977625708345164  0.2493603538971791  0.3207383778031663   T   T   T
  0.2500000000000000  0.4962149744716004  0.3219907946907810   T   T   T
  0.7500000000000000  0.4982000473695627  0.3222107346435775   T   T   T
  0.9989556658257820  0.7482794993918402  0.3240217090907915   T   T   T
  0.5010443341742180  0.7482794993918402  0.3240217090907915   T   T   T
  0.0139882956956293  0.0136390854773979  0.4265143361374488   T   T   T
  0.4860117043043707  0.0136390854773979  0.4265143361374488   T   T   T
  0.7500000000000000  0.2369596190046112  0.4272333640940619   T   T   T
  0.0238813660247332  0.4830152614399896  0.4294748072243085   T   T   T
  0.4761186339752668  0.4830152614399896  0.4294748072243085   T   T   T
  0.2500000000000000  0.7571463973316279  0.4259879843499170   T   T   T
  0.7500000000000000  0.7695218216435460  0.4289932641452263   T   T   T
  0.2500000000000000  0.1933083818789295  0.3944279404196301   T   T   T
  0.9989439176916162  0.9991317035527452  0.1130201127367721   T   T   T
  0.5010560823083838  0.9991317035527452  0.1130201127367721   T   T   T
  0.2500000000000000  0.2503032023268944  0.1127097953665657   T   T   T
  0.7500000000000000  0.2512588219908140  0.1133842795549201   T   T   T
  0.9985866947383200  0.4999500982000191  0.1144995805922108   T   T   T
  0.5014133052616800  0.4999500982000191  0.1144995805922108   T   T   T
  0.2500000000000000  0.7481714169729167  0.1131938520971936   T   T   T
  0.7500000000000000  0.7479317814604788  0.1145365788698087   T   T   T
  0.2500000000000000  0.0000816229716846  0.2064596025203092   T   T   T
  0.7500000000000000  0.9994487720249545  0.2084978411287587   T   T   T
  0.9997731528943815  0.2502777349337398  0.2070577580811469   T   T   T
  0.5002268471056185  0.2502777349337398  0.2070577580811469   T   T   T
  0.2500000000000000  0.4999920507692683  0.2088753921331521   T   T   T
  0.7500000000000000  0.5003321401088149  0.2144658101753581   T   T   T
  0.9997469761225146  0.7496136225270846  0.2080656110898224   T   T   T
  0.5002530238774854  0.7496136225270846  0.2080656110898224   T   T   T
  0.0001074907088793  0.0003996792405275  0.3241748073326495   T   T   T
  0.4998925092911207  0.0003996792405275  0.3241748073326495   T   T   T
  0.2500000000000000  0.2440602038743994  0.3234406519111016   T   T   T
  0.7500000000000000  0.2513951025268626  0.3238117024035812   T   T   T
  0.9997369500517069  0.4984926835430254  0.3279092132826536   T   T   T
  0.5002630499482931  0.4984926835430254  0.3279092132826536   T   T   T
  0.2500000000000000  0.7494092784675301  0.3242290180213643   T   T   T
  0.7500000000000000  0.7482574594510558  0.3278793102550723   T   T   T
  0.2500000000000000  0.0246898621483781  0.4131066769322163   T   T   T
  0.7500000000000000  0.0027294903244740  0.4209997361125946   T   T   T
  0.9865915450852574  0.2515396380791512  0.4179507105159743   T   T   T
  0.5134084549147426  0.2515396380791512  0.4179507105159743   T   T   T
  0.2500000000000000  0.5284279459948764  0.4198929496528634   T   T   T
  0.7499996334070005  0.5039583496692595  0.4307907429771297   T   T   T
  0.0019484972767233  0.7623708788275066  0.4221256315287522   T   T   T
  0.4980513162822772  0.7623708788275066  0.4221256315287522   T   T   T
  0.7499996334070005  0.5040257783886690  0.4956520649315701   T   T   T
 
  0.00000000E+00  0.00000000E+00  0.00000000E+00
  0.00000000E+00  0.00000000E+00  0.00000000E+00
  0.00000000E+00  0.00000000E+00  0.00000000E+00
  0.00000000E+00  0.00000000E+00  0.00000000E+00
  0.00000000E+00  0.00000000E+00  0.00000000E+00
  0.00000000E+00  0.00000000E+00  0.00000000E+00
  0.00000000E+00  0.00000000E+00  0.00000000E+00
  0.00000000E+00  0.00000000E+00  0.00000000E+00
  0.00000000E+00  0.00000000E+00  0.00000000E+00
  0.00000000E+00  0.00000000E+00  0.00000000E+00
  0.00000000E+00  0.00000000E+00  0.00000000E+00
  0.00000000E+00  0.00000000E+00  0.00000000E+00
  0.00000000E+00  0.00000000E+00  0.00000000E+00
  0.00000000E+00  0.00000000E+00  0.00000000E+00
  0.00000000E+00  0.00000000E+00  0.00000000E+00
  0.00000000E+00  0.00000000E+00  0.00000000E+00
  0.00000000E+00  0.00000000E+00  0.00000000E+00
  0.00000000E+00  0.00000000E+00  0.00000000E+00
  0.00000000E+00  0.00000000E+00  0.00000000E+00
  0.00000000E+00  0.00000000E+00  0.00000000E+00
  0.00000000E+00  0.00000000E+00  0.00000000E+00
  0.00000000E+00  0.00000000E+00  0.00000000E+00
  0.00000000E+00  0.00000000E+00  0.00000000E+00
  0.00000000E+00  0.00000000E+00  0.00000000E+00
  0.00000000E+00  0.00000000E+00  0.00000000E+00
  0.00000000E+00  0.00000000E+00  0.00000000E+00
  0.00000000E+00  0.00000000E+00  0.00000000E+00
  0.00000000E+00  0.00000000E+00  0.00000000E+00
  0.00000000E+00  0.00000000E+00  0.00000000E+00
  0.00000000E+00  0.00000000E+00  0.00000000E+00
  0.00000000E+00  0.00000000E+00  0.00000000E+00
  0.00000000E+00  0.00000000E+00  0.00000000E+00
  0.00000000E+00  0.00000000E+00  0.00000000E+00
  0.00000000E+00  0.00000000E+00  0.00000000E+00
  0.00000000E+00  0.00000000E+00  0.00000000E+00
  0.00000000E+00  0.00000000E+00  0.00000000E+00
  0.00000000E+00  0.00000000E+00  0.00000000E+00
  0.00000000E+00  0.00000000E+00  0.00000000E+00
  0.00000000E+00  0.00000000E+00  0.00000000E+00
  0.00000000E+00  0.00000000E+00  0.00000000E+00
  0.00000000E+00  0.00000000E+00  0.00000000E+00
  0.00000000E+00  0.00000000E+00  0.00000000E+00
  0.00000000E+00  0.00000000E+00  0.00000000E+00
  0.00000000E+00  0.00000000E+00  0.00000000E+00
  0.00000000E+00  0.00000000E+00  0.00000000E+00
  0.00000000E+00  0.00000000E+00  0.00000000E+00
  0.00000000E+00  0.00000000E+00  0.00000000E+00
  0.00000000E+00  0.00000000E+00  0.00000000E+00
  0.00000000E+00  0.00000000E+00  0.00000000E+00
  0.00000000E+00  0.00000000E+00  0.00000000E+00
  0.00000000E+00  0.00000000E+00  0.00000000E+00
  0.00000000E+00  0.00000000E+00  0.00000000E+00
  0.00000000E+00  0.00000000E+00  0.00000000E+00
  0.00000000E+00  0.00000000E+00  0.00000000E+00
  0.00000000E+00  0.00000000E+00  0.00000000E+00
  0.00000000E+00  0.00000000E+00  0.00000000E+00
  0.00000000E+00  0.00000000E+00  0.00000000E+00
  0.00000000E+00  0.00000000E+00  0.00000000E+00
  0.00000000E+00  0.00000000E+00  0.00000000E+00
  0.00000000E+00  0.00000000E+00  0.00000000E+00
  0.00000000E+00  0.00000000E+00  0.00000000E+00
  0.00000000E+00  0.00000000E+00  0.00000000E+00
  0.00000000E+00  0.00000000E+00  0.00000000E+00
  0.00000000E+00  0.00000000E+00  0.00000000E+00
  0.00000000E+00  0.00000000E+00  0.00000000E+00
