Al O Ru Zn                              
   1.00000000000000     
     6.5625568183449996    0.0000000000000000    0.0000000000000000
     0.0000000000000000   10.5156600000000005    0.0000000000000000
     0.0000000000000000    0.0000000000000000   32.0500282661819966
   Al   O    Ru   Zn
     1    40     1    39
Selective dynamics
Direct
  0.2594763160320258  0.2996150302523849  0.4429059033318614   T   T   T
  0.2509355585501255  0.9988501987069003  0.0871933166720667   T   T   T
  0.2507133919575105  0.4983316135773743  0.0880414728406184   T   T   T
  0.7506272446915936  0.9977986126633828  0.0878742427869180   T   T   T
  0.7503623348421610  0.4986847006027627  0.0885978584985340   T   T   T
  0.0010828499836777  0.2446221309186384  0.1187669411446206   T   T   T
  0.0016976822010830  0.7449476326712794  0.1185835465739897   T   T   T
  0.5006563898065816  0.2447344363728198  0.1188657820423605   T   T   T
  0.4994489198555963  0.7449456079088156  0.1185881449806571   T   T   T
  0.0016554361574502  0.4946101625180402  0.1764801584753838   T   T   T
  0.0016830873104658  0.9946317603093670  0.1756823347481440   T   T   T
  0.4990994595447834  0.4947685082710183  0.1766841051413549   T   T   T
  0.4997049872554585  0.9946817914730884  0.1757809798851423   T   T   T
  0.2505751063430179  0.2432892914808343  0.2079778699177036   T   T   T
  0.2501261397030661  0.7436571636438797  0.2084065001074035   T   T   T
  0.7509503701413854  0.2436388523337455  0.2075420552335115   T   T   T
  0.7502188549388433  0.7428630808957207  0.2064828882599695   T   T   T
  0.2489400613940080  0.4953240054710657  0.2665388341348675   T   T   T
  0.2505373793245240  0.9935618765001306  0.2651132746157822   T   T   T
  0.7509045193588985  0.4934438061493380  0.2654084198062661   T   T   T
  0.7517486243828502  0.9950311003433483  0.2642023389283990   T   T   T
  0.0015953374732540  0.2449575648301128  0.2971056026999717   T   T   T
  0.9935984237953371  0.7448301517802696  0.2964981572051174   T   T   T
  0.5001201582901880  0.2440120519100605  0.2964414689367668   T   T   T
  0.5050326671239189  0.7447346407215667  0.2960432331743261   T   T   T
  0.9916817738147941  0.4963087641145350  0.3559023834037806   T   T   T
  0.0011665498019307  0.9959431306861344  0.3533629681638015   T   T   T
  0.5068830127778950  0.4959915669240777  0.3546908126006587   T   T   T
  0.5051280019445160  0.9938588485201102  0.3530044457599784   T   T   T
  0.2538934994795707  0.2556761984655486  0.3875467849858661   T   T   T
  0.2476101112578779  0.7377512590717583  0.3770856042422372   T   T   T
  0.7509839418663656  0.2444029050434151  0.3858948619368804   T   T   T
  0.7495568769525867  0.7500843914252748  0.3936066579772178   T   T   T
  0.2557814717674390  0.4729658991617169  0.4423158874477887   T   T   T
  0.2580211719092483  0.0045232205019733  0.4370671780013067   T   T   T
  0.7353022965038787  0.4967455693454999  0.4473513866824358   T   T   T
  0.7676290087753584  0.9946830975793037  0.4428304213002698   T   T   T
  0.0220102608709293  0.2572485228735981  0.4662846051141086   T   T   T
  0.0130257033421149  0.7218790665312863  0.4863403776967373   T   T   T
  0.4794612300754438  0.2330083628271314  0.4671042227319369   T   T   T
  0.5451880430063667  0.8703935411021583  0.5029241224428308   T   T   T
  0.3097524170531130  0.7665223455481256  0.5001489969370064   T   T   T
  0.2509077860219187  0.3239187674304134  0.0990647130936124   T   T   T
  0.2505497364851133  0.8245537523824741  0.0985365096193473   T   T   T
  0.7508630380111898  0.3241806851812611  0.0994421461205074   T   T   T
  0.7505699792507498  0.8234473939900071  0.0992715918214883   T   T   T
  0.0012145494650872  0.0552316411572024  0.1134105130796720   T   T   T
  0.0014449556746311  0.5554055665827281  0.1141757345297021   T   T   T
  0.5003707908488548  0.0553571019084753  0.1135227461961146   T   T   T
  0.4997591566126334  0.5553770813982972  0.1143486916090297   T   T   T
  0.0015436262016781  0.3056289252878759  0.1793611074542499   T   T   T
  0.0024489532345288  0.8055611129522694  0.1792002942440100   T   T   T
  0.4999829694818224  0.3057509116965295  0.1794714519534644   T   T   T
  0.4979325313465896  0.8055458091716938  0.1792090067919547   T   T   T
  0.2505785471039901  0.0522166715992914  0.2050782043757429   T   T   T
  0.2499499499069084  0.5528092686050770  0.2060726107277444   T   T   T
  0.7508788068380159  0.0528506631675971  0.2041219820539818   T   T   T
  0.7508425230146454  0.5518619801220213  0.2052430021157909   T   T   T
  0.2500738474820892  0.3051053897739905  0.2667252844065581   T   T   T
  0.2486031107030570  0.8031237095305239  0.2677734466332500   T   T   T
  0.7516264052099751  0.3035332946060285  0.2664465910766127   T   T   T
  0.7500995109171411  0.8047792701705163  0.2648417592327565   T   T   T
  0.9999191037486908  0.0544070293076523  0.2933662333661306   T   T   T
  0.9972556153979356  0.5545358142715189  0.2952753994161952   T   T   T
  0.5023589038436338  0.0535455884367322  0.2929603506705610   T   T   T
  0.5023844273014327  0.5545414946149261  0.2943562113267978   T   T   T
  0.9949551005723019  0.3062567333332307  0.3555019665250068   T   T   T
  0.9820206087438268  0.8052815817576893  0.3550355836597427   T   T   T
  0.5100710918402269  0.3060977278569951  0.3544706828237176   T   T   T
  0.5173366760632848  0.8030220237203278  0.3545357846949192   T   T   T
  0.2553142206704158  0.0649308744881516  0.3774668265184357   T   T   T
  0.2512608622759545  0.5483026564266741  0.3813725359685431   T   T   T
  0.7507229550541179  0.0542599273103898  0.3825676566888330   T   T   T
  0.7464520544022896  0.5606102702009439  0.3858927160957335   T   T   T
  0.2724939804395777  0.8185940337402148  0.4290994033970995   T   T   T
  0.7397926371358928  0.3035501943046908  0.4462622308152945   T   T   T
  0.7703824031268419  0.8093026435612739  0.4583370311338281   T   T   T
  0.0115082479407094  0.0775613384532947  0.4590590580698845   T   T   T
  0.0057997995118970  0.5514992751399121  0.4651561105808913   T   T   T
  0.5072038341956158  0.0446121562406650  0.4716647432489027   T   T   T
  0.4879100021506533  0.5809346875249161  0.4697888150692671   T   T   T
 
  0.00000000E+00  0.00000000E+00  0.00000000E+00
  0.00000000E+00  0.00000000E+00  0.00000000E+00
  0.00000000E+00  0.00000000E+00  0.00000000E+00
  0.00000000E+00  0.00000000E+00  0.00000000E+00
  0.00000000E+00  0.00000000E+00  0.00000000E+00
  0.00000000E+00  0.00000000E+00  0.00000000E+00
  0.00000000E+00  0.00000000E+00  0.00000000E+00
  0.00000000E+00  0.00000000E+00  0.00000000E+00
  0.00000000E+00  0.00000000E+00  0.00000000E+00
  0.00000000E+00  0.00000000E+00  0.00000000E+00
  0.00000000E+00  0.00000000E+00  0.00000000E+00
  0.00000000E+00  0.00000000E+00  0.00000000E+00
  0.00000000E+00  0.00000000E+00  0.00000000E+00
  0.00000000E+00  0.00000000E+00  0.00000000E+00
  0.00000000E+00  0.00000000E+00  0.00000000E+00
  0.00000000E+00  0.00000000E+00  0.00000000E+00
  0.00000000E+00  0.00000000E+00  0.00000000E+00
  0.00000000E+00  0.00000000E+00  0.00000000E+00
  0.00000000E+00  0.00000000E+00  0.00000000E+00
  0.00000000E+00  0.00000000E+00  0.00000000E+00
  0.00000000E+00  0.00000000E+00  0.00000000E+00
  0.00000000E+00  0.00000000E+00  0.00000000E+00
  0.00000000E+00  0.00000000E+00  0.00000000E+00
  0.00000000E+00  0.00000000E+00  0.00000000E+00
  0.00000000E+00  0.00000000E+00  0.00000000E+00
  0.00000000E+00  0.00000000E+00  0.00000000E+00
  0.00000000E+00  0.00000000E+00  0.00000000E+00
  0.00000000E+00  0.00000000E+00  0.00000000E+00
  0.00000000E+00  0.00000000E+00  0.00000000E+00
  0.00000000E+00  0.00000000E+00  0.00000000E+00
  0.00000000E+00  0.00000000E+00  0.00000000E+00
  0.00000000E+00  0.00000000E+00  0.00000000E+00
  0.00000000E+00  0.00000000E+00  0.00000000E+00
  0.00000000E+00  0.00000000E+00  0.00000000E+00
  0.00000000E+00  0.00000000E+00  0.00000000E+00
  0.00000000E+00  0.00000000E+00  0.00000000E+00
  0.00000000E+00  0.00000000E+00  0.00000000E+00
  0.00000000E+00  0.00000000E+00  0.00000000E+00
  0.00000000E+00  0.00000000E+00  0.00000000E+00
  0.00000000E+00  0.00000000E+00  0.00000000E+00
  0.00000000E+00  0.00000000E+00  0.00000000E+00
  0.00000000E+00  0.00000000E+00  0.00000000E+00
  0.00000000E+00  0.00000000E+00  0.00000000E+00
  0.00000000E+00  0.00000000E+00  0.00000000E+00
  0.00000000E+00  0.00000000E+00  0.00000000E+00
  0.00000000E+00  0.00000000E+00  0.00000000E+00
  0.00000000E+00  0.00000000E+00  0.00000000E+00
  0.00000000E+00  0.00000000E+00  0.00000000E+00
  0.00000000E+00  0.00000000E+00  0.00000000E+00
  0.00000000E+00  0.00000000E+00  0.00000000E+00
  0.00000000E+00  0.00000000E+00  0.00000000E+00
  0.00000000E+00  0.00000000E+00  0.00000000E+00
  0.00000000E+00  0.00000000E+00  0.00000000E+00
  0.00000000E+00  0.00000000E+00  0.00000000E+00
  0.00000000E+00  0.00000000E+00  0.00000000E+00
  0.00000000E+00  0.00000000E+00  0.00000000E+00
  0.00000000E+00  0.00000000E+00  0.00000000E+00
  0.00000000E+00  0.00000000E+00  0.00000000E+00
  0.00000000E+00  0.00000000E+00  0.00000000E+00
  0.00000000E+00  0.00000000E+00  0.00000000E+00
  0.00000000E+00  0.00000000E+00  0.00000000E+00
  0.00000000E+00  0.00000000E+00  0.00000000E+00
  0.00000000E+00  0.00000000E+00  0.00000000E+00
  0.00000000E+00  0.00000000E+00  0.00000000E+00
  0.00000000E+00  0.00000000E+00  0.00000000E+00
  0.00000000E+00  0.00000000E+00  0.00000000E+00
  0.00000000E+00  0.00000000E+00  0.00000000E+00
  0.00000000E+00  0.00000000E+00  0.00000000E+00
  0.00000000E+00  0.00000000E+00  0.00000000E+00
  0.00000000E+00  0.00000000E+00  0.00000000E+00
  0.00000000E+00  0.00000000E+00  0.00000000E+00
  0.00000000E+00  0.00000000E+00  0.00000000E+00
  0.00000000E+00  0.00000000E+00  0.00000000E+00
  0.00000000E+00  0.00000000E+00  0.00000000E+00
  0.00000000E+00  0.00000000E+00  0.00000000E+00
  0.00000000E+00  0.00000000E+00  0.00000000E+00
  0.00000000E+00  0.00000000E+00  0.00000000E+00
  0.00000000E+00  0.00000000E+00  0.00000000E+00
  0.00000000E+00  0.00000000E+00  0.00000000E+00
  0.00000000E+00  0.00000000E+00  0.00000000E+00
  0.00000000E+00  0.00000000E+00  0.00000000E+00
