Al O Rh Zn                              
   1.00000000000000     
     6.5625568183449996    0.0000000000000000    0.0000000000000000
     0.0000000000000000   10.5156600000000005    0.0000000000000000
     0.0000000000000000    0.0000000000000000   32.0500282661819966
   Al   O    Rh   Zn
     1    40     1    39
Selective dynamics
Direct
  0.2548120410683306  0.3055932917908453  0.4433074805246264   T   T   T
  0.2502465798459369  0.9995317037417599  0.0878829688462163   T   T   T
  0.2501396945550182  0.4996609918688470  0.0883295324912668   T   T   T
  0.7502782761586108 -0.0004231527896841  0.0878011765238872   T   T   T
  0.7501669514564604  0.4997465320815402  0.0882591653115680   T   T   T
  0.0000192000594471  0.2460200386653703  0.1188877323974007   T   T   T
  0.0001066086155213  0.7461398069021427  0.1189808883839974   T   T   T
  0.5003921434861408  0.2459720686806613  0.1188531276587636   T   T   T
  0.5002393808833780  0.7461674296651684  0.1189477430835320   T   T   T
  0.0000147801980417  0.4960965232984597  0.1764137094198402   T   T   T
  0.0000023603022881  0.9958083613161061  0.1759227102314141   T   T   T
  0.5002156442268115  0.4961325308529794  0.1764381644670804   T   T   T
  0.5003086008463182  0.9958818034773795  0.1760014749283464   T   T   T
  0.2501497071141264  0.2448169093624431  0.2074545008565694   T   T   T
  0.2501240521961662  0.7449237112393425  0.2078309365843967   T   T   T
  0.7501428937157990  0.2448229658974501  0.2078270234475286   T   T   T
  0.7501131175378540  0.7447993111017708  0.2079451940330440   T   T   T
  0.2496447378349314  0.4967695324007312  0.2657110464100561   T   T   T
  0.2492034698899460  0.9959741399041969  0.2649367318364749   T   T   T
  0.7502821050987651  0.4957850375311593  0.2657389135309908   T   T   T
  0.7508116791848987  0.9963605957800917  0.2650983954490335   T   T   T
  0.0018670118645940  0.2467719552336259  0.2965882697303211   T   T   T
  0.0000499976050972  0.7473802729865024  0.2969455053799073   T   T   T
  0.4983205436015974  0.2465558135410877  0.2962613473906489   T   T   T
  0.5000892741085006  0.7472389929833005  0.2967434259292527   T   T   T
  0.9991517729659712  0.4983367161898000  0.3548336859760602   T   T   T
  0.0014312181807977  0.0005289575950837  0.3542976754139985   T   T   T
  0.5008740744322714  0.4984145540684075  0.3543445768924678   T   T   T
  0.4985655493146001  0.9992573590698253  0.3533291003011837   T   T   T
  0.2516115423384155  0.2577563809831080  0.3883288974677391   T   T   T
  0.2511367593301753  0.7474375382559513  0.3859671719057532   T   T   T
  0.7500111521796046  0.2496642891211323  0.3842051057844198   T   T   T
  0.7497147413078284  0.7508021529676533  0.3861077535241977   T   T   T
  0.2555914539632195  0.4807186436754282  0.4437934636811216   T   T   T
  0.2492122802693450  0.0034396286222163  0.4412045966371141   T   T   T
  0.7460344806685481  0.4951872901658842  0.4435493209445679   T   T   T
  0.7478102596841852  0.0057974498808963  0.4425576203876637   T   T   T
  0.0194574447967629  0.2592665920951149  0.4661353741668134   T   T   T
  0.0025655612186492  0.7441126678792576  0.4728096653893014   T   T   T
  0.4786612619098651  0.2463866069707512  0.4670385971335431   T   T   T
  0.4995747352074101  0.7518182719623154  0.4727032611625801   T   T   T
  0.4973490937974706  0.8672197946180403  0.5238885731403184   T   T   T
  0.2501990004692659  0.3253215612353145  0.0994944896614344   T   T   T
  0.2501071132648962  0.8253592279227554  0.0994175881289867   T   T   T
  0.7502235843475678  0.3253782924149906  0.0993302713260944   T   T   T
  0.7502241640282208  0.8254378213224491  0.0993802595585384   T   T   T
  0.0001885199012417  0.0566103269999912  0.1137574144496285   T   T   T
  0.0000921097410195  0.5567552329157902  0.1141830749350842   T   T   T
  0.5003445384757320  0.0565541196828689  0.1137580297272925   T   T   T
  0.5002070967670960  0.5567736336823983  0.1141635969182764   T   T   T
  0.9997156037250857  0.3070647155228302  0.1795166924670732   T   T   T
  0.9999583984648518  0.8068958086233906  0.1796685523580938   T   T   T
  0.5005529791535382  0.3070549222581013  0.1794860672166443   T   T   T
  0.5002764332493709  0.8069175326256752  0.1796397254746672   T   T   T
  0.2499241952939583  0.0535928054887723  0.2049769999552446   T   T   T
  0.2500488005328744  0.5540327280422452  0.2054447156910676   T   T   T
  0.7504242597561659  0.0536469772790810  0.2050497897480275   T   T   T
  0.7501853056362945  0.5538047623798558  0.2055612253651802   T   T   T
  0.2495949076497981  0.3065311638114961  0.2662474882864744   T   T   T
  0.2499033988325808  0.8059330160422914  0.2668724984910122   T   T   T
  0.7504870366092455  0.3053235654020400  0.2668355231260495   T   T   T
  0.7502049049402022  0.8062206213661999  0.2669414084045501   T   T   T
  0.0003390624920451  0.0558142951242970  0.2944055861817042   T   T   T
  0.9995055096947717  0.5573211792500234  0.2945419639759114   T   T   T
  0.4996760921747582  0.0557741259169248  0.2935523698689343   T   T   T
  0.5003682530650906  0.5572843004053180  0.2942331033770669   T   T   T
  0.9985301034051799  0.3076269675768969  0.3551472923095631   T   T   T
  0.0006024314376627  0.8096439590631178  0.3558460228205085   T   T   T
  0.5029891830523386  0.3080265028758706  0.3546206549271448   T   T   T
  0.5001154043472680  0.8086671947153081  0.3557599517991305   T   T   T
  0.2538498891974468  0.0617215227935389  0.3823203113084645   T   T   T
  0.2506782203208237  0.5604214769047826  0.3809611412873344   T   T   T
  0.7460260812006146  0.0596179990089105  0.3824868073085138   T   T   T
  0.7491255905629783  0.5618603375869928  0.3824110808606223   T   T   T
  0.2398095060705763  0.8168195584245432  0.4454892780883219   T   T   T
  0.7422222932355137  0.3031230645300006  0.4450939184829716   T   T   T
  0.7619066661427399  0.8170866923839917  0.4461281423888952   T   T   T
 -0.0002644040141956  0.0771902609338247  0.4613797132434723   T   T   T
  0.0024978066848050  0.5700425001239002  0.4613647663298303   T   T   T
  0.4942650081993083  0.0587160964624906  0.4781115572240012   T   T   T
  0.4989876116145560  0.5724139561145614  0.4641453711992061   T   T   T
 
  0.00000000E+00  0.00000000E+00  0.00000000E+00
  0.00000000E+00  0.00000000E+00  0.00000000E+00
  0.00000000E+00  0.00000000E+00  0.00000000E+00
  0.00000000E+00  0.00000000E+00  0.00000000E+00
  0.00000000E+00  0.00000000E+00  0.00000000E+00
  0.00000000E+00  0.00000000E+00  0.00000000E+00
  0.00000000E+00  0.00000000E+00  0.00000000E+00
  0.00000000E+00  0.00000000E+00  0.00000000E+00
  0.00000000E+00  0.00000000E+00  0.00000000E+00
  0.00000000E+00  0.00000000E+00  0.00000000E+00
  0.00000000E+00  0.00000000E+00  0.00000000E+00
  0.00000000E+00  0.00000000E+00  0.00000000E+00
  0.00000000E+00  0.00000000E+00  0.00000000E+00
  0.00000000E+00  0.00000000E+00  0.00000000E+00
  0.00000000E+00  0.00000000E+00  0.00000000E+00
  0.00000000E+00  0.00000000E+00  0.00000000E+00
  0.00000000E+00  0.00000000E+00  0.00000000E+00
  0.00000000E+00  0.00000000E+00  0.00000000E+00
  0.00000000E+00  0.00000000E+00  0.00000000E+00
  0.00000000E+00  0.00000000E+00  0.00000000E+00
  0.00000000E+00  0.00000000E+00  0.00000000E+00
  0.00000000E+00  0.00000000E+00  0.00000000E+00
  0.00000000E+00  0.00000000E+00  0.00000000E+00
  0.00000000E+00  0.00000000E+00  0.00000000E+00
  0.00000000E+00  0.00000000E+00  0.00000000E+00
  0.00000000E+00  0.00000000E+00  0.00000000E+00
  0.00000000E+00  0.00000000E+00  0.00000000E+00
  0.00000000E+00  0.00000000E+00  0.00000000E+00
  0.00000000E+00  0.00000000E+00  0.00000000E+00
  0.00000000E+00  0.00000000E+00  0.00000000E+00
  0.00000000E+00  0.00000000E+00  0.00000000E+00
  0.00000000E+00  0.00000000E+00  0.00000000E+00
  0.00000000E+00  0.00000000E+00  0.00000000E+00
  0.00000000E+00  0.00000000E+00  0.00000000E+00
  0.00000000E+00  0.00000000E+00  0.00000000E+00
  0.00000000E+00  0.00000000E+00  0.00000000E+00
  0.00000000E+00  0.00000000E+00  0.00000000E+00
  0.00000000E+00  0.00000000E+00  0.00000000E+00
  0.00000000E+00  0.00000000E+00  0.00000000E+00
  0.00000000E+00  0.00000000E+00  0.00000000E+00
  0.00000000E+00  0.00000000E+00  0.00000000E+00
  0.00000000E+00  0.00000000E+00  0.00000000E+00
  0.00000000E+00  0.00000000E+00  0.00000000E+00
  0.00000000E+00  0.00000000E+00  0.00000000E+00
  0.00000000E+00  0.00000000E+00  0.00000000E+00
  0.00000000E+00  0.00000000E+00  0.00000000E+00
  0.00000000E+00  0.00000000E+00  0.00000000E+00
  0.00000000E+00  0.00000000E+00  0.00000000E+00
  0.00000000E+00  0.00000000E+00  0.00000000E+00
  0.00000000E+00  0.00000000E+00  0.00000000E+00
  0.00000000E+00  0.00000000E+00  0.00000000E+00
  0.00000000E+00  0.00000000E+00  0.00000000E+00
  0.00000000E+00  0.00000000E+00  0.00000000E+00
  0.00000000E+00  0.00000000E+00  0.00000000E+00
  0.00000000E+00  0.00000000E+00  0.00000000E+00
  0.00000000E+00  0.00000000E+00  0.00000000E+00
  0.00000000E+00  0.00000000E+00  0.00000000E+00
  0.00000000E+00  0.00000000E+00  0.00000000E+00
  0.00000000E+00  0.00000000E+00  0.00000000E+00
  0.00000000E+00  0.00000000E+00  0.00000000E+00
  0.00000000E+00  0.00000000E+00  0.00000000E+00
  0.00000000E+00  0.00000000E+00  0.00000000E+00
  0.00000000E+00  0.00000000E+00  0.00000000E+00
  0.00000000E+00  0.00000000E+00  0.00000000E+00
  0.00000000E+00  0.00000000E+00  0.00000000E+00
  0.00000000E+00  0.00000000E+00  0.00000000E+00
  0.00000000E+00  0.00000000E+00  0.00000000E+00
  0.00000000E+00  0.00000000E+00  0.00000000E+00
  0.00000000E+00  0.00000000E+00  0.00000000E+00
  0.00000000E+00  0.00000000E+00  0.00000000E+00
  0.00000000E+00  0.00000000E+00  0.00000000E+00
  0.00000000E+00  0.00000000E+00  0.00000000E+00
  0.00000000E+00  0.00000000E+00  0.00000000E+00
  0.00000000E+00  0.00000000E+00  0.00000000E+00
  0.00000000E+00  0.00000000E+00  0.00000000E+00
  0.00000000E+00  0.00000000E+00  0.00000000E+00
  0.00000000E+00  0.00000000E+00  0.00000000E+00
  0.00000000E+00  0.00000000E+00  0.00000000E+00
  0.00000000E+00  0.00000000E+00  0.00000000E+00
  0.00000000E+00  0.00000000E+00  0.00000000E+00
  0.00000000E+00  0.00000000E+00  0.00000000E+00
