Pd Al O Zn                              
   1.00000000000000     
     6.5625568183449996    0.0000000000000000    0.0000000000000000
     0.0000000000000000   10.5156600000000005    0.0000000000000000
     0.0000000000000000    0.0000000000000000   32.0500282661819966
   Pd   Al   O    Zn
     1     1    40    39
Selective dynamics
Direct
  0.4990406173732099  0.8809492704944230  0.5246036148729881   T   T   T
  0.2529362153972671  0.3065248211666173  0.4433143200603040   T   T   T
  0.2501922891605050  0.9996485991448545  0.0881013563878899   T   T   T
  0.2501895299316650  0.4996197435092515  0.0883996930315697   T   T   T
  0.7502370932717438 -0.0001576376349558  0.0879349394930320   T   T   T
  0.7501746133938874  0.4996824813151967  0.0883032624568360   T   T   T
  0.0000057548937915  0.2460763650978834  0.1191319799630722   T   T   T
  0.0000036287162637  0.7462039733972663  0.1189993803122071   T   T   T
  0.5003697872997119  0.2460565858310214  0.1191096259300451   T   T   T
  0.5003746057838686  0.7461991546656370  0.1189963900591075   T   T   T
  0.0000525752565667  0.4959150286020432  0.1765046678950697   T   T   T
  0.9999740717333814  0.9957739979819991  0.1760752733904310   T   T   T
  0.5002321484757662  0.4959561592855578  0.1765176553198684   T   T   T
  0.5003696059205139  0.9957620206859678  0.1761137465967334   T   T   T
  0.2501928022085325  0.2446200494318541  0.2077047548050959   T   T   T
  0.2501379075145815  0.7447719612154178  0.2078972524968269   T   T   T
  0.7501197482630328  0.2446538552596317  0.2080450181531450   T   T   T
  0.7501377125297984  0.7446782350714733  0.2080309771156692   T   T   T
  0.2498264765872674  0.4964183000313676  0.2656666459086325   T   T   T
  0.2495508721198730  0.9955795361506299  0.2650411297212337   T   T   T
  0.7501566421698270  0.4955055127979604  0.2656965268124931   T   T   T
  0.7505024867071717  0.9959231378747809  0.2652138967286364   T   T   T
  0.0017714005875498  0.2462513177920412  0.2966594230451134   T   T   T
  0.0001163115813999  0.7468463656008503  0.2970465173566484   T   T   T
  0.4983502909592557  0.2461199450752959  0.2966246138039573   T   T   T
  0.4999906799832008  0.7467948460013033  0.2970704321108111   T   T   T
  0.9989627265381170  0.4978794933280972  0.3547359538598490   T   T   T
  0.0014613388845613  0.9996225943890262  0.3542904597719478   T   T   T
  0.5006945453150665  0.4975301687532621  0.3544763865612038   T   T   T
  0.4985625232967328  0.9985997430936543  0.3536016047252492   T   T   T
  0.2502367307884616  0.2568184656334659  0.3885487376998964   T   T   T
  0.2503970232260677  0.7473645790338657  0.3863652962047749   T   T   T
  0.7503235783305124  0.2482935582856674  0.3843951946071925   T   T   T
  0.7498467564964151  0.7508275898968888  0.3864382067183814   T   T   T
  0.2532306133177936  0.4811370046669321  0.4437721016692469   T   T   T
  0.2501007059159941  0.0026123336614681  0.4416876398796569   T   T   T
  0.7472548483267469  0.4952019235738750  0.4435546674031151   T   T   T
  0.7477432441165287  0.0049868354478380  0.4430223098567819   T   T   T
  0.0203636372424740  0.2579235766537722  0.4666905854302031   T   T   T
  0.0018816420167362  0.7450627474357718  0.4733610628284977   T   T   T
  0.4792268987743225  0.2497328723020773  0.4668270297723355   T   T   T
  0.4988350115690950  0.7516185193283681  0.4734514979495620   T   T   T
  0.2501747884913121  0.3253005752473368  0.0996712245250333   T   T   T
  0.2501837695389005  0.8253358225705280  0.0994332890834474   T   T   T
  0.7502128502082708  0.3253456766086091  0.0994933852671337   T   T   T
  0.7501875002020835  0.8255572877319808  0.0993035197748589   T   T   T
  0.0000999081201603  0.0566297894966803  0.1139783678753177   T   T   T
  0.0000874872090250  0.5567368882893521  0.1142339590466286   T   T   T
  0.5003172281344691  0.0566044738402114  0.1139662726569761   T   T   T
  0.5002715325610293  0.5567400763577983  0.1142395156566787   T   T   T
  0.9997704688938192  0.3069652946985326  0.1797670843934891   T   T   T
  0.9999513731422904  0.8068228932642754  0.1797253406143132   T   T   T
  0.5005553862707052  0.3069990065673055  0.1797400839886504   T   T   T
  0.5003259294722991  0.8067881157460525  0.1797202179773084   T   T   T
  0.2500784260904372  0.0534929908352975  0.2050818487036676   T   T   T
  0.2500921959178916  0.5539205652568586  0.2054583541853431   T   T   T
  0.7503008456827368  0.0535556480442990  0.2051977747298889   T   T   T
  0.7502017554950354  0.5537540254556417  0.2055601453514612   T   T   T
  0.2499827346558227  0.3061958465158519  0.2665043059906498   T   T   T
  0.2501465014493468  0.8053038052102452  0.2670360086490023   T   T   T
  0.7501309876986859  0.3050962035258444  0.2670640134816495   T   T   T
  0.7499494207349491  0.8055678841932447  0.2671417684474267   T   T   T
  0.0003583151744881  0.0551742480618524  0.2943329475144040   T   T   T
  0.9995963646406202  0.5568132655909906  0.2944797901556148   T   T   T
  0.4996854505589937  0.0551983658903885  0.2937900469733461   T   T   T
  0.5003718419044270  0.5568410325898627  0.2943213166566554   T   T   T
  0.9979345051452042  0.3074283006183987  0.3550980248983018   T   T   T
  0.0004791029269532  0.8084202051417756  0.3561313913856917   T   T   T
  0.5025883902216345  0.3072229532459131  0.3550448277418308   T   T   T
  0.4996820720169050  0.8076437438805344  0.3562757049508860   T   T   T
  0.2528195047734947  0.0605559910977008  0.3822870544251472   T   T   T
  0.2503448896094754  0.5603898004408658  0.3811200044760854   T   T   T
  0.7471220148003986  0.0583660589263327  0.3824311490068465   T   T   T
  0.7492960901003154  0.5620126694695400  0.3824587723429199   T   T   T
  0.2421809106048145  0.8150777141029114  0.4465092092456641   T   T   T
  0.7455227740471316  0.3042053491861229  0.4450032777399270   T   T   T
  0.7585260791316604  0.8154047305806469  0.4471664003908700   T   T   T
  0.0002453022236484  0.0757269107753967  0.4624610008750056   T   T   T
  0.0017329082274657  0.5713264051630912  0.4616993677423751   T   T   T
  0.4953595675870863  0.0639186902042844  0.4752742763772130   T   T   T
  0.4983516568897644  0.5742309188600494  0.4629886584299955   T   T   T
 
  0.00000000E+00  0.00000000E+00  0.00000000E+00
  0.00000000E+00  0.00000000E+00  0.00000000E+00
  0.00000000E+00  0.00000000E+00  0.00000000E+00
  0.00000000E+00  0.00000000E+00  0.00000000E+00
  0.00000000E+00  0.00000000E+00  0.00000000E+00
  0.00000000E+00  0.00000000E+00  0.00000000E+00
  0.00000000E+00  0.00000000E+00  0.00000000E+00
  0.00000000E+00  0.00000000E+00  0.00000000E+00
  0.00000000E+00  0.00000000E+00  0.00000000E+00
  0.00000000E+00  0.00000000E+00  0.00000000E+00
  0.00000000E+00  0.00000000E+00  0.00000000E+00
  0.00000000E+00  0.00000000E+00  0.00000000E+00
  0.00000000E+00  0.00000000E+00  0.00000000E+00
  0.00000000E+00  0.00000000E+00  0.00000000E+00
  0.00000000E+00  0.00000000E+00  0.00000000E+00
  0.00000000E+00  0.00000000E+00  0.00000000E+00
  0.00000000E+00  0.00000000E+00  0.00000000E+00
  0.00000000E+00  0.00000000E+00  0.00000000E+00
  0.00000000E+00  0.00000000E+00  0.00000000E+00
  0.00000000E+00  0.00000000E+00  0.00000000E+00
  0.00000000E+00  0.00000000E+00  0.00000000E+00
  0.00000000E+00  0.00000000E+00  0.00000000E+00
  0.00000000E+00  0.00000000E+00  0.00000000E+00
  0.00000000E+00  0.00000000E+00  0.00000000E+00
  0.00000000E+00  0.00000000E+00  0.00000000E+00
  0.00000000E+00  0.00000000E+00  0.00000000E+00
  0.00000000E+00  0.00000000E+00  0.00000000E+00
  0.00000000E+00  0.00000000E+00  0.00000000E+00
  0.00000000E+00  0.00000000E+00  0.00000000E+00
  0.00000000E+00  0.00000000E+00  0.00000000E+00
  0.00000000E+00  0.00000000E+00  0.00000000E+00
  0.00000000E+00  0.00000000E+00  0.00000000E+00
  0.00000000E+00  0.00000000E+00  0.00000000E+00
  0.00000000E+00  0.00000000E+00  0.00000000E+00
  0.00000000E+00  0.00000000E+00  0.00000000E+00
  0.00000000E+00  0.00000000E+00  0.00000000E+00
  0.00000000E+00  0.00000000E+00  0.00000000E+00
  0.00000000E+00  0.00000000E+00  0.00000000E+00
  0.00000000E+00  0.00000000E+00  0.00000000E+00
  0.00000000E+00  0.00000000E+00  0.00000000E+00
  0.00000000E+00  0.00000000E+00  0.00000000E+00
  0.00000000E+00  0.00000000E+00  0.00000000E+00
  0.00000000E+00  0.00000000E+00  0.00000000E+00
  0.00000000E+00  0.00000000E+00  0.00000000E+00
  0.00000000E+00  0.00000000E+00  0.00000000E+00
  0.00000000E+00  0.00000000E+00  0.00000000E+00
  0.00000000E+00  0.00000000E+00  0.00000000E+00
  0.00000000E+00  0.00000000E+00  0.00000000E+00
  0.00000000E+00  0.00000000E+00  0.00000000E+00
  0.00000000E+00  0.00000000E+00  0.00000000E+00
  0.00000000E+00  0.00000000E+00  0.00000000E+00
  0.00000000E+00  0.00000000E+00  0.00000000E+00
  0.00000000E+00  0.00000000E+00  0.00000000E+00
  0.00000000E+00  0.00000000E+00  0.00000000E+00
  0.00000000E+00  0.00000000E+00  0.00000000E+00
  0.00000000E+00  0.00000000E+00  0.00000000E+00
  0.00000000E+00  0.00000000E+00  0.00000000E+00
  0.00000000E+00  0.00000000E+00  0.00000000E+00
  0.00000000E+00  0.00000000E+00  0.00000000E+00
  0.00000000E+00  0.00000000E+00  0.00000000E+00
  0.00000000E+00  0.00000000E+00  0.00000000E+00
  0.00000000E+00  0.00000000E+00  0.00000000E+00
  0.00000000E+00  0.00000000E+00  0.00000000E+00
  0.00000000E+00  0.00000000E+00  0.00000000E+00
  0.00000000E+00  0.00000000E+00  0.00000000E+00
  0.00000000E+00  0.00000000E+00  0.00000000E+00
  0.00000000E+00  0.00000000E+00  0.00000000E+00
  0.00000000E+00  0.00000000E+00  0.00000000E+00
  0.00000000E+00  0.00000000E+00  0.00000000E+00
  0.00000000E+00  0.00000000E+00  0.00000000E+00
  0.00000000E+00  0.00000000E+00  0.00000000E+00
  0.00000000E+00  0.00000000E+00  0.00000000E+00
  0.00000000E+00  0.00000000E+00  0.00000000E+00
  0.00000000E+00  0.00000000E+00  0.00000000E+00
  0.00000000E+00  0.00000000E+00  0.00000000E+00
  0.00000000E+00  0.00000000E+00  0.00000000E+00
  0.00000000E+00  0.00000000E+00  0.00000000E+00
  0.00000000E+00  0.00000000E+00  0.00000000E+00
  0.00000000E+00  0.00000000E+00  0.00000000E+00
  0.00000000E+00  0.00000000E+00  0.00000000E+00
  0.00000000E+00  0.00000000E+00  0.00000000E+00
