Al O Zn                                 
   1.00000000000000     
     6.5625568183449996    0.0000000000000000    0.0000000000000000
     0.0000000000000000   10.5156600000000005    0.0000000000000000
     0.0000000000000000    0.0000000000000000   32.0500282661819966
   Al   O    Zn
     1    40    39
Selective dynamics
Direct
  0.2497516385014094  0.3116447514861081  0.4436764004836429   T   T   T
  0.2502210693371533  0.9998666917215631  0.0879715697126178   T   T   T
  0.2501936580078396  0.4997871807783194  0.0881792391980859   T   T   T
  0.7501860130239691  0.0002712932509039  0.0875154579857339   T   T   T
  0.7501959854225074  0.4998234514200897  0.0877145217730714   T   T   T
  0.9997654235627448  0.2463741354063227  0.1191268201045455   T   T   T
  0.9996633688990367  0.7463475127452290  0.1186220862878813   T   T   T
  0.5005540449885684  0.2463717800984633  0.1191252146687266   T   T   T
  0.5006134135923266  0.7463431286919705  0.1186236476021422   T   T   T
  0.9996707666296955  0.4958571700236732  0.1763945822471908   T   T   T
  0.9995484560311407  0.9959917114686013  0.1761075702752638   T   T   T
  0.5006835127425693  0.4958420816488026  0.1763933098810507   T   T   T
  0.5007861897803304  0.9959963888831527  0.1761124758442481   T   T   T
  0.2501517044083608  0.2447722839414043  0.2081006547330870   T   T   T
  0.2501329520112271  0.7444660990311830  0.2075019050548018   T   T   T
  0.7501545676778540  0.2446330932099508  0.2085297213789453   T   T   T
  0.7501228635353790  0.7443914931694409  0.2078944762616213   T   T   T
  0.2500535237784377  0.4954975426628475  0.2657323613520268   T   T   T
  0.2500189708769069  0.9950403146012367  0.2651416988318456   T   T   T
  0.7500454029909077  0.4946257692667480  0.2660128948433558   T   T   T
  0.7500239585891473  0.9954881282221489  0.2657049375764888   T   T   T
  0.0016726829451162  0.2453163892255953  0.2975431832921503   T   T   T
  0.0004458156008582  0.7458139394711371  0.2967513469579741   T   T   T
  0.4984115460921187  0.2453188855059827  0.2975432009899209   T   T   T
  0.4996298702648903  0.7458129451595239  0.2967515808891112   T   T   T
  0.9990036230857824  0.4960549240894675  0.3548717368941185   T   T   T
  0.0020741480254698  0.9980014966497445  0.3545668151343214   T   T   T
  0.5007301674782826  0.4960647090990898  0.3548777501033987   T   T   T
  0.4976278224082264  0.9980034193116482  0.3545640115794600   T   T   T
  0.2498343917966613  0.2547487121453919  0.3897985695318088   T   T   T
  0.2498776703693955  0.7478341829100590  0.3861415179143325   T   T   T
  0.7498460912857340  0.2454303806152612  0.3861075131412333   T   T   T
  0.7498820062650743  0.7508685795723412  0.3859203666556656   T   T   T
  0.2497033719021947  0.4838875802806287  0.4435408687249365   T   T   T
  0.2497157360854748  0.9996142387583002  0.4435888869971995   T   T   T
  0.7497495923892724  0.4980136928770952  0.4436582090414518   T   T   T
  0.7496755510948730  0.0005760751404165  0.4448405454797308   T   T   T
  0.0210374879279281  0.2584971323470485  0.4678033601247832   T   T   T
  0.0012147128624663  0.7498167091917726  0.4736716713164477   T   T   T
  0.4784853188041572  0.2585351193820535  0.4678109575621760   T   T   T
  0.4982726433997842  0.7497632278779839  0.4736780762951971   T   T   T
  0.2501560885257677  0.3254820400274450  0.0995201576814073   T   T   T
  0.2501383996554393  0.8253128501613790  0.0990603112284421   T   T   T
  0.7501656542940613  0.3255351270693754  0.0990999073759387   T   T   T
  0.7501264667547740  0.8258360956134597  0.0987496267612244   T   T   T
  0.9998163859245999  0.0569158826798305  0.1137460580905503   T   T   T
  0.9996909254978457  0.5567231769305432  0.1139490361565780   T   T   T
  0.5005836348398346  0.0569192993830674  0.1137555890903503   T   T   T
  0.5007001462079123  0.5567195205985929  0.1139477311689401   T   T   T
  0.9995274516322804  0.3068285856626199  0.1798187786556265   T   T   T
  0.9995680484811598  0.8067289902461794  0.1793305086423969   T   T   T
  0.5007893333130254  0.3068117661186378  0.1798157770189466   T   T   T
  0.5006895756555532  0.8067355887146962  0.1793297299428829   T   T   T
  0.2501724114809627  0.0536681344628283  0.2049171916557183   T   T   T
  0.2501849609684488  0.5533977804961113  0.2053149726882750   T   T   T
  0.7501899995609637  0.0535368994551261  0.2054161550393592   T   T   T
  0.7501767406528174  0.5532276290944405  0.2057414330984007   T   T   T
  0.2500380157005351  0.3053988048578209  0.2669799750585329   T   T   T
  0.2500451540858704  0.8044568064999827  0.2665039835246402   T   T   T
  0.7500467158254914  0.3043751643675847  0.2675306160802989   T   T   T
  0.7500379842926449  0.8048652160397829  0.2668919220550360   T   T   T
  0.0010618529678406  0.0546896949816439  0.2941011614014382   T   T   T
 -0.0000162929684125  0.5555997950747351  0.2944992727538588   T   T   T
  0.4989844083912214  0.0546940338887403  0.2940985016811797   T   T   T
  0.5001236330156048  0.5555969224809406  0.2945044358567306   T   T   T
  0.9966318156416614  0.3061095719987172  0.3558484029399057   T   T   T
  0.0006715161990068  0.8060739133879757  0.3557595205850127   T   T   T
  0.5030564258286414  0.3061220687741804  0.3558523526518318   T   T   T
  0.4990808821446841  0.8060766347531085  0.3557582689258781   T   T   T
  0.2498527027456524  0.0591624835355172  0.3822869315625559   T   T   T
  0.2498535456267211  0.5613046027075733  0.3806919205087541   T   T   T
  0.7498450146839365  0.0558891589556398  0.3818649894066577   T   T   T
  0.7498796212896831  0.5623359362303495  0.3821684924711823   T   T   T
  0.2497734401244076  0.8092750108152533  0.4473802073308876   T   T   T
  0.7497716684962438  0.3107354400273459  0.4456486684320083   T   T   T
  0.7496938561454074  0.8077208164723498  0.4477307147984619   T   T   T
  0.0001093796097867  0.0778035230840148  0.4622964108630570   T   T   T
  0.0020172446501329  0.5760769889632381  0.4625790741903595   T   T   T
  0.4992556038773877  0.0778254033723241  0.4623092496286520   T   T   T
  0.4974296576251433  0.5760369810771698  0.4625672987152913   T   T   T
 
  0.00000000E+00  0.00000000E+00  0.00000000E+00
  0.00000000E+00  0.00000000E+00  0.00000000E+00
  0.00000000E+00  0.00000000E+00  0.00000000E+00
  0.00000000E+00  0.00000000E+00  0.00000000E+00
  0.00000000E+00  0.00000000E+00  0.00000000E+00
  0.00000000E+00  0.00000000E+00  0.00000000E+00
  0.00000000E+00  0.00000000E+00  0.00000000E+00
  0.00000000E+00  0.00000000E+00  0.00000000E+00
  0.00000000E+00  0.00000000E+00  0.00000000E+00
  0.00000000E+00  0.00000000E+00  0.00000000E+00
  0.00000000E+00  0.00000000E+00  0.00000000E+00
  0.00000000E+00  0.00000000E+00  0.00000000E+00
  0.00000000E+00  0.00000000E+00  0.00000000E+00
  0.00000000E+00  0.00000000E+00  0.00000000E+00
  0.00000000E+00  0.00000000E+00  0.00000000E+00
  0.00000000E+00  0.00000000E+00  0.00000000E+00
  0.00000000E+00  0.00000000E+00  0.00000000E+00
  0.00000000E+00  0.00000000E+00  0.00000000E+00
  0.00000000E+00  0.00000000E+00  0.00000000E+00
  0.00000000E+00  0.00000000E+00  0.00000000E+00
  0.00000000E+00  0.00000000E+00  0.00000000E+00
  0.00000000E+00  0.00000000E+00  0.00000000E+00
  0.00000000E+00  0.00000000E+00  0.00000000E+00
  0.00000000E+00  0.00000000E+00  0.00000000E+00
  0.00000000E+00  0.00000000E+00  0.00000000E+00
  0.00000000E+00  0.00000000E+00  0.00000000E+00
  0.00000000E+00  0.00000000E+00  0.00000000E+00
  0.00000000E+00  0.00000000E+00  0.00000000E+00
  0.00000000E+00  0.00000000E+00  0.00000000E+00
  0.00000000E+00  0.00000000E+00  0.00000000E+00
  0.00000000E+00  0.00000000E+00  0.00000000E+00
  0.00000000E+00  0.00000000E+00  0.00000000E+00
  0.00000000E+00  0.00000000E+00  0.00000000E+00
  0.00000000E+00  0.00000000E+00  0.00000000E+00
  0.00000000E+00  0.00000000E+00  0.00000000E+00
  0.00000000E+00  0.00000000E+00  0.00000000E+00
  0.00000000E+00  0.00000000E+00  0.00000000E+00
  0.00000000E+00  0.00000000E+00  0.00000000E+00
  0.00000000E+00  0.00000000E+00  0.00000000E+00
  0.00000000E+00  0.00000000E+00  0.00000000E+00
  0.00000000E+00  0.00000000E+00  0.00000000E+00
  0.00000000E+00  0.00000000E+00  0.00000000E+00
  0.00000000E+00  0.00000000E+00  0.00000000E+00
  0.00000000E+00  0.00000000E+00  0.00000000E+00
  0.00000000E+00  0.00000000E+00  0.00000000E+00
  0.00000000E+00  0.00000000E+00  0.00000000E+00
  0.00000000E+00  0.00000000E+00  0.00000000E+00
  0.00000000E+00  0.00000000E+00  0.00000000E+00
  0.00000000E+00  0.00000000E+00  0.00000000E+00
  0.00000000E+00  0.00000000E+00  0.00000000E+00
  0.00000000E+00  0.00000000E+00  0.00000000E+00
  0.00000000E+00  0.00000000E+00  0.00000000E+00
  0.00000000E+00  0.00000000E+00  0.00000000E+00
  0.00000000E+00  0.00000000E+00  0.00000000E+00
  0.00000000E+00  0.00000000E+00  0.00000000E+00
  0.00000000E+00  0.00000000E+00  0.00000000E+00
  0.00000000E+00  0.00000000E+00  0.00000000E+00
  0.00000000E+00  0.00000000E+00  0.00000000E+00
  0.00000000E+00  0.00000000E+00  0.00000000E+00
  0.00000000E+00  0.00000000E+00  0.00000000E+00
  0.00000000E+00  0.00000000E+00  0.00000000E+00
  0.00000000E+00  0.00000000E+00  0.00000000E+00
  0.00000000E+00  0.00000000E+00  0.00000000E+00
  0.00000000E+00  0.00000000E+00  0.00000000E+00
  0.00000000E+00  0.00000000E+00  0.00000000E+00
  0.00000000E+00  0.00000000E+00  0.00000000E+00
  0.00000000E+00  0.00000000E+00  0.00000000E+00
  0.00000000E+00  0.00000000E+00  0.00000000E+00
  0.00000000E+00  0.00000000E+00  0.00000000E+00
  0.00000000E+00  0.00000000E+00  0.00000000E+00
  0.00000000E+00  0.00000000E+00  0.00000000E+00
  0.00000000E+00  0.00000000E+00  0.00000000E+00
  0.00000000E+00  0.00000000E+00  0.00000000E+00
  0.00000000E+00  0.00000000E+00  0.00000000E+00
  0.00000000E+00  0.00000000E+00  0.00000000E+00
  0.00000000E+00  0.00000000E+00  0.00000000E+00
  0.00000000E+00  0.00000000E+00  0.00000000E+00
  0.00000000E+00  0.00000000E+00  0.00000000E+00
  0.00000000E+00  0.00000000E+00  0.00000000E+00
  0.00000000E+00  0.00000000E+00  0.00000000E+00
