Al Mn O Zn                              
   1.00000000000000     
     6.5625568183449996    0.0000000000000000    0.0000000000000000
     0.0000000000000000   10.5156600000000005    0.0000000000000000
     0.0000000000000000    0.0000000000000000   32.0500282661819966
   Al   Mn   O    Zn
     1     1    40    39
Selective dynamics
Direct
  0.2498546925184121  0.3161871979695998  0.4440395821362046   T   T   T
  0.7508720482095281  0.7187409442494358  0.5162161547958558   T   T   T
  0.2501166431745477 -0.0002119622814539  0.0883389261374915   T   T   T
  0.2501277458373328  0.4995655379936715  0.0883866451915812   T   T   T
  0.7501182799070636  0.0000640035891861  0.0881199366000760   T   T   T
  0.7501176520363007  0.4996041142547917  0.0881017619343401   T   T   T
  0.9998906397426486  0.2460400393520970  0.1191325294911272   T   T   T
  0.9997511504529327  0.7462293375755739  0.1186761602102286   T   T   T
  0.5003996413318261  0.2460326562604109  0.1191303819513346   T   T   T
  0.5005027937471639  0.7462310770472202  0.1186845738325782   T   T   T
  0.9992001840202032  0.4956570214147644  0.1762463203715195   T   T   T
  0.9994602866760497  0.9959376141347831  0.1763800086305738   T   T   T
  0.5009745860929493  0.4956558235881910  0.1762501502158992   T   T   T
  0.5007242898658666  0.9959356206283972  0.1763851855344619   T   T   T
  0.2500936102750028  0.2445799528238597  0.2076770583677759   T   T   T
  0.2500841459890002  0.7444741995113811  0.2069076963461903   T   T   T
  0.7501013401442992  0.2445084204958159  0.2083111793071945   T   T   T
  0.7501023937599371  0.7446880756726001  0.2078994469692468   T   T   T
  0.2499622400768894  0.4954562743714666  0.2647569005304404   T   T   T
  0.2499630025671087  0.9959824898005357  0.2652212213340721   T   T   T
  0.7499480950340937  0.4955211105446212  0.2657469297010632   T   T   T
  0.7499841923629879  0.9958989245357889  0.2660294302397335   T   T   T
  0.0019995649705945  0.2460517496051834  0.2971568805513806   T   T   T
  0.0025776243238748  0.7465394160171215  0.2961369102255859   T   T   T
  0.4979700437445443  0.2460704373991168  0.2971509814845365   T   T   T
  0.4974014209910622  0.7465253858187282  0.2961227008924582   T   T   T
  0.0053462529107331  0.4983140724730984  0.3539395426158002   T   T   T
  0.0046245964732774  0.9989985966661669  0.3549797232254920   T   T   T
  0.4942632165645082  0.4983462833744906  0.3539581341212719   T   T   T
  0.4950681714811032  0.9989848102202068  0.3549593552415445   T   T   T
  0.2498506484980959  0.2572288145656416  0.3902843216941922   T   T   T
  0.2500326095778912  0.7489089895232527  0.3886756259101350   T   T   T
  0.7498147942294507  0.2481551563494329  0.3844001454310993   T   T   T
  0.7498606548536234  0.7500580877440280  0.3814896658226323   T   T   T
  0.2495050454406691  0.4893059416174350  0.4462076924604743   T   T   T
  0.2500088389504326  0.9965504464787092  0.4452959268305919   T   T   T
  0.7498791201656640  0.4986766861649635  0.4386738484652360   T   T   T
  0.7497827225719530  0.0057250299192890  0.4438226491957652   T   T   T
  0.0200379124832416  0.2614217315302216  0.4675439639463250   T   T   T
  0.9821904080657322  0.7531318012759605  0.4752127067844928   T   T   T
  0.4794321005730506  0.2616406823043593  0.4675583136904455   T   T   T
  0.5180009514638563  0.7526035418910644  0.4753701105581363   T   T   T
  0.2501493742827739  0.3252696163820647  0.0996513907145883   T   T   T
  0.2501300088427409  0.8252445845676598  0.0992757261253420   T   T   T
  0.7501531940420086  0.3253944114567255  0.0994333511938666   T   T   T
  0.7501305752453689  0.8255182085363967  0.0989809856842917   T   T   T
 -0.0001176661033254  0.0568989766597991  0.1140971070168610   T   T   T
  0.9997753144868856  0.5566722148951673  0.1140125219735732   T   T   T
  0.5003487026744821  0.0568876100779032  0.1140994184340429   T   T   T
  0.5004658580146663  0.5566656904278517  0.1140215108026476   T   T   T
  0.9993288485783128  0.3067846444647657  0.1796946702804004   T   T   T
  0.9989593299119540  0.8069844128172010  0.1792588636049623   T   T   T
  0.5008693405223026  0.3067797970572256  0.1796936788846879   T   T   T
  0.5012226352992243  0.8069775616122572  0.1792644677480640   T   T   T
  0.2500915828697176  0.0539077143558269  0.2049894332913015   T   T   T
  0.2500932311626285  0.5536113244073557  0.2046882144787967   T   T   T
  0.7501004230076641  0.0536073362481639  0.2055701401777756   T   T   T
  0.7501015758529296  0.5536809021635851  0.2054039117809378   T   T   T
  0.2499687332009573  0.3056165489293489  0.2663888641828437   T   T   T
  0.2499779464194421  0.8058826569756271  0.2654485513976878   T   T   T
  0.7499977004195557  0.3051354191615028  0.2671956277356741   T   T   T
  0.7499849750900078  0.8054012363583463  0.2668624852230581   T   T   T
  0.0013579378469210  0.0557627307942722  0.2941812633969362   T   T   T
  0.0018193649285985  0.5561612884377002  0.2936638374046945   T   T   T
  0.4985956847960044  0.0557847369339820  0.2941675827299959   T   T   T
  0.4980963309957147  0.5561589634904497  0.2936707003961211   T   T   T
  0.9996224318678604  0.3089163963117815  0.3551322722368667   T   T   T
  0.0090941436415693  0.8076865811709897  0.3544404463139495   T   T   T
  0.5000345037986181  0.3089493474979214  0.3551266117798514   T   T   T
  0.4907413098458585  0.8076825252728059  0.3544137745988976   T   T   T
  0.2498774689224303  0.0612903837307974  0.3835137793344277   T   T   T
  0.2496990934120913  0.5611394276417130  0.3833670764275031   T   T   T
  0.7498085433757395  0.0605221403213833  0.3802705316048308   T   T   T
  0.7498836076089802  0.5596152203086548  0.3797699590757675   T   T   T
  0.2502369085215738  0.8054983686919786  0.4496247714271055   T   T   T
  0.7498393356257351  0.3124015122621139  0.4436664842419658   T   T   T
  0.7500765742052384  0.8165457648644806  0.4377434473160660   T   T   T
  0.0017620878804462  0.0806018634114090  0.4625287330703764   T   T   T
  0.9871240090552806  0.5594836670211556  0.4717310059393728   T   T   T
  0.4980140427813867  0.0808417560972519  0.4625401203444891   T   T   T
  0.5119337048521948  0.5598064522221474  0.4711709710738252   T   T   T
 
  0.00000000E+00  0.00000000E+00  0.00000000E+00
  0.00000000E+00  0.00000000E+00  0.00000000E+00
  0.00000000E+00  0.00000000E+00  0.00000000E+00
  0.00000000E+00  0.00000000E+00  0.00000000E+00
  0.00000000E+00  0.00000000E+00  0.00000000E+00
  0.00000000E+00  0.00000000E+00  0.00000000E+00
  0.00000000E+00  0.00000000E+00  0.00000000E+00
  0.00000000E+00  0.00000000E+00  0.00000000E+00
  0.00000000E+00  0.00000000E+00  0.00000000E+00
  0.00000000E+00  0.00000000E+00  0.00000000E+00
  0.00000000E+00  0.00000000E+00  0.00000000E+00
  0.00000000E+00  0.00000000E+00  0.00000000E+00
  0.00000000E+00  0.00000000E+00  0.00000000E+00
  0.00000000E+00  0.00000000E+00  0.00000000E+00
  0.00000000E+00  0.00000000E+00  0.00000000E+00
  0.00000000E+00  0.00000000E+00  0.00000000E+00
  0.00000000E+00  0.00000000E+00  0.00000000E+00
  0.00000000E+00  0.00000000E+00  0.00000000E+00
  0.00000000E+00  0.00000000E+00  0.00000000E+00
  0.00000000E+00  0.00000000E+00  0.00000000E+00
  0.00000000E+00  0.00000000E+00  0.00000000E+00
  0.00000000E+00  0.00000000E+00  0.00000000E+00
  0.00000000E+00  0.00000000E+00  0.00000000E+00
  0.00000000E+00  0.00000000E+00  0.00000000E+00
  0.00000000E+00  0.00000000E+00  0.00000000E+00
  0.00000000E+00  0.00000000E+00  0.00000000E+00
  0.00000000E+00  0.00000000E+00  0.00000000E+00
  0.00000000E+00  0.00000000E+00  0.00000000E+00
  0.00000000E+00  0.00000000E+00  0.00000000E+00
  0.00000000E+00  0.00000000E+00  0.00000000E+00
  0.00000000E+00  0.00000000E+00  0.00000000E+00
  0.00000000E+00  0.00000000E+00  0.00000000E+00
  0.00000000E+00  0.00000000E+00  0.00000000E+00
  0.00000000E+00  0.00000000E+00  0.00000000E+00
  0.00000000E+00  0.00000000E+00  0.00000000E+00
  0.00000000E+00  0.00000000E+00  0.00000000E+00
  0.00000000E+00  0.00000000E+00  0.00000000E+00
  0.00000000E+00  0.00000000E+00  0.00000000E+00
  0.00000000E+00  0.00000000E+00  0.00000000E+00
  0.00000000E+00  0.00000000E+00  0.00000000E+00
  0.00000000E+00  0.00000000E+00  0.00000000E+00
  0.00000000E+00  0.00000000E+00  0.00000000E+00
  0.00000000E+00  0.00000000E+00  0.00000000E+00
  0.00000000E+00  0.00000000E+00  0.00000000E+00
  0.00000000E+00  0.00000000E+00  0.00000000E+00
  0.00000000E+00  0.00000000E+00  0.00000000E+00
  0.00000000E+00  0.00000000E+00  0.00000000E+00
  0.00000000E+00  0.00000000E+00  0.00000000E+00
  0.00000000E+00  0.00000000E+00  0.00000000E+00
  0.00000000E+00  0.00000000E+00  0.00000000E+00
  0.00000000E+00  0.00000000E+00  0.00000000E+00
  0.00000000E+00  0.00000000E+00  0.00000000E+00
  0.00000000E+00  0.00000000E+00  0.00000000E+00
  0.00000000E+00  0.00000000E+00  0.00000000E+00
  0.00000000E+00  0.00000000E+00  0.00000000E+00
  0.00000000E+00  0.00000000E+00  0.00000000E+00
  0.00000000E+00  0.00000000E+00  0.00000000E+00
  0.00000000E+00  0.00000000E+00  0.00000000E+00
  0.00000000E+00  0.00000000E+00  0.00000000E+00
  0.00000000E+00  0.00000000E+00  0.00000000E+00
  0.00000000E+00  0.00000000E+00  0.00000000E+00
  0.00000000E+00  0.00000000E+00  0.00000000E+00
  0.00000000E+00  0.00000000E+00  0.00000000E+00
  0.00000000E+00  0.00000000E+00  0.00000000E+00
  0.00000000E+00  0.00000000E+00  0.00000000E+00
  0.00000000E+00  0.00000000E+00  0.00000000E+00
  0.00000000E+00  0.00000000E+00  0.00000000E+00
  0.00000000E+00  0.00000000E+00  0.00000000E+00
  0.00000000E+00  0.00000000E+00  0.00000000E+00
  0.00000000E+00  0.00000000E+00  0.00000000E+00
  0.00000000E+00  0.00000000E+00  0.00000000E+00
  0.00000000E+00  0.00000000E+00  0.00000000E+00
  0.00000000E+00  0.00000000E+00  0.00000000E+00
  0.00000000E+00  0.00000000E+00  0.00000000E+00
  0.00000000E+00  0.00000000E+00  0.00000000E+00
  0.00000000E+00  0.00000000E+00  0.00000000E+00
  0.00000000E+00  0.00000000E+00  0.00000000E+00
  0.00000000E+00  0.00000000E+00  0.00000000E+00
  0.00000000E+00  0.00000000E+00  0.00000000E+00
  0.00000000E+00  0.00000000E+00  0.00000000E+00
  0.00000000E+00  0.00000000E+00  0.00000000E+00
