Al O Pt Zn                              
   1.00000000000000     
     6.5625568183449996    0.0000000000000000    0.0000000000000000
     0.0000000000000000   10.5156600000000005    0.0000000000000000
     0.0000000000000000    0.0000000000000000   32.0500282661819966
   Al   O    Pt   Zn
     1    40     1    39
Selective dynamics
Direct
  0.2536401669083240  0.3049324211874551  0.4431664664620829   T   T   T
  0.2502290792228212  0.9995418276448993  0.0879555735735881   T   T   T
  0.2501814412786980  0.4996533502692289  0.0883933102336110   T   T   T
  0.7502499043336414  0.9996540277426574  0.0878404741832238   T   T   T
  0.7501577075427300  0.4997350258668978  0.0883092203722981   T   T   T
  0.0000143037581411  0.2460370551711631  0.1189944846785263   T   T   T
  0.0000632108944861  0.7461652471863962  0.1190513971962844   T   T   T
  0.5003909734601638  0.2460070958457374  0.1189794373885244   T   T   T
  0.5002989149245277  0.7461827181712979  0.1190342485869231   T   T   T
  0.0000220670130309  0.4960614568489365  0.1764937752947879   T   T   T
  0.0000113922122248  0.9957538546040965  0.1759432535753963   T   T   T
  0.5002105937135514  0.4961009363303346  0.1765200113232026   T   T   T
  0.5003273147867154  0.9957954058376641  0.1760023175003037   T   T   T
  0.2501602568815795  0.2447487205186947  0.2075331355916036   T   T   T
  0.2501493950787260  0.7448901625274389  0.2079672606813568   T   T   T
  0.7501310988647317  0.2447685948393287  0.2078990780357567   T   T   T
  0.7501350091255925  0.7447898346490467  0.2080779274689009   T   T   T
  0.2497202741645760  0.4968355555496903  0.2657701501997790   T   T   T
  0.2494017594086252  0.9958128259001223  0.2648534971113299   T   T   T
  0.7502328814741402  0.4958642545007634  0.2657889972112397   T   T   T
  0.7506313184118634  0.9962065712701340  0.2650225424325130   T   T   T
  0.0018516996240405  0.2467981851326466  0.2965576203359639   T   T   T
  0.0000602090189879  0.7473447021041363  0.2971846946709623   T   T   T
  0.4982794451669918  0.2465453413285932  0.2963757932939027   T   T   T
  0.5000986104012127  0.7472575102308352  0.2970817944063101   T   T   T
  0.9991013780211059  0.4988324961289780  0.3549350969241269   T   T   T
  0.0014910166900690  0.0000303403162665  0.3539937194534676   T   T   T
  0.5007546903336683  0.4984596421887923  0.3545235443642746   T   T   T
  0.4985577544307591  0.9990663581454357  0.3532076428410137   T   T   T
  0.2508737739412982  0.2573446790128248  0.3882324530145488   T   T   T
  0.2510983468211604  0.7482798309736580  0.3865380847942601   T   T   T
  0.7500929661024297  0.2493090827776697  0.3839984078430657   T   T   T
  0.7495373170593925  0.7516706096534457  0.3867672878219544   T   T   T
  0.2534174354416890  0.4797125518889152  0.4437615708535375   T   T   T
  0.2495275674615292  0.0040164148484856  0.4409342786014668   T   T   T
  0.7474005326890933  0.4940070207681283  0.4435184277325359   T   T   T
  0.7477472762498929  0.0067597743367107  0.4421482155526045   T   T   T
  0.0198812608867253  0.2579397142357004  0.4662905509533884   T   T   T
  0.0021091512081626  0.7434005612563122  0.4728126378698113   T   T   T
  0.4788346269049675  0.2471851422580932  0.4667756941895959   T   T   T
  0.4988845741850526  0.7489271604499718  0.4730193978770802   T   T   T
  0.5001005104205368  0.8719504434046205  0.5220705004840746   T   T   T
  0.2501972406720118  0.3253156598649778  0.0995906966271438   T   T   T
  0.2501505259109438  0.8253479427499034  0.0994812788154588   T   T   T
  0.7502143077242653  0.3253696160627328  0.0994153150859845   T   T   T
  0.7502058509701466  0.8254979276253900  0.0994098972619663   T   T   T
  0.0001530241908390  0.0565977950100313  0.1138276305255403   T   T   T
  0.0000960425933685  0.5567530544700187  0.1142344904595509   T   T   T
  0.5003349314499778  0.0565575324302960  0.1138291900482441   T   T   T
  0.5002433329621372  0.5567642712456524  0.1142411996536364   T   T   T
  0.9997226826177391  0.3070853622666042  0.1796290973526462   T   T   T
  0.9999880112109630  0.8068180522041566  0.1797813133086253   T   T   T
  0.5005604067915498  0.3071067055712979  0.1796096389269148   T   T   T
  0.5002935221261626  0.8068231330513239  0.1797617505139000   T   T   T
  0.2500118163164292  0.0535631983879391  0.2049496328376957   T   T   T
  0.2500482076909863  0.5540309525457376  0.2055218300984633   T   T   T
  0.7503672403328046  0.0536161125377553  0.2050256363603790   T   T   T
  0.7501963842599945  0.5538430284757180  0.2056219525935886   T   T   T
  0.2498303593949558  0.3066159070759040  0.2663116201272950   T   T   T
  0.2500083836762090  0.8056294252657760  0.2671093076386999   T   T   T
  0.7502655298455206  0.3054180445280096  0.2669097185532475   T   T   T
  0.7501338783216394  0.8059327132927896  0.2671749099381653   T   T   T
  0.0003709837685654  0.0556999515670219  0.2941609258141019   T   T   T
  0.9995164929612020  0.5573236909596739  0.2946313045788089   T   T   T
  0.4996693607421749  0.0556325992068285  0.2934863832554448   T   T   T
  0.5003858129450339  0.5573421297855262  0.2943788724365122   T   T   T
  0.9982528943712717  0.3083254213443872  0.3550104123701149   T   T   T
  0.0003790456467142  0.8089326618800470  0.3563053347441170   T   T   T
  0.5025080357402427  0.3081943256659962  0.3547224656550220   T   T   T
  0.5001233068091543  0.8083515166561361  0.3562926067245817   T   T   T
  0.2531930544640320  0.0614047452988294  0.3818746083807418   T   T   T
  0.2507106087475912  0.5615383557899164  0.3811624226449921   T   T   T
  0.7468086668098581  0.0593773197435451  0.3819610225020330   T   T   T
  0.7490436605144578  0.5629954867909983  0.3825841737278001   T   T   T
  0.2392139059615817  0.8175833508591343  0.4465791079260542   T   T   T
  0.7441703313857482  0.3025740461322172  0.4448100181692889   T   T   T
  0.7618411525711003  0.8183682634355776  0.4474530106428953   T   T   T
  0.9999064093286940  0.0760486634271623  0.4617440932644227   T   T   T
  0.0020738376805288  0.5698925618511614  0.4615967121438317   T   T   T
  0.4947969428270011  0.0612638917079434  0.4767146546295348   T   T   T
  0.4985415038917429  0.5691429661817047  0.4638179617624006   T   T   T
 
  0.00000000E+00  0.00000000E+00  0.00000000E+00
  0.00000000E+00  0.00000000E+00  0.00000000E+00
  0.00000000E+00  0.00000000E+00  0.00000000E+00
  0.00000000E+00  0.00000000E+00  0.00000000E+00
  0.00000000E+00  0.00000000E+00  0.00000000E+00
  0.00000000E+00  0.00000000E+00  0.00000000E+00
  0.00000000E+00  0.00000000E+00  0.00000000E+00
  0.00000000E+00  0.00000000E+00  0.00000000E+00
  0.00000000E+00  0.00000000E+00  0.00000000E+00
  0.00000000E+00  0.00000000E+00  0.00000000E+00
  0.00000000E+00  0.00000000E+00  0.00000000E+00
  0.00000000E+00  0.00000000E+00  0.00000000E+00
  0.00000000E+00  0.00000000E+00  0.00000000E+00
  0.00000000E+00  0.00000000E+00  0.00000000E+00
  0.00000000E+00  0.00000000E+00  0.00000000E+00
  0.00000000E+00  0.00000000E+00  0.00000000E+00
  0.00000000E+00  0.00000000E+00  0.00000000E+00
  0.00000000E+00  0.00000000E+00  0.00000000E+00
  0.00000000E+00  0.00000000E+00  0.00000000E+00
  0.00000000E+00  0.00000000E+00  0.00000000E+00
  0.00000000E+00  0.00000000E+00  0.00000000E+00
  0.00000000E+00  0.00000000E+00  0.00000000E+00
  0.00000000E+00  0.00000000E+00  0.00000000E+00
  0.00000000E+00  0.00000000E+00  0.00000000E+00
  0.00000000E+00  0.00000000E+00  0.00000000E+00
  0.00000000E+00  0.00000000E+00  0.00000000E+00
  0.00000000E+00  0.00000000E+00  0.00000000E+00
  0.00000000E+00  0.00000000E+00  0.00000000E+00
  0.00000000E+00  0.00000000E+00  0.00000000E+00
  0.00000000E+00  0.00000000E+00  0.00000000E+00
  0.00000000E+00  0.00000000E+00  0.00000000E+00
  0.00000000E+00  0.00000000E+00  0.00000000E+00
  0.00000000E+00  0.00000000E+00  0.00000000E+00
  0.00000000E+00  0.00000000E+00  0.00000000E+00
  0.00000000E+00  0.00000000E+00  0.00000000E+00
  0.00000000E+00  0.00000000E+00  0.00000000E+00
  0.00000000E+00  0.00000000E+00  0.00000000E+00
  0.00000000E+00  0.00000000E+00  0.00000000E+00
  0.00000000E+00  0.00000000E+00  0.00000000E+00
  0.00000000E+00  0.00000000E+00  0.00000000E+00
  0.00000000E+00  0.00000000E+00  0.00000000E+00
  0.00000000E+00  0.00000000E+00  0.00000000E+00
  0.00000000E+00  0.00000000E+00  0.00000000E+00
  0.00000000E+00  0.00000000E+00  0.00000000E+00
  0.00000000E+00  0.00000000E+00  0.00000000E+00
  0.00000000E+00  0.00000000E+00  0.00000000E+00
  0.00000000E+00  0.00000000E+00  0.00000000E+00
  0.00000000E+00  0.00000000E+00  0.00000000E+00
  0.00000000E+00  0.00000000E+00  0.00000000E+00
  0.00000000E+00  0.00000000E+00  0.00000000E+00
  0.00000000E+00  0.00000000E+00  0.00000000E+00
  0.00000000E+00  0.00000000E+00  0.00000000E+00
  0.00000000E+00  0.00000000E+00  0.00000000E+00
  0.00000000E+00  0.00000000E+00  0.00000000E+00
  0.00000000E+00  0.00000000E+00  0.00000000E+00
  0.00000000E+00  0.00000000E+00  0.00000000E+00
  0.00000000E+00  0.00000000E+00  0.00000000E+00
  0.00000000E+00  0.00000000E+00  0.00000000E+00
  0.00000000E+00  0.00000000E+00  0.00000000E+00
  0.00000000E+00  0.00000000E+00  0.00000000E+00
  0.00000000E+00  0.00000000E+00  0.00000000E+00
  0.00000000E+00  0.00000000E+00  0.00000000E+00
  0.00000000E+00  0.00000000E+00  0.00000000E+00
  0.00000000E+00  0.00000000E+00  0.00000000E+00
  0.00000000E+00  0.00000000E+00  0.00000000E+00
  0.00000000E+00  0.00000000E+00  0.00000000E+00
  0.00000000E+00  0.00000000E+00  0.00000000E+00
  0.00000000E+00  0.00000000E+00  0.00000000E+00
  0.00000000E+00  0.00000000E+00  0.00000000E+00
  0.00000000E+00  0.00000000E+00  0.00000000E+00
  0.00000000E+00  0.00000000E+00  0.00000000E+00
  0.00000000E+00  0.00000000E+00  0.00000000E+00
  0.00000000E+00  0.00000000E+00  0.00000000E+00
  0.00000000E+00  0.00000000E+00  0.00000000E+00
  0.00000000E+00  0.00000000E+00  0.00000000E+00
  0.00000000E+00  0.00000000E+00  0.00000000E+00
  0.00000000E+00  0.00000000E+00  0.00000000E+00
  0.00000000E+00  0.00000000E+00  0.00000000E+00
  0.00000000E+00  0.00000000E+00  0.00000000E+00
  0.00000000E+00  0.00000000E+00  0.00000000E+00
  0.00000000E+00  0.00000000E+00  0.00000000E+00
