Al Au O Zn                              
   1.00000000000000     
     6.5625568183449996    0.0000000000000000    0.0000000000000000
     0.0000000000000000   10.5156600000000005    0.0000000000000000
     0.0000000000000000    0.0000000000000000   32.0500282661819966
   Al   Au   O    Zn
     1     1    40    39
Selective dynamics
Direct
  0.2489339170667763  0.3037626955355386  0.4419623815299326   T   T   T
  0.5039653615513559  0.9295788965018903  0.5359462935734903   T   T   T
  0.2501578061143405  0.9997476974522439  0.0880580695870338   T   T   T
  0.2501238266421129  0.4997068204385919  0.0884812605811911   T   T   T
  0.7502627485044773  0.9999007914376866  0.0879056922697021   T   T   T
  0.7502341320084538  0.4997933647213163  0.0883663910159957   T   T   T
  0.9999890232134780  0.2461531547769529  0.1191309198296398   T   T   T
  0.0000088420596292  0.7462713462394692  0.1189702681456273   T   T   T
  0.5003640217909848  0.2461333470026626  0.1190731743362323   T   T   T
  0.5003390591927979  0.7462672177994847  0.1188987755275164   T   T   T
  0.9999782291221940  0.4961556987985453  0.1765202370456155   T   T   T
  0.9999652923654435  0.9959892429426335  0.1759865973757121   T   T   T
  0.5002256478649996  0.4961415835782095  0.1764402089730850   T   T   T
  0.5003411696859780  0.9960149716152320  0.1759709160738302   T   T   T
  0.2502639597853498  0.2448688560270487  0.2074974445181561   T   T   T
  0.2502506612862492  0.7449966404114060  0.2076558998574582   T   T   T
  0.7499616395479735  0.2448935074721647  0.2078526173814257   T   T   T
  0.7499667525461059  0.7448821733784543  0.2077901317903503   T   T   T
  0.2504529046614568  0.4966566057222373  0.2655367683211399   T   T   T
  0.2498212903346526  0.9959062419287202  0.2647525484906987   T   T   T
  0.7495441533629551  0.4957775363634814  0.2656029370693324   T   T   T
  0.7502262936694623  0.9962500496409810  0.2649275184212664   T   T   T
  0.0016019680601345  0.2463612683737028  0.2958881975183706   T   T   T
  0.0000066684077588  0.7472328167157768  0.2964227266274297   T   T   T
  0.4982013626792217  0.2463275160375894  0.2963069723210061   T   T   T
  0.4999263551484805  0.7467288571230858  0.2966127633146567   T   T   T
  0.9995976787219819  0.4970773567910396  0.3538113909059552   T   T   T
  0.0015489277417894  0.9996815694053273  0.3537581818230529   T   T   T
  0.5003574350967158  0.4971655009662166  0.3545295783297878   T   T   T
  0.4982946195526659  0.9976642973813977  0.3532360336351636   T   T   T
  0.2484096007814213  0.2539752999909381  0.3871190540987250   T   T   T
  0.2487169240731831  0.7482744963455779  0.3855646872517711   T   T   T
  0.7503432197499018  0.2457921233235783  0.3831629583400484   T   T   T
  0.7506693109596431  0.7508926263730233  0.3856406632960064   T   T   T
  0.2445189164296069  0.4772322948177748  0.4416726490865022   T   T   T
  0.2542618192798341  0.0019019007097134  0.4419279317795090   T   T   T
  0.7574506747232593  0.4893000698247995  0.4415598164805109   T   T   T
  0.7444408443135136  0.0043869931687695  0.4429879118345232   T   T   T
  0.0208864583586994  0.2507271496721979  0.4657261558026708   T   T   T
  0.0009123266685978  0.7482411666919087  0.4715893973897563   T   T   T
  0.4799330903318607  0.2537888575219453  0.4644587619796732   T   T   T
  0.4981823397128443  0.7334071070358334  0.4693888830426854   T   T   T
  0.2501350920691127  0.3254767790224991  0.0998360670901708   T   T   T
  0.2501114547046696  0.8255455729848140  0.0995654302310194   T   T   T
  0.7502231450065183  0.3255576367731641  0.0996736435592277   T   T   T
  0.7502463138552642  0.8257240456508242  0.0994493325138814   T   T   T
  0.0000851710372835  0.0566933529418935  0.1140031510830379   T   T   T
  0.0000781210639879  0.5567849406834307  0.1143861567820395   T   T   T
  0.5003138467735393  0.0566768742420332  0.1139599760709643   T   T   T
  0.5002853328349847  0.5567788458912630  0.1143413844300047   T   T   T
  0.9997272736024773  0.3072380366863497  0.1798716532885223   T   T   T
  0.9999200573130685  0.8070514157640842  0.1798218278953654   T   T   T
  0.5005141505295566  0.3072368384127176  0.1797881463042161   T   T   T
  0.5003130935860931  0.8070757093595857  0.1797225167099872   T   T   T
  0.2501445463320126  0.0536795546584129  0.2051310478112731   T   T   T
  0.2502750156434235  0.5541389087457911  0.2056191023404420   T   T   T
  0.7501958827177527  0.0537358793005574  0.2052297434483573   T   T   T
  0.7499383043557400  0.5539460869583582  0.2057468342671220   T   T   T
  0.2503839849093769  0.3065223277223680  0.2665157321676097   T   T   T
  0.2503680157830149  0.8056593837784166  0.2670904907621326   T   T   T
  0.7494328967477024  0.3054135866371854  0.2670913795264110   T   T   T
  0.7495902153568116  0.8059003967677202  0.2671880291552131   T   T   T
  0.0003684680006790  0.0554162776196586  0.2942810723694869   T   T   T
  0.9996865910655766  0.5574985108993525  0.2943434617595756   T   T   T
  0.4996897024266340  0.0553085553548250  0.2940163788971202   T   T   T
  0.5003562504038833  0.5569616617299420  0.2948307661777943   T   T   T
  0.9969948993086297  0.3067063619453032  0.3546734165840225   T   T   T
  0.9999167977294379  0.8085136807099792  0.3563795757855001   T   T   T
  0.5019599245312543  0.3067100816277604  0.3552186866631555   T   T   T
  0.4995589797138872  0.8063900762385331  0.3566572131255732   T   T   T
  0.2528743643922919  0.0572426826991987  0.3828505099891295   T   T   T
  0.2485751373215703  0.5625980018025583  0.3807682373174660   T   T   T
  0.7469739192161644  0.0555020612492499  0.3829146515985290   T   T   T
  0.7514388897714281  0.5634532308087007  0.3820354447417195   T   T   T
  0.2541969702701106  0.8147366768250236  0.4492024964398176   T   T   T
  0.7505792999260543  0.2995327414265728  0.4442551447185807   T   T   T
  0.7445432264452684  0.8149115239515603  0.4498541478433962   T   T   T
  0.0002907954671029  0.0679706932589663  0.4630570401958260   T   T   T
  0.0014416578064886  0.5752737402348813  0.4608454292444904   T   T   T
  0.4952764105412011  0.0708549976441060  0.4769217041535522   T   T   T
  0.4999454210146222  0.5606274497852087  0.4592173814650600   T   T   T
 
  0.00000000E+00  0.00000000E+00  0.00000000E+00
  0.00000000E+00  0.00000000E+00  0.00000000E+00
  0.00000000E+00  0.00000000E+00  0.00000000E+00
  0.00000000E+00  0.00000000E+00  0.00000000E+00
  0.00000000E+00  0.00000000E+00  0.00000000E+00
  0.00000000E+00  0.00000000E+00  0.00000000E+00
  0.00000000E+00  0.00000000E+00  0.00000000E+00
  0.00000000E+00  0.00000000E+00  0.00000000E+00
  0.00000000E+00  0.00000000E+00  0.00000000E+00
  0.00000000E+00  0.00000000E+00  0.00000000E+00
  0.00000000E+00  0.00000000E+00  0.00000000E+00
  0.00000000E+00  0.00000000E+00  0.00000000E+00
  0.00000000E+00  0.00000000E+00  0.00000000E+00
  0.00000000E+00  0.00000000E+00  0.00000000E+00
  0.00000000E+00  0.00000000E+00  0.00000000E+00
  0.00000000E+00  0.00000000E+00  0.00000000E+00
  0.00000000E+00  0.00000000E+00  0.00000000E+00
  0.00000000E+00  0.00000000E+00  0.00000000E+00
  0.00000000E+00  0.00000000E+00  0.00000000E+00
  0.00000000E+00  0.00000000E+00  0.00000000E+00
  0.00000000E+00  0.00000000E+00  0.00000000E+00
  0.00000000E+00  0.00000000E+00  0.00000000E+00
  0.00000000E+00  0.00000000E+00  0.00000000E+00
  0.00000000E+00  0.00000000E+00  0.00000000E+00
  0.00000000E+00  0.00000000E+00  0.00000000E+00
  0.00000000E+00  0.00000000E+00  0.00000000E+00
  0.00000000E+00  0.00000000E+00  0.00000000E+00
  0.00000000E+00  0.00000000E+00  0.00000000E+00
  0.00000000E+00  0.00000000E+00  0.00000000E+00
  0.00000000E+00  0.00000000E+00  0.00000000E+00
  0.00000000E+00  0.00000000E+00  0.00000000E+00
  0.00000000E+00  0.00000000E+00  0.00000000E+00
  0.00000000E+00  0.00000000E+00  0.00000000E+00
  0.00000000E+00  0.00000000E+00  0.00000000E+00
  0.00000000E+00  0.00000000E+00  0.00000000E+00
  0.00000000E+00  0.00000000E+00  0.00000000E+00
  0.00000000E+00  0.00000000E+00  0.00000000E+00
  0.00000000E+00  0.00000000E+00  0.00000000E+00
  0.00000000E+00  0.00000000E+00  0.00000000E+00
  0.00000000E+00  0.00000000E+00  0.00000000E+00
  0.00000000E+00  0.00000000E+00  0.00000000E+00
  0.00000000E+00  0.00000000E+00  0.00000000E+00
  0.00000000E+00  0.00000000E+00  0.00000000E+00
  0.00000000E+00  0.00000000E+00  0.00000000E+00
  0.00000000E+00  0.00000000E+00  0.00000000E+00
  0.00000000E+00  0.00000000E+00  0.00000000E+00
  0.00000000E+00  0.00000000E+00  0.00000000E+00
  0.00000000E+00  0.00000000E+00  0.00000000E+00
  0.00000000E+00  0.00000000E+00  0.00000000E+00
  0.00000000E+00  0.00000000E+00  0.00000000E+00
  0.00000000E+00  0.00000000E+00  0.00000000E+00
  0.00000000E+00  0.00000000E+00  0.00000000E+00
  0.00000000E+00  0.00000000E+00  0.00000000E+00
  0.00000000E+00  0.00000000E+00  0.00000000E+00
  0.00000000E+00  0.00000000E+00  0.00000000E+00
  0.00000000E+00  0.00000000E+00  0.00000000E+00
  0.00000000E+00  0.00000000E+00  0.00000000E+00
  0.00000000E+00  0.00000000E+00  0.00000000E+00
  0.00000000E+00  0.00000000E+00  0.00000000E+00
  0.00000000E+00  0.00000000E+00  0.00000000E+00
  0.00000000E+00  0.00000000E+00  0.00000000E+00
  0.00000000E+00  0.00000000E+00  0.00000000E+00
  0.00000000E+00  0.00000000E+00  0.00000000E+00
  0.00000000E+00  0.00000000E+00  0.00000000E+00
  0.00000000E+00  0.00000000E+00  0.00000000E+00
  0.00000000E+00  0.00000000E+00  0.00000000E+00
  0.00000000E+00  0.00000000E+00  0.00000000E+00
  0.00000000E+00  0.00000000E+00  0.00000000E+00
  0.00000000E+00  0.00000000E+00  0.00000000E+00
  0.00000000E+00  0.00000000E+00  0.00000000E+00
  0.00000000E+00  0.00000000E+00  0.00000000E+00
  0.00000000E+00  0.00000000E+00  0.00000000E+00
  0.00000000E+00  0.00000000E+00  0.00000000E+00
  0.00000000E+00  0.00000000E+00  0.00000000E+00
  0.00000000E+00  0.00000000E+00  0.00000000E+00
  0.00000000E+00  0.00000000E+00  0.00000000E+00
  0.00000000E+00  0.00000000E+00  0.00000000E+00
  0.00000000E+00  0.00000000E+00  0.00000000E+00
  0.00000000E+00  0.00000000E+00  0.00000000E+00
  0.00000000E+00  0.00000000E+00  0.00000000E+00
  0.00000000E+00  0.00000000E+00  0.00000000E+00
