Al O V Zn                               
   1.00000000000000     
     6.5625568183449996    0.0000000000000000    0.0000000000000000
     0.0000000000000000   10.5156600000000005    0.0000000000000000
     0.0000000000000000    0.0000000000000000   32.0500282661819966
   Al   O    V    Zn
     1    40     1    39
Selective dynamics
Direct
  0.2496894986344693  0.3169577102584762  0.4439100931098709   T   T   T
  0.2501872329560564  0.9994374612988861  0.0881617494551099   T   T   T
  0.2501530627686691  0.4992891262982223  0.0880814217333743   T   T   T
  0.7502673323866907 -0.0002868846232272  0.0878614195716160   T   T   T
  0.7501481594243617  0.4992570975343550  0.0877759961741572   T   T   T
 -0.0000256005624986  0.2457960180188745  0.1189048428768028   T   T   T
  0.9997160082530321  0.7459123454071938  0.1186215693474639   T   T   T
  0.5004233795788438  0.2457760029966319  0.1189024711389402   T   T   T
  0.5006666923793903  0.7459233041662300  0.1186188786531624   T   T   T
  0.9990620864683063  0.4955531724757718  0.1760250754790786   T   T   T
  0.9993499969910701  0.9957428604963311  0.1762464935918022   T   T   T
  0.5011943811812973  0.4955579195358619  0.1760255139623984   T   T   T
  0.5009450128575469  0.9957401548232564  0.1762360339849953   T   T   T
  0.2501253597509594  0.2443106918787371  0.2074804501631857   T   T   T
  0.2501397856539224  0.7443358535924682  0.2068425382533099   T   T   T
  0.7501179072180123  0.2443270235323084  0.2081840459720914   T   T   T
  0.7501339355352973  0.7445610318825479  0.2079334786026489   T   T   T
  0.2499777441240122  0.4952450279607635  0.2644334815501277   T   T   T
  0.2499900834596661  0.9959480801640921  0.2651603042240480   T   T   T
  0.7499844200642068  0.4955352145897994  0.2656958684246575   T   T   T
  0.7499861278183215  0.9958237970350335  0.2660679996900761   T   T   T
  0.0021692576674906  0.2459815576035934  0.2968946056233469   T   T   T
  0.0028878888060421  0.7464737284829803  0.2960585742346896   T   T   T
  0.4978157833625787  0.2459836836216113  0.2968917133515816   T   T   T
  0.4971144869257912  0.7464671075125988  0.2960562745707200   T   T   T
  0.0068089462315525  0.4990724525038222  0.3538902988182924   T   T   T
  0.0052371132790709  0.9986944487031907  0.3549805365712970   T   T   T
  0.4929182460023198  0.4990811633418502  0.3538910374141526   T   T   T
  0.4944748777747883  0.9986821790671482  0.3549751065109781   T   T   T
  0.2498627638282410  0.2576804426600955  0.3901132861984015   T   T   T
  0.2498828383378684  0.7484490163562919  0.3892737744702742   T   T   T
  0.7498570237554569  0.2481186375882965  0.3837287565678536   T   T   T
  0.7498702484581429  0.7503683038849743  0.3812248523291253   T   T   T
  0.2497927173260013  0.4895648146559056  0.4469508661225202   T   T   T
  0.2497943166524394  0.9943799545488696  0.4456001993328069   T   T   T
  0.7497988611126081  0.4984773439428449  0.4379842426920690   T   T   T
  0.7497723483463445  0.0063050145963161  0.4435132584641306   T   T   T
  0.0199720505930900  0.2610449666277680  0.4671265403101130   T   T   T
  0.9825057649136679  0.7552847173251203  0.4761951580295135   T   T   T
  0.4797569352393687  0.2610067454839854  0.4671391520880067   T   T   T
  0.5170562864413935  0.7552285289500748  0.4761948461713682   T   T   T
  0.7498228885258368  0.7217411299222906  0.5108604925819868   T   T   T
  0.2502007094867335  0.3250136095714453  0.0994170099210610   T   T   T
  0.2501687228119501  0.8249791371508636  0.0992116722747446   T   T   T
  0.7501908704319111  0.3250988791551012  0.0992376950633328   T   T   T
  0.7501952660984150  0.8252686079991383  0.0988412457235655   T   T   T
 -0.0000580329948799  0.0564543891127331  0.1139365551243944   T   T   T
  0.9997422142861920  0.5564780143529559  0.1137564763563085   T   T   T
  0.5004979162045006  0.0564293858742312  0.1139108702823996   T   T   T
  0.5005666153340496  0.5564903941243834  0.1137566773415753   T   T   T
  0.9993309755595358  0.3065695887539500  0.1795009098691965   T   T   T
  0.9988748791736152  0.8067459410079963  0.1792073575274897   T   T   T
  0.5009236778249239  0.3065598575374942  0.1794960541856621   T   T   T
  0.5014048438375323  0.8067447602744608  0.1792008315022428   T   T   T
  0.2501718200013634  0.0534990225110264  0.2049039575269847   T   T   T
  0.2501305462847963  0.5534401561316801  0.2044595498245811   T   T   T
  0.7501318230195823  0.0532335738093175  0.2056058510181824   T   T   T
  0.7501377845796995  0.5534607987288147  0.2053680085354447   T   T   T
  0.2499899772578263  0.3055428371366228  0.2661723675368569   T   T   T
  0.2500009458636812  0.8058629738391655  0.2653692927455854   T   T   T
  0.7499938113791016  0.3051960823703885  0.2670797024435597   T   T   T
  0.7499988972330421  0.8052773385437609  0.2669320980923440   T   T   T
  0.0015371870942694  0.0557067427689397  0.2942415685939997   T   T   T
  0.0025076980899317  0.5559983081691748  0.2936935068642735   T   T   T
  0.4984398690489562  0.0557120856746986  0.2942410163079440   T   T   T
  0.4974483171181939  0.5559938738155243  0.2936920966397393   T   T   T
  0.0001911407032467  0.3098734581680259  0.3548309029273466   T   T   T
  0.0105978398952762  0.8071254684779814  0.3544042317487934   T   T   T
  0.4995363354178144  0.3098830675531138  0.3548264985191167   T   T   T
  0.4891776128370935  0.8071119697505815  0.3544015456470798   T   T   T
  0.2498573009099219  0.0613343530314795  0.3837890233874262   T   T   T
  0.2498544477994211  0.5595711772052563  0.3849646578797560   T   T   T
  0.7498579078413984  0.0607866681264551  0.3800411578858234   T   T   T
  0.7498652867558605  0.5593323395624726  0.3798959332032087   T   T   T
  0.2497744077604340  0.8030330793825328  0.4497143777638855   T   T   T
  0.7497946086518305  0.3127179351181332  0.4428431771063233   T   T   T
  0.7497942840395845  0.8180772250949851  0.4366854183939557   T   T   T
  0.0025054243494380  0.0799977656915845  0.4627398101982568   T   T   T
  0.9820037080319806  0.5480982747156068  0.4757232521819302   T   T   T
  0.4970706610736868  0.0799916417137998  0.4627449221919260   T   T   T
  0.5175356159173471  0.5481540416608960  0.4756890487175790   T   T   T
 
  0.00000000E+00  0.00000000E+00  0.00000000E+00
  0.00000000E+00  0.00000000E+00  0.00000000E+00
  0.00000000E+00  0.00000000E+00  0.00000000E+00
  0.00000000E+00  0.00000000E+00  0.00000000E+00
  0.00000000E+00  0.00000000E+00  0.00000000E+00
  0.00000000E+00  0.00000000E+00  0.00000000E+00
  0.00000000E+00  0.00000000E+00  0.00000000E+00
  0.00000000E+00  0.00000000E+00  0.00000000E+00
  0.00000000E+00  0.00000000E+00  0.00000000E+00
  0.00000000E+00  0.00000000E+00  0.00000000E+00
  0.00000000E+00  0.00000000E+00  0.00000000E+00
  0.00000000E+00  0.00000000E+00  0.00000000E+00
  0.00000000E+00  0.00000000E+00  0.00000000E+00
  0.00000000E+00  0.00000000E+00  0.00000000E+00
  0.00000000E+00  0.00000000E+00  0.00000000E+00
  0.00000000E+00  0.00000000E+00  0.00000000E+00
  0.00000000E+00  0.00000000E+00  0.00000000E+00
  0.00000000E+00  0.00000000E+00  0.00000000E+00
  0.00000000E+00  0.00000000E+00  0.00000000E+00
  0.00000000E+00  0.00000000E+00  0.00000000E+00
  0.00000000E+00  0.00000000E+00  0.00000000E+00
  0.00000000E+00  0.00000000E+00  0.00000000E+00
  0.00000000E+00  0.00000000E+00  0.00000000E+00
  0.00000000E+00  0.00000000E+00  0.00000000E+00
  0.00000000E+00  0.00000000E+00  0.00000000E+00
  0.00000000E+00  0.00000000E+00  0.00000000E+00
  0.00000000E+00  0.00000000E+00  0.00000000E+00
  0.00000000E+00  0.00000000E+00  0.00000000E+00
  0.00000000E+00  0.00000000E+00  0.00000000E+00
  0.00000000E+00  0.00000000E+00  0.00000000E+00
  0.00000000E+00  0.00000000E+00  0.00000000E+00
  0.00000000E+00  0.00000000E+00  0.00000000E+00
  0.00000000E+00  0.00000000E+00  0.00000000E+00
  0.00000000E+00  0.00000000E+00  0.00000000E+00
  0.00000000E+00  0.00000000E+00  0.00000000E+00
  0.00000000E+00  0.00000000E+00  0.00000000E+00
  0.00000000E+00  0.00000000E+00  0.00000000E+00
  0.00000000E+00  0.00000000E+00  0.00000000E+00
  0.00000000E+00  0.00000000E+00  0.00000000E+00
  0.00000000E+00  0.00000000E+00  0.00000000E+00
  0.00000000E+00  0.00000000E+00  0.00000000E+00
  0.00000000E+00  0.00000000E+00  0.00000000E+00
  0.00000000E+00  0.00000000E+00  0.00000000E+00
  0.00000000E+00  0.00000000E+00  0.00000000E+00
  0.00000000E+00  0.00000000E+00  0.00000000E+00
  0.00000000E+00  0.00000000E+00  0.00000000E+00
  0.00000000E+00  0.00000000E+00  0.00000000E+00
  0.00000000E+00  0.00000000E+00  0.00000000E+00
  0.00000000E+00  0.00000000E+00  0.00000000E+00
  0.00000000E+00  0.00000000E+00  0.00000000E+00
  0.00000000E+00  0.00000000E+00  0.00000000E+00
  0.00000000E+00  0.00000000E+00  0.00000000E+00
  0.00000000E+00  0.00000000E+00  0.00000000E+00
  0.00000000E+00  0.00000000E+00  0.00000000E+00
  0.00000000E+00  0.00000000E+00  0.00000000E+00
  0.00000000E+00  0.00000000E+00  0.00000000E+00
  0.00000000E+00  0.00000000E+00  0.00000000E+00
  0.00000000E+00  0.00000000E+00  0.00000000E+00
  0.00000000E+00  0.00000000E+00  0.00000000E+00
  0.00000000E+00  0.00000000E+00  0.00000000E+00
  0.00000000E+00  0.00000000E+00  0.00000000E+00
  0.00000000E+00  0.00000000E+00  0.00000000E+00
  0.00000000E+00  0.00000000E+00  0.00000000E+00
  0.00000000E+00  0.00000000E+00  0.00000000E+00
  0.00000000E+00  0.00000000E+00  0.00000000E+00
  0.00000000E+00  0.00000000E+00  0.00000000E+00
  0.00000000E+00  0.00000000E+00  0.00000000E+00
  0.00000000E+00  0.00000000E+00  0.00000000E+00
  0.00000000E+00  0.00000000E+00  0.00000000E+00
  0.00000000E+00  0.00000000E+00  0.00000000E+00
  0.00000000E+00  0.00000000E+00  0.00000000E+00
  0.00000000E+00  0.00000000E+00  0.00000000E+00
  0.00000000E+00  0.00000000E+00  0.00000000E+00
  0.00000000E+00  0.00000000E+00  0.00000000E+00
  0.00000000E+00  0.00000000E+00  0.00000000E+00
  0.00000000E+00  0.00000000E+00  0.00000000E+00
  0.00000000E+00  0.00000000E+00  0.00000000E+00
  0.00000000E+00  0.00000000E+00  0.00000000E+00
  0.00000000E+00  0.00000000E+00  0.00000000E+00
  0.00000000E+00  0.00000000E+00  0.00000000E+00
  0.00000000E+00  0.00000000E+00  0.00000000E+00
