Al Ir O Zn                              
   1.00000000000000     
     6.5625568183449996    0.0000000000000000    0.0000000000000000
     0.0000000000000000   10.5156600000000005    0.0000000000000000
     0.0000000000000000    0.0000000000000000   32.0500282661819966
   Al   Ir   O    Zn
     1     1    40    39
Selective dynamics
Direct
  0.2498309323578632  0.3138868474221029  0.4437909225421162   T   T   T
  0.7499342576074201  0.7416606704832582  0.5003513890092632   T   T   T
  0.2501580762648108  0.9990795750355245  0.0881062030109680   T   T   T
  0.2501682155693299  0.4990030683602253  0.0882192989406588   T   T   T
  0.7501775542095662  0.9995997024538444  0.0874250864496825   T   T   T
  0.7501718065817327  0.4991332682561290  0.0876111022758399   T   T   T
  0.9995901743701728  0.2456070051602419  0.1187815390132571   T   T   T
  0.9992594383823287  0.7457222042184036  0.1183967536469283   T   T   T
  0.5007151798987517  0.2456079667199276  0.1187804839967175   T   T   T
  0.5010668952907243  0.7457194226988966  0.1183981212736138   T   T   T
  0.9987066605621148  0.4958911481259883  0.1761272367905590   T   T   T
  0.9987262896042686  0.9958040845370725  0.1760435259267111   T   T   T
  0.5015174142969130  0.4958828848685227  0.1761231070147833   T   T   T
  0.5015102001669284  0.9958144372902807  0.1760384141281617   T   T   T
  0.2501131498920511  0.2449669193869468  0.2070824422108259   T   T   T
  0.2500980408753594  0.7445085664827762  0.2064513946766553   T   T   T
  0.7501270281760133  0.2447593503645742  0.2081996445771165   T   T   T
  0.7500961107733023  0.7451450148085325  0.2082182559153732   T   T   T
  0.2499811529880617  0.4964759122270752  0.2647026154197704   T   T   T
  0.2499760255415878  0.9966984700445958  0.2644046151780485   T   T   T
  0.7499781553210584  0.4966475116988294  0.2659629394279469   T   T   T
  0.7499700070438072  0.9966083130362076  0.2659671100183468   T   T   T
  0.0028817108665129  0.2471943490530965  0.2965257873360317   T   T   T
  0.0045849839770677  0.7477225847764560  0.2962615817141012   T   T   T
  0.4970858157735445  0.2471889985391260  0.2965222996448585   T   T   T
  0.4953556523909971  0.7477285191166747  0.2962626969838298   T   T   T
  0.0061461741041730  0.5007715059897483  0.3542018271427759   T   T   T
  0.0068757568854122  0.9992093794043281  0.3542726079401601   T   T   T
  0.4936054729584913  0.5007601282003238  0.3541979194702693   T   T   T
  0.4928208034859149  0.9991918421771060  0.3542722301766006   T   T   T
  0.2498768770609062  0.2557633159843670  0.3899636396038236   T   T   T
  0.2498542539468307  0.7513229475047694  0.3924646420257182   T   T   T
  0.7498733326766451  0.2531374519221735  0.3825094629959155   T   T   T
  0.7498661799837606  0.7497361728106481  0.3794220840789431   T   T   T
  0.2498319009922650  0.4866620965377145  0.4451939460088454   T   T   T
  0.2498294721444130  0.9925603923773058  0.4465350005519423   T   T   T
  0.7498105224183885  0.4921348294258820  0.4395989413250730   T   T   T
  0.7498097726836436  0.0172700285324218  0.4397818707836698   T   T   T
  0.0203408195395501  0.2597572884213609  0.4674652214529436   T   T   T
  0.0474562635997005  0.7269935416940053  0.4941793145254399   T   T   T
  0.4793116453805870  0.2597601446027715  0.4674779078904686   T   T   T
  0.4524473802388772  0.7270658750048382  0.4941432476650343   T   T   T
  0.2501572103377375  0.3245140077016649  0.0992952909727310   T   T   T
  0.2501707623216753  0.8245010300545392  0.0990655792198346   T   T   T
  0.7501414609053326  0.3247725731477387  0.0987997866108021   T   T   T
  0.7501633061453550  0.8250760240924367  0.0983404687796946   T   T   T
  0.9995190296851872  0.0561546272034149  0.1137254561841627   T   T   T
  0.9994900301016657  0.5561912534512168  0.1137616127681709   T   T   T
  0.5008139263713494  0.0561587214912853  0.1137163765191568   T   T   T
  0.5008461332590485  0.5561903419864794  0.1137562067669743   T   T   T
  0.9986485671948067  0.3069232767758672  0.1792988764040720   T   T   T
  0.9980863787609024  0.8067474701244473  0.1789495535345608   T   T   T
  0.5015974910641630  0.3069137863334117  0.1793024521110710   T   T   T
  0.5021128537126367  0.8067532000198652  0.1789492329769752   T   T   T
  0.2501155899294912  0.0541856835908490  0.2042411449509766   T   T   T
  0.2501303634237611  0.5535719119756662  0.2044976699522246   T   T   T
  0.7501268752751580  0.0536265813689923  0.2055140929831119   T   T   T
  0.7501097701262623  0.5540428961678644  0.2055512648345270   T   T   T
  0.2499785225412061  0.3066558824606310  0.2656413079727959   T   T   T
  0.2499761304204720  0.8067724040044600  0.2648138579425500   T   T   T
  0.7499853276989192  0.3061910003944266  0.2670424076698992   T   T   T
  0.7499699366960486  0.8060905854276025  0.2673632499402817   T   T   T
  0.0028452722284512  0.0568102024854765  0.2936747987686734   T   T   T
  0.0022026933716573  0.5574595747622979  0.2937863193327629   T   T   T
  0.4971000278171270  0.0568043234183920  0.2936744050351662   T   T   T
  0.4977524595333998  0.5574643559958927  0.2937868738717334   T   T   T
  0.0036937801349776  0.3109072067395125  0.3544861898219162   T   T   T
  0.0157173105316803  0.8082957099174105  0.3546771116334236   T   T   T
  0.4960541797484304  0.3109015345347545  0.3544795790718342   T   T   T
  0.4839942889015807  0.8082844873344798  0.3546784225297468   T   T   T
  0.2498624959439677  0.0589273600060435  0.3845226989815412   T   T   T
  0.2498781222436220  0.5635426727452745  0.3839262491233546   T   T   T
  0.7498447074553032  0.0666904505169967  0.3772160798006050   T   T   T
  0.7498783352250910  0.5586205772034439  0.3804304581092091   T   T   T
  0.2498240525111757  0.8045495396897684  0.4555934348959292   T   T   T
  0.7498197029038727  0.3048790115676552  0.4429373346688479   T   T   T
  0.7499018400308282  0.8304652970633928  0.4325683944648861   T   T   T
  0.0018796331218962  0.0776013557031739  0.4643940947563235   T   T   T
  0.9883199712818401  0.5628717698480640  0.4685293967402112   T   T   T
  0.4977633614721775  0.0776081302184469  0.4643958304113808   T   T   T
  0.5113356626279373  0.5629155752306110  0.4685136765490815   T   T   T
 
  0.00000000E+00  0.00000000E+00  0.00000000E+00
  0.00000000E+00  0.00000000E+00  0.00000000E+00
  0.00000000E+00  0.00000000E+00  0.00000000E+00
  0.00000000E+00  0.00000000E+00  0.00000000E+00
  0.00000000E+00  0.00000000E+00  0.00000000E+00
  0.00000000E+00  0.00000000E+00  0.00000000E+00
  0.00000000E+00  0.00000000E+00  0.00000000E+00
  0.00000000E+00  0.00000000E+00  0.00000000E+00
  0.00000000E+00  0.00000000E+00  0.00000000E+00
  0.00000000E+00  0.00000000E+00  0.00000000E+00
  0.00000000E+00  0.00000000E+00  0.00000000E+00
  0.00000000E+00  0.00000000E+00  0.00000000E+00
  0.00000000E+00  0.00000000E+00  0.00000000E+00
  0.00000000E+00  0.00000000E+00  0.00000000E+00
  0.00000000E+00  0.00000000E+00  0.00000000E+00
  0.00000000E+00  0.00000000E+00  0.00000000E+00
  0.00000000E+00  0.00000000E+00  0.00000000E+00
  0.00000000E+00  0.00000000E+00  0.00000000E+00
  0.00000000E+00  0.00000000E+00  0.00000000E+00
  0.00000000E+00  0.00000000E+00  0.00000000E+00
  0.00000000E+00  0.00000000E+00  0.00000000E+00
  0.00000000E+00  0.00000000E+00  0.00000000E+00
  0.00000000E+00  0.00000000E+00  0.00000000E+00
  0.00000000E+00  0.00000000E+00  0.00000000E+00
  0.00000000E+00  0.00000000E+00  0.00000000E+00
  0.00000000E+00  0.00000000E+00  0.00000000E+00
  0.00000000E+00  0.00000000E+00  0.00000000E+00
  0.00000000E+00  0.00000000E+00  0.00000000E+00
  0.00000000E+00  0.00000000E+00  0.00000000E+00
  0.00000000E+00  0.00000000E+00  0.00000000E+00
  0.00000000E+00  0.00000000E+00  0.00000000E+00
  0.00000000E+00  0.00000000E+00  0.00000000E+00
  0.00000000E+00  0.00000000E+00  0.00000000E+00
  0.00000000E+00  0.00000000E+00  0.00000000E+00
  0.00000000E+00  0.00000000E+00  0.00000000E+00
  0.00000000E+00  0.00000000E+00  0.00000000E+00
  0.00000000E+00  0.00000000E+00  0.00000000E+00
  0.00000000E+00  0.00000000E+00  0.00000000E+00
  0.00000000E+00  0.00000000E+00  0.00000000E+00
  0.00000000E+00  0.00000000E+00  0.00000000E+00
  0.00000000E+00  0.00000000E+00  0.00000000E+00
  0.00000000E+00  0.00000000E+00  0.00000000E+00
  0.00000000E+00  0.00000000E+00  0.00000000E+00
  0.00000000E+00  0.00000000E+00  0.00000000E+00
  0.00000000E+00  0.00000000E+00  0.00000000E+00
  0.00000000E+00  0.00000000E+00  0.00000000E+00
  0.00000000E+00  0.00000000E+00  0.00000000E+00
  0.00000000E+00  0.00000000E+00  0.00000000E+00
  0.00000000E+00  0.00000000E+00  0.00000000E+00
  0.00000000E+00  0.00000000E+00  0.00000000E+00
  0.00000000E+00  0.00000000E+00  0.00000000E+00
  0.00000000E+00  0.00000000E+00  0.00000000E+00
  0.00000000E+00  0.00000000E+00  0.00000000E+00
  0.00000000E+00  0.00000000E+00  0.00000000E+00
  0.00000000E+00  0.00000000E+00  0.00000000E+00
  0.00000000E+00  0.00000000E+00  0.00000000E+00
  0.00000000E+00  0.00000000E+00  0.00000000E+00
  0.00000000E+00  0.00000000E+00  0.00000000E+00
  0.00000000E+00  0.00000000E+00  0.00000000E+00
  0.00000000E+00  0.00000000E+00  0.00000000E+00
  0.00000000E+00  0.00000000E+00  0.00000000E+00
  0.00000000E+00  0.00000000E+00  0.00000000E+00
  0.00000000E+00  0.00000000E+00  0.00000000E+00
  0.00000000E+00  0.00000000E+00  0.00000000E+00
  0.00000000E+00  0.00000000E+00  0.00000000E+00
  0.00000000E+00  0.00000000E+00  0.00000000E+00
  0.00000000E+00  0.00000000E+00  0.00000000E+00
  0.00000000E+00  0.00000000E+00  0.00000000E+00
  0.00000000E+00  0.00000000E+00  0.00000000E+00
  0.00000000E+00  0.00000000E+00  0.00000000E+00
  0.00000000E+00  0.00000000E+00  0.00000000E+00
  0.00000000E+00  0.00000000E+00  0.00000000E+00
  0.00000000E+00  0.00000000E+00  0.00000000E+00
  0.00000000E+00  0.00000000E+00  0.00000000E+00
  0.00000000E+00  0.00000000E+00  0.00000000E+00
  0.00000000E+00  0.00000000E+00  0.00000000E+00
  0.00000000E+00  0.00000000E+00  0.00000000E+00
  0.00000000E+00  0.00000000E+00  0.00000000E+00
  0.00000000E+00  0.00000000E+00  0.00000000E+00
  0.00000000E+00  0.00000000E+00  0.00000000E+00
  0.00000000E+00  0.00000000E+00  0.00000000E+00
