Ag Al O Zn                              
   1.00000000000000     
     6.5625568183449996    0.0000000000000000    0.0000000000000000
     0.0000000000000000   10.5156600000000005    0.0000000000000000
     0.0000000000000000    0.0000000000000000   32.0500282661819966
   Ag   Al   O    Zn
     1     1    40    39
Selective dynamics
Direct
  0.5008836472763287  0.9000088608173432  0.5313254667416090   T   T   T
  0.2504460365630711  0.3062167574014981  0.4424148543989594   T   T   T
  0.2501936614632974  0.9996740570328534  0.0880768692869090   T   T   T
  0.2501817788222065  0.4996346257251324  0.0884217273431415   T   T   T
  0.7502641858783032  0.9998607932012207  0.0879037940108465   T   T   T
  0.7502061761979614  0.4997200989853451  0.0883002012855499   T   T   T
  0.9999957662706608  0.2460956617366264  0.1191118346610911   T   T   T
  0.9999938789303174  0.7462049064062318  0.1189559316366071   T   T   T
  0.5004016954331448  0.2460705873691653  0.1190733526681013   T   T   T
  0.5003643472702224  0.7462029305177086  0.1189297474787112   T   T   T
  0.0000053028060868  0.4959861505849884  0.1764831251308497   T   T   T
  0.9999661296099349  0.9959022112292554  0.1760516074388160   T   T   T
  0.5002485683701150  0.4959988365801309  0.1764485022579006   T   T   T
  0.5003696987612297  0.9959058914351261  0.1760614149751480   T   T   T
  0.2502334685761299  0.2447303919040820  0.2075935498258750   T   T   T
  0.2501555975982453  0.7448446629260050  0.2077561931736090   T   T   T
  0.7500306442511477  0.2447354883251522  0.2079401252892719   T   T   T
  0.7500845200128156  0.7447607050259473  0.2079037281361643   T   T   T
  0.2501319603294048  0.4964401012403740  0.2655382097118522   T   T   T
  0.2496932151759058  0.9957663653611545  0.2649550812574638   T   T   T
  0.7498379369560805  0.4955390496147132  0.2655899640589844   T   T   T
  0.7503490644356715  0.9961143510298710  0.2651488754180396   T   T   T
  0.0016243045508046  0.2461835408759183  0.2962246392784739   T   T   T
  0.0000970725438571  0.7469902619174612  0.2967895001412487   T   T   T
  0.4982936246522624  0.2461922049209812  0.2964644739837246   T   T   T
  0.4999422538735100  0.7466370087951021  0.2967580925126076   T   T   T
  0.9992437361845776  0.4970824386525285  0.3540884284783805   T   T   T
  0.0015674242101738  0.9996506645884965  0.3542199688318313   T   T   T
  0.5004532360099914  0.4969322282014428  0.3543745931402408   T   T   T
  0.4983811906586997  0.9982783168134960  0.3535723066421551   T   T   T
  0.2491839990517044  0.2554131994422880  0.3878269784686798   T   T   T
  0.2499983515357415  0.7476306283698116  0.3859859091799069   T   T   T
  0.7503818543847944  0.2467989663922775  0.3837913256872043   T   T   T
  0.7498007698133277  0.7504938326795821  0.3859819459028641   T   T   T
  0.2477052641374468  0.4800303112162844  0.4423095717968434   T   T   T
  0.2539841215165743  0.0024782899593594  0.4424421241657240   T   T   T
  0.7529504119644119  0.4928415750963372  0.4422946613191937   T   T   T
  0.7448651519405517  0.0045386063830328  0.4435692477545526   T   T   T
  0.0207269650464240  0.2547179591848114  0.4660644636335047   T   T   T
  0.0013209330696716  0.7481837482959007  0.4724518570717568   T   T   T
  0.4794169902852822  0.2550386653089882  0.4654584153881294   T   T   T
  0.4982978809680278  0.7416340387906554  0.4730940643974519   T   T   T
  0.2501782765998523  0.3253547518694310  0.0997437810396701   T   T   T
  0.2501595227937155  0.8254108387999589  0.0994747589023051   T   T   T
  0.7502325005067634  0.3254256446257887  0.0995527515661951   T   T   T
  0.7502140880701113  0.8256244527353164  0.0993496940770740   T   T   T
  0.0000964322586264  0.0566309558350043  0.1139963114412898   T   T   T
  0.0000814327803605  0.5567059043788727  0.1142877698439135   T   T   T
  0.5003432206783521  0.0566045357971666  0.1139727737413771   T   T   T
  0.5003101202344927  0.5567046958469803  0.1142764719143720   T   T   T
  0.9997326378891920  0.3070342337605537  0.1798158866449702   T   T   T
  0.9999158410147360  0.8069507328779533  0.1797365451079330   T   T   T
  0.5005425300797909  0.3070571115115014  0.1797612741494830   T   T   T
  0.5003246649913661  0.8069411797228676  0.1797072912632952   T   T   T
  0.2501268888802247  0.0535579786406562  0.2051685299552491   T   T   T
  0.2501949680619316  0.5539608624147593  0.2054975571389881   T   T   T
  0.7502457378290480  0.0535923562763059  0.2052841754204529   T   T   T
  0.7500765291172793  0.5537949457790644  0.2056213434725231   T   T   T
  0.2502076696630490  0.3062059530632359  0.2665362491259748   T   T   T
  0.2501020742359975  0.8055241152251048  0.2670297614364528   T   T   T
  0.7497409476343873  0.3050919748741956  0.2670940434873083   T   T   T
  0.7499234898554568  0.8058086391840472  0.2671571647791475   T   T   T
  0.0004020167928123  0.0551166075382229  0.2945080813825415   T   T   T
  0.9996241462611487  0.5570176321253908  0.2943304743129234   T   T   T
  0.4996489118346987  0.0552145642991895  0.2940762352114490   T   T   T
  0.5003463524986842  0.5567157593770603  0.2945249635855139   T   T   T
  0.9972995348023503  0.3064627745031059  0.3548677660541344   T   T   T
  0.0002394537196312  0.8085772887578982  0.3563312267592446   T   T   T
  0.5022767948201600  0.3063342348688662  0.3551927715778547   T   T   T
  0.4995845260543068  0.8072992719582129  0.3562965302070925   T   T   T
  0.2529940952910675  0.0582918630158273  0.3831927406202798   T   T   T
  0.2493833795281652  0.5611329326423848  0.3807600746628619   T   T   T
  0.7468984641940583  0.0564310049684795  0.3832664193040192   T   T   T
  0.7503578518479245  0.5621597802334690  0.3820308793025287   T   T   T
  0.2509382571121214  0.8144561486817627  0.4475768811753963   T   T   T
  0.7490009240407628  0.3025407092805176  0.4446120692970542   T   T   T
  0.7489998135371179  0.8145256518224696  0.4480237379259126   T   T   T
  0.0005250176762262  0.0716931189892767  0.4630758572279277   T   T   T
  0.0013090963602648  0.5748618448426560  0.4611936088922079   T   T   T
  0.4957339859420963  0.0715220317006965  0.4776384120098160   T   T   T
  0.4987615096545476  0.5677608014530883  0.4609019425163154   T   T   T
 
  0.00000000E+00  0.00000000E+00  0.00000000E+00
  0.00000000E+00  0.00000000E+00  0.00000000E+00
  0.00000000E+00  0.00000000E+00  0.00000000E+00
  0.00000000E+00  0.00000000E+00  0.00000000E+00
  0.00000000E+00  0.00000000E+00  0.00000000E+00
  0.00000000E+00  0.00000000E+00  0.00000000E+00
  0.00000000E+00  0.00000000E+00  0.00000000E+00
  0.00000000E+00  0.00000000E+00  0.00000000E+00
  0.00000000E+00  0.00000000E+00  0.00000000E+00
  0.00000000E+00  0.00000000E+00  0.00000000E+00
  0.00000000E+00  0.00000000E+00  0.00000000E+00
  0.00000000E+00  0.00000000E+00  0.00000000E+00
  0.00000000E+00  0.00000000E+00  0.00000000E+00
  0.00000000E+00  0.00000000E+00  0.00000000E+00
  0.00000000E+00  0.00000000E+00  0.00000000E+00
  0.00000000E+00  0.00000000E+00  0.00000000E+00
  0.00000000E+00  0.00000000E+00  0.00000000E+00
  0.00000000E+00  0.00000000E+00  0.00000000E+00
  0.00000000E+00  0.00000000E+00  0.00000000E+00
  0.00000000E+00  0.00000000E+00  0.00000000E+00
  0.00000000E+00  0.00000000E+00  0.00000000E+00
  0.00000000E+00  0.00000000E+00  0.00000000E+00
  0.00000000E+00  0.00000000E+00  0.00000000E+00
  0.00000000E+00  0.00000000E+00  0.00000000E+00
  0.00000000E+00  0.00000000E+00  0.00000000E+00
  0.00000000E+00  0.00000000E+00  0.00000000E+00
  0.00000000E+00  0.00000000E+00  0.00000000E+00
  0.00000000E+00  0.00000000E+00  0.00000000E+00
  0.00000000E+00  0.00000000E+00  0.00000000E+00
  0.00000000E+00  0.00000000E+00  0.00000000E+00
  0.00000000E+00  0.00000000E+00  0.00000000E+00
  0.00000000E+00  0.00000000E+00  0.00000000E+00
  0.00000000E+00  0.00000000E+00  0.00000000E+00
  0.00000000E+00  0.00000000E+00  0.00000000E+00
  0.00000000E+00  0.00000000E+00  0.00000000E+00
  0.00000000E+00  0.00000000E+00  0.00000000E+00
  0.00000000E+00  0.00000000E+00  0.00000000E+00
  0.00000000E+00  0.00000000E+00  0.00000000E+00
  0.00000000E+00  0.00000000E+00  0.00000000E+00
  0.00000000E+00  0.00000000E+00  0.00000000E+00
  0.00000000E+00  0.00000000E+00  0.00000000E+00
  0.00000000E+00  0.00000000E+00  0.00000000E+00
  0.00000000E+00  0.00000000E+00  0.00000000E+00
  0.00000000E+00  0.00000000E+00  0.00000000E+00
  0.00000000E+00  0.00000000E+00  0.00000000E+00
  0.00000000E+00  0.00000000E+00  0.00000000E+00
  0.00000000E+00  0.00000000E+00  0.00000000E+00
  0.00000000E+00  0.00000000E+00  0.00000000E+00
  0.00000000E+00  0.00000000E+00  0.00000000E+00
  0.00000000E+00  0.00000000E+00  0.00000000E+00
  0.00000000E+00  0.00000000E+00  0.00000000E+00
  0.00000000E+00  0.00000000E+00  0.00000000E+00
  0.00000000E+00  0.00000000E+00  0.00000000E+00
  0.00000000E+00  0.00000000E+00  0.00000000E+00
  0.00000000E+00  0.00000000E+00  0.00000000E+00
  0.00000000E+00  0.00000000E+00  0.00000000E+00
  0.00000000E+00  0.00000000E+00  0.00000000E+00
  0.00000000E+00  0.00000000E+00  0.00000000E+00
  0.00000000E+00  0.00000000E+00  0.00000000E+00
  0.00000000E+00  0.00000000E+00  0.00000000E+00
  0.00000000E+00  0.00000000E+00  0.00000000E+00
  0.00000000E+00  0.00000000E+00  0.00000000E+00
  0.00000000E+00  0.00000000E+00  0.00000000E+00
  0.00000000E+00  0.00000000E+00  0.00000000E+00
  0.00000000E+00  0.00000000E+00  0.00000000E+00
  0.00000000E+00  0.00000000E+00  0.00000000E+00
  0.00000000E+00  0.00000000E+00  0.00000000E+00
  0.00000000E+00  0.00000000E+00  0.00000000E+00
  0.00000000E+00  0.00000000E+00  0.00000000E+00
  0.00000000E+00  0.00000000E+00  0.00000000E+00
  0.00000000E+00  0.00000000E+00  0.00000000E+00
  0.00000000E+00  0.00000000E+00  0.00000000E+00
  0.00000000E+00  0.00000000E+00  0.00000000E+00
  0.00000000E+00  0.00000000E+00  0.00000000E+00
  0.00000000E+00  0.00000000E+00  0.00000000E+00
  0.00000000E+00  0.00000000E+00  0.00000000E+00
  0.00000000E+00  0.00000000E+00  0.00000000E+00
  0.00000000E+00  0.00000000E+00  0.00000000E+00
  0.00000000E+00  0.00000000E+00  0.00000000E+00
  0.00000000E+00  0.00000000E+00  0.00000000E+00
  0.00000000E+00  0.00000000E+00  0.00000000E+00
