Al Cu O Zn                              
   1.00000000000000     
     6.5625568183449996    0.0000000000000000    0.0000000000000000
     0.0000000000000000   10.5156600000000005    0.0000000000000000
     0.0000000000000000    0.0000000000000000   32.0500282661819966
   Al   Cu   O    Zn
     1     1    40    39
Selective dynamics
Direct
  0.2497643316450545  0.3161872287526425  0.4436259125464621   T   T   T
  0.7497582992572757  0.6850211631850059  0.5149169994235563   T   T   T
  0.2501867253682249  0.9983746776534924  0.0886028598317921   T   T   T
  0.2501636040996429  0.4981234277991347  0.0882850029704415   T   T   T
  0.7501995933970470  0.9986043568522359  0.0880444147009662   T   T   T
  0.7501614307037603  0.4984752328651555  0.0876996050585635   T   T   T
 -0.0004109029348508  0.2450680353741409  0.1187958878047302   T   T   T
 -0.0003134009681191  0.7448124121545598  0.1187477478984346   T   T   T
  0.5008292327123995  0.2450770305965077  0.1188064118919719   T   T   T
  0.5008295519455496  0.7448243282372287  0.1187496255544612   T   T   T
  0.9991229618733398  0.4956207770539570  0.1762034433993554   T   T   T
  0.9992587866392632  0.9957483380520347  0.1764406700432927   T   T   T
  0.5010507124100105  0.4956337651313499  0.1762036338247990   T   T   T
  0.5009731003714184  0.9957518640128594  0.1764328572879846   T   T   T
  0.2501208203442106  0.2450027377271436  0.2074918981929114   T   T   T
  0.2501357602218902  0.7449852523741984  0.2071321155336569   T   T   T
  0.7501253040853628  0.2450616129688830  0.2082042192237362   T   T   T
  0.7501347543421776  0.7449841947015882  0.2080806357037127   T   T   T
  0.2499500835283712  0.4971184074571737  0.2649452918299284   T   T   T
  0.2499743796396121  0.9971610038989058  0.2652610649839650   T   T   T
  0.7499423604258894  0.4969249375560337  0.2659113730710245   T   T   T
  0.7499609873997319  0.9971196109506678  0.2660158204546207   T   T   T
  0.0020524144879088  0.2477487026634093  0.2969739060512501   T   T   T
  0.0019920529618366  0.7483602324957590  0.2963161781333629   T   T   T
  0.4978825093779369  0.2477551017140571  0.2969735098100066   T   T   T
  0.4979274314041256  0.7483690456157486  0.2963150054215216   T   T   T
  0.0038370196695478  0.5003461942167149  0.3543555307732738   T   T   T
  0.0039722613381114  0.0008637160755613  0.3546157745599894   T   T   T
  0.4958684268653831  0.5003544431287167  0.3543589207578404   T   T   T
  0.4957208516007150  0.0008629930914066  0.3546199158412298   T   T   T
  0.2498668227647790  0.2583647405974245  0.3895567084352372   T   T   T
  0.2498670980155777  0.7508413335265542  0.3875657150432766   T   T   T
  0.7498861190458160  0.2480497940695892  0.3842629541605534   T   T   T
  0.7498677834840812  0.7540240612719610  0.3828039908781369   T   T   T
  0.2498160204095215  0.4884551886364301  0.4457436835066709   T   T   T
  0.2498505328140717 -0.0018249695965806  0.4440777080807811   T   T   T
  0.7497996102921902  0.4998846715592611  0.4397231938309177   T   T   T
  0.7498367887385868  0.0047736025932733  0.4434863311070124   T   T   T
  0.0198270750010789  0.2600186615136346  0.4666920696314223   T   T   T
  0.9902125838136379  0.7529250030653335  0.4741113916256418   T   T   T
  0.4798836066441366  0.2600065225467185  0.4666963864350930   T   T   T
  0.5094551205330248  0.7529434421394752  0.4741073328975818   T   T   T
  0.2502332007414687  0.3236433425428578  0.0992875763520748   T   T   T
  0.2502708929122023  0.8237156857435300  0.0993809909038286   T   T   T
  0.7502154871436213  0.3240666296677788  0.0987711095660038   T   T   T
  0.7502770495623382  0.8240152991280486  0.0988969790121824   T   T   T
 -0.0003754031954648  0.0555583495251111  0.1141497996629898   T   T   T
 -0.0004106864921324  0.5552505533067443  0.1139088671336180   T   T   T
  0.5007675180411062  0.0555678634986883  0.1141408957790381   T   T   T
  0.5007328628155682  0.5552559405873477  0.1139106859446658   T   T   T
  0.9992121611246976  0.3066621963501160  0.1793445703063257   T   T   T
  0.9989056708919218  0.8065736419911386  0.1793080822989909   T   T   T
  0.5010218188358851  0.3066753375321157  0.1793503379074434   T   T   T
  0.5013785603158176  0.8065767083919344  0.1793087762963337   T   T   T
  0.2501500495752071  0.0539574045681305  0.2049953926071036   T   T   T
  0.2500908984305023  0.5539287782130858  0.2047838132240897   T   T   T
  0.7501106174226574  0.0539139432567519  0.2056700361583662   T   T   T
  0.7500911514176483  0.5538294675737920  0.2055932536784502   T   T   T
  0.2499632989176035  0.3073123631297960  0.2662155964199482   T   T   T
  0.2499530757106724  0.8066807144580791  0.2658682687128014   T   T   T
  0.7499698586115696  0.3066561975155487  0.2671270390508099   T   T   T
  0.7499588027970696  0.8063447744579748  0.2671188823157057   T   T   T
  0.0011865485530321  0.0572774764490105  0.2942586496938533   T   T   T
  0.0016424162674389  0.5578521757693787  0.2943511578731003   T   T   T
  0.4987455327964880  0.0572849681331666  0.2942646867285386   T   T   T
  0.4982455427329727  0.5578626762056518  0.2943530197174598   T   T   T
 -0.0017257367947939  0.3111418066595483  0.3552120036969477   T   T   T
  0.0068290071744044  0.8086099750623549  0.3552304585737451   T   T   T
  0.5015015913182416  0.3111506088836750  0.3552094711254861   T   T   T
  0.4929012639059331  0.8086056168782858  0.3552278634084919   T   T   T
  0.2498491658619003  0.0620390084605635  0.3830704732995407   T   T   T
  0.2498385603793243  0.5630461902039955  0.3841377507583239   T   T   T
  0.7498633506279392  0.0597500906372207  0.3808398378976861   T   T   T
  0.7498623925019693  0.5640642044433370  0.3813089727567761   T   T   T
  0.2498247137577597  0.8056110525412977  0.4498425362306120   T   T   T
  0.7498168291760350  0.3148211360598300  0.4437672751375106   T   T   T
  0.7498313887040761  0.8119785084372443  0.4416980969750939   T   T   T
  0.0012423095545591  0.0797571338330222  0.4615799506493082   T   T   T
  0.9918413452749761  0.5640910922551736  0.4716590279622302   T   T   T
  0.4984426626670707  0.0797459814806740  0.4615806645876547   T   T   T
  0.5077487441293691  0.5641083583976512  0.4716551198067484   T   T   T
 
  0.00000000E+00  0.00000000E+00  0.00000000E+00
  0.00000000E+00  0.00000000E+00  0.00000000E+00
  0.00000000E+00  0.00000000E+00  0.00000000E+00
  0.00000000E+00  0.00000000E+00  0.00000000E+00
  0.00000000E+00  0.00000000E+00  0.00000000E+00
  0.00000000E+00  0.00000000E+00  0.00000000E+00
  0.00000000E+00  0.00000000E+00  0.00000000E+00
  0.00000000E+00  0.00000000E+00  0.00000000E+00
  0.00000000E+00  0.00000000E+00  0.00000000E+00
  0.00000000E+00  0.00000000E+00  0.00000000E+00
  0.00000000E+00  0.00000000E+00  0.00000000E+00
  0.00000000E+00  0.00000000E+00  0.00000000E+00
  0.00000000E+00  0.00000000E+00  0.00000000E+00
  0.00000000E+00  0.00000000E+00  0.00000000E+00
  0.00000000E+00  0.00000000E+00  0.00000000E+00
  0.00000000E+00  0.00000000E+00  0.00000000E+00
  0.00000000E+00  0.00000000E+00  0.00000000E+00
  0.00000000E+00  0.00000000E+00  0.00000000E+00
  0.00000000E+00  0.00000000E+00  0.00000000E+00
  0.00000000E+00  0.00000000E+00  0.00000000E+00
  0.00000000E+00  0.00000000E+00  0.00000000E+00
  0.00000000E+00  0.00000000E+00  0.00000000E+00
  0.00000000E+00  0.00000000E+00  0.00000000E+00
  0.00000000E+00  0.00000000E+00  0.00000000E+00
  0.00000000E+00  0.00000000E+00  0.00000000E+00
  0.00000000E+00  0.00000000E+00  0.00000000E+00
  0.00000000E+00  0.00000000E+00  0.00000000E+00
  0.00000000E+00  0.00000000E+00  0.00000000E+00
  0.00000000E+00  0.00000000E+00  0.00000000E+00
  0.00000000E+00  0.00000000E+00  0.00000000E+00
  0.00000000E+00  0.00000000E+00  0.00000000E+00
  0.00000000E+00  0.00000000E+00  0.00000000E+00
  0.00000000E+00  0.00000000E+00  0.00000000E+00
  0.00000000E+00  0.00000000E+00  0.00000000E+00
  0.00000000E+00  0.00000000E+00  0.00000000E+00
  0.00000000E+00  0.00000000E+00  0.00000000E+00
  0.00000000E+00  0.00000000E+00  0.00000000E+00
  0.00000000E+00  0.00000000E+00  0.00000000E+00
  0.00000000E+00  0.00000000E+00  0.00000000E+00
  0.00000000E+00  0.00000000E+00  0.00000000E+00
  0.00000000E+00  0.00000000E+00  0.00000000E+00
  0.00000000E+00  0.00000000E+00  0.00000000E+00
  0.00000000E+00  0.00000000E+00  0.00000000E+00
  0.00000000E+00  0.00000000E+00  0.00000000E+00
  0.00000000E+00  0.00000000E+00  0.00000000E+00
  0.00000000E+00  0.00000000E+00  0.00000000E+00
  0.00000000E+00  0.00000000E+00  0.00000000E+00
  0.00000000E+00  0.00000000E+00  0.00000000E+00
  0.00000000E+00  0.00000000E+00  0.00000000E+00
  0.00000000E+00  0.00000000E+00  0.00000000E+00
  0.00000000E+00  0.00000000E+00  0.00000000E+00
  0.00000000E+00  0.00000000E+00  0.00000000E+00
  0.00000000E+00  0.00000000E+00  0.00000000E+00
  0.00000000E+00  0.00000000E+00  0.00000000E+00
  0.00000000E+00  0.00000000E+00  0.00000000E+00
  0.00000000E+00  0.00000000E+00  0.00000000E+00
  0.00000000E+00  0.00000000E+00  0.00000000E+00
  0.00000000E+00  0.00000000E+00  0.00000000E+00
  0.00000000E+00  0.00000000E+00  0.00000000E+00
  0.00000000E+00  0.00000000E+00  0.00000000E+00
  0.00000000E+00  0.00000000E+00  0.00000000E+00
  0.00000000E+00  0.00000000E+00  0.00000000E+00
  0.00000000E+00  0.00000000E+00  0.00000000E+00
  0.00000000E+00  0.00000000E+00  0.00000000E+00
  0.00000000E+00  0.00000000E+00  0.00000000E+00
  0.00000000E+00  0.00000000E+00  0.00000000E+00
  0.00000000E+00  0.00000000E+00  0.00000000E+00
  0.00000000E+00  0.00000000E+00  0.00000000E+00
  0.00000000E+00  0.00000000E+00  0.00000000E+00
  0.00000000E+00  0.00000000E+00  0.00000000E+00
  0.00000000E+00  0.00000000E+00  0.00000000E+00
  0.00000000E+00  0.00000000E+00  0.00000000E+00
  0.00000000E+00  0.00000000E+00  0.00000000E+00
  0.00000000E+00  0.00000000E+00  0.00000000E+00
  0.00000000E+00  0.00000000E+00  0.00000000E+00
  0.00000000E+00  0.00000000E+00  0.00000000E+00
  0.00000000E+00  0.00000000E+00  0.00000000E+00
  0.00000000E+00  0.00000000E+00  0.00000000E+00
  0.00000000E+00  0.00000000E+00  0.00000000E+00
  0.00000000E+00  0.00000000E+00  0.00000000E+00
  0.00000000E+00  0.00000000E+00  0.00000000E+00
