Al Fe O Zn                              
   1.00000000000000     
     6.5625568183449996    0.0000000000000000    0.0000000000000000
     0.0000000000000000   10.5156600000000005    0.0000000000000000
     0.0000000000000000    0.0000000000000000   32.0500282661819966
   Al   Fe   O    Zn
     1     1    40    39
Selective dynamics
Direct
  0.2499393373179070  0.3169221551207174  0.4440428797873280   T   T   T
  0.7498993299977911  0.7217157143429772  0.5115735952318017   T   T   T
  0.2502121864630701  0.9992430129638430  0.0881225625451296   T   T   T
  0.2501736971294368  0.4992268409615016  0.0880789058879353   T   T   T
  0.7502728742548010  0.9994896226317149  0.0877758436008209   T   T   T
  0.7501613265298952  0.4991863487958397  0.0877742198921702   T   T   T
 -0.0000468999752689  0.2456814764458868  0.1188377527076024   T   T   T
  0.9997165163461903  0.7457916108021406  0.1186703575000153   T   T   T
  0.5004450632608853  0.2456561679669936  0.1188324156810791   T   T   T
  0.5006650590054784  0.7458165228749670  0.1186667726072090   T   T   T
  0.9991047867491588  0.4956052004333135  0.1761433132317756   T   T   T
  0.9992643207781859  0.9956753673736567  0.1762860628719822   T   T   T
  0.5011759096912197  0.4955890153181958  0.1761410110065318   T   T   T
  0.5010920969716155  0.9956838319836866  0.1762777498502769   T   T   T
  0.2501367023188765  0.2444026262904604  0.2074362079623270   T   T   T
  0.2501650406706866  0.7444011584628500  0.2070579598257880   T   T   T
  0.7501233369867968  0.2444064253802869  0.2082307212180181   T   T   T
  0.7501476436653818  0.7445882899531319  0.2080673498505245   T   T   T
  0.2499834091390076  0.4957350965840057  0.2648199333788949   T   T   T
  0.2499912100658206  0.9959448703081676  0.2652060602875760   T   T   T
  0.7499823728550036  0.4956916694666382  0.2659118731971263   T   T   T
  0.7499917853021042  0.9960113024181538  0.2661452599290519   T   T   T
  0.0023167405632051  0.2462089777436779  0.2968899057823159   T   T   T
  0.0024312860544970  0.7467688023607533  0.2963695653987050   T   T   T
  0.4976518643451151  0.2462084290406484  0.2968909031223775   T   T   T
  0.4975640825983553  0.7467633081771902  0.2963653792247760   T   T   T
  0.0053735087388264  0.4989415028200043  0.3541862374472208   T   T   T
  0.0045103781717949  0.9991578940405113  0.3550241518233224   T   T   T
  0.4943010211574388  0.4989519582801707  0.3541915155522024   T   T   T
  0.4951383656779997  0.9991509949193383  0.3550186975635828   T   T   T
  0.2498283034035135  0.2580292572475465  0.3902022531153951   T   T   T
  0.2498589791987610  0.7494363283398746  0.3889571697996610   T   T   T
  0.7498449698128775  0.2485235858671122  0.3839907698249938   T   T   T
  0.7498534869146395  0.7499415822066675  0.3821238225070479   T   T   T
  0.2497704143144425  0.4901428484939503  0.4463264615731043   T   T   T
  0.2498105890319393  0.9972943813075014  0.4455811306981917   T   T   T
  0.7497821329956252  0.4980362489325186  0.4392090427549464   T   T   T
  0.7498098617395870  0.0055873999143868  0.4439610302773861   T   T   T
  0.0201152863673920  0.2618988832474802  0.4675389155923083   T   T   T
  0.9862922967854247  0.7525309926176633  0.4763197632712734   T   T   T
  0.4793470076396817  0.2619284254909308  0.4675281178089921   T   T   T
  0.5132981811694725  0.7524614035351287  0.4763218181868616   T   T   T
  0.2502002179310151  0.3248373331112528  0.0992856546832640   T   T   T
  0.2501575927276699  0.8247969380889568  0.0992038501976802   T   T   T
  0.7501919450306609  0.3249009560905690  0.0990768381738398   T   T   T
  0.7502039536320970  0.8250555286671695  0.0988160269863831   T   T   T
 -0.0001101337686781  0.0562716890625574  0.1139048709723906   T   T   T
 -0.0002443191709255  0.5563322874813389  0.1137893411129434   T   T   T
  0.5005937615036633  0.0562461821058060  0.1138775266375744   T   T   T
  0.5005754772110328  0.5563547902595423  0.1137861280295323   T   T   T
  0.9991937047849900  0.3065563170492592  0.1794240842115246   T   T   T
  0.9989654556829048  0.8066122674455423  0.1792447474686971   T   T   T
  0.5010898905354926  0.3065405570132285  0.1794169572881310   T   T   T
  0.5013286488470853  0.8066318170938048  0.1792435443094922   T   T   T
  0.2501993044156774  0.0534704797820342  0.2048685147271255   T   T   T
  0.2501580573434585  0.5534461522993032  0.2046406658796296   T   T   T
  0.7501730268594468  0.0532697636990866  0.2056415303784370   T   T   T
  0.7501391876707685  0.5534715891607389  0.2054948788129375   T   T   T
  0.2499840488371197  0.3058544779427821  0.2660430137325326   T   T   T
  0.2499941563094066  0.8058066714237210  0.2655882839616378   T   T   T
  0.7499777334490996  0.3053065488171587  0.2670789904356521   T   T   T
  0.7499961000358142  0.8055461536090742  0.2669737818419893   T   T   T
  0.0016221106412096  0.0558110044917629  0.2942679135019983   T   T   T
  0.0019499238522778  0.5563468623444527  0.2939195568019887   T   T   T
  0.4983585660406137  0.0558153447389483  0.2942650028690686   T   T   T
  0.4980150848696904  0.5563427623334728  0.2939236387817082   T   T   T
  0.0001763613961325  0.3093070497536762  0.3548573108226324   T   T   T
  0.0085326316826317  0.8077078066057672  0.3547169569944217   T   T   T
  0.4995104666293840  0.3093227438205135  0.3548600776375146   T   T   T
  0.4911667744558451  0.8076950223498423  0.3547109787519688   T   T   T
  0.2498307221545583  0.0613908998887822  0.3837749593043061   T   T   T
  0.2498309605681724  0.5611688688734510  0.3839666086970435   T   T   T
  0.7498040827841129  0.0607058510435133  0.3805197812789053   T   T   T
  0.7498655310543167  0.5592900176619640  0.3804161444354840   T   T   T
  0.2497867547073310  0.8070222528476471  0.4494801681365937   T   T   T
  0.7497778977554291  0.3115643381678315  0.4434099244883323   T   T   T
  0.7497407999000945  0.8174838748892664  0.4381698271567637   T   T   T
  0.0013582222546137  0.0807459660737861  0.4633208846430237   T   T   T
  0.9869549132340941  0.5587779466587955  0.4719885070242716   T   T   T
  0.4982347415813098  0.0807566148012407  0.4633215103249622   T   T   T
  0.5125649023037467  0.5587948694991681  0.4719472275530052   T   T   T
 
  0.00000000E+00  0.00000000E+00  0.00000000E+00
  0.00000000E+00  0.00000000E+00  0.00000000E+00
  0.00000000E+00  0.00000000E+00  0.00000000E+00
  0.00000000E+00  0.00000000E+00  0.00000000E+00
  0.00000000E+00  0.00000000E+00  0.00000000E+00
  0.00000000E+00  0.00000000E+00  0.00000000E+00
  0.00000000E+00  0.00000000E+00  0.00000000E+00
  0.00000000E+00  0.00000000E+00  0.00000000E+00
  0.00000000E+00  0.00000000E+00  0.00000000E+00
  0.00000000E+00  0.00000000E+00  0.00000000E+00
  0.00000000E+00  0.00000000E+00  0.00000000E+00
  0.00000000E+00  0.00000000E+00  0.00000000E+00
  0.00000000E+00  0.00000000E+00  0.00000000E+00
  0.00000000E+00  0.00000000E+00  0.00000000E+00
  0.00000000E+00  0.00000000E+00  0.00000000E+00
  0.00000000E+00  0.00000000E+00  0.00000000E+00
  0.00000000E+00  0.00000000E+00  0.00000000E+00
  0.00000000E+00  0.00000000E+00  0.00000000E+00
  0.00000000E+00  0.00000000E+00  0.00000000E+00
  0.00000000E+00  0.00000000E+00  0.00000000E+00
  0.00000000E+00  0.00000000E+00  0.00000000E+00
  0.00000000E+00  0.00000000E+00  0.00000000E+00
  0.00000000E+00  0.00000000E+00  0.00000000E+00
  0.00000000E+00  0.00000000E+00  0.00000000E+00
  0.00000000E+00  0.00000000E+00  0.00000000E+00
  0.00000000E+00  0.00000000E+00  0.00000000E+00
  0.00000000E+00  0.00000000E+00  0.00000000E+00
  0.00000000E+00  0.00000000E+00  0.00000000E+00
  0.00000000E+00  0.00000000E+00  0.00000000E+00
  0.00000000E+00  0.00000000E+00  0.00000000E+00
  0.00000000E+00  0.00000000E+00  0.00000000E+00
  0.00000000E+00  0.00000000E+00  0.00000000E+00
  0.00000000E+00  0.00000000E+00  0.00000000E+00
  0.00000000E+00  0.00000000E+00  0.00000000E+00
  0.00000000E+00  0.00000000E+00  0.00000000E+00
  0.00000000E+00  0.00000000E+00  0.00000000E+00
  0.00000000E+00  0.00000000E+00  0.00000000E+00
  0.00000000E+00  0.00000000E+00  0.00000000E+00
  0.00000000E+00  0.00000000E+00  0.00000000E+00
  0.00000000E+00  0.00000000E+00  0.00000000E+00
  0.00000000E+00  0.00000000E+00  0.00000000E+00
  0.00000000E+00  0.00000000E+00  0.00000000E+00
  0.00000000E+00  0.00000000E+00  0.00000000E+00
  0.00000000E+00  0.00000000E+00  0.00000000E+00
  0.00000000E+00  0.00000000E+00  0.00000000E+00
  0.00000000E+00  0.00000000E+00  0.00000000E+00
  0.00000000E+00  0.00000000E+00  0.00000000E+00
  0.00000000E+00  0.00000000E+00  0.00000000E+00
  0.00000000E+00  0.00000000E+00  0.00000000E+00
  0.00000000E+00  0.00000000E+00  0.00000000E+00
  0.00000000E+00  0.00000000E+00  0.00000000E+00
  0.00000000E+00  0.00000000E+00  0.00000000E+00
  0.00000000E+00  0.00000000E+00  0.00000000E+00
  0.00000000E+00  0.00000000E+00  0.00000000E+00
  0.00000000E+00  0.00000000E+00  0.00000000E+00
  0.00000000E+00  0.00000000E+00  0.00000000E+00
  0.00000000E+00  0.00000000E+00  0.00000000E+00
  0.00000000E+00  0.00000000E+00  0.00000000E+00
  0.00000000E+00  0.00000000E+00  0.00000000E+00
  0.00000000E+00  0.00000000E+00  0.00000000E+00
  0.00000000E+00  0.00000000E+00  0.00000000E+00
  0.00000000E+00  0.00000000E+00  0.00000000E+00
  0.00000000E+00  0.00000000E+00  0.00000000E+00
  0.00000000E+00  0.00000000E+00  0.00000000E+00
  0.00000000E+00  0.00000000E+00  0.00000000E+00
  0.00000000E+00  0.00000000E+00  0.00000000E+00
  0.00000000E+00  0.00000000E+00  0.00000000E+00
  0.00000000E+00  0.00000000E+00  0.00000000E+00
  0.00000000E+00  0.00000000E+00  0.00000000E+00
  0.00000000E+00  0.00000000E+00  0.00000000E+00
  0.00000000E+00  0.00000000E+00  0.00000000E+00
  0.00000000E+00  0.00000000E+00  0.00000000E+00
  0.00000000E+00  0.00000000E+00  0.00000000E+00
  0.00000000E+00  0.00000000E+00  0.00000000E+00
  0.00000000E+00  0.00000000E+00  0.00000000E+00
  0.00000000E+00  0.00000000E+00  0.00000000E+00
  0.00000000E+00  0.00000000E+00  0.00000000E+00
  0.00000000E+00  0.00000000E+00  0.00000000E+00
  0.00000000E+00  0.00000000E+00  0.00000000E+00
  0.00000000E+00  0.00000000E+00  0.00000000E+00
  0.00000000E+00  0.00000000E+00  0.00000000E+00
