Al Ni O Zn                              
   1.00000000000000     
     6.5625568183449996    0.0000000000000000    0.0000000000000000
     0.0000000000000000   10.5156600000000005    0.0000000000000000
     0.0000000000000000    0.0000000000000000   32.0500282661819966
   Al   Ni   O    Zn
     1     1    40    39
Selective dynamics
Direct
  0.2498411015006552  0.3121975739455890  0.4411810839736360   T   T   T
  0.2497927583127737  0.6987884636519207  0.5121074005868786   T   T   T
  0.2501599570598319  0.9991173935731652  0.0879560855102220   T   T   T
  0.2501788543604399  0.4987782152566006  0.0880110330890012   T   T   T
  0.7501710822390578  0.9986704863154132  0.0882050321684968   T   T   T
  0.7501853939699707  0.4989463890538096  0.0883248007270600   T   T   T
  0.0002775723222855  0.2453745354312592  0.1188527406083561   T   T   T
  0.0006292571512204  0.7453660394808526  0.1187106408917232   T   T   T
  0.5000820813371174  0.2453684016867646  0.1188595114355798   T   T   T
  0.4996954124642093  0.7453697443722536  0.1187095697851121   T   T   T
  0.0008417397875816  0.4955707779116427  0.1763552348172026   T   T   T
  0.0005436167823622  0.9955978950350342  0.1762306751207001   T   T   T
  0.4993754640697111  0.4955820675350245  0.1763576166951518   T   T   T
  0.4997469837769075  0.9955918626995575  0.1762336369919338   T   T   T
  0.2501281590098281  0.2446653364601102  0.2078540395658854   T   T   T
  0.2501163922516275  0.7447313411401809  0.2079069301186068   T   T   T
  0.7501257006419855  0.2445848564986387  0.2077442417667428   T   T   T
  0.7501214589312557  0.7445636603280043  0.2071910847275546   T   T   T
  0.2499896695980909  0.4970514959999782  0.2660430165174883   T   T   T
  0.2499899038237166  0.9958746534007253  0.2655037535408598   T   T   T
  0.7499759341965261  0.4955049136545002  0.2651238402073823   T   T   T
  0.7499876163996235  0.9966532931206635  0.2651708473487633   T   T   T
  0.0008759414038531  0.2466437281620432  0.2967984335780403   T   T   T
  0.9978178795870790  0.7472426915477417  0.2962907990276309   T   T   T
  0.4991173688895025  0.2466502307630471  0.2967989384377458   T   T   T
  0.5021673191416768  0.7472455478151605  0.2962934087844515   T   T   T
  0.9929791851426978  0.4992028851985837  0.3546429869808757   T   T   T
  0.9988048703761714  0.9989536573891730  0.3542650338095689   T   T   T
  0.5067735646587148  0.4992101661156851  0.3546441911256154   T   T   T
  0.5009299039618276  0.9989606063084379  0.3542630693098319   T   T   T
  0.2498819235436258  0.2541296309042868  0.3873549968109230   T   T   T
  0.2498618387189909  0.7477502757841381  0.3825242380749755   T   T   T
  0.7498733663988236  0.2482553907470165  0.3858405987810812   T   T   T
  0.7498736284964070  0.7536672317533055  0.3882400842749349   T   T   T
  0.2498048797286177  0.4819160928620597  0.4385742904622422   T   T   T
  0.2498062604910145  0.0037701184143219  0.4418110944814611   T   T   T
  0.7498160354812632  0.5083575432504586  0.4478519134323001   T   T   T
  0.7498027020240704  0.9992717698939018  0.4455582225965633   T   T   T
  0.0210840411622320  0.2602355053238253  0.4658827589805836   T   T   T
  0.0148925072750124  0.7552873645564806  0.4747049330121205   T   T   T
  0.4786080428316842  0.2602523326254743  0.4658879181444927   T   T   T
  0.4846668714691081  0.7553070648122000  0.4746956887137060   T   T   T
  0.2501876657003669  0.3243776368355839  0.0990906317283113   T   T   T
  0.2501532581288197  0.8246416749380415  0.0989227756520334   T   T   T
  0.7501612109512786  0.3244571762466855  0.0992543273508908   T   T   T
  0.7501677519783195  0.8241445364616982  0.0992119150903504   T   T   T
  0.0002913872302420  0.0558827594684666  0.1139763488084935   T   T   T
  0.0006324086517534  0.5558324666053398  0.1140912948869143   T   T   T
  0.5000336032074364  0.0558702708705445  0.1139762384256119   T   T   T
  0.4997397851442972  0.5558330760745707  0.1140900721344820   T   T   T
  0.0002745078542008  0.3066120912341256  0.1794269835351598   T   T   T
  0.0010281357886252  0.8065041681540290  0.1792990172793019   T   T   T
  0.4999863312592913  0.3066291096773151  0.1794309455738247   T   T   T
  0.4992168333050192  0.8064891575992683  0.1792979994325326   T   T   T
  0.2501527055586238  0.0535761975006144  0.2052959807009752   T   T   T
  0.2501034231671904  0.5537602542123236  0.2056480428748713   T   T   T
  0.7501585960668399  0.0536893009038227  0.2049344660309955   T   T   T
  0.7501231579133553  0.5534774862863894  0.2050826269670526   T   T   T
  0.2499949513010574  0.3070184482196285  0.2665803307856680   T   T   T
  0.2499934286239979  0.8052524526101683  0.2670042363310680   T   T   T
  0.7500032304125039  0.3055658260259924  0.2666145555622502   T   T   T
  0.7499844530445543  0.8061923106811451  0.2658942141858303   T   T   T
  0.9995862721295864  0.0561846888670417  0.2939036205562073   T   T   T
  0.9975133083279722  0.5567965214344809  0.2945416511571516   T   T   T
  0.5003913896824260  0.0561871444032148  0.2939021395996267   T   T   T
  0.5024452171271849  0.5568042947400987  0.2945419928193301   T   T   T
  0.9945451353029701  0.3097193853715915  0.3549392582697906   T   T   T
  0.9935162321295916  0.8069712911481689  0.3551324463599573   T   T   T
  0.5052244613335486  0.3097274250488224  0.3549389379584408   T   T   T
  0.5062232495882285  0.8069761357142942  0.3551375156705822   T   T   T
  0.2498663901109233  0.0616675312779627  0.3802648422804714   T   T   T
  0.2498800057859722  0.5589551374217556  0.3806088445331214   T   T   T
  0.7498737459738264  0.0581710168488164  0.3826737312532085   T   T   T
  0.7498777889261272  0.5639651389072494  0.3857677649931783   T   T   T
  0.2497380117482393  0.8145360672769958  0.4396939474397604   T   T   T
  0.7498442876148469  0.3194699372213146  0.4449434598064221   T   T   T
  0.7497978558417302  0.8049549923593099  0.4504647736171071   T   T   T
  0.9998690436733008  0.0797944242702680  0.4614799372077649   T   T   T
  0.0149776987041277  0.5622332511625461  0.4728435625309448   T   T   T
  0.4997548777464159  0.0797892593783326  0.4614832215515893   T   T   T
  0.4846418873170788  0.5622415751169446  0.4728367852113129   T   T   T
 
  0.00000000E+00  0.00000000E+00  0.00000000E+00
  0.00000000E+00  0.00000000E+00  0.00000000E+00
  0.00000000E+00  0.00000000E+00  0.00000000E+00
  0.00000000E+00  0.00000000E+00  0.00000000E+00
  0.00000000E+00  0.00000000E+00  0.00000000E+00
  0.00000000E+00  0.00000000E+00  0.00000000E+00
  0.00000000E+00  0.00000000E+00  0.00000000E+00
  0.00000000E+00  0.00000000E+00  0.00000000E+00
  0.00000000E+00  0.00000000E+00  0.00000000E+00
  0.00000000E+00  0.00000000E+00  0.00000000E+00
  0.00000000E+00  0.00000000E+00  0.00000000E+00
  0.00000000E+00  0.00000000E+00  0.00000000E+00
  0.00000000E+00  0.00000000E+00  0.00000000E+00
  0.00000000E+00  0.00000000E+00  0.00000000E+00
  0.00000000E+00  0.00000000E+00  0.00000000E+00
  0.00000000E+00  0.00000000E+00  0.00000000E+00
  0.00000000E+00  0.00000000E+00  0.00000000E+00
  0.00000000E+00  0.00000000E+00  0.00000000E+00
  0.00000000E+00  0.00000000E+00  0.00000000E+00
  0.00000000E+00  0.00000000E+00  0.00000000E+00
  0.00000000E+00  0.00000000E+00  0.00000000E+00
  0.00000000E+00  0.00000000E+00  0.00000000E+00
  0.00000000E+00  0.00000000E+00  0.00000000E+00
  0.00000000E+00  0.00000000E+00  0.00000000E+00
  0.00000000E+00  0.00000000E+00  0.00000000E+00
  0.00000000E+00  0.00000000E+00  0.00000000E+00
  0.00000000E+00  0.00000000E+00  0.00000000E+00
  0.00000000E+00  0.00000000E+00  0.00000000E+00
  0.00000000E+00  0.00000000E+00  0.00000000E+00
  0.00000000E+00  0.00000000E+00  0.00000000E+00
  0.00000000E+00  0.00000000E+00  0.00000000E+00
  0.00000000E+00  0.00000000E+00  0.00000000E+00
  0.00000000E+00  0.00000000E+00  0.00000000E+00
  0.00000000E+00  0.00000000E+00  0.00000000E+00
  0.00000000E+00  0.00000000E+00  0.00000000E+00
  0.00000000E+00  0.00000000E+00  0.00000000E+00
  0.00000000E+00  0.00000000E+00  0.00000000E+00
  0.00000000E+00  0.00000000E+00  0.00000000E+00
  0.00000000E+00  0.00000000E+00  0.00000000E+00
  0.00000000E+00  0.00000000E+00  0.00000000E+00
  0.00000000E+00  0.00000000E+00  0.00000000E+00
  0.00000000E+00  0.00000000E+00  0.00000000E+00
  0.00000000E+00  0.00000000E+00  0.00000000E+00
  0.00000000E+00  0.00000000E+00  0.00000000E+00
  0.00000000E+00  0.00000000E+00  0.00000000E+00
  0.00000000E+00  0.00000000E+00  0.00000000E+00
  0.00000000E+00  0.00000000E+00  0.00000000E+00
  0.00000000E+00  0.00000000E+00  0.00000000E+00
  0.00000000E+00  0.00000000E+00  0.00000000E+00
  0.00000000E+00  0.00000000E+00  0.00000000E+00
  0.00000000E+00  0.00000000E+00  0.00000000E+00
  0.00000000E+00  0.00000000E+00  0.00000000E+00
  0.00000000E+00  0.00000000E+00  0.00000000E+00
  0.00000000E+00  0.00000000E+00  0.00000000E+00
  0.00000000E+00  0.00000000E+00  0.00000000E+00
  0.00000000E+00  0.00000000E+00  0.00000000E+00
  0.00000000E+00  0.00000000E+00  0.00000000E+00
  0.00000000E+00  0.00000000E+00  0.00000000E+00
  0.00000000E+00  0.00000000E+00  0.00000000E+00
  0.00000000E+00  0.00000000E+00  0.00000000E+00
  0.00000000E+00  0.00000000E+00  0.00000000E+00
  0.00000000E+00  0.00000000E+00  0.00000000E+00
  0.00000000E+00  0.00000000E+00  0.00000000E+00
  0.00000000E+00  0.00000000E+00  0.00000000E+00
  0.00000000E+00  0.00000000E+00  0.00000000E+00
  0.00000000E+00  0.00000000E+00  0.00000000E+00
  0.00000000E+00  0.00000000E+00  0.00000000E+00
  0.00000000E+00  0.00000000E+00  0.00000000E+00
  0.00000000E+00  0.00000000E+00  0.00000000E+00
  0.00000000E+00  0.00000000E+00  0.00000000E+00
  0.00000000E+00  0.00000000E+00  0.00000000E+00
  0.00000000E+00  0.00000000E+00  0.00000000E+00
  0.00000000E+00  0.00000000E+00  0.00000000E+00
  0.00000000E+00  0.00000000E+00  0.00000000E+00
  0.00000000E+00  0.00000000E+00  0.00000000E+00
  0.00000000E+00  0.00000000E+00  0.00000000E+00
  0.00000000E+00  0.00000000E+00  0.00000000E+00
  0.00000000E+00  0.00000000E+00  0.00000000E+00
  0.00000000E+00  0.00000000E+00  0.00000000E+00
  0.00000000E+00  0.00000000E+00  0.00000000E+00
  0.00000000E+00  0.00000000E+00  0.00000000E+00
