Al Co O Zn                              
   1.00000000000000     
     6.5625568183449996    0.0000000000000000    0.0000000000000000
     0.0000000000000000   10.5156600000000005    0.0000000000000000
     0.0000000000000000    0.0000000000000000   32.0500282661819966
   Al   Co   O    Zn
     1     1    40    39
Selective dynamics
Direct
  0.2494936045635250  0.3146939871748051  0.4437823312070698   T   T   T
  0.7451731714788018  0.7381644310193909  0.4981119543294857   T   T   T
  0.2502046887279528  0.9990617121031455  0.0882765189559267   T   T   T
  0.2501650918203954  0.4989388472313479  0.0882506302704835   T   T   T
  0.7502353818240399  0.9993508607093132  0.0878346159839202   T   T   T
  0.7502189098764058  0.4990369869003682  0.0877731258130776   T   T   T
 -0.0002870160101587  0.2455093754870651  0.1188553668376850   T   T   T
  0.9996004759927410  0.7455158241523556  0.1187143953239202   T   T   T
  0.5005896899699656  0.2455079619701327  0.1188455014169492   T   T   T
  0.5007719999761080  0.7455123084868654  0.1187017070741609   T   T   T
  0.9990689505000347  0.4955233556801430  0.1762407592640506   T   T   T
  0.9992015804961769  0.9955480076216809  0.1762735799724236   T   T   T
  0.5011606606496604  0.4955099503998914  0.1762154165819282   T   T   T
  0.5011322371440430  0.9955789659823665  0.1762615588504445   T   T   T
  0.2501335288012500  0.2444890527344747  0.2073597041824995   T   T   T
  0.2502703417017587  0.7442843119254333  0.2069102818096965   T   T   T
  0.7501015155353861  0.2445047889684877  0.2082293227630042   T   T   T
  0.7501669211498246  0.7446475301537380  0.2082862602920343   T   T   T
  0.2499589019269594  0.4959374784770239  0.2648117663355810   T   T   T
  0.2500558109233618  0.9962487217366603  0.2649672506423248   T   T   T
  0.7498187736168110  0.4958643519468192  0.2658261480061453   T   T   T
  0.7500074375744700  0.9961325500813439  0.2660167705354038   T   T   T
  0.0024167852398169  0.2464910039664844  0.2967709849202880   T   T   T
  0.0039608616966568  0.7470527491502789  0.2963698590970871   T   T   T
  0.4974198564726997  0.2465430230471031  0.2967992038864892   T   T   T
  0.4965648788987012  0.7471009148805087  0.2965248808715280   T   T   T
  0.0046686483761169  0.4989370790233892  0.3540142036524826   T   T   T
  0.0054787711494539  0.9992004281354675  0.3546766198789121   T   T   T
  0.4944860112435145  0.4990097714689424  0.3540628410262337   T   T   T
  0.4946673874748239  0.9991949341318129  0.3546605107612198   T   T   T
  0.2495986277943739  0.2557754886985112  0.3900923547536580   T   T   T
  0.2507339388967066  0.7500697142702171  0.3917569355016937   T   T   T
  0.7496729891842344  0.2512327394718916  0.3835525427870771   T   T   T
  0.7513695439180029  0.7488877999536999  0.3803364790445372   T   T   T
  0.2488800405141852  0.4875202767314341  0.4448363588123993   T   T   T
  0.2508409135931677  0.9926979502805603  0.4462982083443345   T   T   T
  0.7491813801258311  0.4949309420203329  0.4399224385700614   T   T   T
  0.7510547202696760  0.0142676551914186  0.4422077713869099   T   T   T
  0.0204411361139955  0.2616088989666219  0.4677661585185700   T   T   T
  0.0173839219622425  0.7382218085831493  0.4885282817126015   T   T   T
  0.4787281186277711  0.2618594173629840  0.4677162595774103   T   T   T
  0.4726035391124286  0.7337742614980652  0.4909837940706027   T   T   T
  0.2501450268624826  0.3244612818476050  0.0993000885942941   T   T   T
  0.2501648358543139  0.8244303057425512  0.0991748291171849   T   T   T
  0.7501532838912874  0.3246639199977181  0.0989216578397147   T   T   T
  0.7501901704603462  0.8247931153438456  0.0987488205478552   T   T   T
 -0.0002032225042063  0.0561556764134243  0.1139122474961312   T   T   T
  0.9996590092158247  0.5560480048790867  0.1138912284447789   T   T   T
  0.5006527322965082  0.0561532926404578  0.1138940419006962   T   T   T
  0.5007255321351642  0.5560463727629251  0.1138642705382817   T   T   T
  0.9990615387183217  0.3064962032749993  0.1793184517098730   T   T   T
  0.9986486250440372  0.8064802831853700  0.1792032644557163   T   T   T
  0.5011865715028786  0.3064930667838004  0.1793104337668298   T   T   T
  0.5017759924357994  0.8065162805376395  0.1791839698791309   T   T   T
  0.2501775973723360  0.0536259118387801  0.2046820208866914   T   T   T
  0.2501707741180442  0.5534455092183916  0.2045926484034567   T   T   T
  0.7501698617838161  0.0534454745400941  0.2054938068070356   T   T   T
  0.7500790223067921  0.5536245939298665  0.2054087538890499   T   T   T
  0.2499512067744170  0.3061114888670438  0.2659062979394595   T   T   T
  0.2504589408721735  0.8062148823372651  0.2652819110441518   T   T   T
  0.7498995328451946  0.3055184565177611  0.2670320517196469   T   T   T
  0.7500469853012873  0.8056992826106244  0.2672254520184636   T   T   T
  0.0019027249315521  0.0562502598949438  0.2939365598918435   T   T   T
  0.0015333847462451  0.5568408932979527  0.2936177952186159   T   T   T
  0.4981414492607585  0.0563005294515617  0.2939427282252160   T   T   T
  0.4982213513143885  0.5569083487364173  0.2936680065830901   T   T   T
  0.0014294349526950  0.3092893346614491  0.3547509311267553   T   T   T
  0.0153090845557682  0.8083139401474095  0.3545955343972415   T   T   T
  0.4978180835352065  0.3093383030950836  0.3547861114451896   T   T   T
  0.4867571720964193  0.8083014665231038  0.3548520878384429   T   T   T
  0.2500957068597611  0.0590498827108582  0.3843865737739214   T   T   T
  0.2494491492230799  0.5627761782633267  0.3827266071650700   T   T   T
  0.7499617964034198  0.0644134729315851  0.3790497919919248   T   T   T
  0.7495916842510884  0.5580939980193329  0.3801409663696665   T   T   T
  0.2523542684174196  0.8045307910243303  0.4544003633849007   T   T   T
  0.7497661211316768  0.3069418483933193  0.4435888892294462   T   T   T
  0.7564399631173502  0.8290019994532334  0.4337253301262211   T   T   T
  0.0054621911437710  0.0793140998338023  0.4648596951706367   T   T   T
  0.9907383240210211  0.5665483711359868  0.4668389781580851   T   T   T
  0.4963480285247539  0.0795513959362338  0.4647107670928492   T   T   T
  0.5075164552608633  0.5656593939541075  0.4669860506111246   T   T   T
 
  0.00000000E+00  0.00000000E+00  0.00000000E+00
  0.00000000E+00  0.00000000E+00  0.00000000E+00
  0.00000000E+00  0.00000000E+00  0.00000000E+00
  0.00000000E+00  0.00000000E+00  0.00000000E+00
  0.00000000E+00  0.00000000E+00  0.00000000E+00
  0.00000000E+00  0.00000000E+00  0.00000000E+00
  0.00000000E+00  0.00000000E+00  0.00000000E+00
  0.00000000E+00  0.00000000E+00  0.00000000E+00
  0.00000000E+00  0.00000000E+00  0.00000000E+00
  0.00000000E+00  0.00000000E+00  0.00000000E+00
  0.00000000E+00  0.00000000E+00  0.00000000E+00
  0.00000000E+00  0.00000000E+00  0.00000000E+00
  0.00000000E+00  0.00000000E+00  0.00000000E+00
  0.00000000E+00  0.00000000E+00  0.00000000E+00
  0.00000000E+00  0.00000000E+00  0.00000000E+00
  0.00000000E+00  0.00000000E+00  0.00000000E+00
  0.00000000E+00  0.00000000E+00  0.00000000E+00
  0.00000000E+00  0.00000000E+00  0.00000000E+00
  0.00000000E+00  0.00000000E+00  0.00000000E+00
  0.00000000E+00  0.00000000E+00  0.00000000E+00
  0.00000000E+00  0.00000000E+00  0.00000000E+00
  0.00000000E+00  0.00000000E+00  0.00000000E+00
  0.00000000E+00  0.00000000E+00  0.00000000E+00
  0.00000000E+00  0.00000000E+00  0.00000000E+00
  0.00000000E+00  0.00000000E+00  0.00000000E+00
  0.00000000E+00  0.00000000E+00  0.00000000E+00
  0.00000000E+00  0.00000000E+00  0.00000000E+00
  0.00000000E+00  0.00000000E+00  0.00000000E+00
  0.00000000E+00  0.00000000E+00  0.00000000E+00
  0.00000000E+00  0.00000000E+00  0.00000000E+00
  0.00000000E+00  0.00000000E+00  0.00000000E+00
  0.00000000E+00  0.00000000E+00  0.00000000E+00
  0.00000000E+00  0.00000000E+00  0.00000000E+00
  0.00000000E+00  0.00000000E+00  0.00000000E+00
  0.00000000E+00  0.00000000E+00  0.00000000E+00
  0.00000000E+00  0.00000000E+00  0.00000000E+00
  0.00000000E+00  0.00000000E+00  0.00000000E+00
  0.00000000E+00  0.00000000E+00  0.00000000E+00
  0.00000000E+00  0.00000000E+00  0.00000000E+00
  0.00000000E+00  0.00000000E+00  0.00000000E+00
  0.00000000E+00  0.00000000E+00  0.00000000E+00
  0.00000000E+00  0.00000000E+00  0.00000000E+00
  0.00000000E+00  0.00000000E+00  0.00000000E+00
  0.00000000E+00  0.00000000E+00  0.00000000E+00
  0.00000000E+00  0.00000000E+00  0.00000000E+00
  0.00000000E+00  0.00000000E+00  0.00000000E+00
  0.00000000E+00  0.00000000E+00  0.00000000E+00
  0.00000000E+00  0.00000000E+00  0.00000000E+00
  0.00000000E+00  0.00000000E+00  0.00000000E+00
  0.00000000E+00  0.00000000E+00  0.00000000E+00
  0.00000000E+00  0.00000000E+00  0.00000000E+00
  0.00000000E+00  0.00000000E+00  0.00000000E+00
  0.00000000E+00  0.00000000E+00  0.00000000E+00
  0.00000000E+00  0.00000000E+00  0.00000000E+00
  0.00000000E+00  0.00000000E+00  0.00000000E+00
  0.00000000E+00  0.00000000E+00  0.00000000E+00
  0.00000000E+00  0.00000000E+00  0.00000000E+00
  0.00000000E+00  0.00000000E+00  0.00000000E+00
  0.00000000E+00  0.00000000E+00  0.00000000E+00
  0.00000000E+00  0.00000000E+00  0.00000000E+00
  0.00000000E+00  0.00000000E+00  0.00000000E+00
  0.00000000E+00  0.00000000E+00  0.00000000E+00
  0.00000000E+00  0.00000000E+00  0.00000000E+00
  0.00000000E+00  0.00000000E+00  0.00000000E+00
  0.00000000E+00  0.00000000E+00  0.00000000E+00
  0.00000000E+00  0.00000000E+00  0.00000000E+00
  0.00000000E+00  0.00000000E+00  0.00000000E+00
  0.00000000E+00  0.00000000E+00  0.00000000E+00
  0.00000000E+00  0.00000000E+00  0.00000000E+00
  0.00000000E+00  0.00000000E+00  0.00000000E+00
  0.00000000E+00  0.00000000E+00  0.00000000E+00
  0.00000000E+00  0.00000000E+00  0.00000000E+00
  0.00000000E+00  0.00000000E+00  0.00000000E+00
  0.00000000E+00  0.00000000E+00  0.00000000E+00
  0.00000000E+00  0.00000000E+00  0.00000000E+00
  0.00000000E+00  0.00000000E+00  0.00000000E+00
  0.00000000E+00  0.00000000E+00  0.00000000E+00
  0.00000000E+00  0.00000000E+00  0.00000000E+00
  0.00000000E+00  0.00000000E+00  0.00000000E+00
  0.00000000E+00  0.00000000E+00  0.00000000E+00
  0.00000000E+00  0.00000000E+00  0.00000000E+00
