H Mg O Au                               
   1.00000000000000     
    16.8282433949600012    0.0000000000000000    0.0000000000000000
     0.0000000000000000    8.4141216974800006    0.0000000000000000
     0.0000000000000000    0.0000000000000000   23.4141216974799988
   H    Mg   O    Au
     2    63    64     1
Selective dynamics
Direct
  0.1251294157855236  0.0013551561448389  0.3355379086755426   T   T   T
  0.6254904731088190  0.8846944531006122  0.2877804452331140   T   T   T
  0.1249677073575166  0.0011278938893013  0.0021500858592216   T   T   T
  0.6250418517960263  0.0012295775770851  0.0048489085631348   T   T   T
  0.1248957666759707  0.5009572644118520  0.0029349184567138   T   T   T
  0.6251322418378934  0.5000998865248850  0.0051414498839732   T   T   T
  0.3760541943260337  0.0010100046602196  0.0040692168536607   T   T   T
  0.8739302200000072  0.0009869140967391  0.0042277379219765   T   T   T
  0.3761156226446048  0.5009566844689093  0.0045336932810902   T   T   T
  0.8738888188457782  0.5009762130481406  0.0047148828659636   T   T   T
  0.9990586153761849  0.2513734746152154  0.0036070453948907   T   T   T
  0.5008006384070378  0.2510391352200625  0.0052466118380963   T   T   T
  0.9990831549199580  0.7506514064054096  0.0034750416048223   T   T   T
  0.5004948114266063  0.7506631159769150  0.0049763754470683   T   T   T
  0.2508436757345771  0.2512929545744330  0.0035521164158152   T   T   T
  0.7492991732475756  0.2511113715207393  0.0052986624543032   T   T   T
  0.2507995828985585  0.7507366293923171  0.0034115575904798   T   T   T
  0.7496103187477433  0.7505913418068482  0.0050326835835614   T   T   T
  0.9989636254758125  0.0011252514258788  0.0919350293725523   T   T   T
  0.5006229958419151  0.0001248277953066  0.0945818929673009   T   T   T
  0.9991602808266095  0.5010714404366664  0.0931899813036966   T   T   T
  0.5012422973235754  0.5017225320871229  0.0951493506438676   T   T   T
  0.2508740131349511  0.0011420538515958  0.0919097212272004   T   T   T
  0.7495433414472302  0.0000385161036314  0.0946286445104967   T   T   T
  0.2505085750261087  0.5010660560451372  0.0930313856683491   T   T   T
  0.7491891653681593  0.5017794208260452  0.0953243967650331   T   T   T
  0.1249298763047217  0.2523956937147114  0.0916230983257495   T   T   T
  0.6250843041587838  0.2509116893991333  0.0954416068147517   T   T   T
  0.1249141982335430  0.7498688382295451  0.0913667641062547   T   T   T
  0.6251114753600531  0.7497926960735433  0.0940490044921654   T   T   T
  0.3758610618993742  0.2512705697512205  0.0939249508261203   T   T   T
  0.8741278496219451  0.2515130075365561  0.0942091205974934   T   T   T
  0.3758366577863433  0.7508219017457757  0.0939764161976127   T   T   T
  0.8740779527646486  0.7505447677431536  0.0943322668850622   T   T   T
  0.1249348242684821  0.0014797109549033  0.1760918683704931   T   T   T
  0.6250335978650539  0.9937972795084627  0.1836618809861224   T   T   T
  0.1248268398467335  0.5009813408038651  0.1824895832151558   T   T   T
  0.6254937068672036  0.5079265906625385  0.1883103296462611   T   T   T
  0.3758738980555578  0.0005017843613921  0.1836563643130196   T   T   T
  0.8740702157924334  0.0004251997842243  0.1840142245123694   T   T   T
  0.3763466439482744  0.5020731178953152  0.1834655936346674   T   T   T
  0.8736921347133463  0.5019824285700119  0.1850850089646308   T   T   T
  0.9994408302397801  0.2512880625291699  0.1837441466289203   T   T   T
  0.5013251806366569  0.2517957668726537  0.1864152592189547   T   T   T
 -0.0000204164520614  0.7511470810551968  0.1833898833141846   T   T   T
  0.5035860145229868  0.7510114420352133  0.1878731787365536   T   T   T
  0.2504186705085448  0.2516515309297482  0.1838306608819029   T   T   T
  0.7488298261750005  0.2512193027600607  0.1862863875194707   T   T   T
  0.2498040463794608  0.7508658375312212  0.1834347478492249   T   T   T
  0.7463229863173134  0.7513210722460656  0.1881939122404496   T   T   T
  0.9948434013814301  0.0027929691193235  0.2728365483718007   T   T   T
  0.4956617170997262  0.9950673438630385  0.2745631272655333   T   T   T
  0.9989638572589343  0.4998210629237082  0.2733137753512309   T   T   T
  0.5103162627243236  0.5182040811138205  0.2776270690603833   T   T   T
  0.2544339540825944  0.0029132197681361  0.2727265050150668   T   T   T
  0.7551162769912125  0.9950748994791351  0.2745899812416932   T   T   T
  0.2479924977271747  0.5000200667174711  0.2740333408171706   T   T   T
  0.7442165467843036  0.5156258294299727  0.2768874348927719   T   T   T
  0.1247355084988147  0.2624189878599463  0.2726037502993858   T   T   T
  0.6253865007012178  0.2510692197103006  0.2750437909913948   T   T   T
  0.1246695487866956  0.7402055604943460  0.2726755045480354   T   T   T
  0.3771377506130891  0.2488051278147630  0.2744873434352192   T   T   T
  0.8729462433886802  0.2537100158522970  0.2740718695106255   T   T   T
  0.3725803623171061  0.7544067775045352  0.2740073654566753   T   T   T
  0.8771512437735511  0.7490044973818228  0.2738576248766144   T   T   T
  0.9997764169818725  0.0011931341726954  0.0011289252752707   T   T   T
  0.4998192034056767  0.0010919442220095  0.0025385983008857   T   T   T
  0.9998972753041593  0.5008624178370868  0.0018698732912413   T   T   T
  0.5000174109218132  0.5006554084713264  0.0026978141286013   T   T   T
  0.2502671492951435  0.0011958016133808  0.0011454156888311   T   T   T
  0.7501356590624040  0.0010877888922398  0.0025075267502034   T   T   T
  0.2501154962717855  0.5008639457266748  0.0018020355280369   T   T   T
  0.7499982907512858  0.5006593891000557  0.0027225375359331   T   T   T
  0.1250471861915289  0.2515706951056877  0.0009362235047315   T   T   T
  0.6249597293302239  0.2507892904751873  0.0025314857660427   T   T   T
  0.1250374728714026  0.7505117731380255  0.0007030830748753   T   T   T
  0.6249614427503020  0.7505378162343714  0.0024198818070305   T   T   T
  0.3751128394098421  0.2509941758743398  0.0023960507950812   T   T   T
  0.8748924770444370  0.2510509860486552  0.0024730009390681   T   T   T
  0.3748569705153139  0.7509478433914262  0.0021065696999939   T   T   T
  0.8751367062449492  0.7508930769521096  0.0021795562046345   T   T   T
  0.1250021759341423  0.0011431546127710  0.0911574006456602   T   T   T
  0.6249795162844892  0.0018551789556357  0.0935690025777809   T   T   T
  0.1250220180523825  0.5010918570320960  0.0936010540500589   T   T   T
  0.6250347633097278  0.4988180867355628  0.0945895786464632   T   T   T
  0.3741216170526498  0.0013717270284264  0.0942450652934239   T   T   T
  0.8758695466927189  0.0013331591793357  0.0943255946706366   T   T   T
  0.3745643243237803  0.5007558247757781  0.0941134126864362   T   T   T
  0.8754406421299543  0.5007666639809168  0.0944395495872327   T   T   T
  0.0006841164345611  0.2505003615626906  0.0937610137304435   T   T   T
  0.4996484746697281  0.2509715666792619  0.0949609670403379   T   T   T
  0.0009788856040727  0.7516957445261550  0.0934817377284393   T   T   T
  0.4989625640754843  0.7508729414144116  0.0940548656600542   T   T   T
  0.2493598402500276  0.2506485043017885  0.0937492732574164   T   T   T
  0.7503165926882126  0.2507732767487594  0.0949587883678694   T   T   T
  0.2490310013992241  0.7515669147221609  0.0934530384725654   T   T   T
  0.7509712867747856  0.7510233674111944  0.0941055736772633   T   T   T
  0.0037242455349041  0.0014357142791820  0.1847330898105698   T   T   T
  0.4994857360849726  0.0005468675282497  0.1845717013572393   T   T   T
  0.0014344053106753  0.5009871237714578  0.1838666128385564   T   T   T
  0.4995151767886172  0.5014686950348314  0.1857445341327622   T   T   T
  0.2463996007185886  0.0014438076688433  0.1844398051721239   T   T   T
  0.7503556319238491  0.0005801468740767  0.1846929559784661   T   T   T
  0.2487937731976100  0.5010444513731682  0.1840857353240635   T   T   T
  0.7504743528345736  0.5012683114325804  0.1853753779335067   T   T   T
  0.1248536460813506  0.2466396834661877  0.1843120414101617   T   T   T
  0.6250775781911485  0.2443970667143380  0.1851078672718570   T   T   T
  0.1248229564556445  0.7559028460463921  0.1843537061338491   T   T   T
  0.6249477217450544  0.7520896957325055  0.1799100006275670   T   T   T
  0.3739513613044866  0.2517418848503560  0.1843931781277945   T   T   T
  0.8761197266208677  0.2507121219134958  0.1842677204792488   T   T   T
  0.3722359958614956  0.7508810609247556  0.1837060412955970   T   T   T
  0.8777786903474261  0.7517459229861905  0.1837427701057594   T   T   T
  0.1250434955746468  0.0011721323553932  0.2938276097706972   T   T   T
  0.6248986260713612  0.9983479582725711  0.2778241403827040   T   T   T
  0.1243435837856060  0.5014150320974491  0.2750736717022219   T   T   T
  0.6264781994296367  0.4830912337819558  0.2763132806549879   T   T   T
  0.3720819753515620  0.0036317206567439  0.2748430226005793   T   T   T
  0.8777918549942929  0.0041750051543411  0.2754067520097274   T   T   T
  0.3714421511985296  0.4990191129390021  0.2753007041616733   T   T   T
  0.8778664797400090  0.4990546543700491  0.2762451371990354   T   T   T
  0.0030833402130779  0.2487173575884706  0.2760532455735089   T   T   T
  0.4995885609634105  0.2436229008094991  0.2765670682594076   T   T   T
  0.0029553792807200  0.7543010779697397  0.2761862701464267   T   T   T
  0.4898237244136249  0.7554218798721362  0.2761017331091866   T   T   T
  0.2465607495392052  0.2485804750339863  0.2751320366134197   T   T   T
  0.7507937168306710  0.2433199059071683  0.2770733265569957   T   T   T
  0.2466309992305791  0.7544601494390137  0.2752241527130038   T   T   T
  0.7600929167534877  0.7555532311543738  0.2766486848463168   T   T   T
  0.3705952910714280  0.4979330869200187  0.3723401609743273   T   T   T
 
  0.00000000E+00  0.00000000E+00  0.00000000E+00
  0.00000000E+00  0.00000000E+00  0.00000000E+00
  0.00000000E+00  0.00000000E+00  0.00000000E+00
  0.00000000E+00  0.00000000E+00  0.00000000E+00
  0.00000000E+00  0.00000000E+00  0.00000000E+00
  0.00000000E+00  0.00000000E+00  0.00000000E+00
  0.00000000E+00  0.00000000E+00  0.00000000E+00
  0.00000000E+00  0.00000000E+00  0.00000000E+00
  0.00000000E+00  0.00000000E+00  0.00000000E+00
  0.00000000E+00  0.00000000E+00  0.00000000E+00
  0.00000000E+00  0.00000000E+00  0.00000000E+00
  0.00000000E+00  0.00000000E+00  0.00000000E+00
  0.00000000E+00  0.00000000E+00  0.00000000E+00
  0.00000000E+00  0.00000000E+00  0.00000000E+00
  0.00000000E+00  0.00000000E+00  0.00000000E+00
  0.00000000E+00  0.00000000E+00  0.00000000E+00
  0.00000000E+00  0.00000000E+00  0.00000000E+00
  0.00000000E+00  0.00000000E+00  0.00000000E+00
  0.00000000E+00  0.00000000E+00  0.00000000E+00
  0.00000000E+00  0.00000000E+00  0.00000000E+00
  0.00000000E+00  0.00000000E+00  0.00000000E+00
  0.00000000E+00  0.00000000E+00  0.00000000E+00
  0.00000000E+00  0.00000000E+00  0.00000000E+00
  0.00000000E+00  0.00000000E+00  0.00000000E+00
  0.00000000E+00  0.00000000E+00  0.00000000E+00
  0.00000000E+00  0.00000000E+00  0.00000000E+00
  0.00000000E+00  0.00000000E+00  0.00000000E+00
  0.00000000E+00  0.00000000E+00  0.00000000E+00
  0.00000000E+00  0.00000000E+00  0.00000000E+00
  0.00000000E+00  0.00000000E+00  0.00000000E+00
  0.00000000E+00  0.00000000E+00  0.00000000E+00
  0.00000000E+00  0.00000000E+00  0.00000000E+00
  0.00000000E+00  0.00000000E+00  0.00000000E+00
  0.00000000E+00  0.00000000E+00  0.00000000E+00
  0.00000000E+00  0.00000000E+00  0.00000000E+00
  0.00000000E+00  0.00000000E+00  0.00000000E+00
  0.00000000E+00  0.00000000E+00  0.00000000E+00
  0.00000000E+00  0.00000000E+00  0.00000000E+00
  0.00000000E+00  0.00000000E+00  0.00000000E+00
  0.00000000E+00  0.00000000E+00  0.00000000E+00
  0.00000000E+00  0.00000000E+00  0.00000000E+00
  0.00000000E+00  0.00000000E+00  0.00000000E+00
  0.00000000E+00  0.00000000E+00  0.00000000E+00
  0.00000000E+00  0.00000000E+00  0.00000000E+00
  0.00000000E+00  0.00000000E+00  0.00000000E+00
  0.00000000E+00  0.00000000E+00  0.00000000E+00
  0.00000000E+00  0.00000000E+00  0.00000000E+00
  0.00000000E+00  0.00000000E+00  0.00000000E+00
  0.00000000E+00  0.00000000E+00  0.00000000E+00
  0.00000000E+00  0.00000000E+00  0.00000000E+00
  0.00000000E+00  0.00000000E+00  0.00000000E+00
  0.00000000E+00  0.00000000E+00  0.00000000E+00
  0.00000000E+00  0.00000000E+00  0.00000000E+00
  0.00000000E+00  0.00000000E+00  0.00000000E+00
  0.00000000E+00  0.00000000E+00  0.00000000E+00
  0.00000000E+00  0.00000000E+00  0.00000000E+00
  0.00000000E+00  0.00000000E+00  0.00000000E+00
  0.00000000E+00  0.00000000E+00  0.00000000E+00
  0.00000000E+00  0.00000000E+00  0.00000000E+00
  0.00000000E+00  0.00000000E+00  0.00000000E+00
  0.00000000E+00  0.00000000E+00  0.00000000E+00
  0.00000000E+00  0.00000000E+00  0.00000000E+00
  0.00000000E+00  0.00000000E+00  0.00000000E+00
  0.00000000E+00  0.00000000E+00  0.00000000E+00
  0.00000000E+00  0.00000000E+00  0.00000000E+00
  0.00000000E+00  0.00000000E+00  0.00000000E+00
  0.00000000E+00  0.00000000E+00  0.00000000E+00
  0.00000000E+00  0.00000000E+00  0.00000000E+00
  0.00000000E+00  0.00000000E+00  0.00000000E+00
  0.00000000E+00  0.00000000E+00  0.00000000E+00
  0.00000000E+00  0.00000000E+00  0.00000000E+00
  0.00000000E+00  0.00000000E+00  0.00000000E+00
  0.00000000E+00  0.00000000E+00  0.00000000E+00
  0.00000000E+00  0.00000000E+00  0.00000000E+00
  0.00000000E+00  0.00000000E+00  0.00000000E+00
  0.00000000E+00  0.00000000E+00  0.00000000E+00
  0.00000000E+00  0.00000000E+00  0.00000000E+00
  0.00000000E+00  0.00000000E+00  0.00000000E+00
  0.00000000E+00  0.00000000E+00  0.00000000E+00
  0.00000000E+00  0.00000000E+00  0.00000000E+00
  0.00000000E+00  0.00000000E+00  0.00000000E+00
  0.00000000E+00  0.00000000E+00  0.00000000E+00
  0.00000000E+00  0.00000000E+00  0.00000000E+00
  0.00000000E+00  0.00000000E+00  0.00000000E+00
  0.00000000E+00  0.00000000E+00  0.00000000E+00
  0.00000000E+00  0.00000000E+00  0.00000000E+00
  0.00000000E+00  0.00000000E+00  0.00000000E+00
  0.00000000E+00  0.00000000E+00  0.00000000E+00
  0.00000000E+00  0.00000000E+00  0.00000000E+00
  0.00000000E+00  0.00000000E+00  0.00000000E+00
  0.00000000E+00  0.00000000E+00  0.00000000E+00
  0.00000000E+00  0.00000000E+00  0.00000000E+00
  0.00000000E+00  0.00000000E+00  0.00000000E+00
  0.00000000E+00  0.00000000E+00  0.00000000E+00
  0.00000000E+00  0.00000000E+00  0.00000000E+00
  0.00000000E+00  0.00000000E+00  0.00000000E+00
  0.00000000E+00  0.00000000E+00  0.00000000E+00
  0.00000000E+00  0.00000000E+00  0.00000000E+00
  0.00000000E+00  0.00000000E+00  0.00000000E+00
  0.00000000E+00  0.00000000E+00  0.00000000E+00
  0.00000000E+00  0.00000000E+00  0.00000000E+00
  0.00000000E+00  0.00000000E+00  0.00000000E+00
  0.00000000E+00  0.00000000E+00  0.00000000E+00
  0.00000000E+00  0.00000000E+00  0.00000000E+00
  0.00000000E+00  0.00000000E+00  0.00000000E+00
  0.00000000E+00  0.00000000E+00  0.00000000E+00
  0.00000000E+00  0.00000000E+00  0.00000000E+00
  0.00000000E+00  0.00000000E+00  0.00000000E+00
  0.00000000E+00  0.00000000E+00  0.00000000E+00
  0.00000000E+00  0.00000000E+00  0.00000000E+00
  0.00000000E+00  0.00000000E+00  0.00000000E+00
  0.00000000E+00  0.00000000E+00  0.00000000E+00
  0.00000000E+00  0.00000000E+00  0.00000000E+00
  0.00000000E+00  0.00000000E+00  0.00000000E+00
  0.00000000E+00  0.00000000E+00  0.00000000E+00
  0.00000000E+00  0.00000000E+00  0.00000000E+00
  0.00000000E+00  0.00000000E+00  0.00000000E+00
  0.00000000E+00  0.00000000E+00  0.00000000E+00
  0.00000000E+00  0.00000000E+00  0.00000000E+00
  0.00000000E+00  0.00000000E+00  0.00000000E+00
  0.00000000E+00  0.00000000E+00  0.00000000E+00
  0.00000000E+00  0.00000000E+00  0.00000000E+00
  0.00000000E+00  0.00000000E+00  0.00000000E+00
  0.00000000E+00  0.00000000E+00  0.00000000E+00
  0.00000000E+00  0.00000000E+00  0.00000000E+00
  0.00000000E+00  0.00000000E+00  0.00000000E+00
  0.00000000E+00  0.00000000E+00  0.00000000E+00
  0.00000000E+00  0.00000000E+00  0.00000000E+00
  0.00000000E+00  0.00000000E+00  0.00000000E+00
  0.00000000E+00  0.00000000E+00  0.00000000E+00
