H Mg O Cu                               
   1.00000000000000     
    16.8282433949600012    0.0000000000000000    0.0000000000000000
     0.0000000000000000    8.4141216974800006    0.0000000000000000
     0.0000000000000000    0.0000000000000000   23.4141216974799988
   H    Mg   O    Cu
     2    63    64     1
Selective dynamics
Direct
  0.1251372664767429  0.0013937774177702  0.3354638479811127   T   T   T
  0.6253314508381509  0.8847950649691153  0.2878159534400878   T   T   T
  0.1249854074627638  0.0011330788127293  0.0021130724047722   T   T   T
  0.6250197407699473  0.0012105875722290  0.0048906674669546   T   T   T
  0.1249750457277166  0.5009684929123754  0.0029313405893193   T   T   T
  0.6250467729032209  0.5000814244611705  0.0052138614091800   T   T   T
  0.3760844482335867  0.0009893621440600  0.0041680237980181   T   T   T
  0.8739065302253315  0.0009783557660321  0.0042124969737064   T   T   T
  0.3761400671495451  0.5009619992976199  0.0046157289044142   T   T   T
  0.8738539025297422  0.5009698800219361  0.0047098171423986   T   T   T
  0.9990415545484302  0.2514104842784256  0.0035596404276496   T   T   T
  0.5007521373567962  0.2510936740641698  0.0053032959463305   T   T   T
  0.9990711925007848  0.7506260751066810  0.0034293202086715   T   T   T
  0.5004495948724675  0.7505629599589194  0.0050411265035916   T   T   T
  0.2509253424260268  0.2513823263587986  0.0035502354855116   T   T   T
  0.7492784523356552  0.2511305002763400  0.0053028465121684   T   T   T
  0.2508888737607345  0.7506554382224071  0.0034175936521775   T   T   T
  0.7495847379627726  0.7505303219620716  0.0050353000416361   T   T   T
  0.9989858069514052  0.0011211863707613  0.0919013857710870   T   T   T
  0.5005929707457533  0.0000519737560340  0.0946538053729335   T   T   T
  0.9992095609738164  0.5010760339343866  0.0931821913796268   T   T   T
  0.5010813466560763  0.5017360460639594  0.0953161980861770   T   T   T
  0.2509123510321887  0.0011256900181950  0.0919280475415597   T   T   T
  0.7495104154304892  0.0000314728761980  0.0946419000798614   T   T   T
  0.2506664335841435  0.5010775225061185  0.0931128940621949   T   T   T
  0.7490900667113977  0.5017664109797170  0.0953718885998507   T   T   T
  0.1250056550780542  0.2524047743450319  0.0916006235029126   T   T   T
  0.6250067231725651  0.2509213065319033  0.0954984909990662   T   T   T
  0.1249984415088535  0.7498506932911541  0.0913453086708862   T   T   T
  0.6250213999894382  0.7497784255435319  0.0941014410677350   T   T   T
  0.3758571906686318  0.2514228903144364  0.0940920915268275   T   T   T
  0.8741209322769549  0.2515147716802909  0.0941829132188144   T   T   T
  0.3758604693564589  0.7506434294937775  0.0941792389306075   T   T   T
  0.8740785165164120  0.7505339344786848  0.0943048355050253   T   T   T
  0.1250635558050060  0.0014743229775471  0.1760780505735870   T   T   T
  0.6249792291868481  0.9938199493555685  0.1836861251207224   T   T   T
  0.1249581833805749  0.5009912317507813  0.1825525741062161   T   T   T
  0.6253353590085371  0.5079658098489449  0.1883937360037244   T   T   T
  0.3758360185459033  0.0004636141335088  0.1837767772720234   T   T   T
  0.8740843285209150  0.0004429765829354  0.1840282630773726   T   T   T
  0.3762724087560380  0.5020469504641637  0.1841531333187684   T   T   T
  0.8736580683849947  0.5019807919658446  0.1851202991998042   T   T   T
  0.9995403339693819  0.2513425978006714  0.1837508867303215   T   T   T
  0.5012388199755122  0.2516417141019907  0.1864967904948015   T   T   T
  0.0000855052812296  0.7510976474711912  0.1834000357722018   T   T   T
  0.5035336880168665  0.7510607881833156  0.1880571550180433   T   T   T
  0.2504553707118211  0.2515505225672423  0.1839192381431190   T   T   T
  0.7487387427730434  0.2512826348940002  0.1863322788848487   T   T   T
  0.2498641425599292  0.7509448019612806  0.1835464637829312   T   T   T
  0.7462963694563778  0.7513242917165770  0.1882064453971717   T   T   T
  0.9948724891504848  0.0027985629181087  0.2728141106299141   T   T   T
  0.4957808554866285  0.9951271926431277  0.2746295079319601   T   T   T
  0.9990840611828138  0.4998356422214235  0.2733042921237869   T   T   T
  0.5103835911328239  0.5179719014488902  0.2777500392196623   T   T   T
  0.2543336174438255  0.0029022413904396  0.2727689667851229   T   T   T
  0.7551282025730838  0.9951251946512497  0.2746137197243271   T   T   T
  0.2477702499876731  0.4999976153537580  0.2743844685616978   T   T   T
  0.7439927877453830  0.5157201015664505  0.2769544739620425   T   T   T
  0.1247245949543388  0.2623343880633193  0.2725974216629712   T   T   T
  0.6253344220191543  0.2510395832507995  0.2750880260811348   T   T   T
  0.1246801912605994  0.7402754608878674  0.2726917940014358   T   T   T
  0.3770412239344897  0.2479055172541705  0.2747233829079904   T   T   T
  0.8729215135251903  0.2537720949870507  0.2740872736271681   T   T   T
  0.3725407561491557  0.7553690547016012  0.2743070976293328   T   T   T
  0.8771460842041608  0.7489464544303462  0.2738813992498574   T   T   T
  0.9997586636248952  0.0012015743366145  0.0011045687727472   T   T   T
  0.4998205868820308  0.0010642093288232  0.0026060943952210   T   T   T
  0.9999083985397889  0.5008633983359406  0.0018878160260541   T   T   T
  0.5000126971387757  0.5006425694267893  0.0027757867775194   T   T   T
  0.2503074381000572  0.0011969751536703  0.0011582103794942   T   T   T
  0.7501223574623227  0.0010711508203592  0.0025435152872370   T   T   T
  0.2501658558107537  0.5008644190102179  0.0018420689458322   T   T   T
  0.7499465713848362  0.5006424777591605  0.0027894195001426   T   T   T
  0.1250570963071949  0.2515956519496734  0.0009196877656134   T   T   T
  0.6249546156594764  0.2507922787969177  0.0025880556562866   T   T   T
  0.1250516465131956  0.7504966096816977  0.0006893793536493   T   T   T
  0.6249579887924762  0.7505006777734325  0.0024766810927163   T   T   T
  0.3751346086101233  0.2509624834949892  0.0025011642635189   T   T   T
  0.8748627913487831  0.2510504809405927  0.0024813923203144   T   T   T
  0.3748889623971702  0.7509625064991307  0.0022106108036634   T   T   T
  0.8751052576613216  0.7508797517875077  0.0021878017660234   T   T   T
  0.1250313399110456  0.0011400731266820  0.0911784682829306   T   T   T
  0.6249687027018395  0.0018560055589999  0.0936379861580668   T   T   T
  0.1251496832086997  0.5010945577327420  0.0936683200264916   T   T   T
  0.6249443042885365  0.4988179997531672  0.0947135714185239   T   T   T
  0.3741253195001890  0.0013642951447316  0.0944273763917151   T   T   T
  0.8758586435463573  0.0013220315021757  0.0943424615134236   T   T   T
  0.3745733664659299  0.5007476645196294  0.0943987464372697   T   T   T
  0.8754135535047922  0.5007669156634261  0.0945036382702570   T   T   T
  0.0006849058635696  0.2505480615630228  0.0937636175415610   T   T   T
  0.4995904514446745  0.2509789295657047  0.0950965070332867   T   T   T
  0.0009842096644971  0.7516504492270037  0.0934873541892345   T   T   T
  0.4989143795826290  0.7508214590061820  0.0942034280733871   T   T   T
  0.2494254825423569  0.2507082850868870  0.0938449398070873   T   T   T
  0.7502996737093948  0.2508308617874958  0.0950131280457425   T   T   T
  0.2491056893173872  0.7514952651453038  0.0935558511443751   T   T   T
  0.7509620154993853  0.7509517796591397  0.0941564724683399   T   T   T
  0.0037275444287628  0.0014285643662738  0.1847068762473982   T   T   T
  0.4994543204705529  0.0005149286438747  0.1846764288612184   T   T   T
  0.0014310945605279  0.5010083182011933  0.1838201623166007   T   T   T
  0.4993256427740593  0.5014374977974776  0.1860620635384849   T   T   T
  0.2464414948488266  0.0014399892651958  0.1845083576111292   T   T   T
  0.7503666518894926  0.0006022388433461  0.1847279621648841   T   T   T
  0.2490308415474174  0.5010416573104041  0.1844550402576853   T   T   T
  0.7504276105939318  0.5013036628802076  0.1854277455303075   T   T   T
  0.1249197027440606  0.2466519063375876  0.1843065240716517   T   T   T
  0.6250273176016348  0.2444540238648162  0.1851686510538180   T   T   T
  0.1249078974483570  0.7558747541787945  0.1843640329037760   T   T   T
  0.6249328489992251  0.7521217075234120  0.1799874736599607   T   T   T
  0.3739422876632308  0.2520183730164883  0.1847431702653326   T   T   T
  0.8761087931376997  0.2507977416599058  0.1842708706219988   T   T   T
  0.3722525498067940  0.7505609561233280  0.1840615815754854   T   T   T
  0.8777702325743305  0.7516699981536690  0.1837491109711900   T   T   T
  0.1250670235170156  0.0011739267605261  0.2937686047798319   T   T   T
  0.6248575750181280  0.9984005496796392  0.2778466446062497   T   T   T
  0.1243050454896649  0.5014062361245464  0.2750617654898111   T   T   T
  0.6263739222421759  0.4829823308018433  0.2764232014570144   T   T   T
  0.3720450013246980  0.0035157197399158  0.2750051684360787   T   T   T
  0.8777906762446822  0.0042233249612080  0.2754033823677663   T   T   T
  0.3715030089863445  0.4988317369557441  0.2778366536595241   T   T   T
  0.8779015165461976  0.4990921304062473  0.2762331518566106   T   T   T
  0.0031276544267719  0.2486824904368437  0.2760121133260347   T   T   T
  0.4995975483204911  0.2434310534547744  0.2767121500219984   T   T   T
  0.0029865131771050  0.7543223289460130  0.2761510479129208   T   T   T
  0.4898549765638099  0.7552855518364660  0.2763123266586731   T   T   T
  0.2465315915533060  0.2483608336157698  0.2752288068862502   T   T   T
  0.7507544347786703  0.2434463116517597  0.2770984695532412   T   T   T
  0.2465807782644065  0.7546835627026955  0.2753545798023456   T   T   T
  0.7600885899646908  0.7555565830502696  0.2766625259295009   T   T   T
  0.3712098526876197  0.4987612238137032  0.3614872489495753   T   T   T
 
  0.00000000E+00  0.00000000E+00  0.00000000E+00
  0.00000000E+00  0.00000000E+00  0.00000000E+00
  0.00000000E+00  0.00000000E+00  0.00000000E+00
  0.00000000E+00  0.00000000E+00  0.00000000E+00
  0.00000000E+00  0.00000000E+00  0.00000000E+00
  0.00000000E+00  0.00000000E+00  0.00000000E+00
  0.00000000E+00  0.00000000E+00  0.00000000E+00
  0.00000000E+00  0.00000000E+00  0.00000000E+00
  0.00000000E+00  0.00000000E+00  0.00000000E+00
  0.00000000E+00  0.00000000E+00  0.00000000E+00
  0.00000000E+00  0.00000000E+00  0.00000000E+00
  0.00000000E+00  0.00000000E+00  0.00000000E+00
  0.00000000E+00  0.00000000E+00  0.00000000E+00
  0.00000000E+00  0.00000000E+00  0.00000000E+00
  0.00000000E+00  0.00000000E+00  0.00000000E+00
  0.00000000E+00  0.00000000E+00  0.00000000E+00
  0.00000000E+00  0.00000000E+00  0.00000000E+00
  0.00000000E+00  0.00000000E+00  0.00000000E+00
  0.00000000E+00  0.00000000E+00  0.00000000E+00
  0.00000000E+00  0.00000000E+00  0.00000000E+00
  0.00000000E+00  0.00000000E+00  0.00000000E+00
  0.00000000E+00  0.00000000E+00  0.00000000E+00
  0.00000000E+00  0.00000000E+00  0.00000000E+00
  0.00000000E+00  0.00000000E+00  0.00000000E+00
  0.00000000E+00  0.00000000E+00  0.00000000E+00
  0.00000000E+00  0.00000000E+00  0.00000000E+00
  0.00000000E+00  0.00000000E+00  0.00000000E+00
  0.00000000E+00  0.00000000E+00  0.00000000E+00
  0.00000000E+00  0.00000000E+00  0.00000000E+00
  0.00000000E+00  0.00000000E+00  0.00000000E+00
  0.00000000E+00  0.00000000E+00  0.00000000E+00
  0.00000000E+00  0.00000000E+00  0.00000000E+00
  0.00000000E+00  0.00000000E+00  0.00000000E+00
  0.00000000E+00  0.00000000E+00  0.00000000E+00
  0.00000000E+00  0.00000000E+00  0.00000000E+00
  0.00000000E+00  0.00000000E+00  0.00000000E+00
  0.00000000E+00  0.00000000E+00  0.00000000E+00
  0.00000000E+00  0.00000000E+00  0.00000000E+00
  0.00000000E+00  0.00000000E+00  0.00000000E+00
  0.00000000E+00  0.00000000E+00  0.00000000E+00
  0.00000000E+00  0.00000000E+00  0.00000000E+00
  0.00000000E+00  0.00000000E+00  0.00000000E+00
  0.00000000E+00  0.00000000E+00  0.00000000E+00
  0.00000000E+00  0.00000000E+00  0.00000000E+00
  0.00000000E+00  0.00000000E+00  0.00000000E+00
  0.00000000E+00  0.00000000E+00  0.00000000E+00
  0.00000000E+00  0.00000000E+00  0.00000000E+00
  0.00000000E+00  0.00000000E+00  0.00000000E+00
  0.00000000E+00  0.00000000E+00  0.00000000E+00
  0.00000000E+00  0.00000000E+00  0.00000000E+00
  0.00000000E+00  0.00000000E+00  0.00000000E+00
  0.00000000E+00  0.00000000E+00  0.00000000E+00
  0.00000000E+00  0.00000000E+00  0.00000000E+00
  0.00000000E+00  0.00000000E+00  0.00000000E+00
  0.00000000E+00  0.00000000E+00  0.00000000E+00
  0.00000000E+00  0.00000000E+00  0.00000000E+00
  0.00000000E+00  0.00000000E+00  0.00000000E+00
  0.00000000E+00  0.00000000E+00  0.00000000E+00
  0.00000000E+00  0.00000000E+00  0.00000000E+00
  0.00000000E+00  0.00000000E+00  0.00000000E+00
  0.00000000E+00  0.00000000E+00  0.00000000E+00
  0.00000000E+00  0.00000000E+00  0.00000000E+00
  0.00000000E+00  0.00000000E+00  0.00000000E+00
  0.00000000E+00  0.00000000E+00  0.00000000E+00
  0.00000000E+00  0.00000000E+00  0.00000000E+00
  0.00000000E+00  0.00000000E+00  0.00000000E+00
  0.00000000E+00  0.00000000E+00  0.00000000E+00
  0.00000000E+00  0.00000000E+00  0.00000000E+00
  0.00000000E+00  0.00000000E+00  0.00000000E+00
  0.00000000E+00  0.00000000E+00  0.00000000E+00
  0.00000000E+00  0.00000000E+00  0.00000000E+00
  0.00000000E+00  0.00000000E+00  0.00000000E+00
  0.00000000E+00  0.00000000E+00  0.00000000E+00
  0.00000000E+00  0.00000000E+00  0.00000000E+00
  0.00000000E+00  0.00000000E+00  0.00000000E+00
  0.00000000E+00  0.00000000E+00  0.00000000E+00
  0.00000000E+00  0.00000000E+00  0.00000000E+00
  0.00000000E+00  0.00000000E+00  0.00000000E+00
  0.00000000E+00  0.00000000E+00  0.00000000E+00
  0.00000000E+00  0.00000000E+00  0.00000000E+00
  0.00000000E+00  0.00000000E+00  0.00000000E+00
  0.00000000E+00  0.00000000E+00  0.00000000E+00
  0.00000000E+00  0.00000000E+00  0.00000000E+00
  0.00000000E+00  0.00000000E+00  0.00000000E+00
  0.00000000E+00  0.00000000E+00  0.00000000E+00
  0.00000000E+00  0.00000000E+00  0.00000000E+00
  0.00000000E+00  0.00000000E+00  0.00000000E+00
  0.00000000E+00  0.00000000E+00  0.00000000E+00
  0.00000000E+00  0.00000000E+00  0.00000000E+00
  0.00000000E+00  0.00000000E+00  0.00000000E+00
  0.00000000E+00  0.00000000E+00  0.00000000E+00
  0.00000000E+00  0.00000000E+00  0.00000000E+00
  0.00000000E+00  0.00000000E+00  0.00000000E+00
  0.00000000E+00  0.00000000E+00  0.00000000E+00
  0.00000000E+00  0.00000000E+00  0.00000000E+00
  0.00000000E+00  0.00000000E+00  0.00000000E+00
  0.00000000E+00  0.00000000E+00  0.00000000E+00
  0.00000000E+00  0.00000000E+00  0.00000000E+00
  0.00000000E+00  0.00000000E+00  0.00000000E+00
  0.00000000E+00  0.00000000E+00  0.00000000E+00
  0.00000000E+00  0.00000000E+00  0.00000000E+00
  0.00000000E+00  0.00000000E+00  0.00000000E+00
  0.00000000E+00  0.00000000E+00  0.00000000E+00
  0.00000000E+00  0.00000000E+00  0.00000000E+00
  0.00000000E+00  0.00000000E+00  0.00000000E+00
  0.00000000E+00  0.00000000E+00  0.00000000E+00
  0.00000000E+00  0.00000000E+00  0.00000000E+00
  0.00000000E+00  0.00000000E+00  0.00000000E+00
  0.00000000E+00  0.00000000E+00  0.00000000E+00
  0.00000000E+00  0.00000000E+00  0.00000000E+00
  0.00000000E+00  0.00000000E+00  0.00000000E+00
  0.00000000E+00  0.00000000E+00  0.00000000E+00
  0.00000000E+00  0.00000000E+00  0.00000000E+00
  0.00000000E+00  0.00000000E+00  0.00000000E+00
  0.00000000E+00  0.00000000E+00  0.00000000E+00
  0.00000000E+00  0.00000000E+00  0.00000000E+00
  0.00000000E+00  0.00000000E+00  0.00000000E+00
  0.00000000E+00  0.00000000E+00  0.00000000E+00
  0.00000000E+00  0.00000000E+00  0.00000000E+00
  0.00000000E+00  0.00000000E+00  0.00000000E+00
  0.00000000E+00  0.00000000E+00  0.00000000E+00
  0.00000000E+00  0.00000000E+00  0.00000000E+00
  0.00000000E+00  0.00000000E+00  0.00000000E+00
  0.00000000E+00  0.00000000E+00  0.00000000E+00
  0.00000000E+00  0.00000000E+00  0.00000000E+00
  0.00000000E+00  0.00000000E+00  0.00000000E+00
  0.00000000E+00  0.00000000E+00  0.00000000E+00
  0.00000000E+00  0.00000000E+00  0.00000000E+00
  0.00000000E+00  0.00000000E+00  0.00000000E+00
  0.00000000E+00  0.00000000E+00  0.00000000E+00
