H Mg O Ag                               
   1.00000000000000     
    16.8282433949600012    0.0000000000000000    0.0000000000000000
     0.0000000000000000    8.4141216974800006    0.0000000000000000
     0.0000000000000000    0.0000000000000000   23.4141216974799988
   H    Mg   O    Ag
     2    63    64     1
Selective dynamics
Direct
  0.1251406272054086  0.0013217140276828  0.3355581129507570   T   T   T
  0.6255509078011917  0.8847445004832126  0.2877213185697628   T   T   T
  0.1249286600334462  0.0011326478943092  0.0021367154607213   T   T   T
  0.6250728243450766  0.0012234568831621  0.0047835512189530   T   T   T
  0.1249429593330822  0.5009604520059194  0.0029296832335831   T   T   T
  0.6250685407796488  0.5001220958498054  0.0050909819318739   T   T   T
  0.3760412710054293  0.0010124411585795  0.0040187349578717   T   T   T
  0.8739557718438521  0.0009947150005665  0.0041981128288471   T   T   T
  0.3760974058517661  0.5009670777191456  0.0044561672189853   T   T   T
  0.8739193976940061  0.5009832691842688  0.0046351221756687   T   T   T
  0.9990431385201345  0.2513282612237268  0.0035759923446578   T   T   T
  0.5007876736843775  0.2511717881766926  0.0051300911413509   T   T   T
  0.9990677766311222  0.7507044804501708  0.0034432430328606   T   T   T
  0.5004836621605918  0.7505675781522638  0.0048692457492474   T   T   T
  0.2508291787847921  0.2514132164995737  0.0034807657661747   T   T   T
  0.7493462308671679  0.2510798859858807  0.0052219718587123   T   T   T
  0.2507805620216328  0.7506224383886501  0.0033378910171063   T   T   T
  0.7496530056800572  0.7506491297395397  0.0049615352196430   T   T   T
  0.9989678963575839  0.0011229167305109  0.0918897185157026   T   T   T
  0.5005993384806404  0.0001196607592262  0.0944357819045600   T   T   T
  0.9991646124157330  0.5010695635531270  0.0931691255599796   T   T   T
  0.5011455289693049  0.5017503095802756  0.0951168182166871   T   T   T
  0.2508754211519177  0.0011375444662131  0.0917968060249039   T   T   T
  0.7495213096773479  0.0000237871073878  0.0945510854682157   T   T   T
  0.2505891343514019  0.5010620644066901  0.0929902095442800   T   T   T
  0.7491878763469358  0.5017892803612836  0.0952629491596636   T   T   T
  0.1248693131016578  0.2523803347700506  0.0915590458818386   T   T   T
  0.6251389524262461  0.2509290016019337  0.0953194618574634   T   T   T
  0.1248474424316074  0.7498651317317876  0.0913046509311756   T   T   T
  0.6251471403849992  0.7497807126992899  0.0939279274566935   T   T   T
  0.3758673040258352  0.2514702336075614  0.0939059563969798   T   T   T
  0.8741416067230865  0.2514674795462224  0.0941325582545847   T   T   T
  0.3758666437576631  0.7506121307077629  0.0939737352833851   T   T   T
  0.8740749048799222  0.7505919308810487  0.0942644992697750   T   T   T
  0.1249282891203436  0.0014593023203247  0.1760512942950242   T   T   T
  0.6250464512626257  0.9938058228929965  0.1836077519680492   T   T   T
  0.1247252995173204  0.5009851216546628  0.1824486562231177   T   T   T
  0.6255082285238669  0.5080084873088064  0.1882480597151898   T   T   T
  0.3758892989292640  0.0004732580021902  0.1835480947946873   T   T   T
  0.8740773979663986  0.0004071037813550  0.1840079485605020   T   T   T
  0.3763248486050718  0.5019964619513273  0.1841333215927519   T   T   T
  0.8736936982696022  0.5019819716246783  0.1850810116352115   T   T   T
  0.9994426545681250  0.2513494612973265  0.1837458334341394   T   T   T
  0.5014433300862088  0.2514985688564087  0.1861502831234533   T   T   T
 -0.0000127224196509  0.7510777441394141  0.1833909733756358   T   T   T
  0.5036959500039129  0.7512410082112383  0.1877254982274461   T   T   T
  0.2503081317999831  0.2513550276271022  0.1835814294529692   T   T   T
  0.7488616676810280  0.2512358454694431  0.1862295488640201   T   T   T
  0.2497235692807820  0.7510982845335349  0.1831919393025652   T   T   T
  0.7463577364475806  0.7512427885335763  0.1881368486035856   T   T   T
  0.9948901744229306  0.0027662226351934  0.2728889840929965   T   T   T
  0.4953308489557102  0.9950543225921815  0.2744576302128304   T   T   T
  0.9989737355955444  0.4998434016051951  0.2732866376792226   T   T   T
  0.5093658177375083  0.5171319112135485  0.2768890704431943   T   T   T
  0.2547404618347286  0.0028735663717549  0.2725925840153453   T   T   T
  0.7550987499185665  0.9950943280583507  0.2745703303664726   T   T   T
  0.2487052038886597  0.4999208761445258  0.2733595578244204   T   T   T
  0.7440003034803054  0.5156122252869738  0.2768057398038099   T   T   T
  0.1247622774132306  0.2626000202216342  0.2725876308845564   T   T   T
  0.6253872445246738  0.2512209914773809  0.2749544244588240   T   T   T
  0.1247412827299012  0.7399956997053447  0.2726464829716529   T   T   T
  0.3770385998769531  0.2504295692526776  0.2737909702499599   T   T   T
  0.8729496162333217  0.2537160831089758  0.2740731660908554   T   T   T
  0.3725303234250909  0.7525728276060853  0.2734246458901345   T   T   T
  0.8771347245384422  0.7489541649412237  0.2738573266868479   T   T   T
  0.9997494550163369  0.0012022312927586  0.0011588454357003   T   T   T
  0.4998486810397228  0.0011138422703147  0.0024369932985843   T   T   T
  0.9998836993991372  0.5008598558964102  0.0018768631291804   T   T   T
  0.5000534957321897  0.5006749213724403  0.0026733821988058   T   T   T
  0.2502102623457629  0.0012058383823187  0.0010768888371777   T   T   T
  0.7501863261154056  0.0010981372659834  0.0024893718465210   T   T   T
  0.2500503485568868  0.5008616477786941  0.0018254053604539   T   T   T
  0.7500385185040550  0.5006755018738017  0.0026946512236354   T   T   T
  0.1249477866944524  0.2515704768156357  0.0009329865752970   T   T   T
  0.6250521368439791  0.2508021044743627  0.0024698327261007   T   T   T
  0.1249399081205089  0.7505127697838020  0.0006995779131683   T   T   T
  0.6250491746282087  0.7505498353643701  0.0023589997270629   T   T   T
  0.3750979401423810  0.2510039631588018  0.0023611655129134   T   T   T
  0.8749097050413648  0.2510205221221015  0.0024885379703996   T   T   T
  0.3748400566734705  0.7509560136796304  0.0020651862056449   T   T   T
  0.8751509717333459  0.7509431301613256  0.0021947862903609   T   T   T
  0.1249072374139138  0.0011430918935219  0.0911789867538069   T   T   T
  0.6250463552634827  0.0018745766759935  0.0935132529903313   T   T   T
  0.1249634921629344  0.5010947447342630  0.0936134145575618   T   T   T
  0.6250527175643168  0.4988128759692920  0.0945739168680238   T   T   T
  0.3741308766157185  0.0013835917363958  0.0942224271793752   T   T   T
  0.8758675846381205  0.0013305575095410  0.0943484269132393   T   T   T
  0.3745911319958792  0.5007626740732055  0.0942928055654711   T   T   T
  0.8754470588991157  0.5007684348977799  0.0944637883832771   T   T   T
  0.0006007012824929  0.2505202715603291  0.0937788556409074   T   T   T
  0.4996867151358870  0.2510201783747142  0.0949199288554401   T   T   T
  0.0008870363084123  0.7516699710465148  0.0935012541392095   T   T   T
  0.4989854469356347  0.7508278108085026  0.0940410393252898   T   T   T
  0.2493072558499371  0.2506972679097555  0.0937083421333167   T   T   T
  0.7503957980742516  0.2508064174059365  0.0949338633087734   T   T   T
  0.2489811034434576  0.7515121500654339  0.0934059859331067   T   T   T
  0.7510456100944610  0.7509847349211372  0.0940843761852031   T   T   T
  0.0036038296945685  0.0014319876075689  0.1847700468085262   T   T   T
  0.4995455598798914  0.0005875898223022  0.1845257973421785   T   T   T
  0.0013378521850514  0.5009824488054450  0.1838483994057528   T   T   T
  0.4996599186792341  0.5013999305697916  0.1855906106512373   T   T   T
  0.2463156937048517  0.0014445541693563  0.1844121631815284   T   T   T
  0.7504287057591029  0.0005409958324559  0.1846809582916925   T   T   T
  0.2486198213496028  0.5010037390260719  0.1838708947787826   T   T   T
  0.7505193355738020  0.5012518825268280  0.1853352089360234   T   T   T
  0.1248069704604128  0.2466368444619315  0.1843206450712622   T   T   T
  0.6251362942642282  0.2443756662099451  0.1850805420219208   T   T   T
  0.1247906620634677  0.7558792376677878  0.1843567260196723   T   T   T
  0.6250233592752058  0.7521004820400984  0.1798426354629654   T   T   T
  0.3739190433255710  0.2516288480024950  0.1841889099484549   T   T   T
  0.8760955424924324  0.2506724642895364  0.1842414017800827   T   T   T
  0.3721925664763074  0.7509707561572341  0.1835492538864346   T   T   T
  0.8777245095066176  0.7517379128445716  0.1837206183761999   T   T   T
  0.1249816971179942  0.0011393190529074  0.2938493370620991   T   T   T
  0.6248511497816773  0.9983723601902967  0.2778317957518857   T   T   T
  0.1245182687094016  0.5013853714529349  0.2749981275895592   T   T   T
  0.6260762056231129  0.4831886989912862  0.2762225715843893   T   T   T
  0.3721470867770624  0.0038435589570919  0.2746650280353763   T   T   T
  0.8777970283523625  0.0041503864748077  0.2754091302617230   T   T   T
  0.3715663077068599  0.4990361844543282  0.2762883911135122   T   T   T
  0.8777921104150824  0.4990536359148395  0.2762368780863663   T   T   T
  0.0030716283471449  0.2488150010812372  0.2760829753184371   T   T   T
  0.4995041122943779  0.2440808136871141  0.2766526801086046   T   T   T
  0.0029507634136860  0.7541377942964974  0.2762067986784864   T   T   T
  0.4897426716522122  0.7550910945344474  0.2762170669314601   T   T   T
  0.2466760884338642  0.2486144756304518  0.2752285137826524   T   T   T
  0.7507703794716168  0.2434368827407618  0.2770510693742584   T   T   T
  0.2467554623551791  0.7543761141508207  0.2753267622335622   T   T   T
  0.7600700959915189  0.7555267309225759  0.2766244153244347   T   T   T
  0.3716028376535833  0.4991184759731084  0.3784459300240043   T   T   T
 
  0.00000000E+00  0.00000000E+00  0.00000000E+00
  0.00000000E+00  0.00000000E+00  0.00000000E+00
  0.00000000E+00  0.00000000E+00  0.00000000E+00
  0.00000000E+00  0.00000000E+00  0.00000000E+00
  0.00000000E+00  0.00000000E+00  0.00000000E+00
  0.00000000E+00  0.00000000E+00  0.00000000E+00
  0.00000000E+00  0.00000000E+00  0.00000000E+00
  0.00000000E+00  0.00000000E+00  0.00000000E+00
  0.00000000E+00  0.00000000E+00  0.00000000E+00
  0.00000000E+00  0.00000000E+00  0.00000000E+00
  0.00000000E+00  0.00000000E+00  0.00000000E+00
  0.00000000E+00  0.00000000E+00  0.00000000E+00
  0.00000000E+00  0.00000000E+00  0.00000000E+00
  0.00000000E+00  0.00000000E+00  0.00000000E+00
  0.00000000E+00  0.00000000E+00  0.00000000E+00
  0.00000000E+00  0.00000000E+00  0.00000000E+00
  0.00000000E+00  0.00000000E+00  0.00000000E+00
  0.00000000E+00  0.00000000E+00  0.00000000E+00
  0.00000000E+00  0.00000000E+00  0.00000000E+00
  0.00000000E+00  0.00000000E+00  0.00000000E+00
  0.00000000E+00  0.00000000E+00  0.00000000E+00
  0.00000000E+00  0.00000000E+00  0.00000000E+00
  0.00000000E+00  0.00000000E+00  0.00000000E+00
  0.00000000E+00  0.00000000E+00  0.00000000E+00
  0.00000000E+00  0.00000000E+00  0.00000000E+00
  0.00000000E+00  0.00000000E+00  0.00000000E+00
  0.00000000E+00  0.00000000E+00  0.00000000E+00
  0.00000000E+00  0.00000000E+00  0.00000000E+00
  0.00000000E+00  0.00000000E+00  0.00000000E+00
  0.00000000E+00  0.00000000E+00  0.00000000E+00
  0.00000000E+00  0.00000000E+00  0.00000000E+00
  0.00000000E+00  0.00000000E+00  0.00000000E+00
  0.00000000E+00  0.00000000E+00  0.00000000E+00
  0.00000000E+00  0.00000000E+00  0.00000000E+00
  0.00000000E+00  0.00000000E+00  0.00000000E+00
  0.00000000E+00  0.00000000E+00  0.00000000E+00
  0.00000000E+00  0.00000000E+00  0.00000000E+00
  0.00000000E+00  0.00000000E+00  0.00000000E+00
  0.00000000E+00  0.00000000E+00  0.00000000E+00
  0.00000000E+00  0.00000000E+00  0.00000000E+00
  0.00000000E+00  0.00000000E+00  0.00000000E+00
  0.00000000E+00  0.00000000E+00  0.00000000E+00
  0.00000000E+00  0.00000000E+00  0.00000000E+00
  0.00000000E+00  0.00000000E+00  0.00000000E+00
  0.00000000E+00  0.00000000E+00  0.00000000E+00
  0.00000000E+00  0.00000000E+00  0.00000000E+00
  0.00000000E+00  0.00000000E+00  0.00000000E+00
  0.00000000E+00  0.00000000E+00  0.00000000E+00
  0.00000000E+00  0.00000000E+00  0.00000000E+00
  0.00000000E+00  0.00000000E+00  0.00000000E+00
  0.00000000E+00  0.00000000E+00  0.00000000E+00
  0.00000000E+00  0.00000000E+00  0.00000000E+00
  0.00000000E+00  0.00000000E+00  0.00000000E+00
  0.00000000E+00  0.00000000E+00  0.00000000E+00
  0.00000000E+00  0.00000000E+00  0.00000000E+00
  0.00000000E+00  0.00000000E+00  0.00000000E+00
  0.00000000E+00  0.00000000E+00  0.00000000E+00
  0.00000000E+00  0.00000000E+00  0.00000000E+00
  0.00000000E+00  0.00000000E+00  0.00000000E+00
  0.00000000E+00  0.00000000E+00  0.00000000E+00
  0.00000000E+00  0.00000000E+00  0.00000000E+00
  0.00000000E+00  0.00000000E+00  0.00000000E+00
  0.00000000E+00  0.00000000E+00  0.00000000E+00
  0.00000000E+00  0.00000000E+00  0.00000000E+00
  0.00000000E+00  0.00000000E+00  0.00000000E+00
  0.00000000E+00  0.00000000E+00  0.00000000E+00
  0.00000000E+00  0.00000000E+00  0.00000000E+00
  0.00000000E+00  0.00000000E+00  0.00000000E+00
  0.00000000E+00  0.00000000E+00  0.00000000E+00
  0.00000000E+00  0.00000000E+00  0.00000000E+00
  0.00000000E+00  0.00000000E+00  0.00000000E+00
  0.00000000E+00  0.00000000E+00  0.00000000E+00
  0.00000000E+00  0.00000000E+00  0.00000000E+00
  0.00000000E+00  0.00000000E+00  0.00000000E+00
  0.00000000E+00  0.00000000E+00  0.00000000E+00
  0.00000000E+00  0.00000000E+00  0.00000000E+00
  0.00000000E+00  0.00000000E+00  0.00000000E+00
  0.00000000E+00  0.00000000E+00  0.00000000E+00
  0.00000000E+00  0.00000000E+00  0.00000000E+00
  0.00000000E+00  0.00000000E+00  0.00000000E+00
  0.00000000E+00  0.00000000E+00  0.00000000E+00
  0.00000000E+00  0.00000000E+00  0.00000000E+00
  0.00000000E+00  0.00000000E+00  0.00000000E+00
  0.00000000E+00  0.00000000E+00  0.00000000E+00
  0.00000000E+00  0.00000000E+00  0.00000000E+00
  0.00000000E+00  0.00000000E+00  0.00000000E+00
  0.00000000E+00  0.00000000E+00  0.00000000E+00
  0.00000000E+00  0.00000000E+00  0.00000000E+00
  0.00000000E+00  0.00000000E+00  0.00000000E+00
  0.00000000E+00  0.00000000E+00  0.00000000E+00
  0.00000000E+00  0.00000000E+00  0.00000000E+00
  0.00000000E+00  0.00000000E+00  0.00000000E+00
  0.00000000E+00  0.00000000E+00  0.00000000E+00
  0.00000000E+00  0.00000000E+00  0.00000000E+00
  0.00000000E+00  0.00000000E+00  0.00000000E+00
  0.00000000E+00  0.00000000E+00  0.00000000E+00
  0.00000000E+00  0.00000000E+00  0.00000000E+00
  0.00000000E+00  0.00000000E+00  0.00000000E+00
  0.00000000E+00  0.00000000E+00  0.00000000E+00
  0.00000000E+00  0.00000000E+00  0.00000000E+00
  0.00000000E+00  0.00000000E+00  0.00000000E+00
  0.00000000E+00  0.00000000E+00  0.00000000E+00
  0.00000000E+00  0.00000000E+00  0.00000000E+00
  0.00000000E+00  0.00000000E+00  0.00000000E+00
  0.00000000E+00  0.00000000E+00  0.00000000E+00
  0.00000000E+00  0.00000000E+00  0.00000000E+00
  0.00000000E+00  0.00000000E+00  0.00000000E+00
  0.00000000E+00  0.00000000E+00  0.00000000E+00
  0.00000000E+00  0.00000000E+00  0.00000000E+00
  0.00000000E+00  0.00000000E+00  0.00000000E+00
  0.00000000E+00  0.00000000E+00  0.00000000E+00
  0.00000000E+00  0.00000000E+00  0.00000000E+00
  0.00000000E+00  0.00000000E+00  0.00000000E+00
  0.00000000E+00  0.00000000E+00  0.00000000E+00
  0.00000000E+00  0.00000000E+00  0.00000000E+00
  0.00000000E+00  0.00000000E+00  0.00000000E+00
  0.00000000E+00  0.00000000E+00  0.00000000E+00
  0.00000000E+00  0.00000000E+00  0.00000000E+00
  0.00000000E+00  0.00000000E+00  0.00000000E+00
  0.00000000E+00  0.00000000E+00  0.00000000E+00
  0.00000000E+00  0.00000000E+00  0.00000000E+00
  0.00000000E+00  0.00000000E+00  0.00000000E+00
  0.00000000E+00  0.00000000E+00  0.00000000E+00
  0.00000000E+00  0.00000000E+00  0.00000000E+00
  0.00000000E+00  0.00000000E+00  0.00000000E+00
  0.00000000E+00  0.00000000E+00  0.00000000E+00
  0.00000000E+00  0.00000000E+00  0.00000000E+00
  0.00000000E+00  0.00000000E+00  0.00000000E+00
  0.00000000E+00  0.00000000E+00  0.00000000E+00
  0.00000000E+00  0.00000000E+00  0.00000000E+00
