H Mg O Co                               
   1.00000000000000     
    16.8282433949600012    0.0000000000000000    0.0000000000000000
     0.0000000000000000    8.4141216974800006    0.0000000000000000
     0.0000000000000000    0.0000000000000000   23.4141216974799988
   H    Mg   O    Co
     2    63    64     1
Selective dynamics
Direct
  0.1252100693035332  0.0013791765128446  0.3355886382670761   T   T   T
  0.6256981241518392  0.8845603183674482  0.2878059991341763   T   T   T
  0.1249591001235926  0.0011282851067247  0.0021604986468315   T   T   T
  0.6250552417689345  0.0012220467912217  0.0048424914091357   T   T   T
  0.1249639343648310  0.5009625519057235  0.0029882671639452   T   T   T
  0.6250660557256512  0.5001003634433434  0.0051842866113107   T   T   T
  0.3760423769966675  0.0010118836203321  0.0041663617949484   T   T   T
  0.8739381506356092  0.0009870006455266  0.0042190898623158   T   T   T
  0.3761093151536522  0.5009519825236055  0.0045412709062797   T   T   T
  0.8738997392393918  0.5009786114991778  0.0047148665945213   T   T   T
  0.9990616549795186  0.2513800391365251  0.0036101693833604   T   T   T
  0.5007577215825888  0.2511016347567229  0.0052767589392427   T   T   T
  0.9990867620494189  0.7506489360797517  0.0034779469446023   T   T   T
  0.5004541035157148  0.7506028837066305  0.0050052310881284   T   T   T
  0.2508687668573039  0.2513554056746496  0.0035875212343706   T   T   T
  0.7493058179579865  0.2511064906188178  0.0052927026306936   T   T   T
  0.2508213507411484  0.7506774085558039  0.0034433769988064   T   T   T
  0.7496155224017853  0.7505973010753924  0.0050201876874044   T   T   T
  0.9989574039788923  0.0011205072877277  0.0919330215494268   T   T   T
  0.5005756082804202  0.0001625611501648  0.0945988895119203   T   T   T
  0.9992031858056677  0.5010698561778358  0.0932043714151798   T   T   T
  0.5010845595962475  0.5016923797355852  0.0953387033734731   T   T   T
  0.2508906330558870  0.0011594745613967  0.0919461165166768   T   T   T
  0.7495640974206164  0.0000439917128276  0.0946172645495767   T   T   T
  0.2506238448732200  0.5010646492177434  0.0931693135515000   T   T   T
  0.7491774533700924  0.5017678467499610  0.0953172546540838   T   T   T
  0.1249529526842988  0.2524623584814271  0.0916507039430049   T   T   T
  0.6250509494465017  0.2509286374868798  0.0954550077566557   T   T   T
  0.1249312891458947  0.7498021973620197  0.0913875633646123   T   T   T
  0.6250899614371592  0.7497331363868039  0.0940383320407294   T   T   T
  0.3758473073406691  0.2514772234782789  0.0941177916334655   T   T   T
  0.8741281021942067  0.2515029593110428  0.0941938193621638   T   T   T
  0.3758112960820170  0.7506093305609464  0.0941667743495810   T   T   T
  0.8740783213378865  0.7505538529065195  0.0943173057080516   T   T   T
  0.1249111780076482  0.0014951303084995  0.1759904209989167   T   T   T
  0.6250579033408514  0.9937435644069625  0.1836021114973747   T   T   T
  0.1248340431813913  0.5009785758350203  0.1825672235516334   T   T   T
  0.6255570286702448  0.5077902281686777  0.1883429736878489   T   T   T
  0.3758207063298934  0.0006164899181421  0.1837379200542480   T   T   T
  0.8740743945163442  0.0004186169499467  0.1840135473784121   T   T   T
  0.3762726977341198  0.5019726333428629  0.1841981028507483   T   T   T
  0.8737152921177993  0.5019832259734516  0.1850380553928592   T   T   T
  0.9993872764227902  0.2512777508132162  0.1837061591166575   T   T   T
  0.5012922986523095  0.2519754770143073  0.1866488089089513   T   T   T
 -0.0000860936983100  0.7511459510133343  0.1833474887244809   T   T   T
  0.5035085602923886  0.7508947738501333  0.1878887455077292   T   T   T
  0.2504060944425060  0.2518147327700277  0.1840331516127707   T   T   T
  0.7488770025416752  0.2511947845805061  0.1862719611176907   T   T   T
  0.2497514776132889  0.7507748111805007  0.1835721006377866   T   T   T
  0.7463158349110125  0.7513019401879377  0.1882063735274397   T   T   T
  0.9948107297859689  0.0028006543640748  0.2728785337200606   T   T   T
  0.4961078372952534  0.9952440969193423  0.2744256334161326   T   T   T
  0.9988151001189577  0.4998099438030425  0.2733183810611057   T   T   T
  0.5122214208610488  0.5200834601715399  0.2784091558269399   T   T   T
  0.2539303535221495  0.0030778165461469  0.2725545368064518   T   T   T
  0.7551746557876852  0.9950165037009587  0.2746007745620289   T   T   T
  0.2462928469011110  0.5003663827830428  0.2748211506549491   T   T   T
  0.7446539770376807  0.5155350107488604  0.2768754302103358   T   T   T
  0.1243851289357846  0.2621337750010692  0.2725576053729138   T   T   T
  0.6256693856521106  0.2508486655936421  0.2750371089848308   T   T   T
  0.1242756598880805  0.7406064473607387  0.2726189104506272   T   T   T
  0.3771459713254721  0.2457405504129116  0.2752554002889146   T   T   T
  0.8729829347539968  0.2535648067116629  0.2740814889840122   T   T   T
  0.3723784726394561  0.7579090990820123  0.2744476610952126   T   T   T
  0.8771637048574191  0.7491726998596757  0.2738642358723917   T   T   T
  0.9997737143202288  0.0011990989488209  0.0011228329605886   T   T   T
  0.4998075122680649  0.0010967695770206  0.0026087309907242   T   T   T
  0.9999571354041477  0.5008706847274670  0.0019078383949635   T   T   T
  0.4999463584306562  0.5006577249897770  0.0027417053579909   T   T   T
  0.2502879082988457  0.0012008228380888  0.0012136019417721   T   T   T
  0.7501229164979092  0.0010870760354927  0.0024962416180860   T   T   T
  0.2501990837641908  0.5008613553913612  0.0018431768711425   T   T   T
  0.7499439569488670  0.5006545912041792  0.0027443166262277   T   T   T
  0.1250862702290232  0.2515992469670407  0.0009744658404006   T   T   T
  0.6249153464709617  0.2507983886596241  0.0025628923373172   T   T   T
  0.1250769291330779  0.7504858926994112  0.0007380603223366   T   T   T
  0.6249181225090514  0.7505248135726402  0.0024500245468787   T   T   T
  0.3751231653258124  0.2510255261789657  0.0024854619731615   T   T   T
  0.8748822309009826  0.2510654910360275  0.0024561444173688   T   T   T
  0.3748632434290290  0.7509109590519781  0.0021948720014481   T   T   T
  0.8751259681439411  0.7508818440507097  0.0021623582065451   T   T   T
  0.1250270962014737  0.0011410377659781  0.0911369294501023   T   T   T
  0.6249352412319045  0.0018409338783677  0.0935720620787819   T   T   T
  0.1252360673133091  0.5010944474284584  0.0937319712512238   T   T   T
  0.6248525797645080  0.4988115466771866  0.0946967150745165   T   T   T
  0.3741339519854099  0.0014043973662174  0.0944530817936463   T   T   T
  0.8758568572497470  0.0013262830291803  0.0943222229786644   T   T   T
  0.3745900370606193  0.5007287873008287  0.0945099801808250   T   T   T
  0.8754335791492747  0.5007660453120898  0.0944185161263729   T   T   T
  0.0006718528358640  0.2505338145391224  0.0937458871477810   T   T   T
  0.4995182967130204  0.2511913337153401  0.0951270649211152   T   T   T
  0.0009686090588726  0.7516576449227264  0.0934673221975959   T   T   T
  0.4988401326882105  0.7506612951333176  0.0941933950326683   T   T   T
  0.2495162982884383  0.2509272873866788  0.0939169932690607   T   T   T
  0.7502873324332276  0.2507896834260742  0.0949496764448340   T   T   T
  0.2491704802694954  0.7513114550690819  0.0936020643837807   T   T   T
  0.7509333798926755  0.7510021460489098  0.0940994073311236   T   T   T
  0.0037461340026560  0.0014283096272578  0.1847076327229306   T   T   T
  0.4993987247325536  0.0004822716642043  0.1845229129190187   T   T   T
  0.0014147674145283  0.5009903269390861  0.1838396388950497   T   T   T
  0.4992234969858909  0.5015431487510498  0.1863850492185218   T   T   T
  0.2464901823396864  0.0014797802673036  0.1842523589986377   T   T   T
  0.7503180753670564  0.0005533092247405  0.1846526513516682   T   T   T
  0.2491150868347233  0.5010918459522873  0.1847074374322154   T   T   T
  0.7504946921290930  0.5012577919751863  0.1853328713051459   T   T   T
  0.1248295813237258  0.2467271297269374  0.1842260503910018   T   T   T
  0.6250396486000811  0.2445053591688038  0.1850891048147686   T   T   T
  0.1247952820053553  0.7558308414689167  0.1842614756999852   T   T   T
  0.6248359354174271  0.7519587549111864  0.1799287408724812   T   T   T
  0.3739885711581878  0.2523725260047893  0.1850281106144312   T   T   T
  0.8760982294432996  0.2506943733886400  0.1842404080736728   T   T   T
  0.3722723652814153  0.7503325004570519  0.1842233592684930   T   T   T
  0.8777546226292796  0.7517506470715986  0.1837139286701999   T   T   T
  0.1247343333388532  0.0011353212774503  0.2938347523392082   T   T   T
  0.6250358479162348  0.9981516403001132  0.2777378789695784   T   T   T
  0.1238741896125515  0.5014841685171529  0.2750332271721981   T   T   T
  0.6271896390841243  0.4829628371545756  0.2763621853729877   T   T   T
  0.3719302973935688  0.0034827275548342  0.2748485039153401   T   T   T
  0.8777596446945464  0.0041409732621027  0.2753759419503303   T   T   T
  0.3711493812323403  0.4990516603662930  0.2794743179843340   T   T   T
  0.8777623424174578  0.4990346633026176  0.2762154337347430   T   T   T
  0.0028946178215668  0.2487151628170096  0.2759675586843711   T   T   T
  0.4997873486092064  0.2429396188079947  0.2766386813601139   T   T   T
  0.0027673777043033  0.7543235773652560  0.2761050565697314   T   T   T
  0.4897660548662448  0.7557420008400627  0.2761114218604888   T   T   T
  0.2461783014539871  0.2483545572547594  0.2749518344739338   T   T   T
  0.7508823459056260  0.2431447951324881  0.2770175455796078   T   T   T
  0.2463080629566833  0.7549725021263660  0.2750015748895535   T   T   T
  0.7601152516817021  0.7555632702728134  0.2766066142614550   T   T   T
  0.3723386263932363  0.4959473797342033  0.3603403385640545   T   T   T
 
  0.00000000E+00  0.00000000E+00  0.00000000E+00
  0.00000000E+00  0.00000000E+00  0.00000000E+00
  0.00000000E+00  0.00000000E+00  0.00000000E+00
  0.00000000E+00  0.00000000E+00  0.00000000E+00
  0.00000000E+00  0.00000000E+00  0.00000000E+00
  0.00000000E+00  0.00000000E+00  0.00000000E+00
  0.00000000E+00  0.00000000E+00  0.00000000E+00
  0.00000000E+00  0.00000000E+00  0.00000000E+00
  0.00000000E+00  0.00000000E+00  0.00000000E+00
  0.00000000E+00  0.00000000E+00  0.00000000E+00
  0.00000000E+00  0.00000000E+00  0.00000000E+00
  0.00000000E+00  0.00000000E+00  0.00000000E+00
  0.00000000E+00  0.00000000E+00  0.00000000E+00
  0.00000000E+00  0.00000000E+00  0.00000000E+00
  0.00000000E+00  0.00000000E+00  0.00000000E+00
  0.00000000E+00  0.00000000E+00  0.00000000E+00
  0.00000000E+00  0.00000000E+00  0.00000000E+00
  0.00000000E+00  0.00000000E+00  0.00000000E+00
  0.00000000E+00  0.00000000E+00  0.00000000E+00
  0.00000000E+00  0.00000000E+00  0.00000000E+00
  0.00000000E+00  0.00000000E+00  0.00000000E+00
  0.00000000E+00  0.00000000E+00  0.00000000E+00
  0.00000000E+00  0.00000000E+00  0.00000000E+00
  0.00000000E+00  0.00000000E+00  0.00000000E+00
  0.00000000E+00  0.00000000E+00  0.00000000E+00
  0.00000000E+00  0.00000000E+00  0.00000000E+00
  0.00000000E+00  0.00000000E+00  0.00000000E+00
  0.00000000E+00  0.00000000E+00  0.00000000E+00
  0.00000000E+00  0.00000000E+00  0.00000000E+00
  0.00000000E+00  0.00000000E+00  0.00000000E+00
  0.00000000E+00  0.00000000E+00  0.00000000E+00
  0.00000000E+00  0.00000000E+00  0.00000000E+00
  0.00000000E+00  0.00000000E+00  0.00000000E+00
  0.00000000E+00  0.00000000E+00  0.00000000E+00
  0.00000000E+00  0.00000000E+00  0.00000000E+00
  0.00000000E+00  0.00000000E+00  0.00000000E+00
  0.00000000E+00  0.00000000E+00  0.00000000E+00
  0.00000000E+00  0.00000000E+00  0.00000000E+00
  0.00000000E+00  0.00000000E+00  0.00000000E+00
  0.00000000E+00  0.00000000E+00  0.00000000E+00
  0.00000000E+00  0.00000000E+00  0.00000000E+00
  0.00000000E+00  0.00000000E+00  0.00000000E+00
  0.00000000E+00  0.00000000E+00  0.00000000E+00
  0.00000000E+00  0.00000000E+00  0.00000000E+00
  0.00000000E+00  0.00000000E+00  0.00000000E+00
  0.00000000E+00  0.00000000E+00  0.00000000E+00
  0.00000000E+00  0.00000000E+00  0.00000000E+00
  0.00000000E+00  0.00000000E+00  0.00000000E+00
  0.00000000E+00  0.00000000E+00  0.00000000E+00
  0.00000000E+00  0.00000000E+00  0.00000000E+00
  0.00000000E+00  0.00000000E+00  0.00000000E+00
  0.00000000E+00  0.00000000E+00  0.00000000E+00
  0.00000000E+00  0.00000000E+00  0.00000000E+00
  0.00000000E+00  0.00000000E+00  0.00000000E+00
  0.00000000E+00  0.00000000E+00  0.00000000E+00
  0.00000000E+00  0.00000000E+00  0.00000000E+00
  0.00000000E+00  0.00000000E+00  0.00000000E+00
  0.00000000E+00  0.00000000E+00  0.00000000E+00
  0.00000000E+00  0.00000000E+00  0.00000000E+00
  0.00000000E+00  0.00000000E+00  0.00000000E+00
  0.00000000E+00  0.00000000E+00  0.00000000E+00
  0.00000000E+00  0.00000000E+00  0.00000000E+00
  0.00000000E+00  0.00000000E+00  0.00000000E+00
  0.00000000E+00  0.00000000E+00  0.00000000E+00
  0.00000000E+00  0.00000000E+00  0.00000000E+00
  0.00000000E+00  0.00000000E+00  0.00000000E+00
  0.00000000E+00  0.00000000E+00  0.00000000E+00
  0.00000000E+00  0.00000000E+00  0.00000000E+00
  0.00000000E+00  0.00000000E+00  0.00000000E+00
  0.00000000E+00  0.00000000E+00  0.00000000E+00
  0.00000000E+00  0.00000000E+00  0.00000000E+00
  0.00000000E+00  0.00000000E+00  0.00000000E+00
  0.00000000E+00  0.00000000E+00  0.00000000E+00
  0.00000000E+00  0.00000000E+00  0.00000000E+00
  0.00000000E+00  0.00000000E+00  0.00000000E+00
  0.00000000E+00  0.00000000E+00  0.00000000E+00
  0.00000000E+00  0.00000000E+00  0.00000000E+00
  0.00000000E+00  0.00000000E+00  0.00000000E+00
  0.00000000E+00  0.00000000E+00  0.00000000E+00
  0.00000000E+00  0.00000000E+00  0.00000000E+00
  0.00000000E+00  0.00000000E+00  0.00000000E+00
  0.00000000E+00  0.00000000E+00  0.00000000E+00
  0.00000000E+00  0.00000000E+00  0.00000000E+00
  0.00000000E+00  0.00000000E+00  0.00000000E+00
  0.00000000E+00  0.00000000E+00  0.00000000E+00
  0.00000000E+00  0.00000000E+00  0.00000000E+00
  0.00000000E+00  0.00000000E+00  0.00000000E+00
  0.00000000E+00  0.00000000E+00  0.00000000E+00
  0.00000000E+00  0.00000000E+00  0.00000000E+00
  0.00000000E+00  0.00000000E+00  0.00000000E+00
  0.00000000E+00  0.00000000E+00  0.00000000E+00
  0.00000000E+00  0.00000000E+00  0.00000000E+00
  0.00000000E+00  0.00000000E+00  0.00000000E+00
  0.00000000E+00  0.00000000E+00  0.00000000E+00
  0.00000000E+00  0.00000000E+00  0.00000000E+00
  0.00000000E+00  0.00000000E+00  0.00000000E+00
  0.00000000E+00  0.00000000E+00  0.00000000E+00
  0.00000000E+00  0.00000000E+00  0.00000000E+00
  0.00000000E+00  0.00000000E+00  0.00000000E+00
  0.00000000E+00  0.00000000E+00  0.00000000E+00
  0.00000000E+00  0.00000000E+00  0.00000000E+00
  0.00000000E+00  0.00000000E+00  0.00000000E+00
  0.00000000E+00  0.00000000E+00  0.00000000E+00
  0.00000000E+00  0.00000000E+00  0.00000000E+00
  0.00000000E+00  0.00000000E+00  0.00000000E+00
  0.00000000E+00  0.00000000E+00  0.00000000E+00
  0.00000000E+00  0.00000000E+00  0.00000000E+00
  0.00000000E+00  0.00000000E+00  0.00000000E+00
  0.00000000E+00  0.00000000E+00  0.00000000E+00
  0.00000000E+00  0.00000000E+00  0.00000000E+00
  0.00000000E+00  0.00000000E+00  0.00000000E+00
  0.00000000E+00  0.00000000E+00  0.00000000E+00
  0.00000000E+00  0.00000000E+00  0.00000000E+00
  0.00000000E+00  0.00000000E+00  0.00000000E+00
  0.00000000E+00  0.00000000E+00  0.00000000E+00
  0.00000000E+00  0.00000000E+00  0.00000000E+00
  0.00000000E+00  0.00000000E+00  0.00000000E+00
  0.00000000E+00  0.00000000E+00  0.00000000E+00
  0.00000000E+00  0.00000000E+00  0.00000000E+00
  0.00000000E+00  0.00000000E+00  0.00000000E+00
  0.00000000E+00  0.00000000E+00  0.00000000E+00
  0.00000000E+00  0.00000000E+00  0.00000000E+00
  0.00000000E+00  0.00000000E+00  0.00000000E+00
  0.00000000E+00  0.00000000E+00  0.00000000E+00
  0.00000000E+00  0.00000000E+00  0.00000000E+00
  0.00000000E+00  0.00000000E+00  0.00000000E+00
  0.00000000E+00  0.00000000E+00  0.00000000E+00
  0.00000000E+00  0.00000000E+00  0.00000000E+00
  0.00000000E+00  0.00000000E+00  0.00000000E+00
  0.00000000E+00  0.00000000E+00  0.00000000E+00
