H Mg O V                                
   1.00000000000000     
    16.8282433949600012    0.0000000000000000    0.0000000000000000
     0.0000000000000000    8.4141216974800006    0.0000000000000000
     0.0000000000000000    0.0000000000000000   23.4141216974799988
   H    Mg   O    V 
     2    63    64     1
Selective dynamics
Direct
  0.1253447412842563  0.0013673634810279  0.3355031081404889   T   T   T
  0.6257787417256940  0.8845532879020777  0.2877721948650068   T   T   T
  0.1249488104670317  0.0011290623308950  0.0021896383687297   T   T   T
  0.6250664158508970  0.0012225334822640  0.0048319746842295   T   T   T
  0.1249615248942239  0.5009598625362450  0.0030118768272633   T   T   T
  0.6250652442520169  0.5001188587855954  0.0051768921846372   T   T   T
  0.3760250726927296  0.0010169921704810  0.0041563749546811   T   T   T
  0.8739626952126415  0.0009920319402493  0.0042226832105928   T   T   T
  0.3760863322037207  0.5009555748763348  0.0045809527442028   T   T   T
  0.8739199509418789  0.5009798176210747  0.0047027553395850   T   T   T
  0.9990731948282809  0.2513563339605665  0.0036187112436822   T   T   T
  0.5007602911998355  0.2511088454880247  0.0052493322260600   T   T   T
  0.9990939400141261  0.7506704946691087  0.0034877453643506   T   T   T
  0.5004594851276356  0.7506110020951612  0.0049809809217765   T   T   T
  0.2508372887830229  0.2513568688130782  0.0035801420524116   T   T   T
  0.7493294746395657  0.2510995068079823  0.0052770584531228   T   T   T
  0.2507929210302697  0.7506770969975969  0.0034391080347662   T   T   T
  0.7496334677220418  0.7506224530721234  0.0050145793614831   T   T   T
  0.9989846018222560  0.0011201002577232  0.0919734776275032   T   T   T
  0.5005778199837689  0.0001621623610820  0.0945220896561130   T   T   T
  0.9991588341692363  0.5010737252325189  0.0931976599513000   T   T   T
  0.5010078284161067  0.5017087461343882  0.0953182573254401   T   T   T
  0.2508637456981069  0.0011442474898163  0.0919002831098361   T   T   T
  0.7495707392859173  0.0000449041816163  0.0946098312242450   T   T   T
  0.2506647197045045  0.5010708612424584  0.0932090871948389   T   T   T
  0.7492703030915816  0.5017848947178033  0.0952565848538269   T   T   T
  0.1248993998871843  0.2524130392560103  0.0916598856380039   T   T   T
  0.6250930499539132  0.2508877074445893  0.0953815694317430   T   T   T
  0.1248814017413723  0.7498572947831219  0.0914059013316431   T   T   T
  0.6251210708850163  0.7497955637417067  0.0940203215109369   T   T   T
  0.3758373651655280  0.2516915166481729  0.0940687611693923   T   T   T
  0.8741496842308106  0.2514996164043566  0.0941944541355267   T   T   T
  0.3757996913978776  0.7503965738422215  0.0941205947548073   T   T   T
  0.8740883190384383  0.7505633395536766  0.0943237529670530   T   T   T
  0.1249005629824153  0.0014736047980499  0.1761418030480782   T   T   T
  0.6250870619221000  0.9937668944944950  0.1836186794097671   T   T   T
  0.1247169638815902  0.5009875339852445  0.1825370245285959   T   T   T
  0.6258770314328040  0.5077206266680189  0.1880605142361137   T   T   T
  0.3757440051451013  0.0005753361257965  0.1835287963807120   T   T   T
  0.8741319291791528  0.0004250888829398  0.1840139121149331   T   T   T
  0.3761833053619495  0.5019383200867785  0.1846272775336922   T   T   T
  0.8737485430639236  0.5019785584033143  0.1850034531787573   T   T   T
  0.9993908322105829  0.2512424273281262  0.1837379166924870   T   T   T
  0.5014124597229107  0.2516328931585271  0.1864043376211801   T   T   T
 -0.0000826100872738  0.7511850475690324  0.1833862753368865   T   T   T
  0.5035526508054464  0.7511911148625339  0.1877163929148088   T   T   T
  0.2501980777973616  0.2515437210083719  0.1837982432902832   T   T   T
  0.7489554340353928  0.2511259315645923  0.1862454447616402   T   T   T
  0.2496010143467459  0.7509661571814775  0.1833866515215916   T   T   T
  0.7463850303413905  0.7513760316048151  0.1881854364883143   T   T   T
  0.9948703069461343  0.0027579262311515  0.2729591329869946   T   T   T
  0.4957627025820977  0.9951186953503977  0.2745866803506054   T   T   T
  0.9987724077448121  0.4998355437863690  0.2732615721877253   T   T   T
  0.5118703236374653  0.5187681344793394  0.2771275582083272   T   T   T
  0.2540897334195087  0.0029521759319055  0.2727503735458318   T   T   T
  0.7552548655790332  0.9950465178680344  0.2745696679423772   T   T   T
  0.2469289946447696  0.5000221350188354  0.2741511153067590   T   T   T
  0.7448266176291283  0.5155814442837996  0.2767921139370662   T   T   T
  0.1244127791169828  0.2621905755865547  0.2727128960975756   T   T   T
  0.6257840668271385  0.2508627743923249  0.2750075709701860   T   T   T
  0.1243461520129868  0.7404043946822214  0.2727813450429326   T   T   T
  0.3768309035464739  0.2471047823835437  0.2743252156447027   T   T   T
  0.8730685799726533  0.2535449654012062  0.2740601162805287   T   T   T
  0.3721909111973065  0.7562071113781709  0.2737102027369511   T   T   T
  0.8771810005741681  0.7491864010082658  0.2738444956531267   T   T   T
  0.9997749523561121  0.0011910137794072  0.0011362291567409   T   T   T
  0.4998218178845039  0.0010956793163215  0.0025646197242803   T   T   T
  0.9999302511221725  0.5008670405846632  0.0018898391495715   T   T   T
  0.4999605003675093  0.5006685693466234  0.0027598059727189   T   T   T
  0.2502946960307452  0.0011988257625426  0.0011808821075977   T   T   T
  0.7501128507579587  0.0010979004353290  0.0024955164953662   T   T   T
  0.2502110445367648  0.5008645767965761  0.0018628526735833   T   T   T
  0.7499443183511894  0.5006667022249965  0.0027334447464377   T   T   T
  0.1250728405435310  0.2515807212264497  0.0009671644740830   T   T   T
  0.6249280585095907  0.2508162982806504  0.0025473652758190   T   T   T
  0.1250638792108443  0.7505027928187833  0.0007354879125412   T   T   T
  0.6249291196160772  0.7505272706562341  0.0024361430439331   T   T   T
  0.3751351717006339  0.2510783478455655  0.0024697561057561   T   T   T
  0.8748733922132634  0.2510608431177034  0.0024551191416906   T   T   T
  0.3748800157582129  0.7508711884394377  0.0021835787101513   T   T   T
  0.8751118976063382  0.7508909792910742  0.0021660598428923   T   T   T
  0.1250052473575441  0.0011454231402766  0.0911665596317896   T   T   T
  0.6249443264799331  0.0018338750633338  0.0935584778755608   T   T   T
  0.1251661678432484  0.5010904643367080  0.0936881259503887   T   T   T
  0.6248952016081305  0.4988146116402523  0.0946791332783178   T   T   T
  0.3741808161156926  0.0013896305498439  0.0943453564540332   T   T   T
  0.8758355132926922  0.0013322100349221  0.0943164634184664   T   T   T
  0.3746467746502109  0.5007418922742565  0.0944563274762264   T   T   T
  0.8754068938041958  0.5007713083471439  0.0943730697657635   T   T   T
  0.0006356852106308  0.2505106144200444  0.0937329863227799   T   T   T
  0.4996090241999914  0.2510967046297375  0.0950631828422182   T   T   T
  0.0009245557217453  0.7516830398723664  0.0934546567487330   T   T   T
  0.4989149730386680  0.7507681261588172  0.0941465037321682   T   T   T
  0.2494562019684583  0.2508155026643553  0.0938046175634451   T   T   T
  0.7502836732108268  0.2507742177402760  0.0949300776835900   T   T   T
  0.2491271253539572  0.7514054196559617  0.0935041456013985   T   T   T
  0.7509182893924063  0.7510290751297248  0.0940916371751175   T   T   T
  0.0036546296717467  0.0014330785658674  0.1847244270211553   T   T   T
  0.4994742810237000  0.0004687656187664  0.1845704506453356   T   T   T
  0.0012398638294198  0.5009937852687738  0.1837701547233238   T   T   T
  0.4993477806406132  0.5015335358595304  0.1862266009271086   T   T   T
  0.2465079921753082  0.0014437672800926  0.1841922404093066   T   T   T
  0.7503117228386682  0.0005618883807120  0.1846698985994635   T   T   T
  0.2491015239403142  0.5010599932488398  0.1844434121852790   T   T   T
  0.7506002694486806  0.5012492955990909  0.1852567388220411   T   T   T
  0.1247253621109787  0.2466887891522101  0.1842148430181869   T   T   T
  0.6250964329647375  0.2443986855510374  0.1850699342916610   T   T   T
  0.1247002170961872  0.7558477585913419  0.1842530420756796   T   T   T
  0.6248919722474465  0.7519839320911432  0.1799197387660832   T   T   T
  0.3740294858096899  0.2524850011032144  0.1847089696104803   T   T   T
  0.8760539966012778  0.2506472538659573  0.1842216918272237   T   T   T
  0.3723178765042308  0.7501815878819872  0.1839824896500334   T   T   T
  0.8776839513048137  0.7518032009093261  0.1837018990560217   T   T   T
  0.1246705079542351  0.0011931449363156  0.2937459901086375   T   T   T
  0.6248229346609060  0.9982443617785824  0.2778390650643532   T   T   T
  0.1238168260213622  0.5013935082854688  0.2747051094335545   T   T   T
  0.6272906040168528  0.4829644622205597  0.2760696270806006   T   T   T
  0.3720647072791762  0.0034226182554610  0.2743148914315663   T   T   T
  0.8777766665913758  0.0041014274548383  0.2753860779587835   T   T   T
  0.3709059517763651  0.4988233987808958  0.2800662787836872   T   T   T
  0.8776309666571619  0.4990467056372691  0.2762148390615927   T   T   T
  0.0027768952159021  0.2488146861986993  0.2759668318421500   T   T   T
  0.4997441679668279  0.2436114756809307  0.2766361118689949   T   T   T
  0.0026887988392451  0.7541703404341016  0.2760990079942895   T   T   T
  0.4896616841977771  0.7551566850641619  0.2763052853644341   T   T   T
  0.2462610407655864  0.2481832831778781  0.2747159025017843   T   T   T
  0.7509118188353879  0.2429917141836357  0.2770663947447670   T   T   T
  0.2463375262154705  0.7549038597501548  0.2747989087726160   T   T   T
  0.7600900831830590  0.7556505293263334  0.2766477392053991   T   T   T
  0.3725907418829822  0.4990875480340067  0.3672790477414376   T   T   T
 
  0.00000000E+00  0.00000000E+00  0.00000000E+00
  0.00000000E+00  0.00000000E+00  0.00000000E+00
  0.00000000E+00  0.00000000E+00  0.00000000E+00
  0.00000000E+00  0.00000000E+00  0.00000000E+00
  0.00000000E+00  0.00000000E+00  0.00000000E+00
  0.00000000E+00  0.00000000E+00  0.00000000E+00
  0.00000000E+00  0.00000000E+00  0.00000000E+00
  0.00000000E+00  0.00000000E+00  0.00000000E+00
  0.00000000E+00  0.00000000E+00  0.00000000E+00
  0.00000000E+00  0.00000000E+00  0.00000000E+00
  0.00000000E+00  0.00000000E+00  0.00000000E+00
  0.00000000E+00  0.00000000E+00  0.00000000E+00
  0.00000000E+00  0.00000000E+00  0.00000000E+00
  0.00000000E+00  0.00000000E+00  0.00000000E+00
  0.00000000E+00  0.00000000E+00  0.00000000E+00
  0.00000000E+00  0.00000000E+00  0.00000000E+00
  0.00000000E+00  0.00000000E+00  0.00000000E+00
  0.00000000E+00  0.00000000E+00  0.00000000E+00
  0.00000000E+00  0.00000000E+00  0.00000000E+00
  0.00000000E+00  0.00000000E+00  0.00000000E+00
  0.00000000E+00  0.00000000E+00  0.00000000E+00
  0.00000000E+00  0.00000000E+00  0.00000000E+00
  0.00000000E+00  0.00000000E+00  0.00000000E+00
  0.00000000E+00  0.00000000E+00  0.00000000E+00
  0.00000000E+00  0.00000000E+00  0.00000000E+00
  0.00000000E+00  0.00000000E+00  0.00000000E+00
  0.00000000E+00  0.00000000E+00  0.00000000E+00
  0.00000000E+00  0.00000000E+00  0.00000000E+00
  0.00000000E+00  0.00000000E+00  0.00000000E+00
  0.00000000E+00  0.00000000E+00  0.00000000E+00
  0.00000000E+00  0.00000000E+00  0.00000000E+00
  0.00000000E+00  0.00000000E+00  0.00000000E+00
  0.00000000E+00  0.00000000E+00  0.00000000E+00
  0.00000000E+00  0.00000000E+00  0.00000000E+00
  0.00000000E+00  0.00000000E+00  0.00000000E+00
  0.00000000E+00  0.00000000E+00  0.00000000E+00
  0.00000000E+00  0.00000000E+00  0.00000000E+00
  0.00000000E+00  0.00000000E+00  0.00000000E+00
  0.00000000E+00  0.00000000E+00  0.00000000E+00
  0.00000000E+00  0.00000000E+00  0.00000000E+00
  0.00000000E+00  0.00000000E+00  0.00000000E+00
  0.00000000E+00  0.00000000E+00  0.00000000E+00
  0.00000000E+00  0.00000000E+00  0.00000000E+00
  0.00000000E+00  0.00000000E+00  0.00000000E+00
  0.00000000E+00  0.00000000E+00  0.00000000E+00
  0.00000000E+00  0.00000000E+00  0.00000000E+00
  0.00000000E+00  0.00000000E+00  0.00000000E+00
  0.00000000E+00  0.00000000E+00  0.00000000E+00
  0.00000000E+00  0.00000000E+00  0.00000000E+00
  0.00000000E+00  0.00000000E+00  0.00000000E+00
  0.00000000E+00  0.00000000E+00  0.00000000E+00
  0.00000000E+00  0.00000000E+00  0.00000000E+00
  0.00000000E+00  0.00000000E+00  0.00000000E+00
  0.00000000E+00  0.00000000E+00  0.00000000E+00
  0.00000000E+00  0.00000000E+00  0.00000000E+00
  0.00000000E+00  0.00000000E+00  0.00000000E+00
  0.00000000E+00  0.00000000E+00  0.00000000E+00
  0.00000000E+00  0.00000000E+00  0.00000000E+00
  0.00000000E+00  0.00000000E+00  0.00000000E+00
  0.00000000E+00  0.00000000E+00  0.00000000E+00
  0.00000000E+00  0.00000000E+00  0.00000000E+00
  0.00000000E+00  0.00000000E+00  0.00000000E+00
  0.00000000E+00  0.00000000E+00  0.00000000E+00
  0.00000000E+00  0.00000000E+00  0.00000000E+00
  0.00000000E+00  0.00000000E+00  0.00000000E+00
  0.00000000E+00  0.00000000E+00  0.00000000E+00
  0.00000000E+00  0.00000000E+00  0.00000000E+00
  0.00000000E+00  0.00000000E+00  0.00000000E+00
  0.00000000E+00  0.00000000E+00  0.00000000E+00
  0.00000000E+00  0.00000000E+00  0.00000000E+00
  0.00000000E+00  0.00000000E+00  0.00000000E+00
  0.00000000E+00  0.00000000E+00  0.00000000E+00
  0.00000000E+00  0.00000000E+00  0.00000000E+00
  0.00000000E+00  0.00000000E+00  0.00000000E+00
  0.00000000E+00  0.00000000E+00  0.00000000E+00
  0.00000000E+00  0.00000000E+00  0.00000000E+00
  0.00000000E+00  0.00000000E+00  0.00000000E+00
  0.00000000E+00  0.00000000E+00  0.00000000E+00
  0.00000000E+00  0.00000000E+00  0.00000000E+00
  0.00000000E+00  0.00000000E+00  0.00000000E+00
  0.00000000E+00  0.00000000E+00  0.00000000E+00
  0.00000000E+00  0.00000000E+00  0.00000000E+00
  0.00000000E+00  0.00000000E+00  0.00000000E+00
  0.00000000E+00  0.00000000E+00  0.00000000E+00
  0.00000000E+00  0.00000000E+00  0.00000000E+00
  0.00000000E+00  0.00000000E+00  0.00000000E+00
  0.00000000E+00  0.00000000E+00  0.00000000E+00
  0.00000000E+00  0.00000000E+00  0.00000000E+00
  0.00000000E+00  0.00000000E+00  0.00000000E+00
  0.00000000E+00  0.00000000E+00  0.00000000E+00
  0.00000000E+00  0.00000000E+00  0.00000000E+00
  0.00000000E+00  0.00000000E+00  0.00000000E+00
  0.00000000E+00  0.00000000E+00  0.00000000E+00
  0.00000000E+00  0.00000000E+00  0.00000000E+00
  0.00000000E+00  0.00000000E+00  0.00000000E+00
  0.00000000E+00  0.00000000E+00  0.00000000E+00
  0.00000000E+00  0.00000000E+00  0.00000000E+00
  0.00000000E+00  0.00000000E+00  0.00000000E+00
  0.00000000E+00  0.00000000E+00  0.00000000E+00
  0.00000000E+00  0.00000000E+00  0.00000000E+00
  0.00000000E+00  0.00000000E+00  0.00000000E+00
  0.00000000E+00  0.00000000E+00  0.00000000E+00
  0.00000000E+00  0.00000000E+00  0.00000000E+00
  0.00000000E+00  0.00000000E+00  0.00000000E+00
  0.00000000E+00  0.00000000E+00  0.00000000E+00
  0.00000000E+00  0.00000000E+00  0.00000000E+00
  0.00000000E+00  0.00000000E+00  0.00000000E+00
  0.00000000E+00  0.00000000E+00  0.00000000E+00
  0.00000000E+00  0.00000000E+00  0.00000000E+00
  0.00000000E+00  0.00000000E+00  0.00000000E+00
  0.00000000E+00  0.00000000E+00  0.00000000E+00
  0.00000000E+00  0.00000000E+00  0.00000000E+00
  0.00000000E+00  0.00000000E+00  0.00000000E+00
  0.00000000E+00  0.00000000E+00  0.00000000E+00
  0.00000000E+00  0.00000000E+00  0.00000000E+00
  0.00000000E+00  0.00000000E+00  0.00000000E+00
  0.00000000E+00  0.00000000E+00  0.00000000E+00
  0.00000000E+00  0.00000000E+00  0.00000000E+00
  0.00000000E+00  0.00000000E+00  0.00000000E+00
  0.00000000E+00  0.00000000E+00  0.00000000E+00
  0.00000000E+00  0.00000000E+00  0.00000000E+00
  0.00000000E+00  0.00000000E+00  0.00000000E+00
  0.00000000E+00  0.00000000E+00  0.00000000E+00
  0.00000000E+00  0.00000000E+00  0.00000000E+00
  0.00000000E+00  0.00000000E+00  0.00000000E+00
  0.00000000E+00  0.00000000E+00  0.00000000E+00
  0.00000000E+00  0.00000000E+00  0.00000000E+00
  0.00000000E+00  0.00000000E+00  0.00000000E+00
  0.00000000E+00  0.00000000E+00  0.00000000E+00
  0.00000000E+00  0.00000000E+00  0.00000000E+00
