H Mg O                                  
   1.00000000000000     
    16.8282433949600012    0.0000000000000000    0.0000000000000000
     0.0000000000000000    8.4141216974800006    0.0000000000000000
     0.0000000000000000    0.0000000000000000   23.4141216974799988
   H    Mg   O 
     2    63    64
Selective dynamics
Direct
  0.1249999747830017  0.0015116308315484  0.3353899453098778   T   T   T
  0.6249999747830017 -0.1151935813488916  0.2877920221655396   T   T   T
  0.1250000000000000  0.0012063121573790  0.0020079716333383   T   T   T
  0.6250000000000000  0.0011221070631498  0.0049869517469752   T   T   T
  0.1250000000000000  0.5010030501439443  0.0028324600835664   T   T   T
  0.6250000000000000  0.4999900584598693  0.0053093144766750   T   T   T
  0.3761589683958795  0.0009467537372494  0.0042058872311615   T   T   T
  0.8738410316041201  0.0009467537372494  0.0042058872311615   T   T   T
  0.3762538005770085  0.5009470388521704  0.0047047474927261   T   T   T
  0.8737461994229914  0.5009470388521704  0.0047047474927261   T   T   T
  0.9989603190565531  0.2514313168638501  0.0034867534210299   T   T   T
  0.5007842964253069  0.2510946355255720  0.0053598742074921   T   T   T
  0.9990086665453962  0.7506702897416968  0.0033535088317996   T   T   T
  0.5004767062139184  0.7504448331679585  0.0050861041491417   T   T   T
  0.2510396809434472  0.2514313168638501  0.0034867534210299   T   T   T
  0.7492157035746931  0.2510946355255720  0.0053598742074921   T   T   T
  0.2509913334546038  0.7506702897416968  0.0033535088317996   T   T   T
  0.7495232937860816  0.7504448331679585  0.0050861041491417   T   T   T
  0.9989918890849666  0.0011106328569004  0.0917726994405703   T   T   T
  0.5004943465278268  0.0000034442206274  0.0946764575310775   T   T   T
  0.9991930381924656  0.5010724365360401  0.0930993701696786   T   T   T
  0.5009681138860693  0.5016929014594363  0.0954635744705045   T   T   T
  0.2510081109150335  0.0011106328569004  0.0917726994405703   T   T   T
  0.7495056534721732  0.0000034442206274  0.0946764575310775   T   T   T
  0.2508069618075345  0.5010724365360401  0.0930993701696786   T   T   T
  0.7490318861139307  0.5016929014594363  0.0954635744705045   T   T   T
  0.1250000000000000  0.2524122963665970  0.0914212453048349   T   T   T
  0.6250000000000000  0.2510268947835911  0.0955766742625986   T   T   T
  0.1250000000000000  0.7497922367982756  0.0911925153490311   T   T   T
  0.6250000000000000  0.7495628198923057  0.0942201313644286   T   T   T
  0.3758831505009861  0.2515404452271500  0.0941619006829906   T   T   T
  0.8741168494990141  0.2515404452271500  0.0941619006829906   T   T   T
  0.3759390457388403  0.7504631029492173  0.0942975735814085   T   T   T
  0.8740609542611600  0.7504631029492173  0.0942975735814085   T   T   T
  0.1250000000000000  0.0014165500036501  0.1759372844643415   T   T   T
  0.6250000000000000 -0.0061540190153808  0.1837765839421212   T   T   T
  0.1250000000000000  0.5010241487600973  0.1824246640910911   T   T   T
  0.6250000000000000  0.5083289582506079  0.1887446736066530   T   T   T
  0.3758839681569717  0.0004355338703181  0.1839754929482285   T   T   T
  0.8741160318430283  0.0004355338703181  0.1839754929482285   T   T   T
  0.3763498050675151  0.5020283500527272  0.1851909148144474   T   T   T
  0.8736501949324844  0.5020283500527272  0.1851909148144474   T   T   T
 -0.0004421642526578  0.2514072590469810  0.1836249859196965   T   T   T
  0.5012404454627790  0.2513730424892200  0.1863613777467271   T   T   T
  0.0001113511196866  0.7510296946153151  0.1832803671863927   T   T   T
  0.5036889263584006  0.7512650806531290  0.1882273186472950   T   T   T
  0.2504421642526580  0.2514072590469810  0.1836249859196965   T   T   T
  0.7487595545372210  0.2513730424892200  0.1863613777467271   T   T   T
  0.2498886488803134  0.7510296946153151  0.1832803671863927   T   T   T
  0.7463110736415994  0.7512650806531290  0.1882273186472950   T   T   T
  0.9949919930692516  0.0028439909769519  0.2726584153949206   T   T   T
  0.4949889022536634 -0.0048570399146096  0.2745601693017163   T   T   T
 -0.0007911470478792  0.4998750201943344  0.2732065098555477   T   T   T
  0.5067603415705687  0.5158118745979871  0.2769534106531465   T   T   T
  0.2550080069307480  0.0028439909769519  0.2726582022909257   T   T   T
  0.7550110977463371 -0.0048570399146096  0.2745599561977214   T   T   T
  0.2507911470478792  0.4998750201943344  0.2732065098555477   T   T   T
  0.7432396584294313  0.5158118745979871  0.2769534106531465   T   T   T
  0.1250000000000000  0.2629173880920914  0.2724086926719352   T   T   T
  0.6250000000000000  0.2513489547934579  0.2750414790654147   T   T   T
  0.1250000000000000  0.7397523454440657  0.2725236285709188   T   T   T
  0.3770385599739736  0.2540196373859937  0.2740031260403541   T   T   T
  0.8729614400260262  0.2540196373859937  0.2740031260403541   T   T   T
  0.3728275021221887  0.7487719709064923  0.2738090497605953   T   T   T
  0.8771724978778113  0.7487719709064923  0.2738090497605952   T   T   T
 -0.0003092770231749  0.0012163857739907  0.0010372849949195   T   T   T
  0.4999111197181335  0.0009793514710069  0.0026443266320306   T   T   T
 -0.0001856746248306  0.5009025209323760  0.0018071703009322   T   T   T
  0.5000703511292335  0.5006136900021528  0.0028337633921091   T   T   T
  0.2503092770231751  0.0012163857739907  0.0010372849949195   T   T   T
  0.7500888802818665  0.0009793514710069  0.0026443266320306   T   T   T
  0.2501856746248305  0.5009025209323760  0.0018071703009322   T   T   T
  0.7499296488707665  0.5006136900021528  0.0028337633921091   T   T   T
  0.1250000000000000  0.2516629169847480  0.0008140362925254   T   T   T
  0.6250000000000000  0.2506819314831335  0.0026643122184809   T   T   T
  0.1250000000000000  0.7505219041120178  0.0005948688211173   T   T   T
  0.6250000000000000  0.7504515237333594  0.0025539679671436   T   T   T
  0.3751968562297331  0.2510129144238970  0.0025110991843350   T   T   T
  0.8748031437702669  0.2510129144238970  0.0025110991843350   T   T   T
  0.3749510466607895  0.7508627849925483  0.0022005565006037   T   T   T
  0.8750489533392102  0.7508627849925483  0.0022005565006037   T   T   T
  0.1250000000000000  0.0011345799317781  0.0910454478622275   T   T   T
  0.6250000000000000  0.0018345735603542  0.0937124360036578   T   T   T
  0.1250000000000000  0.5011004168767694  0.0934928674156732   T   T   T
  0.6250000000000000  0.4987824129933381  0.0947691683543987   T   T   T
  0.3741338376133060  0.0012953069963082  0.0943529469850897   T   T   T
  0.8758661623866945  0.0012953069963082  0.0943529469850897   T   T   T
  0.3745767532227248  0.5007473299193288  0.0945470024715730   T   T   T
  0.8754232467772750  0.5007473299193288  0.0945470024715730   T   T   T
  0.0006823439877685  0.2505486677442364  0.0937132874437743   T   T   T
  0.4996846781292669  0.2508199789014389  0.0951134732263380   T   T   T
  0.0009688008058725  0.7516225600072687  0.0934281713536949   T   T   T
  0.4990228509910570  0.7508875233531812  0.0942408806885744   T   T   T
  0.2493176560122316  0.2505486677442364  0.0937132874437743   T   T   T
  0.7503153218707334  0.2508199789014389  0.0951134732263380   T   T   T
  0.2490311991941274  0.7516225600072687  0.0934281713536949   T   T   T
  0.7509771490089429  0.7508875233531812  0.0942408806885744   T   T   T
  0.0037303635759877  0.0014293159227803  0.1846772770113549   T   T   T
  0.4995447095844932  0.0006432866293283  0.1847918185481425   T   T   T
  0.0016102997542225  0.5010123306878506  0.1838510351189642   T   T   T
  0.4997254032785161  0.5012933601152187  0.1856353662144477   T   T   T
  0.2462696364240123  0.0014293159227803  0.1846772770113549   T   T   T
  0.7504552904155066  0.0006432866293283  0.1847918185481425   T   T   T
  0.2483897002457773  0.5010123306878506  0.1838510351189642   T   T   T
  0.7502745967214836  0.5012933601152187  0.1856353662144477   T   T   T
  0.1250000000000000  0.2466163322119971  0.1843212854816785   T   T   T
  0.6250000000000000  0.2443531492703605  0.1853205547754145   T   T   T
  0.1250000000000000  0.7558932946080698  0.1843826398428195   T   T   T
  0.6250000000000000  0.7523122655984908  0.1800651387995202   T   T   T
  0.3738227385228905  0.2507793539049115  0.1842900196956661   T   T   T
  0.8761772614771095  0.2507793539049115  0.1842900196956661   T   T   T
  0.3721668728301809  0.7517213192215396  0.1837772414407486   T   T   T
  0.8778331271698190  0.7517213192215396  0.1837772414407486   T   T   T
  0.1249999747830017  0.0011453738283019  0.2937088796236758   T   T   T
  0.6249999747830017 -0.0012564363293174  0.2781327636872404   T   T   T
  0.1250000000000000  0.5014267363081978  0.2753545674499822   T   T   T
  0.6250000000000000  0.4833575331699596  0.2768233305574214   T   T   T
  0.3720807327621107  0.0043219856553913  0.2754730090241601   T   T   T
  0.8779192672378889  0.0043219856553913  0.2754730090241601   T   T   T
  0.3718753685865391  0.4991006561681295  0.2763402114474212   T   T   T
  0.8781246314134608  0.4991006561681295  0.2763402114474212   T   T   T
  0.0032972911266603  0.2488327446687205  0.2760577760647757   T   T   T
  0.4992953628698472  0.2438903028738597  0.2771851026384438   T   T   T
  0.0031620210221409  0.7542232532472405  0.2762209702036245   T   T   T
  0.4898193338007958  0.7554506471891285  0.2767890511179592   T   T   T
  0.2467027088733397  0.2488327446687205  0.2760577760647757   T   T   T
  0.7507046371301525  0.2438903028738597  0.2771851026384438   T   T   T
  0.2468379789778592  0.7542232532472405  0.2762209702036245   T   T   T
  0.7601806661992037  0.7554506471891286  0.2767890511179592   T   T   T
 
  0.00000000E+00  0.00000000E+00  0.00000000E+00
  0.00000000E+00  0.00000000E+00  0.00000000E+00
  0.00000000E+00  0.00000000E+00  0.00000000E+00
  0.00000000E+00  0.00000000E+00  0.00000000E+00
  0.00000000E+00  0.00000000E+00  0.00000000E+00
  0.00000000E+00  0.00000000E+00  0.00000000E+00
  0.00000000E+00  0.00000000E+00  0.00000000E+00
  0.00000000E+00  0.00000000E+00  0.00000000E+00
  0.00000000E+00  0.00000000E+00  0.00000000E+00
  0.00000000E+00  0.00000000E+00  0.00000000E+00
  0.00000000E+00  0.00000000E+00  0.00000000E+00
  0.00000000E+00  0.00000000E+00  0.00000000E+00
  0.00000000E+00  0.00000000E+00  0.00000000E+00
  0.00000000E+00  0.00000000E+00  0.00000000E+00
  0.00000000E+00  0.00000000E+00  0.00000000E+00
  0.00000000E+00  0.00000000E+00  0.00000000E+00
  0.00000000E+00  0.00000000E+00  0.00000000E+00
  0.00000000E+00  0.00000000E+00  0.00000000E+00
  0.00000000E+00  0.00000000E+00  0.00000000E+00
  0.00000000E+00  0.00000000E+00  0.00000000E+00
  0.00000000E+00  0.00000000E+00  0.00000000E+00
  0.00000000E+00  0.00000000E+00  0.00000000E+00
  0.00000000E+00  0.00000000E+00  0.00000000E+00
  0.00000000E+00  0.00000000E+00  0.00000000E+00
  0.00000000E+00  0.00000000E+00  0.00000000E+00
  0.00000000E+00  0.00000000E+00  0.00000000E+00
  0.00000000E+00  0.00000000E+00  0.00000000E+00
  0.00000000E+00  0.00000000E+00  0.00000000E+00
  0.00000000E+00  0.00000000E+00  0.00000000E+00
  0.00000000E+00  0.00000000E+00  0.00000000E+00
  0.00000000E+00  0.00000000E+00  0.00000000E+00
  0.00000000E+00  0.00000000E+00  0.00000000E+00
  0.00000000E+00  0.00000000E+00  0.00000000E+00
  0.00000000E+00  0.00000000E+00  0.00000000E+00
  0.00000000E+00  0.00000000E+00  0.00000000E+00
  0.00000000E+00  0.00000000E+00  0.00000000E+00
  0.00000000E+00  0.00000000E+00  0.00000000E+00
  0.00000000E+00  0.00000000E+00  0.00000000E+00
  0.00000000E+00  0.00000000E+00  0.00000000E+00
  0.00000000E+00  0.00000000E+00  0.00000000E+00
  0.00000000E+00  0.00000000E+00  0.00000000E+00
  0.00000000E+00  0.00000000E+00  0.00000000E+00
  0.00000000E+00  0.00000000E+00  0.00000000E+00
  0.00000000E+00  0.00000000E+00  0.00000000E+00
  0.00000000E+00  0.00000000E+00  0.00000000E+00
  0.00000000E+00  0.00000000E+00  0.00000000E+00
  0.00000000E+00  0.00000000E+00  0.00000000E+00
  0.00000000E+00  0.00000000E+00  0.00000000E+00
  0.00000000E+00  0.00000000E+00  0.00000000E+00
  0.00000000E+00  0.00000000E+00  0.00000000E+00
  0.00000000E+00  0.00000000E+00  0.00000000E+00
  0.00000000E+00  0.00000000E+00  0.00000000E+00
  0.00000000E+00  0.00000000E+00  0.00000000E+00
  0.00000000E+00  0.00000000E+00  0.00000000E+00
  0.00000000E+00  0.00000000E+00  0.00000000E+00
  0.00000000E+00  0.00000000E+00  0.00000000E+00
  0.00000000E+00  0.00000000E+00  0.00000000E+00
  0.00000000E+00  0.00000000E+00  0.00000000E+00
  0.00000000E+00  0.00000000E+00  0.00000000E+00
  0.00000000E+00  0.00000000E+00  0.00000000E+00
  0.00000000E+00  0.00000000E+00  0.00000000E+00
  0.00000000E+00  0.00000000E+00  0.00000000E+00
  0.00000000E+00  0.00000000E+00  0.00000000E+00
  0.00000000E+00  0.00000000E+00  0.00000000E+00
  0.00000000E+00  0.00000000E+00  0.00000000E+00
  0.00000000E+00  0.00000000E+00  0.00000000E+00
  0.00000000E+00  0.00000000E+00  0.00000000E+00
  0.00000000E+00  0.00000000E+00  0.00000000E+00
  0.00000000E+00  0.00000000E+00  0.00000000E+00
  0.00000000E+00  0.00000000E+00  0.00000000E+00
  0.00000000E+00  0.00000000E+00  0.00000000E+00
  0.00000000E+00  0.00000000E+00  0.00000000E+00
  0.00000000E+00  0.00000000E+00  0.00000000E+00
  0.00000000E+00  0.00000000E+00  0.00000000E+00
  0.00000000E+00  0.00000000E+00  0.00000000E+00
  0.00000000E+00  0.00000000E+00  0.00000000E+00
  0.00000000E+00  0.00000000E+00  0.00000000E+00
  0.00000000E+00  0.00000000E+00  0.00000000E+00
  0.00000000E+00  0.00000000E+00  0.00000000E+00
  0.00000000E+00  0.00000000E+00  0.00000000E+00
  0.00000000E+00  0.00000000E+00  0.00000000E+00
  0.00000000E+00  0.00000000E+00  0.00000000E+00
  0.00000000E+00  0.00000000E+00  0.00000000E+00
  0.00000000E+00  0.00000000E+00  0.00000000E+00
  0.00000000E+00  0.00000000E+00  0.00000000E+00
  0.00000000E+00  0.00000000E+00  0.00000000E+00
  0.00000000E+00  0.00000000E+00  0.00000000E+00
  0.00000000E+00  0.00000000E+00  0.00000000E+00
  0.00000000E+00  0.00000000E+00  0.00000000E+00
  0.00000000E+00  0.00000000E+00  0.00000000E+00
  0.00000000E+00  0.00000000E+00  0.00000000E+00
  0.00000000E+00  0.00000000E+00  0.00000000E+00
  0.00000000E+00  0.00000000E+00  0.00000000E+00
  0.00000000E+00  0.00000000E+00  0.00000000E+00
  0.00000000E+00  0.00000000E+00  0.00000000E+00
  0.00000000E+00  0.00000000E+00  0.00000000E+00
  0.00000000E+00  0.00000000E+00  0.00000000E+00
  0.00000000E+00  0.00000000E+00  0.00000000E+00
  0.00000000E+00  0.00000000E+00  0.00000000E+00
  0.00000000E+00  0.00000000E+00  0.00000000E+00
  0.00000000E+00  0.00000000E+00  0.00000000E+00
  0.00000000E+00  0.00000000E+00  0.00000000E+00
  0.00000000E+00  0.00000000E+00  0.00000000E+00
  0.00000000E+00  0.00000000E+00  0.00000000E+00
  0.00000000E+00  0.00000000E+00  0.00000000E+00
  0.00000000E+00  0.00000000E+00  0.00000000E+00
  0.00000000E+00  0.00000000E+00  0.00000000E+00
  0.00000000E+00  0.00000000E+00  0.00000000E+00
  0.00000000E+00  0.00000000E+00  0.00000000E+00
  0.00000000E+00  0.00000000E+00  0.00000000E+00
  0.00000000E+00  0.00000000E+00  0.00000000E+00
  0.00000000E+00  0.00000000E+00  0.00000000E+00
  0.00000000E+00  0.00000000E+00  0.00000000E+00
  0.00000000E+00  0.00000000E+00  0.00000000E+00
  0.00000000E+00  0.00000000E+00  0.00000000E+00
  0.00000000E+00  0.00000000E+00  0.00000000E+00
  0.00000000E+00  0.00000000E+00  0.00000000E+00
  0.00000000E+00  0.00000000E+00  0.00000000E+00
  0.00000000E+00  0.00000000E+00  0.00000000E+00
  0.00000000E+00  0.00000000E+00  0.00000000E+00
  0.00000000E+00  0.00000000E+00  0.00000000E+00
  0.00000000E+00  0.00000000E+00  0.00000000E+00
  0.00000000E+00  0.00000000E+00  0.00000000E+00
  0.00000000E+00  0.00000000E+00  0.00000000E+00
  0.00000000E+00  0.00000000E+00  0.00000000E+00
  0.00000000E+00  0.00000000E+00  0.00000000E+00
  0.00000000E+00  0.00000000E+00  0.00000000E+00
  0.00000000E+00  0.00000000E+00  0.00000000E+00
  0.00000000E+00  0.00000000E+00  0.00000000E+00
