H Mg O Ni                               
   1.00000000000000     
    16.8282433949600012    0.0000000000000000    0.0000000000000000
     0.0000000000000000    8.4141216974800006    0.0000000000000000
     0.0000000000000000    0.0000000000000000   23.4141216974799988
   H    Mg   O    Ni
     2    63    64     1
Selective dynamics
Direct
  0.1251742716775738  0.0013468032763701  0.3354490863462518   T   T   T
  0.6255200535982063  0.8843375283638463  0.2875972596643191   T   T   T
  0.1249974661047197  0.0011302109255022  0.0022146808504585   T   T   T
  0.6250252439753600  0.0012283305479916  0.0048545174251520   T   T   T
  0.1250230459539845  0.5009555983528949  0.0030378628506026   T   T   T
  0.6250154496002698  0.5001002933547688  0.0051929805658558   T   T   T
  0.3760345840807530  0.0010119906210212  0.0042407076442617   T   T   T
  0.8739592452826680  0.0009884099278582  0.0042059680295470   T   T   T
  0.3761005382169997  0.5009569997511298  0.0046255017525401   T   T   T
  0.8739139689632340  0.5009783602747392  0.0047257971891125   T   T   T
  0.9990995481335978  0.2513820623276865  0.0036313039259255   T   T   T
  0.5007155817158646  0.2511442866961827  0.0053147126446100   T   T   T
  0.9991232170168441  0.7506418705452085  0.0035015039975781   T   T   T
  0.5004082078397727  0.7505661087081537  0.0050394515984373   T   T   T
  0.2509112807337464  0.2513794184458328  0.0036789569890950   T   T   T
  0.7492938631427817  0.2511287732997228  0.0052830667628251   T   T   T
  0.2508657972266328  0.7506476665620444  0.0035368915993063   T   T   T
  0.7496067454137985  0.7505822506897848  0.0050175425654056   T   T   T
  0.9989958980269811  0.0011152570617695  0.0919119623253208   T   T   T
  0.5004934246003472  0.0001574885858583  0.0946646603879689   T   T   T
  0.9992903049002411  0.5010603496688139  0.0932433077883384   T   T   T
  0.5010450854823336  0.5016869019505076  0.0954124124854012   T   T   T
  0.2510008716205729  0.0011573474503050  0.0920837380246425   T   T   T
  0.7495366018348100  0.0000269124276195  0.0945827072014998   T   T   T
  0.2506858136627930  0.5010523556211256  0.0933053698289522   T   T   T
  0.7490810500641635  0.5017836826632627  0.0953463499863583   T   T   T
  0.1250662431925492  0.2524995884802692  0.0917173345362580   T   T   T
  0.6249579620030344  0.2510340729452146  0.0954825197409563   T   T   T
  0.1250521629748026  0.7497421875124101  0.0914634781480979   T   T   T
  0.6249956834110099  0.7496462882853274  0.0940702346505352   T   T   T
  0.3758408984243442  0.2513962262784063  0.0942910377616232   T   T   T
  0.8741377285928048  0.2515298445734251  0.0941553947886238   T   T   T
  0.3758200997371043  0.7506881781314680  0.0943495812910557   T   T   T
  0.8740684223008042  0.7505219641581273  0.0942929290212945   T   T   T
  0.1250451645091885  0.0014622304605156  0.1759920604973603   T   T   T
  0.6249926822369870  0.9937525053731915  0.1835539820806685   T   T   T
  0.1250505402827223  0.5009919225610144  0.1826726715330925   T   T   T
  0.6252969645156380  0.5079694387472270  0.1885281880856055   T   T   T
  0.3758739208553726  0.0004915509548501  0.1839589802097399   T   T   T
  0.8740739576914485  0.0003923905529853  0.1839809326535351   T   T   T
  0.3762382904876564  0.5020523027918261  0.1842374631505942   T   T   T
  0.8737029214180669  0.5019922235609199  0.1850484084485013   T   T   T
  0.9994209904075857  0.2513310242975881  0.1836642635548043   T   T   T
  0.5011772760626825  0.2520350712211002  0.1867867496325339   T   T   T
 -0.0000314537737761  0.7510805670227265  0.1833145480729025   T   T   T
  0.5033759661592656  0.7508325978117860  0.1881359132775927   T   T   T
  0.2505784206273672  0.2519959389758859  0.1842901509096594   T   T   T
  0.7488388346037035  0.2512272315811486  0.1862076900206659   T   T   T
  0.2499933926366350  0.7505414278253626  0.1838706898253697   T   T   T
  0.7462428752167793  0.7512296937445967  0.1881761758830962   T   T   T
  0.9948313742019477  0.0027545398720485  0.2728434184591538   T   T   T
  0.4962352920361057  0.9952387309253283  0.2743436361109898   T   T   T
  0.9988139616523117  0.4998286432287085  0.2733107608140730   T   T   T
  0.5113309818360368  0.5197040867704605  0.2788851435027973   T   T   T
  0.2540749772013292  0.0029664840097730  0.2725435908502475   T   T   T
  0.7550628166306834  0.9949436019965232  0.2745121607722046   T   T   T
  0.2468289765747696  0.4999212618377538  0.2757529364404911   T   T   T
  0.7445071133396266  0.5154040847641541  0.2768181149036137   T   T   T
  0.1243336212192501  0.2620138067319688  0.2725155545066619   T   T   T
  0.6255459114392162  0.2507851052587762  0.2749618288023550   T   T   T
  0.1243387482495054  0.7405985709916589  0.2726022177720321   T   T   T
  0.3774479890839573  0.2466487492011606  0.2760550885600589   T   T   T
  0.8729950709430995  0.2535885647552633  0.2740034572638014   T   T   T
  0.3726873099992207  0.7568049861471648  0.2754877392086860   T   T   T
  0.8771550009903930  0.7490745191976614  0.2737942376946032   T   T   T
  0.9997806293745606  0.0011977133012679  0.0011497679168310   T   T   T
  0.4997930344530236  0.0011047510780482  0.0026124358245278   T   T   T
  0.9999844271218409  0.5008712333642010  0.0019538536277328   T   T   T
  0.4999280399649612  0.5006522962307657  0.0027335960459334   T   T   T
  0.2502824382765672  0.0012048450719185  0.0012828601887768   T   T   T
  0.7501605560738370  0.0010848007863611  0.0025014494717224   T   T   T
  0.2501840628637986  0.5008609548410621  0.0018928340389927   T   T   T
  0.7499695536172690  0.5006650120499416  0.0027570283201022   T   T   T
  0.1250871011893127  0.2516189561137674  0.0010301131946434   T   T   T
  0.6249372615043596  0.2508107682668669  0.0025611038675045   T   T   T
  0.1250795961603258  0.7504599138129492  0.0007984250270632   T   T   T
  0.6249455681463048  0.7505231127293512  0.0024408125919097   T   T   T
  0.3750993431295883  0.2510243701702214  0.0025241117661815   T   T   T
  0.8749096530520892  0.2510702554069195  0.0024741998331958   T   T   T
  0.3748376862540300  0.7509233184721534  0.0022279420343918   T   T   T
  0.8751500320631345  0.7508758912970690  0.0021842781346518   T   T   T
  0.1250230155035288  0.0011367526092942  0.0911585224175550   T   T   T
  0.6249590357559964  0.0018593683494001  0.0935679621840785   T   T   T
  0.1252315763314843  0.5010895878003685  0.0937871151652152   T   T   T
  0.6248745589407277  0.4988354094778341  0.0946921652480852   T   T   T
  0.3741495858992800  0.0013839908260511  0.0945337898304253   T   T   T
  0.8758800804011421  0.0013266576737556  0.0943325831525985   T   T   T
  0.3745672294650157  0.5007384704046074  0.0945754340917167   T   T   T
  0.8754600059961541  0.5007672969197603  0.0944740772548845   T   T   T
  0.0006724600781700  0.2505518523569137  0.0937727810733346   T   T   T
  0.4995182117653230  0.2512031866198348  0.0951440665991829   T   T   T
  0.0009670023493128  0.7516298779809627  0.0934949832114044   T   T   T
  0.4988414296318988  0.7506560481276802  0.0941890868535096   T   T   T
  0.2495206060883658  0.2509674245294107  0.0940067021430092   T   T   T
  0.7503227512618512  0.2508227128575715  0.0949602519678631   T   T   T
  0.2492008111541087  0.7512614903520656  0.0937034610333310   T   T   T
  0.7509541607614321  0.7509691220144228  0.0941209899451580   T   T   T
  0.0037237272174463  0.0014267330507348  0.1847444448322782   T   T   T
  0.4994262163250235  0.0005087108981128  0.1845802973927149   T   T   T
  0.0014908720169918  0.5009792465787287  0.1839197154399604   T   T   T
  0.4993125542117160  0.5015060633219871  0.1864237423904730   T   T   T
  0.2465553345565586  0.0014774392550486  0.1843974750059291   T   T   T
  0.7503882127177061  0.0005289672180366  0.1846376200471594   T   T   T
  0.2490727280633377  0.5010503823764266  0.1849642562062722   T   T   T
  0.7504298457094006  0.5012560646438089  0.1854114172950506   T   T   T
  0.1247859461913393  0.2467520772440832  0.1843086749185171   T   T   T
  0.6250829955511480  0.2446321955309082  0.1851410174389935   T   T   T
  0.1247814105984791  0.7557727829556461  0.1843563195352776   T   T   T
  0.6248824875142822  0.7519531846870394  0.1799593587895486   T   T   T
  0.3740157732947564  0.2521185937726306  0.1852630533237939   T   T   T
  0.8761126368597243  0.2506967299693869  0.1842336532656034   T   T   T
  0.3723624478039295  0.7505468573987472  0.1844934566431136   T   T   T
  0.8777527879752450  0.7517264696310355  0.1837226518291848   T   T   T
  0.1241342232907723  0.0011416870399640  0.2937884467438003   T   T   T
  0.6254793772319557  0.9979876488349989  0.2777368448834622   T   T   T
  0.1237274635745882  0.5014164834531615  0.2753811587334681   T   T   T
  0.6270146740867613  0.4829786368531068  0.2766679421883983   T   T   T
  0.3720061848685402  0.0034165581989984  0.2753540578005592   T   T   T
  0.8777838126145177  0.0041211196411268  0.2754333905876787   T   T   T
  0.3717162530757097  0.4991819315596012  0.2767749365700869   T   T   T
  0.8777813242160991  0.4989914981949666  0.2762803994998680   T   T   T
  0.0027878471052309  0.2487966840473669  0.2760270165576902   T   T   T
  0.5002812122505047  0.2420646999992163  0.2767588634958004   T   T   T
  0.0026974828424085  0.7541682899801123  0.2761662531327544   T   T   T
  0.4903856593471748  0.7565969608328313  0.2763214532383118   T   T   T
  0.2457628949082352  0.2473951714283834  0.2752332215387525   T   T   T
  0.7509118652062984  0.2432928696299051  0.2770273171895218   T   T   T
  0.2459535899472655  0.7558099947046966  0.2753139399666720   T   T   T
  0.7601729421627941  0.7554074933732652  0.2766621563753627   T   T   T
  0.3709148241899921  0.4983389497403090  0.3531767626717290   T   T   T
 
  0.00000000E+00  0.00000000E+00  0.00000000E+00
  0.00000000E+00  0.00000000E+00  0.00000000E+00
  0.00000000E+00  0.00000000E+00  0.00000000E+00
  0.00000000E+00  0.00000000E+00  0.00000000E+00
  0.00000000E+00  0.00000000E+00  0.00000000E+00
  0.00000000E+00  0.00000000E+00  0.00000000E+00
  0.00000000E+00  0.00000000E+00  0.00000000E+00
  0.00000000E+00  0.00000000E+00  0.00000000E+00
  0.00000000E+00  0.00000000E+00  0.00000000E+00
  0.00000000E+00  0.00000000E+00  0.00000000E+00
  0.00000000E+00  0.00000000E+00  0.00000000E+00
  0.00000000E+00  0.00000000E+00  0.00000000E+00
  0.00000000E+00  0.00000000E+00  0.00000000E+00
  0.00000000E+00  0.00000000E+00  0.00000000E+00
  0.00000000E+00  0.00000000E+00  0.00000000E+00
  0.00000000E+00  0.00000000E+00  0.00000000E+00
  0.00000000E+00  0.00000000E+00  0.00000000E+00
  0.00000000E+00  0.00000000E+00  0.00000000E+00
  0.00000000E+00  0.00000000E+00  0.00000000E+00
  0.00000000E+00  0.00000000E+00  0.00000000E+00
  0.00000000E+00  0.00000000E+00  0.00000000E+00
  0.00000000E+00  0.00000000E+00  0.00000000E+00
  0.00000000E+00  0.00000000E+00  0.00000000E+00
  0.00000000E+00  0.00000000E+00  0.00000000E+00
  0.00000000E+00  0.00000000E+00  0.00000000E+00
  0.00000000E+00  0.00000000E+00  0.00000000E+00
  0.00000000E+00  0.00000000E+00  0.00000000E+00
  0.00000000E+00  0.00000000E+00  0.00000000E+00
  0.00000000E+00  0.00000000E+00  0.00000000E+00
  0.00000000E+00  0.00000000E+00  0.00000000E+00
  0.00000000E+00  0.00000000E+00  0.00000000E+00
  0.00000000E+00  0.00000000E+00  0.00000000E+00
  0.00000000E+00  0.00000000E+00  0.00000000E+00
  0.00000000E+00  0.00000000E+00  0.00000000E+00
  0.00000000E+00  0.00000000E+00  0.00000000E+00
  0.00000000E+00  0.00000000E+00  0.00000000E+00
  0.00000000E+00  0.00000000E+00  0.00000000E+00
  0.00000000E+00  0.00000000E+00  0.00000000E+00
  0.00000000E+00  0.00000000E+00  0.00000000E+00
  0.00000000E+00  0.00000000E+00  0.00000000E+00
  0.00000000E+00  0.00000000E+00  0.00000000E+00
  0.00000000E+00  0.00000000E+00  0.00000000E+00
  0.00000000E+00  0.00000000E+00  0.00000000E+00
  0.00000000E+00  0.00000000E+00  0.00000000E+00
  0.00000000E+00  0.00000000E+00  0.00000000E+00
  0.00000000E+00  0.00000000E+00  0.00000000E+00
  0.00000000E+00  0.00000000E+00  0.00000000E+00
  0.00000000E+00  0.00000000E+00  0.00000000E+00
  0.00000000E+00  0.00000000E+00  0.00000000E+00
  0.00000000E+00  0.00000000E+00  0.00000000E+00
  0.00000000E+00  0.00000000E+00  0.00000000E+00
  0.00000000E+00  0.00000000E+00  0.00000000E+00
  0.00000000E+00  0.00000000E+00  0.00000000E+00
  0.00000000E+00  0.00000000E+00  0.00000000E+00
  0.00000000E+00  0.00000000E+00  0.00000000E+00
  0.00000000E+00  0.00000000E+00  0.00000000E+00
  0.00000000E+00  0.00000000E+00  0.00000000E+00
  0.00000000E+00  0.00000000E+00  0.00000000E+00
  0.00000000E+00  0.00000000E+00  0.00000000E+00
  0.00000000E+00  0.00000000E+00  0.00000000E+00
  0.00000000E+00  0.00000000E+00  0.00000000E+00
  0.00000000E+00  0.00000000E+00  0.00000000E+00
  0.00000000E+00  0.00000000E+00  0.00000000E+00
  0.00000000E+00  0.00000000E+00  0.00000000E+00
  0.00000000E+00  0.00000000E+00  0.00000000E+00
  0.00000000E+00  0.00000000E+00  0.00000000E+00
  0.00000000E+00  0.00000000E+00  0.00000000E+00
  0.00000000E+00  0.00000000E+00  0.00000000E+00
  0.00000000E+00  0.00000000E+00  0.00000000E+00
  0.00000000E+00  0.00000000E+00  0.00000000E+00
  0.00000000E+00  0.00000000E+00  0.00000000E+00
  0.00000000E+00  0.00000000E+00  0.00000000E+00
  0.00000000E+00  0.00000000E+00  0.00000000E+00
  0.00000000E+00  0.00000000E+00  0.00000000E+00
  0.00000000E+00  0.00000000E+00  0.00000000E+00
  0.00000000E+00  0.00000000E+00  0.00000000E+00
  0.00000000E+00  0.00000000E+00  0.00000000E+00
  0.00000000E+00  0.00000000E+00  0.00000000E+00
  0.00000000E+00  0.00000000E+00  0.00000000E+00
  0.00000000E+00  0.00000000E+00  0.00000000E+00
  0.00000000E+00  0.00000000E+00  0.00000000E+00
  0.00000000E+00  0.00000000E+00  0.00000000E+00
  0.00000000E+00  0.00000000E+00  0.00000000E+00
  0.00000000E+00  0.00000000E+00  0.00000000E+00
  0.00000000E+00  0.00000000E+00  0.00000000E+00
  0.00000000E+00  0.00000000E+00  0.00000000E+00
  0.00000000E+00  0.00000000E+00  0.00000000E+00
  0.00000000E+00  0.00000000E+00  0.00000000E+00
  0.00000000E+00  0.00000000E+00  0.00000000E+00
  0.00000000E+00  0.00000000E+00  0.00000000E+00
  0.00000000E+00  0.00000000E+00  0.00000000E+00
  0.00000000E+00  0.00000000E+00  0.00000000E+00
  0.00000000E+00  0.00000000E+00  0.00000000E+00
  0.00000000E+00  0.00000000E+00  0.00000000E+00
  0.00000000E+00  0.00000000E+00  0.00000000E+00
  0.00000000E+00  0.00000000E+00  0.00000000E+00
  0.00000000E+00  0.00000000E+00  0.00000000E+00
  0.00000000E+00  0.00000000E+00  0.00000000E+00
  0.00000000E+00  0.00000000E+00  0.00000000E+00
  0.00000000E+00  0.00000000E+00  0.00000000E+00
  0.00000000E+00  0.00000000E+00  0.00000000E+00
  0.00000000E+00  0.00000000E+00  0.00000000E+00
  0.00000000E+00  0.00000000E+00  0.00000000E+00
  0.00000000E+00  0.00000000E+00  0.00000000E+00
  0.00000000E+00  0.00000000E+00  0.00000000E+00
  0.00000000E+00  0.00000000E+00  0.00000000E+00
  0.00000000E+00  0.00000000E+00  0.00000000E+00
  0.00000000E+00  0.00000000E+00  0.00000000E+00
  0.00000000E+00  0.00000000E+00  0.00000000E+00
  0.00000000E+00  0.00000000E+00  0.00000000E+00
  0.00000000E+00  0.00000000E+00  0.00000000E+00
  0.00000000E+00  0.00000000E+00  0.00000000E+00
  0.00000000E+00  0.00000000E+00  0.00000000E+00
  0.00000000E+00  0.00000000E+00  0.00000000E+00
  0.00000000E+00  0.00000000E+00  0.00000000E+00
  0.00000000E+00  0.00000000E+00  0.00000000E+00
  0.00000000E+00  0.00000000E+00  0.00000000E+00
  0.00000000E+00  0.00000000E+00  0.00000000E+00
  0.00000000E+00  0.00000000E+00  0.00000000E+00
  0.00000000E+00  0.00000000E+00  0.00000000E+00
  0.00000000E+00  0.00000000E+00  0.00000000E+00
  0.00000000E+00  0.00000000E+00  0.00000000E+00
  0.00000000E+00  0.00000000E+00  0.00000000E+00
  0.00000000E+00  0.00000000E+00  0.00000000E+00
  0.00000000E+00  0.00000000E+00  0.00000000E+00
  0.00000000E+00  0.00000000E+00  0.00000000E+00
  0.00000000E+00  0.00000000E+00  0.00000000E+00
  0.00000000E+00  0.00000000E+00  0.00000000E+00
  0.00000000E+00  0.00000000E+00  0.00000000E+00
  0.00000000E+00  0.00000000E+00  0.00000000E+00
