H Mg O Ir                               
   1.00000000000000     
    16.8282433949600012    0.0000000000000000    0.0000000000000000
     0.0000000000000000    8.4141216974800006    0.0000000000000000
     0.0000000000000000    0.0000000000000000   23.4141216974799988
   H    Mg   O    Ir
     2    63    64     1
Selective dynamics
Direct
  0.1251922209474804  0.0013390342788960  0.3354780961215308   T   T   T
  0.6258305759199031  0.8842092435532009  0.2876695720259432   T   T   T
  0.1249839182105048  0.0011360487914776  0.0022115020385193   T   T   T
  0.6250312994174635  0.0012189555731047  0.0048449078252160   T   T   T
  0.1249894266248174  0.5009511890623389  0.0030110994783883   T   T   T
  0.6250490741980981  0.5001061121454831  0.0051549639368926   T   T   T
  0.3760314634509055  0.0010222320858219  0.0041759788068047   T   T   T
  0.8739601973662289  0.0009917834894044  0.0042012588256362   T   T   T
  0.3760856520324283  0.5009542193198649  0.0045703437632914   T   T   T
  0.8739221722376985  0.5009783096780227  0.0047099151698695   T   T   T
  0.9991023655362673  0.2513635446844027  0.0036356478237920   T   T   T
  0.5007366315560118  0.2511054166078943  0.0052820967271863   T   T   T
  0.9991184400834446  0.7506615842486742  0.0035027649807302   T   T   T
  0.5004337756487868  0.7505954617549401  0.0049969353790990   T   T   T
  0.2508781791568378  0.2513696661895931  0.0036521671623004   T   T   T
  0.7492979945642287  0.2511074055101085  0.0052775316554057   T   T   T
  0.2508282479673909  0.7506769145114328  0.0035071530839137   T   T   T
  0.7496050095677504  0.7506124185191907  0.0050137018561735   T   T   T
  0.9989910656916015  0.0011251963941448  0.0919107894546052   T   T   T
  0.5005224774736762  0.0001318420777488  0.0946501571687617   T   T   T
  0.9992506497297535  0.5010565477893396  0.0932245708417524   T   T   T
  0.5011509289205461  0.5016619840851665  0.0953014809767510   T   T   T
  0.2509595275230103  0.0012029071709640  0.0920661422284384   T   T   T
  0.7495326308465105  0.0000175053158516  0.0945769777883996   T   T   T
  0.2505871151054129  0.5010579135929930  0.0932359571857610   T   T   T
  0.7491357435657029  0.5017836755391870  0.0953165290079466   T   T   T
  0.1250398611239760  0.2524708098407078  0.0917115639222595   T   T   T
  0.6249845347606833  0.2509736420751135  0.0954646721844220   T   T   T
  0.1250057235434338  0.7497820146657904  0.0914512528116654   T   T   T
  0.6250083134420539  0.7496616189418552  0.0940647128352254   T   T   T
  0.3758434035442130  0.2513070981038116  0.0941841413431838   T   T   T
  0.8741394080134803  0.2515233843358713  0.0941558377185547   T   T   T
  0.3758079845507972  0.7507928762817195  0.0942137839728516   T   T   T
  0.8740570369049935  0.7505322205756295  0.0942922413431767   T   T   T
  0.1250092546316564  0.0014962105624498  0.1760059963066718   T   T   T
  0.6249621484561276  0.9936832869859692  0.1835489213418745   T   T   T
  0.1248881610832919  0.5009938131719862  0.1826299711170302   T   T   T
  0.6254666375536956  0.5078666361143881  0.1884547853159929   T   T   T
  0.3758613889000678  0.0005249397534702  0.1838809132341951   T   T   T
  0.8740670451708868  0.0003828569903807  0.1839749925266171   T   T   T
  0.3763385809412840  0.5020942683525073  0.1837053482124804   T   T   T
  0.8737208820870800  0.5019916631245560  0.1850150896340705   T   T   T
  0.9994022968162080  0.2513157604989007  0.1836797976310986   T   T   T
  0.5012024019771146  0.2521067853133993  0.1867736964549634   T   T   T
 -0.0000654754454749  0.7511101626275853  0.1833119771235201   T   T   T
  0.5032627310313426  0.7505944334306932  0.1880788205271736   T   T   T
  0.2505731750323198  0.2521182686187988  0.1842427835354304   T   T   T
  0.7488775703620388  0.2511685741930232  0.1861929810896208   T   T   T
  0.2499300962005192  0.7505584078484702  0.1837769664378410   T   T   T
  0.7462365481843130  0.7512182055022496  0.1881761499433530   T   T   T
  0.9948004291152053  0.0027795926469360  0.2728397601841547   T   T   T
  0.4960861836665464  0.9950893017339014  0.2745248761436657   T   T   T
  0.9987448275945670  0.4998348298500931  0.2733069512787591   T   T   T
  0.5120332300271856  0.5193371856705010  0.2791043642990361   T   T   T
  0.2541009570710992  0.0030649608066334  0.2726347701906380   T   T   T
  0.7551534731514703  0.9949403816752593  0.2745024206625269   T   T   T
  0.2464535449696590  0.5002053043148101  0.2755795389778120   T   T   T
  0.7448174182487713  0.5153815177638715  0.2768032093992011   T   T   T
  0.1242974924834544  0.2621969467789065  0.2725955373306040   T   T   T
  0.6257272706130828  0.2507565720946460  0.2749872185381055   T   T   T
  0.1242509745690975  0.7405246182585558  0.2726124648411462   T   T   T
  0.3774141491948857  0.2462854245638255  0.2759158385266244   T   T   T
  0.8730222183720568  0.2534970358917106  0.2740059991151328   T   T   T
  0.3722841304717453  0.7570970604408063  0.2753505076747044   T   T   T
  0.8771752251273726  0.7491648326891438  0.2737910092062504   T   T   T
  0.9997839436301850  0.0011958849031414  0.0011476998544218   T   T   T
  0.4997896359133328  0.0011090932461543  0.0025837750959109   T   T   T
  0.9999667392000525  0.5008660257465988  0.0019275018949138   T   T   T
  0.4999297687868908  0.5006381292864976  0.0027082068736190   T   T   T
  0.2502729233020800  0.0012201768557711  0.0012681934582201   T   T   T
  0.7501559311014488  0.0010916417456550  0.0024905065123025   T   T   T
  0.2501693749446510  0.5008652574339457  0.0018754488202346   T   T   T
  0.7499887929365084  0.5006696933048661  0.0027244893583794   T   T   T
  0.1250801766981204  0.2516088268772800  0.0010226704604622   T   T   T
  0.6249403135489048  0.2508024493375870  0.0025440292242595   T   T   T
  0.1250686785792661  0.7504720872206905  0.0007912641848041   T   T   T
  0.6249455604831666  0.7505326981152691  0.0024200219683601   T   T   T
  0.3750916990793385  0.2510590408211606  0.0024778302512096   T   T   T
  0.8749153539572715  0.2510611624945672  0.0024700228023122   T   T   T
  0.3748248268667352  0.7509039445334080  0.0021747596821310   T   T   T
  0.8751492748628091  0.7508919716704471  0.0021800401287084   T   T   T
  0.1250261641650445  0.0011614356912382  0.0911518166257920   T   T   T
  0.6249278030926665  0.0018181959945077  0.0935629631451083   T   T   T
  0.1251448532353676  0.5010776045958827  0.0937160895927716   T   T   T
  0.6249352989636487  0.4988186427899926  0.0946255212530078   T   T   T
  0.3741574927132387  0.0013803727439749  0.0944204910140497   T   T   T
  0.8758782588803955  0.0013287239282543  0.0943130900097159   T   T   T
  0.3745697967899175  0.5007527229870006  0.0944918684125013   T   T   T
  0.8754685160973815  0.5007663959996795  0.0944330428805520   T   T   T
  0.0006895341600337  0.2505302007860782  0.0937665238570746   T   T   T
  0.4995361858310625  0.2511260894257412  0.0951039646508447   T   T   T
  0.0009637879557044  0.7516529541607624  0.0934746928227304   T   T   T
  0.4988400650609423  0.7506712946780935  0.0941260609497633   T   T   T
  0.2494920935739442  0.2509226913619729  0.0939451372805216   T   T   T
  0.7503133473929903  0.2507895154960258  0.0949396233129356   T   T   T
  0.2491714100680055  0.7513510366248942  0.0936400352973449   T   T   T
  0.7509285658695607  0.7509868632170327  0.0941150021739660   T   T   T
  0.0037159506330800  0.0014498488510285  0.1847219212679723   T   T   T
  0.4994437159898373  0.0003036994118788  0.1846898419244563   T   T   T
  0.0014409530840910  0.5009726191543185  0.1838820307983353   T   T   T
  0.4994949524881386  0.5015325332855589  0.1862472096841546   T   T   T
  0.2464932867277228  0.0015612274524053  0.1844490477163474   T   T   T
  0.7503444219175409  0.0004783059383779  0.1846177139944513   T   T   T
  0.2488934114268819  0.5010870852731946  0.1846681058813878   T   T   T
  0.7504877503091181  0.5012348467101082  0.1853346858761797   T   T   T
  0.1248251747200752  0.2467111199029676  0.1843573936253234   T   T   T
  0.6250537367845650  0.2444898086761151  0.1851407775245780   T   T   T
  0.1247599185544159  0.7558564149958867  0.1843395405712740   T   T   T
  0.6247862648026370  0.7518985148051590  0.1799893137619686   T   T   T
  0.3740292661222844  0.2518887045412620  0.1850029935060152   T   T   T
  0.8761077658336874  0.2506630127764465  0.1842021823171248   T   T   T
  0.3723685979850205  0.7507590565939540  0.1842611445478929   T   T   T
  0.8777359351772669  0.7517466820616022  0.1836918062380985   T   T   T
  0.1242801518775814  0.0012606396954142  0.2938111321822335   T   T   T
  0.6252605215974686  0.9979436675401508  0.2777348987170409   T   T   T
  0.1236222055672622  0.5014610347581346  0.2752943618170978   T   T   T
  0.6273329814316602  0.4828642259155150  0.2765338074725662   T   T   T
  0.3719966020605506  0.0034119991530985  0.2751320370107415   T   T   T
  0.8777746238774320  0.0040726097017145  0.2753975981650565   T   T   T
  0.3711030730588847  0.4989759819766356  0.2744618908910588   T   T   T
  0.8777006212541434  0.4989923148925831  0.2762470848249430   T   T   T
  0.0027463226003928  0.2487661981785146  0.2760165907559375   T   T   T
  0.5001941836479432  0.2427076115081608  0.2767365588222408   T   T   T
  0.0026561971157005  0.7542434155604844  0.2761409573863029   T   T   T
  0.4899855433708381  0.7557298389168232  0.2765239644795989   T   T   T
  0.2459817827666589  0.2480308041655498  0.2753500768774020   T   T   T
  0.7509845478742628  0.2429939807791670  0.2769855727379404   T   T   T
  0.2459837118141266  0.7553975121637306  0.2752289616884426   T   T   T
  0.7601549707235582  0.7554907780394995  0.2766242661928203   T   T   T
  0.3718320331747498  0.4994865470651615  0.3595017060983472   T   T   T
 
  0.00000000E+00  0.00000000E+00  0.00000000E+00
  0.00000000E+00  0.00000000E+00  0.00000000E+00
  0.00000000E+00  0.00000000E+00  0.00000000E+00
  0.00000000E+00  0.00000000E+00  0.00000000E+00
  0.00000000E+00  0.00000000E+00  0.00000000E+00
  0.00000000E+00  0.00000000E+00  0.00000000E+00
  0.00000000E+00  0.00000000E+00  0.00000000E+00
  0.00000000E+00  0.00000000E+00  0.00000000E+00
  0.00000000E+00  0.00000000E+00  0.00000000E+00
  0.00000000E+00  0.00000000E+00  0.00000000E+00
  0.00000000E+00  0.00000000E+00  0.00000000E+00
  0.00000000E+00  0.00000000E+00  0.00000000E+00
  0.00000000E+00  0.00000000E+00  0.00000000E+00
  0.00000000E+00  0.00000000E+00  0.00000000E+00
  0.00000000E+00  0.00000000E+00  0.00000000E+00
  0.00000000E+00  0.00000000E+00  0.00000000E+00
  0.00000000E+00  0.00000000E+00  0.00000000E+00
  0.00000000E+00  0.00000000E+00  0.00000000E+00
  0.00000000E+00  0.00000000E+00  0.00000000E+00
  0.00000000E+00  0.00000000E+00  0.00000000E+00
  0.00000000E+00  0.00000000E+00  0.00000000E+00
  0.00000000E+00  0.00000000E+00  0.00000000E+00
  0.00000000E+00  0.00000000E+00  0.00000000E+00
  0.00000000E+00  0.00000000E+00  0.00000000E+00
  0.00000000E+00  0.00000000E+00  0.00000000E+00
  0.00000000E+00  0.00000000E+00  0.00000000E+00
  0.00000000E+00  0.00000000E+00  0.00000000E+00
  0.00000000E+00  0.00000000E+00  0.00000000E+00
  0.00000000E+00  0.00000000E+00  0.00000000E+00
  0.00000000E+00  0.00000000E+00  0.00000000E+00
  0.00000000E+00  0.00000000E+00  0.00000000E+00
  0.00000000E+00  0.00000000E+00  0.00000000E+00
  0.00000000E+00  0.00000000E+00  0.00000000E+00
  0.00000000E+00  0.00000000E+00  0.00000000E+00
  0.00000000E+00  0.00000000E+00  0.00000000E+00
  0.00000000E+00  0.00000000E+00  0.00000000E+00
  0.00000000E+00  0.00000000E+00  0.00000000E+00
  0.00000000E+00  0.00000000E+00  0.00000000E+00
  0.00000000E+00  0.00000000E+00  0.00000000E+00
  0.00000000E+00  0.00000000E+00  0.00000000E+00
  0.00000000E+00  0.00000000E+00  0.00000000E+00
  0.00000000E+00  0.00000000E+00  0.00000000E+00
  0.00000000E+00  0.00000000E+00  0.00000000E+00
  0.00000000E+00  0.00000000E+00  0.00000000E+00
  0.00000000E+00  0.00000000E+00  0.00000000E+00
  0.00000000E+00  0.00000000E+00  0.00000000E+00
  0.00000000E+00  0.00000000E+00  0.00000000E+00
  0.00000000E+00  0.00000000E+00  0.00000000E+00
  0.00000000E+00  0.00000000E+00  0.00000000E+00
  0.00000000E+00  0.00000000E+00  0.00000000E+00
  0.00000000E+00  0.00000000E+00  0.00000000E+00
  0.00000000E+00  0.00000000E+00  0.00000000E+00
  0.00000000E+00  0.00000000E+00  0.00000000E+00
  0.00000000E+00  0.00000000E+00  0.00000000E+00
  0.00000000E+00  0.00000000E+00  0.00000000E+00
  0.00000000E+00  0.00000000E+00  0.00000000E+00
  0.00000000E+00  0.00000000E+00  0.00000000E+00
  0.00000000E+00  0.00000000E+00  0.00000000E+00
  0.00000000E+00  0.00000000E+00  0.00000000E+00
  0.00000000E+00  0.00000000E+00  0.00000000E+00
  0.00000000E+00  0.00000000E+00  0.00000000E+00
  0.00000000E+00  0.00000000E+00  0.00000000E+00
  0.00000000E+00  0.00000000E+00  0.00000000E+00
  0.00000000E+00  0.00000000E+00  0.00000000E+00
  0.00000000E+00  0.00000000E+00  0.00000000E+00
  0.00000000E+00  0.00000000E+00  0.00000000E+00
  0.00000000E+00  0.00000000E+00  0.00000000E+00
  0.00000000E+00  0.00000000E+00  0.00000000E+00
  0.00000000E+00  0.00000000E+00  0.00000000E+00
  0.00000000E+00  0.00000000E+00  0.00000000E+00
  0.00000000E+00  0.00000000E+00  0.00000000E+00
  0.00000000E+00  0.00000000E+00  0.00000000E+00
  0.00000000E+00  0.00000000E+00  0.00000000E+00
  0.00000000E+00  0.00000000E+00  0.00000000E+00
  0.00000000E+00  0.00000000E+00  0.00000000E+00
  0.00000000E+00  0.00000000E+00  0.00000000E+00
  0.00000000E+00  0.00000000E+00  0.00000000E+00
  0.00000000E+00  0.00000000E+00  0.00000000E+00
  0.00000000E+00  0.00000000E+00  0.00000000E+00
  0.00000000E+00  0.00000000E+00  0.00000000E+00
  0.00000000E+00  0.00000000E+00  0.00000000E+00
  0.00000000E+00  0.00000000E+00  0.00000000E+00
  0.00000000E+00  0.00000000E+00  0.00000000E+00
  0.00000000E+00  0.00000000E+00  0.00000000E+00
  0.00000000E+00  0.00000000E+00  0.00000000E+00
  0.00000000E+00  0.00000000E+00  0.00000000E+00
  0.00000000E+00  0.00000000E+00  0.00000000E+00
  0.00000000E+00  0.00000000E+00  0.00000000E+00
  0.00000000E+00  0.00000000E+00  0.00000000E+00
  0.00000000E+00  0.00000000E+00  0.00000000E+00
  0.00000000E+00  0.00000000E+00  0.00000000E+00
  0.00000000E+00  0.00000000E+00  0.00000000E+00
  0.00000000E+00  0.00000000E+00  0.00000000E+00
  0.00000000E+00  0.00000000E+00  0.00000000E+00
  0.00000000E+00  0.00000000E+00  0.00000000E+00
  0.00000000E+00  0.00000000E+00  0.00000000E+00
  0.00000000E+00  0.00000000E+00  0.00000000E+00
  0.00000000E+00  0.00000000E+00  0.00000000E+00
  0.00000000E+00  0.00000000E+00  0.00000000E+00
  0.00000000E+00  0.00000000E+00  0.00000000E+00
  0.00000000E+00  0.00000000E+00  0.00000000E+00
  0.00000000E+00  0.00000000E+00  0.00000000E+00
  0.00000000E+00  0.00000000E+00  0.00000000E+00
  0.00000000E+00  0.00000000E+00  0.00000000E+00
  0.00000000E+00  0.00000000E+00  0.00000000E+00
  0.00000000E+00  0.00000000E+00  0.00000000E+00
  0.00000000E+00  0.00000000E+00  0.00000000E+00
  0.00000000E+00  0.00000000E+00  0.00000000E+00
  0.00000000E+00  0.00000000E+00  0.00000000E+00
  0.00000000E+00  0.00000000E+00  0.00000000E+00
  0.00000000E+00  0.00000000E+00  0.00000000E+00
  0.00000000E+00  0.00000000E+00  0.00000000E+00
  0.00000000E+00  0.00000000E+00  0.00000000E+00
  0.00000000E+00  0.00000000E+00  0.00000000E+00
  0.00000000E+00  0.00000000E+00  0.00000000E+00
  0.00000000E+00  0.00000000E+00  0.00000000E+00
  0.00000000E+00  0.00000000E+00  0.00000000E+00
  0.00000000E+00  0.00000000E+00  0.00000000E+00
  0.00000000E+00  0.00000000E+00  0.00000000E+00
  0.00000000E+00  0.00000000E+00  0.00000000E+00
  0.00000000E+00  0.00000000E+00  0.00000000E+00
  0.00000000E+00  0.00000000E+00  0.00000000E+00
  0.00000000E+00  0.00000000E+00  0.00000000E+00
  0.00000000E+00  0.00000000E+00  0.00000000E+00
  0.00000000E+00  0.00000000E+00  0.00000000E+00
  0.00000000E+00  0.00000000E+00  0.00000000E+00
  0.00000000E+00  0.00000000E+00  0.00000000E+00
  0.00000000E+00  0.00000000E+00  0.00000000E+00
  0.00000000E+00  0.00000000E+00  0.00000000E+00
  0.00000000E+00  0.00000000E+00  0.00000000E+00
