H Mg O Mn                               
   1.00000000000000     
    16.8282433949600012    0.0000000000000000    0.0000000000000000
     0.0000000000000000    8.4141216974800006    0.0000000000000000
     0.0000000000000000    0.0000000000000000   23.4141216974799988
   H    Mg   O    Mn
     2    63    64     1
Selective dynamics
Direct
  0.1252519437751555  0.0013471143326689  0.3355939536222252   T   T   T
  0.6259167353252014  0.8845134530152755  0.2878035589907653   T   T   T
  0.1249279500506312  0.0011371335081706  0.0021676355054704   T   T   T
  0.6250809842846360  0.0012125093429075  0.0048174015874409   T   T   T
  0.1249865490971649  0.5009608300909365  0.0029873586923423   T   T   T
  0.6250366817580599  0.5001067845480065  0.0051549248784333   T   T   T
  0.3760374365478589  0.0010185041786420  0.0041228907353163   T   T   T
  0.8739540073612195  0.0009930041200297  0.0042107970247106   T   T   T
  0.3760948375476998  0.5009597226906474  0.0045278418650318   T   T   T
  0.8739177478833068  0.5009809375616765  0.0046845178724684   T   T   T
  0.9990504222545996  0.2513552745877503  0.0036073905379784   T   T   T
  0.5007550221672766  0.2511903828962126  0.0052252309690819   T   T   T
  0.9990703811007071  0.7506814843554804  0.0034750107386578   T   T   T
  0.5004490616169820  0.7505291820424220  0.0049537557503393   T   T   T
  0.2508584537083200  0.2514401332632604  0.0035621016133991   T   T   T
  0.7493419428926340  0.2510892089433076  0.0052572301542557   T   T   T
  0.2508052689172863  0.7506072506898415  0.0034159261440447   T   T   T
  0.7496436741037845  0.7506243145080004  0.0049931248937571   T   T   T
  0.9989529539383650  0.0011216074461836  0.0919289186019829   T   T   T
  0.5006289754056841  0.0001546561770927  0.0945059714691355   T   T   T
  0.9991555526826866  0.5010699783277830  0.0932117100251611   T   T   T
  0.5010705854685108  0.5016911846211444  0.0952591627350428   T   T   T
  0.2508340105682146  0.0011652569062458  0.0918976256489907   T   T   T
  0.7495650301535773  0.0000190923888612  0.0945870913646916   T   T   T
  0.2506354165880750  0.5010675098800034  0.0931329408368867   T   T   T
  0.7492569295257786  0.5017775545673706  0.0952810910879649   T   T   T
  0.1248887309571509  0.2524083323558267  0.0916366558120668   T   T   T
  0.6251338619660509  0.2508524400859133  0.0953701156341663   T   T   T
  0.1248585419755034  0.7498515065297039  0.0913787703943241   T   T   T
  0.6251524602159743  0.7497756158347841  0.0939749089110839   T   T   T
  0.3758415326929182  0.2516171226205527  0.0940375089306029   T   T   T
  0.8741452922935017  0.2514954012828241  0.0941694631649787   T   T   T
  0.3757955143720929  0.7504872692170758  0.0940870044376908   T   T   T
  0.8740695527599237  0.7505593719222294  0.0943040121568350   T   T   T
  0.1248871322765582  0.0014781810778461  0.1759886408237563   T   T   T
  0.6251221845123541  0.9937152908356677  0.1835670635209964   T   T   T
  0.1245994197385391  0.5009943648958218  0.1825270287020813   T   T   T
  0.6259314419063978  0.5076974432810090  0.1881358183572647   T   T   T
  0.3758196247020019  0.0005236356802521  0.1835139271655414   T   T   T
  0.8740960561536779  0.0003953420502314  0.1840240462802611   T   T   T
  0.3762015005430379  0.5020150776492111  0.1842657951643582   T   T   T
  0.8737469705127157  0.5019842898459893  0.1850264932682261   T   T   T
  0.9993571095007384  0.2513231928136588  0.1837197737095184   T   T   T
  0.5015602638181416  0.2515928951676062  0.1864134358915648   T   T   T
 -0.0001064881413187  0.7511049886716252  0.1833668236325630   T   T   T
  0.5036250691232741  0.7512292260879192  0.1877111362896091   T   T   T
  0.2501685160995487  0.2515234358264701  0.1838314402352494   T   T   T
  0.7489870278483786  0.2511605237586937  0.1862410234301959   T   T   T
  0.2495470953610995  0.7510326475285284  0.1834124381697678   T   T   T
  0.7464066917588468  0.7512437807266180  0.1881860254298946   T   T   T
  0.9948317299492374  0.0027593745394668  0.2729315376162105   T   T   T
  0.4960359924421530  0.9950686576394823  0.2744347898958433   T   T   T
  0.9987519156849122  0.4998444077330381  0.2732831734658911   T   T   T
  0.5123921336289280  0.5194771215109757  0.2776321698052224   T   T   T
  0.2540287942540679  0.0030439221999369  0.2725349028395566   T   T   T
  0.7552399241215532  0.9950090627153828  0.2746019334256138   T   T   T
  0.2464331545348700  0.5000102568806971  0.2743942317235096   T   T   T
  0.7448983133183246  0.5155006495183786  0.2768300188965728   T   T   T
  0.1242985542121705  0.2621252273247398  0.2726011268629387   T   T   T
  0.6257954323426550  0.2507751423355230  0.2750026147438174   T   T   T
  0.1242802679057921  0.7405184417587150  0.2726586495737220   T   T   T
  0.3771858560874689  0.2463295443489422  0.2743702163490963   T   T   T
  0.8730359080479494  0.2535241829021523  0.2740790786633482   T   T   T
  0.3722213565817289  0.7571896109183467  0.2738734548729598   T   T   T
  0.8771941358403110  0.7491699012748338  0.2738595314467682   T   T   T
  0.9997682818416611  0.0012010324271009  0.0011227717728869   T   T   T
  0.4997999601969633  0.0011034381023090  0.0025584298415670   T   T   T
  0.9999592065872355  0.5008711266093077  0.0018926866100379   T   T   T
  0.4999735154218024  0.5006596530153493  0.0027398016232617   T   T   T
  0.2502849075341241  0.0012121666681469  0.0011790519084693   T   T   T
  0.7501444887178751  0.0010920735886498  0.0024709084144756   T   T   T
  0.2501681465531637  0.5008669591599684  0.0018609765929991   T   T   T
  0.7499507785209496  0.5006617851980837  0.0027206545455095   T   T   T
  0.1250535880971232  0.2516144571018223  0.0009640294354768   T   T   T
  0.6249526259270239  0.2508234520621155  0.0025309152602226   T   T   T
  0.1250414016705735  0.7504746441465846  0.0007309503780784   T   T   T
  0.6249490280966272  0.7504982147208338  0.0024116441053263   T   T   T
  0.3751182151259829  0.2510177845422586  0.0024741575939087   T   T   T
  0.8748933136736592  0.2510487327041767  0.0024445093637093   T   T   T
  0.3748564509383669  0.7509481568105107  0.0021809856851458   T   T   T
  0.8751290658611511  0.7509080100338251  0.0021531483675605   T   T   T
  0.1249804848598918  0.0011511818795866  0.0910955627020404   T   T   T
  0.6249674511857579  0.0018174959334263  0.0935107170508636   T   T   T
  0.1251768677987181  0.5010863922707479  0.0936804069792325   T   T   T
  0.6248906218292550  0.4987940028281945  0.0946684429264041   T   T   T
  0.3741560366889557  0.0014021801738037  0.0943745875743474   T   T   T
  0.8758560554946950  0.0013249715443277  0.0942947466964255   T   T   T
  0.3746141740247211  0.5007508813189319  0.0944923443476155   T   T   T
  0.8754398627221461  0.5007689733802441  0.0943734322890299   T   T   T
  0.0006255069774971  0.2505335493002218  0.0937046236158705   T   T   T
  0.4995736679291823  0.2512007488470285  0.0950724532263928   T   T   T
  0.0009116695554221  0.7516586347682650  0.0934233774790038   T   T   T
  0.4988632297790644  0.7506427222795826  0.0941547809295351   T   T   T
  0.2494684621616799  0.2509220482255232  0.0938281891952593   T   T   T
  0.7503355649291403  0.2507906434607187  0.0948899278512118   T   T   T
  0.2491313434055950  0.7513202617952178  0.0935171864520317   T   T   T
  0.7509581318291801  0.7509773522370318  0.0940509212647322   T   T   T
  0.0036575555672510  0.0014376574103330  0.1847042169633532   T   T   T
  0.4994587166213730  0.0004323889925754  0.1844170935363748   T   T   T
  0.0012645479648626  0.5009882817120229  0.1837522156104490   T   T   T
  0.4992580072374052  0.5015246974325277  0.1863200258271704   T   T   T
  0.2464658968988054  0.0015142009422497  0.1841313525369389   T   T   T
  0.7503657311165642  0.0004879133858740  0.1846199967875936   T   T   T
  0.2491670251749141  0.5010399252096986  0.1845535658276586   T   T   T
  0.7506204435269872  0.5012357213068498  0.1852181684258650   T   T   T
  0.1246993293960671  0.2467009633378277  0.1841726947102910   T   T   T
  0.6251681792713074  0.2444454867764707  0.1850102389751060   T   T   T
  0.1246835010410414  0.7558460392380841  0.1841948984036822   T   T   T
  0.6249162218336445  0.7518722555875035  0.1798576984311324   T   T   T
  0.3739920895728620  0.2527198049959455  0.1848036183613440   T   T   T
  0.8760802388710015  0.2506246739303878  0.1841786486254918   T   T   T
  0.3722215750423580  0.7499863316510215  0.1840508766953428   T   T   T
  0.8776987277151119  0.7517852741276039  0.1836607671456797   T   T   T
  0.1245450426675449  0.0012061272944231  0.2938696505830181   T   T   T
  0.6250186974049839  0.9980765925910938  0.2777098164654045   T   T   T
  0.1237505612395303  0.5014088140744776  0.2747640287815061   T   T   T
  0.6273173104076673  0.4828573375439526  0.2760947298865665   T   T   T
  0.3719920629642436  0.0034548155630737  0.2743742445879362   T   T   T
  0.8777935047446019  0.0040779773663850  0.2753506503653471   T   T   T
  0.3707239812690638  0.4986956831206090  0.2817496390369876   T   T   T
  0.8776643605314837  0.4990283615746797  0.2761792966915734   T   T   T
  0.0028201214584306  0.2487537962585409  0.2759441093284566   T   T   T
  0.4999286972768540  0.2431796658573501  0.2763002188492045   T   T   T
  0.0027236809367015  0.7542248010611565  0.2760715429607065   T   T   T
  0.4896953348182713  0.7553390604847662  0.2759654298339173   T   T   T
  0.2461730487384499  0.2479840298722613  0.2746262838920111   T   T   T
  0.7509433180850190  0.2429907156231828  0.2769798604083319   T   T   T
  0.2462440952773392  0.7552489047881114  0.2746472642533529   T   T   T
  0.7601242219168723  0.7556034806434123  0.2765675789149267   T   T   T
  0.3719703018485606  0.4993096283480083  0.3679199766284073   T   T   T
 
  0.00000000E+00  0.00000000E+00  0.00000000E+00
  0.00000000E+00  0.00000000E+00  0.00000000E+00
  0.00000000E+00  0.00000000E+00  0.00000000E+00
  0.00000000E+00  0.00000000E+00  0.00000000E+00
  0.00000000E+00  0.00000000E+00  0.00000000E+00
  0.00000000E+00  0.00000000E+00  0.00000000E+00
  0.00000000E+00  0.00000000E+00  0.00000000E+00
  0.00000000E+00  0.00000000E+00  0.00000000E+00
  0.00000000E+00  0.00000000E+00  0.00000000E+00
  0.00000000E+00  0.00000000E+00  0.00000000E+00
  0.00000000E+00  0.00000000E+00  0.00000000E+00
  0.00000000E+00  0.00000000E+00  0.00000000E+00
  0.00000000E+00  0.00000000E+00  0.00000000E+00
  0.00000000E+00  0.00000000E+00  0.00000000E+00
  0.00000000E+00  0.00000000E+00  0.00000000E+00
  0.00000000E+00  0.00000000E+00  0.00000000E+00
  0.00000000E+00  0.00000000E+00  0.00000000E+00
  0.00000000E+00  0.00000000E+00  0.00000000E+00
  0.00000000E+00  0.00000000E+00  0.00000000E+00
  0.00000000E+00  0.00000000E+00  0.00000000E+00
  0.00000000E+00  0.00000000E+00  0.00000000E+00
  0.00000000E+00  0.00000000E+00  0.00000000E+00
  0.00000000E+00  0.00000000E+00  0.00000000E+00
  0.00000000E+00  0.00000000E+00  0.00000000E+00
  0.00000000E+00  0.00000000E+00  0.00000000E+00
  0.00000000E+00  0.00000000E+00  0.00000000E+00
  0.00000000E+00  0.00000000E+00  0.00000000E+00
  0.00000000E+00  0.00000000E+00  0.00000000E+00
  0.00000000E+00  0.00000000E+00  0.00000000E+00
  0.00000000E+00  0.00000000E+00  0.00000000E+00
  0.00000000E+00  0.00000000E+00  0.00000000E+00
  0.00000000E+00  0.00000000E+00  0.00000000E+00
  0.00000000E+00  0.00000000E+00  0.00000000E+00
  0.00000000E+00  0.00000000E+00  0.00000000E+00
  0.00000000E+00  0.00000000E+00  0.00000000E+00
  0.00000000E+00  0.00000000E+00  0.00000000E+00
  0.00000000E+00  0.00000000E+00  0.00000000E+00
  0.00000000E+00  0.00000000E+00  0.00000000E+00
  0.00000000E+00  0.00000000E+00  0.00000000E+00
  0.00000000E+00  0.00000000E+00  0.00000000E+00
  0.00000000E+00  0.00000000E+00  0.00000000E+00
  0.00000000E+00  0.00000000E+00  0.00000000E+00
  0.00000000E+00  0.00000000E+00  0.00000000E+00
  0.00000000E+00  0.00000000E+00  0.00000000E+00
  0.00000000E+00  0.00000000E+00  0.00000000E+00
  0.00000000E+00  0.00000000E+00  0.00000000E+00
  0.00000000E+00  0.00000000E+00  0.00000000E+00
  0.00000000E+00  0.00000000E+00  0.00000000E+00
  0.00000000E+00  0.00000000E+00  0.00000000E+00
  0.00000000E+00  0.00000000E+00  0.00000000E+00
  0.00000000E+00  0.00000000E+00  0.00000000E+00
  0.00000000E+00  0.00000000E+00  0.00000000E+00
  0.00000000E+00  0.00000000E+00  0.00000000E+00
  0.00000000E+00  0.00000000E+00  0.00000000E+00
  0.00000000E+00  0.00000000E+00  0.00000000E+00
  0.00000000E+00  0.00000000E+00  0.00000000E+00
  0.00000000E+00  0.00000000E+00  0.00000000E+00
  0.00000000E+00  0.00000000E+00  0.00000000E+00
  0.00000000E+00  0.00000000E+00  0.00000000E+00
  0.00000000E+00  0.00000000E+00  0.00000000E+00
  0.00000000E+00  0.00000000E+00  0.00000000E+00
  0.00000000E+00  0.00000000E+00  0.00000000E+00
  0.00000000E+00  0.00000000E+00  0.00000000E+00
  0.00000000E+00  0.00000000E+00  0.00000000E+00
  0.00000000E+00  0.00000000E+00  0.00000000E+00
  0.00000000E+00  0.00000000E+00  0.00000000E+00
  0.00000000E+00  0.00000000E+00  0.00000000E+00
  0.00000000E+00  0.00000000E+00  0.00000000E+00
  0.00000000E+00  0.00000000E+00  0.00000000E+00
  0.00000000E+00  0.00000000E+00  0.00000000E+00
  0.00000000E+00  0.00000000E+00  0.00000000E+00
  0.00000000E+00  0.00000000E+00  0.00000000E+00
  0.00000000E+00  0.00000000E+00  0.00000000E+00
  0.00000000E+00  0.00000000E+00  0.00000000E+00
  0.00000000E+00  0.00000000E+00  0.00000000E+00
  0.00000000E+00  0.00000000E+00  0.00000000E+00
  0.00000000E+00  0.00000000E+00  0.00000000E+00
  0.00000000E+00  0.00000000E+00  0.00000000E+00
  0.00000000E+00  0.00000000E+00  0.00000000E+00
  0.00000000E+00  0.00000000E+00  0.00000000E+00
  0.00000000E+00  0.00000000E+00  0.00000000E+00
  0.00000000E+00  0.00000000E+00  0.00000000E+00
  0.00000000E+00  0.00000000E+00  0.00000000E+00
  0.00000000E+00  0.00000000E+00  0.00000000E+00
  0.00000000E+00  0.00000000E+00  0.00000000E+00
  0.00000000E+00  0.00000000E+00  0.00000000E+00
  0.00000000E+00  0.00000000E+00  0.00000000E+00
  0.00000000E+00  0.00000000E+00  0.00000000E+00
  0.00000000E+00  0.00000000E+00  0.00000000E+00
  0.00000000E+00  0.00000000E+00  0.00000000E+00
  0.00000000E+00  0.00000000E+00  0.00000000E+00
  0.00000000E+00  0.00000000E+00  0.00000000E+00
  0.00000000E+00  0.00000000E+00  0.00000000E+00
  0.00000000E+00  0.00000000E+00  0.00000000E+00
  0.00000000E+00  0.00000000E+00  0.00000000E+00
  0.00000000E+00  0.00000000E+00  0.00000000E+00
  0.00000000E+00  0.00000000E+00  0.00000000E+00
  0.00000000E+00  0.00000000E+00  0.00000000E+00
  0.00000000E+00  0.00000000E+00  0.00000000E+00
  0.00000000E+00  0.00000000E+00  0.00000000E+00
  0.00000000E+00  0.00000000E+00  0.00000000E+00
  0.00000000E+00  0.00000000E+00  0.00000000E+00
  0.00000000E+00  0.00000000E+00  0.00000000E+00
  0.00000000E+00  0.00000000E+00  0.00000000E+00
  0.00000000E+00  0.00000000E+00  0.00000000E+00
  0.00000000E+00  0.00000000E+00  0.00000000E+00
  0.00000000E+00  0.00000000E+00  0.00000000E+00
  0.00000000E+00  0.00000000E+00  0.00000000E+00
  0.00000000E+00  0.00000000E+00  0.00000000E+00
  0.00000000E+00  0.00000000E+00  0.00000000E+00
  0.00000000E+00  0.00000000E+00  0.00000000E+00
  0.00000000E+00  0.00000000E+00  0.00000000E+00
  0.00000000E+00  0.00000000E+00  0.00000000E+00
  0.00000000E+00  0.00000000E+00  0.00000000E+00
  0.00000000E+00  0.00000000E+00  0.00000000E+00
  0.00000000E+00  0.00000000E+00  0.00000000E+00
  0.00000000E+00  0.00000000E+00  0.00000000E+00
  0.00000000E+00  0.00000000E+00  0.00000000E+00
  0.00000000E+00  0.00000000E+00  0.00000000E+00
  0.00000000E+00  0.00000000E+00  0.00000000E+00
  0.00000000E+00  0.00000000E+00  0.00000000E+00
  0.00000000E+00  0.00000000E+00  0.00000000E+00
  0.00000000E+00  0.00000000E+00  0.00000000E+00
  0.00000000E+00  0.00000000E+00  0.00000000E+00
  0.00000000E+00  0.00000000E+00  0.00000000E+00
  0.00000000E+00  0.00000000E+00  0.00000000E+00
  0.00000000E+00  0.00000000E+00  0.00000000E+00
  0.00000000E+00  0.00000000E+00  0.00000000E+00
  0.00000000E+00  0.00000000E+00  0.00000000E+00
  0.00000000E+00  0.00000000E+00  0.00000000E+00
