H Mg O Pt                               
   1.00000000000000     
    16.8282433949600012    0.0000000000000000    0.0000000000000000
     0.0000000000000000    8.4141216974800006    0.0000000000000000
     0.0000000000000000    0.0000000000000000   23.4141216974799988
   H    Mg   O    Pt
     2    63    64     1
Selective dynamics
Direct
  0.1251265500622367  0.0013783438252866  0.3354669038714818   T   T   T
  0.6253746024504263  0.8844339613261132  0.2876873274308177   T   T   T
  0.1250057759001715  0.0011257487969775  0.0021470487516754   T   T   T
  0.6250070692921437  0.0012225328896138  0.0048669524989811   T   T   T
  0.1249760281952076  0.5009656807624734  0.0029506522101383   T   T   T
  0.6250584984268215  0.5000871572794232  0.0051818240149549   T   T   T
  0.3760651040945487  0.0010097357479842  0.0041622024822727   T   T   T
  0.8739207389701267  0.0009785919343965  0.0042014451880903   T   T   T
  0.3761258134950794  0.5009487402857056  0.0045298801136318   T   T   T
  0.8738710628781172  0.5009699098974258  0.0047081343104801   T   T   T
  0.9990706203695096  0.2514069854208463  0.0035811345499002   T   T   T
  0.5007312732007135  0.2510802038375866  0.0053145020812357   T   T   T
  0.9990988446410045  0.7506224658362032  0.0034499685204410   T   T   T
  0.5004301333188580  0.7505859706617053  0.0050384088554484   T   T   T
  0.2509256828516720  0.2513575988562461  0.0036100519197497   T   T   T
  0.7492734312990476  0.2511344688396442  0.0052928070407307   T   T   T
  0.2508798774677144  0.7506717768757752  0.0034691663254001   T   T   T
  0.7495818512864193  0.7505443489705694  0.0050219393183372   T   T   T
  0.9989861373487237  0.0011177194472020  0.0918939428674214   T   T   T
  0.5005835245311729  0.0001189322283775  0.0946910918894403   T   T   T
  0.9992630914693013  0.5010707007737337  0.0931925608180754   T   T   T
  0.5012088290668895  0.5016769488220666  0.0952435322371579   T   T   T
  0.2509232402728159  0.0011480986655318  0.0920525149799013   T   T   T
  0.7495242165488785  0.0000392778666786  0.0946167709418382   T   T   T
  0.2505406485334168  0.5010625719378577  0.0930967168583050   T   T   T
  0.7490624797968223  0.5017704615608815  0.0953574985393675   T   T   T
  0.1250619716395675  0.2524269010397834  0.0916729049683899   T   T   T
  0.6249469194751198  0.2509461976771450  0.0955196913936312   T   T   T
  0.1250543603023838  0.7498292685794175  0.0914130711657584   T   T   T
  0.6249933996842250  0.7497530206354822  0.0940981259632732   T   T   T
  0.3758461248050490  0.2511418045708885  0.0940979055078436   T   T   T
  0.8741219602216287  0.2514975918486597  0.0941585465855005   T   T   T
  0.3758250182213003  0.7509697523886982  0.0941493934965202   T   T   T
  0.8740798295113060  0.7505469061728354  0.0942806674953039   T   T   T
  0.1251152933232119  0.0014848182654911  0.1759685100883897   T   T   T
  0.6249180512017786  0.9937336913308976  0.1835682572087777   T   T   T
  0.1251155209077466  0.5009748268763047  0.1826443462092637   T   T   T
  0.6251901872625721  0.5079369826720922  0.1885171200137379   T   T   T
  0.3758482158304099  0.0004829666793128  0.1839400099586747   T   T   T
  0.8740803178171357  0.0004317922516712  0.1839979450317328   T   T   T
  0.3762707784654762  0.5021374565165697  0.1832350717296602   T   T   T
  0.8736896063481874  0.5019716617635559  0.1850455423767176   T   T   T
  0.9995009714875496  0.2513299760580063  0.1836783937728342   T   T   T
  0.5009640626629400  0.2522258858929080  0.1868275736266068   T   T   T
  0.0000408015377514  0.7510949037337230  0.1833206985976616   T   T   T
  0.5032574816774026  0.7505741625020081  0.1881409681449570   T   T   T
  0.2507012111181283  0.2521340512102396  0.1843007853677605   T   T   T
  0.7487507583330305  0.2512772961983192  0.1862787779710705   T   T   T
  0.2500723693369926  0.7504360978485312  0.1838912288032943   T   T   T
  0.7462269997380925  0.7512898950226694  0.1881965200404553   T   T   T
  0.9948362240695687  0.0027948116519301  0.2727996599826195   T   T   T
  0.4962897271341324  0.9952816265895565  0.2742015822225287   T   T   T
  0.9989917322058265  0.4998111892487274  0.2732852720366639   T   T   T
  0.5117399386152429  0.5201273743785542  0.2793920743931224   T   T   T
  0.2539967149690136  0.0029601982780861  0.2724137586455198   T   T   T
  0.7550973128018703  0.9950491337154598  0.2745459646312683   T   T   T
  0.2465039194487197  0.4999823327702308  0.2760801952471972   T   T   T
  0.7444570914762505  0.5154664957202386  0.2768388918170252   T   T   T
  0.1244783955041985  0.2620161581882006  0.2724023630955601   T   T   T
  0.6253934655133918  0.2508536526041243  0.2749056176643894   T   T   T
  0.1244318741806795  0.7405947522814517  0.2724962913213231   T   T   T
  0.3773681299837315  0.2455883103363351  0.2763723805676828   T   T   T
  0.8729402691421446  0.2535934635079916  0.2740385686949561   T   T   T
  0.3726577023271678  0.7577564422673129  0.2757640537447138   T   T   T
  0.8771671112566699  0.7491142241892242  0.2738289016388477   T   T   T
  0.9997591729988674  0.0011969510180891  0.0011223244876775   T   T   T
  0.4998243526191030  0.0010729957511720  0.0026180261133320   T   T   T
  0.9999319167173181  0.5008620827255045  0.0019255667206154   T   T   T
  0.5000147029359222  0.5006409914391188  0.0027115812797598   T   T   T
  0.2502785405831801  0.0011989935202563  0.0012238584742508   T   T   T
  0.7501424840238814  0.0010759961787445  0.0025315925410759   T   T   T
  0.2501340627618713  0.5008593057098619  0.0018087079643084   T   T   T
  0.7499621768417369  0.5006469911929937  0.0027874903292970   T   T   T
  0.1250627832682858  0.2515946467668403  0.0009736160396270   T   T   T
  0.6249523798405471  0.2507890881783083  0.0025862327031786   T   T   T
  0.1250555078430447  0.7504886268000048  0.0007375667191220   T   T   T
  0.6249590781575329  0.7505166043285268  0.0024701313874148   T   T   T
  0.3751142144869538  0.2509223116849350  0.0024704748684588   T   T   T
  0.8748793945131607  0.2510624062065105  0.0024792829658906   T   T   T
  0.3748636779161968  0.7510176074998367  0.0021803479837169   T   T   T
  0.8751209354923589  0.7508737441391534  0.0021877631145904   T   T   T
  0.1250060341921228  0.0011364459421121  0.0911524339418409   T   T   T
  0.6249929429826435  0.0018529987579578  0.0936080611488100   T   T   T
  0.1251722941130959  0.5010937621266849  0.0937272995003435   T   T   T
  0.6249646169634235  0.4988248466827006  0.0946986132866008   T   T   T
  0.3741250944042780  0.0013882717346279  0.0944488905052181   T   T   T
  0.8758678550825613  0.0013172969212277  0.0943519187813801   T   T   T
  0.3745283025180969  0.5007360887534499  0.0943154992397221   T   T   T
  0.8754297696726655  0.5007643056377235  0.0945050275354528   T   T   T
  0.0006569960456285  0.2505553953851641  0.0937680629754318   T   T   T
  0.4995308345358389  0.2511386730838339  0.0951177026388086   T   T   T
  0.0009608244280528  0.7516370650551825  0.0934937442095053   T   T   T
  0.4988652068737240  0.7506800524032724  0.0941765095352950   T   T   T
  0.2494903999077084  0.2509255003463161  0.0939516148412016   T   T   T
  0.7503267834252914  0.2508269170964329  0.0950037395189961   T   T   T
  0.2491584085241404  0.7513022475925659  0.0936476061181732   T   T   T
  0.7509786978565124  0.7509675569636025  0.0941533917733674   T   T   T
  0.0037501226050440  0.0014226136905498  0.1847160071085620   T   T   T
  0.4994185615528418  0.0004729138291496  0.1845202720623560   T   T   T
  0.0014629868984208  0.5009968142993051  0.1838634388415332   T   T   T
  0.4992457130193682  0.5014989512337216  0.1861955992235105   T   T   T
  0.2465185812435374  0.0014582829290715  0.1843059390975486   T   T   T
  0.7503794982381812  0.0005756561725926  0.1846933358057299   T   T   T
  0.2491192769648834  0.5010870913187775  0.1848073645252775   T   T   T
  0.7504550780168605  0.5012877863591193  0.1854265548001896   T   T   T
  0.1248164574731549  0.2467268674076512  0.1842238357409863   T   T   T
  0.6250464927919730  0.2446138342608050  0.1851213720870373   T   T   T
  0.1248100650148972  0.7558053860188590  0.1842811821559125   T   T   T
  0.6248731415913844  0.7520073842738834  0.1799817963940087   T   T   T
  0.3740200907624765  0.2521588206065616  0.1850555114803915   T   T   T
  0.8761230925397314  0.2507912589724514  0.1842749883852240   T   T   T
  0.3723851702883681  0.7504497778019000  0.1842726823620861   T   T   T
  0.8777842459920249  0.7516657211876168  0.1837536031030985   T   T   T
  0.1245978230533808  0.0011623179283932  0.2938094574893890   T   T   T
  0.6252571133524993  0.9981793126034049  0.2778371027516127   T   T   T
  0.1238679091313803  0.5014428565817250  0.2753804189885440   T   T   T
  0.6269851810616224  0.4828923717448799  0.2766971309150769   T   T   T
  0.3719203508935535  0.0033617502861916  0.2754575104770620   T   T   T
  0.8777762739333329  0.0041809887412838  0.2754403539794625   T   T   T
  0.3716553449440615  0.4990947076462693  0.2746992137062368   T   T   T
  0.8778485282334912  0.4990420967254001  0.2762739182675509   T   T   T
  0.0029303937670622  0.2486264453371299  0.2760552868278232   T   T   T
  0.5001205732983056  0.2421032336184594  0.2766105969922972   T   T   T
  0.0028067336927737  0.7543814554638650  0.2761850003979029   T   T   T
  0.4902872111845244  0.7562383105888754  0.2761289138133313   T   T   T
  0.2459373235989920  0.2477414231828630  0.2750514228629417   T   T   T
  0.7508852073369624  0.2432855968549368  0.2770891719691728   T   T   T
  0.2460743526714314  0.7554536341231279  0.2751706285287474   T   T   T
  0.7601745715790689  0.7555051348098576  0.2767042087726324   T   T   T
  0.3707945064382363  0.4976215085426183  0.3585185544567964   T   T   T
 
  0.00000000E+00  0.00000000E+00  0.00000000E+00
  0.00000000E+00  0.00000000E+00  0.00000000E+00
  0.00000000E+00  0.00000000E+00  0.00000000E+00
  0.00000000E+00  0.00000000E+00  0.00000000E+00
  0.00000000E+00  0.00000000E+00  0.00000000E+00
  0.00000000E+00  0.00000000E+00  0.00000000E+00
  0.00000000E+00  0.00000000E+00  0.00000000E+00
  0.00000000E+00  0.00000000E+00  0.00000000E+00
  0.00000000E+00  0.00000000E+00  0.00000000E+00
  0.00000000E+00  0.00000000E+00  0.00000000E+00
  0.00000000E+00  0.00000000E+00  0.00000000E+00
  0.00000000E+00  0.00000000E+00  0.00000000E+00
  0.00000000E+00  0.00000000E+00  0.00000000E+00
  0.00000000E+00  0.00000000E+00  0.00000000E+00
  0.00000000E+00  0.00000000E+00  0.00000000E+00
  0.00000000E+00  0.00000000E+00  0.00000000E+00
  0.00000000E+00  0.00000000E+00  0.00000000E+00
  0.00000000E+00  0.00000000E+00  0.00000000E+00
  0.00000000E+00  0.00000000E+00  0.00000000E+00
  0.00000000E+00  0.00000000E+00  0.00000000E+00
  0.00000000E+00  0.00000000E+00  0.00000000E+00
  0.00000000E+00  0.00000000E+00  0.00000000E+00
  0.00000000E+00  0.00000000E+00  0.00000000E+00
  0.00000000E+00  0.00000000E+00  0.00000000E+00
  0.00000000E+00  0.00000000E+00  0.00000000E+00
  0.00000000E+00  0.00000000E+00  0.00000000E+00
  0.00000000E+00  0.00000000E+00  0.00000000E+00
  0.00000000E+00  0.00000000E+00  0.00000000E+00
  0.00000000E+00  0.00000000E+00  0.00000000E+00
  0.00000000E+00  0.00000000E+00  0.00000000E+00
  0.00000000E+00  0.00000000E+00  0.00000000E+00
  0.00000000E+00  0.00000000E+00  0.00000000E+00
  0.00000000E+00  0.00000000E+00  0.00000000E+00
  0.00000000E+00  0.00000000E+00  0.00000000E+00
  0.00000000E+00  0.00000000E+00  0.00000000E+00
  0.00000000E+00  0.00000000E+00  0.00000000E+00
  0.00000000E+00  0.00000000E+00  0.00000000E+00
  0.00000000E+00  0.00000000E+00  0.00000000E+00
  0.00000000E+00  0.00000000E+00  0.00000000E+00
  0.00000000E+00  0.00000000E+00  0.00000000E+00
  0.00000000E+00  0.00000000E+00  0.00000000E+00
  0.00000000E+00  0.00000000E+00  0.00000000E+00
  0.00000000E+00  0.00000000E+00  0.00000000E+00
  0.00000000E+00  0.00000000E+00  0.00000000E+00
  0.00000000E+00  0.00000000E+00  0.00000000E+00
  0.00000000E+00  0.00000000E+00  0.00000000E+00
  0.00000000E+00  0.00000000E+00  0.00000000E+00
  0.00000000E+00  0.00000000E+00  0.00000000E+00
  0.00000000E+00  0.00000000E+00  0.00000000E+00
  0.00000000E+00  0.00000000E+00  0.00000000E+00
  0.00000000E+00  0.00000000E+00  0.00000000E+00
  0.00000000E+00  0.00000000E+00  0.00000000E+00
  0.00000000E+00  0.00000000E+00  0.00000000E+00
  0.00000000E+00  0.00000000E+00  0.00000000E+00
  0.00000000E+00  0.00000000E+00  0.00000000E+00
  0.00000000E+00  0.00000000E+00  0.00000000E+00
  0.00000000E+00  0.00000000E+00  0.00000000E+00
  0.00000000E+00  0.00000000E+00  0.00000000E+00
  0.00000000E+00  0.00000000E+00  0.00000000E+00
  0.00000000E+00  0.00000000E+00  0.00000000E+00
  0.00000000E+00  0.00000000E+00  0.00000000E+00
  0.00000000E+00  0.00000000E+00  0.00000000E+00
  0.00000000E+00  0.00000000E+00  0.00000000E+00
  0.00000000E+00  0.00000000E+00  0.00000000E+00
  0.00000000E+00  0.00000000E+00  0.00000000E+00
  0.00000000E+00  0.00000000E+00  0.00000000E+00
  0.00000000E+00  0.00000000E+00  0.00000000E+00
  0.00000000E+00  0.00000000E+00  0.00000000E+00
  0.00000000E+00  0.00000000E+00  0.00000000E+00
  0.00000000E+00  0.00000000E+00  0.00000000E+00
  0.00000000E+00  0.00000000E+00  0.00000000E+00
  0.00000000E+00  0.00000000E+00  0.00000000E+00
  0.00000000E+00  0.00000000E+00  0.00000000E+00
  0.00000000E+00  0.00000000E+00  0.00000000E+00
  0.00000000E+00  0.00000000E+00  0.00000000E+00
  0.00000000E+00  0.00000000E+00  0.00000000E+00
  0.00000000E+00  0.00000000E+00  0.00000000E+00
  0.00000000E+00  0.00000000E+00  0.00000000E+00
  0.00000000E+00  0.00000000E+00  0.00000000E+00
  0.00000000E+00  0.00000000E+00  0.00000000E+00
  0.00000000E+00  0.00000000E+00  0.00000000E+00
  0.00000000E+00  0.00000000E+00  0.00000000E+00
  0.00000000E+00  0.00000000E+00  0.00000000E+00
  0.00000000E+00  0.00000000E+00  0.00000000E+00
  0.00000000E+00  0.00000000E+00  0.00000000E+00
  0.00000000E+00  0.00000000E+00  0.00000000E+00
  0.00000000E+00  0.00000000E+00  0.00000000E+00
  0.00000000E+00  0.00000000E+00  0.00000000E+00
  0.00000000E+00  0.00000000E+00  0.00000000E+00
  0.00000000E+00  0.00000000E+00  0.00000000E+00
  0.00000000E+00  0.00000000E+00  0.00000000E+00
  0.00000000E+00  0.00000000E+00  0.00000000E+00
  0.00000000E+00  0.00000000E+00  0.00000000E+00
  0.00000000E+00  0.00000000E+00  0.00000000E+00
  0.00000000E+00  0.00000000E+00  0.00000000E+00
  0.00000000E+00  0.00000000E+00  0.00000000E+00
  0.00000000E+00  0.00000000E+00  0.00000000E+00
  0.00000000E+00  0.00000000E+00  0.00000000E+00
  0.00000000E+00  0.00000000E+00  0.00000000E+00
  0.00000000E+00  0.00000000E+00  0.00000000E+00
  0.00000000E+00  0.00000000E+00  0.00000000E+00
  0.00000000E+00  0.00000000E+00  0.00000000E+00
  0.00000000E+00  0.00000000E+00  0.00000000E+00
  0.00000000E+00  0.00000000E+00  0.00000000E+00
  0.00000000E+00  0.00000000E+00  0.00000000E+00
  0.00000000E+00  0.00000000E+00  0.00000000E+00
  0.00000000E+00  0.00000000E+00  0.00000000E+00
  0.00000000E+00  0.00000000E+00  0.00000000E+00
  0.00000000E+00  0.00000000E+00  0.00000000E+00
  0.00000000E+00  0.00000000E+00  0.00000000E+00
  0.00000000E+00  0.00000000E+00  0.00000000E+00
  0.00000000E+00  0.00000000E+00  0.00000000E+00
  0.00000000E+00  0.00000000E+00  0.00000000E+00
  0.00000000E+00  0.00000000E+00  0.00000000E+00
  0.00000000E+00  0.00000000E+00  0.00000000E+00
  0.00000000E+00  0.00000000E+00  0.00000000E+00
  0.00000000E+00  0.00000000E+00  0.00000000E+00
  0.00000000E+00  0.00000000E+00  0.00000000E+00
  0.00000000E+00  0.00000000E+00  0.00000000E+00
  0.00000000E+00  0.00000000E+00  0.00000000E+00
  0.00000000E+00  0.00000000E+00  0.00000000E+00
  0.00000000E+00  0.00000000E+00  0.00000000E+00
  0.00000000E+00  0.00000000E+00  0.00000000E+00
  0.00000000E+00  0.00000000E+00  0.00000000E+00
  0.00000000E+00  0.00000000E+00  0.00000000E+00
  0.00000000E+00  0.00000000E+00  0.00000000E+00
  0.00000000E+00  0.00000000E+00  0.00000000E+00
  0.00000000E+00  0.00000000E+00  0.00000000E+00
  0.00000000E+00  0.00000000E+00  0.00000000E+00
  0.00000000E+00  0.00000000E+00  0.00000000E+00
