H Mg O Fe                               
   1.00000000000000     
    16.8282433949600012    0.0000000000000000    0.0000000000000000
     0.0000000000000000    8.4141216974800006    0.0000000000000000
     0.0000000000000000    0.0000000000000000   23.4141216974799988
   H    Mg   O    Fe
     2    63    64     1
Selective dynamics
Direct
  0.1252297187507790  0.0013573369031313  0.3355709516103836   T   T   T
  0.6257961990016807  0.8845399903769531  0.2878154549363555   T   T   T
  0.1249541579847767  0.0011297225580613  0.0021747974643954   T   T   T
  0.6250614714655779  0.0012234689161743  0.0048395337248050   T   T   T
  0.1249667277795580  0.5009565074422992  0.0029957363866931   T   T   T
  0.6250603998108172  0.5000991506212555  0.0051832042068199   T   T   T
  0.3760381772486777  0.0010226218575209  0.0041643895454310   T   T   T
  0.8739441160163893  0.0009902080462625  0.0042245182601819   T   T   T
  0.3761045061322089  0.5009507883366341  0.0045333456999776   T   T   T
  0.8739038386388859  0.5009766747379789  0.0047201620525139   T   T   T
  0.9990651959884915  0.2513657952356781  0.0036223370645099   T   T   T
  0.5007532067411229  0.2511131057925672  0.0052740828873140   T   T   T
  0.9990883360139126  0.7506612745184661  0.0034902938439140   T   T   T
  0.5004496990056972  0.7505901504189514  0.0049976651779257   T   T   T
  0.2508660467294763  0.2513568283585398  0.0035928565945576   T   T   T
  0.7493163128732564  0.2511014939321883  0.0052915206735145   T   T   T
  0.2508172016840221  0.7506734796295137  0.0034498442420986   T   T   T
  0.7496224911873022  0.7506068307152312  0.0050228269989246   T   T   T
  0.9989628130086323  0.0011205864057353  0.0919513132845480   T   T   T
  0.5005972959077392  0.0001673213186872  0.0945901390126149   T   T   T
  0.9991818806478645  0.5010694863217414  0.0932147797337103   T   T   T
  0.5010951073156306  0.5016723981266641  0.0953249508841834   T   T   T
  0.2508739784785077  0.0011608784946915  0.0919638652557655   T   T   T
  0.7495720415561929  0.0000387366597854  0.0946226857234307   T   T   T
  0.2506014619580911  0.5010668675355174  0.0931844190078745   T   T   T
  0.7492178000560137  0.5017724140120918  0.0953124576313926   T   T   T
  0.1249441353665606  0.2524300955091263  0.0916723304311263   T   T   T
  0.6250731970771489  0.2508946561543347  0.0954387114554040   T   T   T
  0.1249227664556644  0.7498355595185699  0.0914137748069081   T   T   T
  0.6251108012048915  0.7497476534039643  0.0940407552663724   T   T   T
  0.3758426982689841  0.2514877206881549  0.0941051163726314   T   T   T
  0.8741348351100625  0.2515057675822220  0.0942033704722997   T   T   T
  0.3757889032704432  0.7506138919688853  0.0941565592018358   T   T   T
  0.8740799533289886  0.7505508796063781  0.0943309396974603   T   T   T
  0.1249210912497869  0.0014802820097320  0.1760059944084444   T   T   T
  0.6250766382679285  0.9937050588187785  0.1835834973914364   T   T   T
  0.1247361442361388  0.5009772389804420  0.1825440919147229   T   T   T
  0.6257699035964841  0.5076944556178139  0.1882197703922565   T   T   T
  0.3758309890603377  0.0005033508751018  0.1836344920759432   T   T   T
  0.8740757716638468  0.0004150867472166  0.1840235789644621   T   T   T
  0.3762244552444192  0.5020449624466645  0.1843053898396549   T   T   T
  0.8737301121901310  0.5019846167453134  0.1850200767272826   T   T   T
  0.9993666918986165  0.2512686787978020  0.1837087252394638   T   T   T
  0.5013674752599103  0.2519456837271955  0.1866383226544846   T   T   T
 -0.0001011621198588  0.7511524720023399  0.1833521624530372   T   T   T
  0.5034868168486579  0.7508901868747149  0.1878630902988948   T   T   T
  0.2503570713348819  0.2517874542201446  0.1840445550957557   T   T   T
  0.7489287467133525  0.2511774948895564  0.1862697370361252   T   T   T
  0.2497172694823791  0.7507768993732077  0.1836191785883754   T   T   T
  0.7463406585388380  0.7512889863862283  0.1882136915454048   T   T   T
  0.9947877272223208  0.0027842093906482  0.2728967420764867   T   T   T
  0.4963400088563033  0.9951163705796897  0.2744055267024399   T   T   T
  0.9987258790316970  0.4997983217868418  0.2732978486336423   T   T   T
  0.5129107098290482  0.5202563093498825  0.2783783936125191   T   T   T
  0.2538009000099768  0.0030140667445754  0.2725559087284540   T   T   T
  0.7552167203250597  0.9949920993789771  0.2746050314675046   T   T   T
  0.2458381674999562  0.5000328076183876  0.2749311800550701   T   T   T
  0.7449568561906177  0.5155310394945657  0.2768492938991952   T   T   T
  0.1242426290266635  0.2618890048298328  0.2725652535894726   T   T   T
  0.6258114063431026  0.2506606739766866  0.2750051265935932   T   T   T
  0.1241761669059037  0.7407282445046551  0.2726338087694505   T   T   T
  0.3772938618017116  0.2450041697830319  0.2751426898170312   T   T   T
  0.8730032710852259  0.2534990355462389  0.2740847921091851   T   T   T
  0.3723977015988025  0.7584684692848589  0.2745843447106234   T   T   T
  0.8771750373396436  0.7492373110857937  0.2738655292434189   T   T   T
  0.9997760880680414  0.0011976367454899  0.0011259025131172   T   T   T
  0.4998102023047524  0.0010903108386018  0.0026036677140590   T   T   T
  0.9999606865703785  0.5008709199146847  0.0019077917697142   T   T   T
  0.4999488649305811  0.5006599980607225  0.0027397354007616   T   T   T
  0.2502848316409602  0.0012028425762379  0.0012191232311504   T   T   T
  0.7501245148471964  0.0010913245945052  0.0024871285076847   T   T   T
  0.2501943136509004  0.5008626652666756  0.0018447599840653   T   T   T
  0.7499428310879868  0.5006579164358810  0.0027390726596857   T   T   T
  0.1250875117869921  0.2515976108611843  0.0009788526307755   T   T   T
  0.6249196174670107  0.2508028673716763  0.0025576582118560   T   T   T
  0.1250761734510257  0.7504836500270075  0.0007446644498640   T   T   T
  0.6249194571536445  0.7505211760627271  0.0024424804886382   T   T   T
  0.3751185183058362  0.2510300826334333  0.0024811469138303   T   T   T
  0.8748865015580702  0.2510644035390338  0.0024507642134392   T   T   T
  0.3748604133557100  0.7509195517736493  0.0021942287675724   T   T   T
  0.8751277186141192  0.7508824221806233  0.0021587706319385   T   T   T
  0.1250229056344518  0.0011447113785265  0.0911217374084380   T   T   T
  0.6249452734973335  0.0018169079460340  0.0935421128875929   T   T   T
  0.1252311961198571  0.5010863569393312  0.0937216521232610   T   T   T
  0.6248615521816429  0.4988054589506477  0.0946848557633956   T   T   T
  0.3741416852496144  0.0014065230205470  0.0944295079507080   T   T   T
  0.8758578174390981  0.0013269187551299  0.0943138050679956   T   T   T
  0.3745860222201176  0.5007410799919730  0.0945223765649261   T   T   T
  0.8754380814159957  0.5007685036202467  0.0943849802478544   T   T   T
  0.0006641936831235  0.2505283691614958  0.0937335005444235   T   T   T
  0.4995199201425576  0.2512181243231820  0.0951201016927017   T   T   T
  0.0009593783701210  0.7516628300262331  0.0934516396313877   T   T   T
  0.4988306186501671  0.7506224292162526  0.0941815871990372   T   T   T
  0.2495211925084495  0.2509655263973193  0.0939153652887630   T   T   T
  0.7503030757302411  0.2507786710716953  0.0949230861056812   T   T   T
  0.2491785590497904  0.7512729598390901  0.0936018057299781   T   T   T
  0.7509370574762343  0.7510108325890503  0.0940782384135212   T   T   T
  0.0037360268292591  0.0014316380603626  0.1847032063642843   T   T   T
  0.4994141591260554  0.0004070580627805  0.1844761341718698   T   T   T
  0.0013469702080564  0.5009854956460272  0.1837990380527220   T   T   T
  0.4992577827912668  0.5015282897679374  0.1864314034648985   T   T   T
  0.2465134531791552  0.0014830019093631  0.1841948147181763   T   T   T
  0.7503294199727842  0.0005246853063719  0.1846310872648775   T   T   T
  0.2491138164753765  0.5010640633670346  0.1847640395893527   T   T   T
  0.7505799587965187  0.5012464347747847  0.1852662479257822   T   T   T
  0.1247729833920047  0.2467040791201254  0.1841997500882189   T   T   T
  0.6250908078251589  0.2444810517515590  0.1850377436710688   T   T   T
  0.1247427674720715  0.7558332762680737  0.1842309943902588   T   T   T
  0.6248422245188602  0.7518876138825474  0.1799037388624649   T   T   T
  0.3740139056805655  0.2524763560433249  0.1850225428673279   T   T   T
  0.8761035872402293  0.2506601175158291  0.1842196129275440   T   T   T
  0.3722908608941635  0.7501985152197863  0.1842417881210402   T   T   T
  0.8777544977497592  0.7517789424830278  0.1836960141919788   T   T   T
  0.1246263772512644  0.0012170112801774  0.2938753794656183   T   T   T
  0.6250607454538648  0.9980882592251482  0.2777319656974411   T   T   T
  0.1235796708630077  0.5014240995012069  0.2749056164107950   T   T   T
  0.6276601474574283  0.4827842920443469  0.2762352147870721   T   T   T
  0.3719485333804658  0.0033027547883076  0.2746591098958240   T   T   T
  0.8777860254265155  0.0041010479213148  0.2753642488988939   T   T   T
  0.3708184262616617  0.4989483355749127  0.2800182894280587   T   T   T
  0.8777216819803025  0.4990274903996198  0.2762062408907009   T   T   T
  0.0028148427627041  0.2486648194285801  0.2759616943927958   T   T   T
  0.4999824276576343  0.2427417258996080  0.2764964592335292   T   T   T
  0.0027216987258718  0.7543474235085417  0.2760982400293188   T   T   T
  0.4898596268655985  0.7556336451592660  0.2761028451642318   T   T   T
  0.2460644824497235  0.2480406869789673  0.2748347856818441   T   T   T
  0.7509649870411371  0.2429461783124835  0.2770086639649263   T   T   T
  0.2461309840299248  0.7551963343804980  0.2748896418814176   T   T   T
  0.7601466612887493  0.7556014266487907  0.2765977818851982   T   T   T
  0.3715048571899355  0.4986429636624775  0.3611257141199479   T   T   T
 
  0.00000000E+00  0.00000000E+00  0.00000000E+00
  0.00000000E+00  0.00000000E+00  0.00000000E+00
  0.00000000E+00  0.00000000E+00  0.00000000E+00
  0.00000000E+00  0.00000000E+00  0.00000000E+00
  0.00000000E+00  0.00000000E+00  0.00000000E+00
  0.00000000E+00  0.00000000E+00  0.00000000E+00
  0.00000000E+00  0.00000000E+00  0.00000000E+00
  0.00000000E+00  0.00000000E+00  0.00000000E+00
  0.00000000E+00  0.00000000E+00  0.00000000E+00
  0.00000000E+00  0.00000000E+00  0.00000000E+00
  0.00000000E+00  0.00000000E+00  0.00000000E+00
  0.00000000E+00  0.00000000E+00  0.00000000E+00
  0.00000000E+00  0.00000000E+00  0.00000000E+00
  0.00000000E+00  0.00000000E+00  0.00000000E+00
  0.00000000E+00  0.00000000E+00  0.00000000E+00
  0.00000000E+00  0.00000000E+00  0.00000000E+00
  0.00000000E+00  0.00000000E+00  0.00000000E+00
  0.00000000E+00  0.00000000E+00  0.00000000E+00
  0.00000000E+00  0.00000000E+00  0.00000000E+00
  0.00000000E+00  0.00000000E+00  0.00000000E+00
  0.00000000E+00  0.00000000E+00  0.00000000E+00
  0.00000000E+00  0.00000000E+00  0.00000000E+00
  0.00000000E+00  0.00000000E+00  0.00000000E+00
  0.00000000E+00  0.00000000E+00  0.00000000E+00
  0.00000000E+00  0.00000000E+00  0.00000000E+00
  0.00000000E+00  0.00000000E+00  0.00000000E+00
  0.00000000E+00  0.00000000E+00  0.00000000E+00
  0.00000000E+00  0.00000000E+00  0.00000000E+00
  0.00000000E+00  0.00000000E+00  0.00000000E+00
  0.00000000E+00  0.00000000E+00  0.00000000E+00
  0.00000000E+00  0.00000000E+00  0.00000000E+00
  0.00000000E+00  0.00000000E+00  0.00000000E+00
  0.00000000E+00  0.00000000E+00  0.00000000E+00
  0.00000000E+00  0.00000000E+00  0.00000000E+00
  0.00000000E+00  0.00000000E+00  0.00000000E+00
  0.00000000E+00  0.00000000E+00  0.00000000E+00
  0.00000000E+00  0.00000000E+00  0.00000000E+00
  0.00000000E+00  0.00000000E+00  0.00000000E+00
  0.00000000E+00  0.00000000E+00  0.00000000E+00
  0.00000000E+00  0.00000000E+00  0.00000000E+00
  0.00000000E+00  0.00000000E+00  0.00000000E+00
  0.00000000E+00  0.00000000E+00  0.00000000E+00
  0.00000000E+00  0.00000000E+00  0.00000000E+00
  0.00000000E+00  0.00000000E+00  0.00000000E+00
  0.00000000E+00  0.00000000E+00  0.00000000E+00
  0.00000000E+00  0.00000000E+00  0.00000000E+00
  0.00000000E+00  0.00000000E+00  0.00000000E+00
  0.00000000E+00  0.00000000E+00  0.00000000E+00
  0.00000000E+00  0.00000000E+00  0.00000000E+00
  0.00000000E+00  0.00000000E+00  0.00000000E+00
  0.00000000E+00  0.00000000E+00  0.00000000E+00
  0.00000000E+00  0.00000000E+00  0.00000000E+00
  0.00000000E+00  0.00000000E+00  0.00000000E+00
  0.00000000E+00  0.00000000E+00  0.00000000E+00
  0.00000000E+00  0.00000000E+00  0.00000000E+00
  0.00000000E+00  0.00000000E+00  0.00000000E+00
  0.00000000E+00  0.00000000E+00  0.00000000E+00
  0.00000000E+00  0.00000000E+00  0.00000000E+00
  0.00000000E+00  0.00000000E+00  0.00000000E+00
  0.00000000E+00  0.00000000E+00  0.00000000E+00
  0.00000000E+00  0.00000000E+00  0.00000000E+00
  0.00000000E+00  0.00000000E+00  0.00000000E+00
  0.00000000E+00  0.00000000E+00  0.00000000E+00
  0.00000000E+00  0.00000000E+00  0.00000000E+00
  0.00000000E+00  0.00000000E+00  0.00000000E+00
  0.00000000E+00  0.00000000E+00  0.00000000E+00
  0.00000000E+00  0.00000000E+00  0.00000000E+00
  0.00000000E+00  0.00000000E+00  0.00000000E+00
  0.00000000E+00  0.00000000E+00  0.00000000E+00
  0.00000000E+00  0.00000000E+00  0.00000000E+00
  0.00000000E+00  0.00000000E+00  0.00000000E+00
  0.00000000E+00  0.00000000E+00  0.00000000E+00
  0.00000000E+00  0.00000000E+00  0.00000000E+00
  0.00000000E+00  0.00000000E+00  0.00000000E+00
  0.00000000E+00  0.00000000E+00  0.00000000E+00
  0.00000000E+00  0.00000000E+00  0.00000000E+00
  0.00000000E+00  0.00000000E+00  0.00000000E+00
  0.00000000E+00  0.00000000E+00  0.00000000E+00
  0.00000000E+00  0.00000000E+00  0.00000000E+00
  0.00000000E+00  0.00000000E+00  0.00000000E+00
  0.00000000E+00  0.00000000E+00  0.00000000E+00
  0.00000000E+00  0.00000000E+00  0.00000000E+00
  0.00000000E+00  0.00000000E+00  0.00000000E+00
  0.00000000E+00  0.00000000E+00  0.00000000E+00
  0.00000000E+00  0.00000000E+00  0.00000000E+00
  0.00000000E+00  0.00000000E+00  0.00000000E+00
  0.00000000E+00  0.00000000E+00  0.00000000E+00
  0.00000000E+00  0.00000000E+00  0.00000000E+00
  0.00000000E+00  0.00000000E+00  0.00000000E+00
  0.00000000E+00  0.00000000E+00  0.00000000E+00
  0.00000000E+00  0.00000000E+00  0.00000000E+00
  0.00000000E+00  0.00000000E+00  0.00000000E+00
  0.00000000E+00  0.00000000E+00  0.00000000E+00
  0.00000000E+00  0.00000000E+00  0.00000000E+00
  0.00000000E+00  0.00000000E+00  0.00000000E+00
  0.00000000E+00  0.00000000E+00  0.00000000E+00
  0.00000000E+00  0.00000000E+00  0.00000000E+00
  0.00000000E+00  0.00000000E+00  0.00000000E+00
  0.00000000E+00  0.00000000E+00  0.00000000E+00
  0.00000000E+00  0.00000000E+00  0.00000000E+00
  0.00000000E+00  0.00000000E+00  0.00000000E+00
  0.00000000E+00  0.00000000E+00  0.00000000E+00
  0.00000000E+00  0.00000000E+00  0.00000000E+00
  0.00000000E+00  0.00000000E+00  0.00000000E+00
  0.00000000E+00  0.00000000E+00  0.00000000E+00
  0.00000000E+00  0.00000000E+00  0.00000000E+00
  0.00000000E+00  0.00000000E+00  0.00000000E+00
  0.00000000E+00  0.00000000E+00  0.00000000E+00
  0.00000000E+00  0.00000000E+00  0.00000000E+00
  0.00000000E+00  0.00000000E+00  0.00000000E+00
  0.00000000E+00  0.00000000E+00  0.00000000E+00
  0.00000000E+00  0.00000000E+00  0.00000000E+00
  0.00000000E+00  0.00000000E+00  0.00000000E+00
  0.00000000E+00  0.00000000E+00  0.00000000E+00
  0.00000000E+00  0.00000000E+00  0.00000000E+00
  0.00000000E+00  0.00000000E+00  0.00000000E+00
  0.00000000E+00  0.00000000E+00  0.00000000E+00
  0.00000000E+00  0.00000000E+00  0.00000000E+00
  0.00000000E+00  0.00000000E+00  0.00000000E+00
  0.00000000E+00  0.00000000E+00  0.00000000E+00
  0.00000000E+00  0.00000000E+00  0.00000000E+00
  0.00000000E+00  0.00000000E+00  0.00000000E+00
  0.00000000E+00  0.00000000E+00  0.00000000E+00
  0.00000000E+00  0.00000000E+00  0.00000000E+00
  0.00000000E+00  0.00000000E+00  0.00000000E+00
  0.00000000E+00  0.00000000E+00  0.00000000E+00
  0.00000000E+00  0.00000000E+00  0.00000000E+00
  0.00000000E+00  0.00000000E+00  0.00000000E+00
  0.00000000E+00  0.00000000E+00  0.00000000E+00
  0.00000000E+00  0.00000000E+00  0.00000000E+00
