H Mg O Ru                               
   1.00000000000000     
    16.8282433949600012    0.0000000000000000    0.0000000000000000
     0.0000000000000000    8.4141216974800006    0.0000000000000000
     0.0000000000000000    0.0000000000000000   23.4141216974799988
   H    Mg   O    Ru
     2    63    64     1
Selective dynamics
Direct
  0.1252039987228394  0.0014507580988107  0.3355523837644365   T   T   T
  0.6257767312608737  0.8841370436873309  0.2875712815835189   T   T   T
  0.1249727665555063  0.0011392147404256  0.0021972449645632   T   T   T
  0.6250516982520334  0.0012276202962267  0.0048255287520633   T   T   T
  0.1249860314307075  0.5009579673526430  0.0030172935270130   T   T   T
  0.6250443214018061  0.5001069154608618  0.0051734599164300   T   T   T
  0.3760158469592134  0.0010289408513404  0.0041926961942117   T   T   T
  0.8739590782343627  0.0009947559086705  0.0042031306978224   T   T   T
  0.3760825277542112  0.5009488340819992  0.0045622308615193   T   T   T
  0.8739147248541643  0.5009784962477578  0.0047052159947591   T   T   T
  0.9990968484353465  0.2513673109134035  0.0036299287245674   T   T   T
  0.5007246334313123  0.2511403352882886  0.0052944276700663   T   T   T
  0.9991109268409419  0.7506602572058449  0.0034928956914986   T   T   T
  0.5004250719277148  0.7505790422906147  0.0050020929863702   T   T   T
  0.2508743563787922  0.2513834015878487  0.0036563374168473   T   T   T
  0.7493146350624837  0.2511117737734568  0.0052760988946834   T   T   T
  0.2508204691806237  0.7506847012440268  0.0035168633468482   T   T   T
  0.7496192754260458  0.7506129534704916  0.0050093871554977   T   T   T
  0.9989790037800624  0.0011390547151038  0.0919191335270274   T   T   T
  0.5005577162011995  0.0002576725003971  0.0945727887011905   T   T   T
  0.9992261925923314  0.5010550270561206  0.0931941642799421   T   T   T
  0.5010563766683146  0.5016286940879807  0.0953454164259273   T   T   T
  0.2509252491660374  0.0012491864055215  0.0920536899130594   T   T   T
  0.7495785050731516  0.0000346871206968  0.0945848125681746   T   T   T
  0.2506176129770930  0.5010874629727616  0.0932632978160089   T   T   T
  0.7491809311385255  0.5017873854773292  0.0952890817526531   T   T   T
  0.1250173532045244  0.2524888773432533  0.0917192445390527   T   T   T
  0.6250301423543527  0.2509544883254340  0.0954270944564885   T   T   T
  0.1249807355193476  0.7498225628991773  0.0914499960921608   T   T   T
  0.6250954804636828  0.7496896004174657  0.0940194433371900   T   T   T
  0.3758282160152033  0.2514776735950432  0.0942005200780286   T   T   T
  0.8741482267484276  0.2514996636832189  0.0941599532390814   T   T   T
  0.3757604271065332  0.7506137443508893  0.0942164493462697   T   T   T
  0.8740709885180197  0.7505661478588742  0.0942881022834472   T   T   T
  0.1249971426814771  0.0015920666087253  0.1759320762421445   T   T   T
  0.6250802905034855  0.9936918930865607  0.1834461085650527   T   T   T
  0.1248014258225208  0.5009919334405434  0.1825934465686198   T   T   T
  0.6256728756224098  0.5077306765750474  0.1883246431653662   T   T   T
  0.3758572018268523  0.0005451304635305  0.1837721968867924   T   T   T
  0.8740825742882719  0.0004084497970628  0.1839848508181514   T   T   T
  0.3762055142405116  0.5019986682129752  0.1842539124777428   T   T   T
  0.8737629251334722  0.5019841047261537  0.1849503812892361   T   T   T
  0.9993648684899370  0.2512616982024650  0.1836493888255833   T   T   T
  0.5012704077268788  0.2523156193114100  0.1867758747133052   T   T   T
 -0.0001398965344796  0.7511854150078279  0.1832639673174566   T   T   T
  0.5033652902184267  0.7508003572646365  0.1877287991512566   T   T   T
  0.2505281236041337  0.2522142615188472  0.1843575643686008   T   T   T
  0.7489631672406207  0.2511407514553008  0.1861892448775870   T   T   T
  0.2498786964567649  0.7506483540402837  0.1838234067388528   T   T   T
  0.7462951720557618  0.7512758486037684  0.1881923621750791   T   T   T
  0.9947842430501541  0.0028044801154999  0.2728699085334599   T   T   T
  0.4966911146948835  0.9954147613415961  0.2739437460731463   T   T   T
  0.9986595483391486  0.4998554170572298  0.2732501606925327   T   T   T
  0.5136617109303694  0.5224940656285325  0.2792509634107618   T   T   T
  0.2538811648925574  0.0031199809872558  0.2723660117062706   T   T   T
  0.7551609376629579  0.9949288702004053  0.2745189657791058   T   T   T
  0.2449598947797731  0.5005345868638081  0.2758614680765671   T   T   T
  0.7452820430433607  0.5152733852653862  0.2767300440221863   T   T   T
  0.1241064586201007  0.2619230520796124  0.2724909518781671   T   T   T
  0.6257747982180852  0.2507251469030209  0.2748058548220355   T   T   T
  0.1240279078517478  0.7410646057067405  0.2724477111227721   T   T   T
  0.3779347463545946  0.2437429780698562  0.2761763323713675   T   T   T
  0.8730459638368557  0.2533689404323691  0.2740067269131309   T   T   T
  0.3728676637993117  0.7592412478777441  0.2753957251193340   T   T   T
  0.8772101504695069  0.7493573198280244  0.2737893666346211   T   T   T
  0.9997709494159114  0.0011974687587434  0.0011314784690519   T   T   T
  0.4998092719164450  0.0011008623759600  0.0026036248237055   T   T   T
  0.9999680029928313  0.5008656358524021  0.0019241732099776   T   T   T
  0.4999288178256244  0.5006653552545202  0.0027112977571020   T   T   T
  0.2502731989716089  0.0012336272447528  0.0012648371531565   T   T   T
  0.7501428698796071  0.0010938410627909  0.0024834547548754   T   T   T
  0.2501929355029827  0.5008734866807644  0.0018531735182425   T   T   T
  0.7499490055162921  0.5006673413870854  0.0027389926670466   T   T   T
  0.1250977850402106  0.2516118791628641  0.0010131289917754   T   T   T
  0.6249217846821138  0.2508104715318154  0.0025550126233065   T   T   T
  0.1250772044106341  0.7504810421381048  0.0007792354100450   T   T   T
  0.6249244543023929  0.7505264786797354  0.0024336100665676   T   T   T
  0.3751044865613652  0.2510481386390608  0.0024809541496041   T   T   T
  0.8748992410282294  0.2510718075676778  0.0024510214371426   T   T   T
  0.3748480418922425  0.7509117528276333  0.0021907481609881   T   T   T
  0.8751302032555791  0.7508821611466587  0.0021589014547283   T   T   T
  0.1250007751238994  0.0011905536648539  0.0910856760141488   T   T   T
  0.6249850498931241  0.0018173449981803  0.0935021411584333   T   T   T
  0.1252133893860374  0.5010946720712889  0.0937340825167996   T   T   T
  0.6248728488709431  0.4988291159072880  0.0946741400719244   T   T   T
  0.3741567326294681  0.0014089907351586  0.0944226872047007   T   T   T
  0.8758706087179379  0.0013390402141388  0.0943154659915058   T   T   T
  0.3745688894670052  0.5007293601247418  0.0946102118808732   T   T   T
  0.8754443931498231  0.5007688361929047  0.0943924779413144   T   T   T
  0.0006458527467204  0.2505327649877467  0.0937318095325036   T   T   T
  0.4995066953503932  0.2513572564900682  0.0951136708844926   T   T   T
  0.0009187660835068  0.7516658957581482  0.0934364731253983   T   T   T
  0.4988287554693274  0.7505402483358720  0.0941429825027899   T   T   T
  0.2495528577123133  0.2511362049497267  0.0939894910785995   T   T   T
  0.7503424301178456  0.2507903925538162  0.0949112504767708   T   T   T
  0.2492096914311956  0.7512122225369344  0.0936604008977583   T   T   T
  0.7509570760440972  0.7510048940467192  0.0940814068559158   T   T   T
  0.0037224328898747  0.0014629456664298  0.1847057873231414   T   T   T
  0.4994785626874965  0.0004700647010591  0.1842595817704519   T   T   T
  0.0013195482061196  0.5009911387265699  0.1838087300318586   T   T   T
  0.4992730035227114  0.5016502940442890  0.1866016986100658   T   T   T
  0.2465796363947849  0.0016132833336439  0.1840754289748483   T   T   T
  0.7503676581209334  0.0005022146937689  0.1845999108018699   T   T   T
  0.2490768268194612  0.5012113758227686  0.1850111159451414   T   T   T
  0.7506091082013431  0.5012397675382958  0.1852724023911015   T   T   T
  0.1246529147770659  0.2468161922818627  0.1841677088112957   T   T   T
  0.6251962000976257  0.2446414620110010  0.1849811341762148   T   T   T
  0.1246273009955849  0.7558706650736146  0.1841459556069591   T   T   T
  0.6248895138576668  0.7518331308472190  0.1798779442437694   T   T   T
  0.3741050646498678  0.2524875707048975  0.1852840130200707   T   T   T
  0.8761161341663671  0.2506554007007775  0.1842071862336181   T   T   T
  0.3724119081137393  0.7501776856305480  0.1844214988021321   T   T   T
  0.8777321733957864  0.7517756820940042  0.1836850206378125   T   T   T
  0.1240160599869604  0.0011570749863412  0.2938297022816409   T   T   T
  0.6255513275108900  0.9977513289984784  0.2777505816131745   T   T   T
  0.1231530103056627  0.5016662168951792  0.2751165214303189   T   T   T
  0.6279506127433294  0.4829050149448090  0.2765060969466356   T   T   T
  0.3720603599067672  0.0030610659778554  0.2749401501415745   T   T   T
  0.8777564236506447  0.0041056532243157  0.2754176223168353   T   T   T
  0.3705667516305126  0.4991380223266787  0.2775604091740726   T   T   T
  0.8776641948085004  0.4989697543725577  0.2762562445189543   T   T   T
  0.0026329672154748  0.2487183418972232  0.2760183040669974   T   T   T
  0.5007031590718293  0.2415335262099681  0.2762503206923920   T   T   T
  0.0025138153825705  0.7543667123242377  0.2761233186054947   T   T   T
  0.4905770123491934  0.7569246924278126  0.2757366607511363   T   T   T
  0.2455071108085365  0.2475076261402964  0.2748427114280639   T   T   T
  0.7510648336794880  0.2429214971950685  0.2770008782917549   T   T   T
  0.2457405999971467  0.7561512111890273  0.2747221013658931   T   T   T
  0.7602327860643540  0.7554943973472349  0.2766610108566764   T   T   T
  0.3698320580427704  0.4937196073854255  0.3605300509710855   T   T   T
 
  0.00000000E+00  0.00000000E+00  0.00000000E+00
  0.00000000E+00  0.00000000E+00  0.00000000E+00
  0.00000000E+00  0.00000000E+00  0.00000000E+00
  0.00000000E+00  0.00000000E+00  0.00000000E+00
  0.00000000E+00  0.00000000E+00  0.00000000E+00
  0.00000000E+00  0.00000000E+00  0.00000000E+00
  0.00000000E+00  0.00000000E+00  0.00000000E+00
  0.00000000E+00  0.00000000E+00  0.00000000E+00
  0.00000000E+00  0.00000000E+00  0.00000000E+00
  0.00000000E+00  0.00000000E+00  0.00000000E+00
  0.00000000E+00  0.00000000E+00  0.00000000E+00
  0.00000000E+00  0.00000000E+00  0.00000000E+00
  0.00000000E+00  0.00000000E+00  0.00000000E+00
  0.00000000E+00  0.00000000E+00  0.00000000E+00
  0.00000000E+00  0.00000000E+00  0.00000000E+00
  0.00000000E+00  0.00000000E+00  0.00000000E+00
  0.00000000E+00  0.00000000E+00  0.00000000E+00
  0.00000000E+00  0.00000000E+00  0.00000000E+00
  0.00000000E+00  0.00000000E+00  0.00000000E+00
  0.00000000E+00  0.00000000E+00  0.00000000E+00
  0.00000000E+00  0.00000000E+00  0.00000000E+00
  0.00000000E+00  0.00000000E+00  0.00000000E+00
  0.00000000E+00  0.00000000E+00  0.00000000E+00
  0.00000000E+00  0.00000000E+00  0.00000000E+00
  0.00000000E+00  0.00000000E+00  0.00000000E+00
  0.00000000E+00  0.00000000E+00  0.00000000E+00
  0.00000000E+00  0.00000000E+00  0.00000000E+00
  0.00000000E+00  0.00000000E+00  0.00000000E+00
  0.00000000E+00  0.00000000E+00  0.00000000E+00
  0.00000000E+00  0.00000000E+00  0.00000000E+00
  0.00000000E+00  0.00000000E+00  0.00000000E+00
  0.00000000E+00  0.00000000E+00  0.00000000E+00
  0.00000000E+00  0.00000000E+00  0.00000000E+00
  0.00000000E+00  0.00000000E+00  0.00000000E+00
  0.00000000E+00  0.00000000E+00  0.00000000E+00
  0.00000000E+00  0.00000000E+00  0.00000000E+00
  0.00000000E+00  0.00000000E+00  0.00000000E+00
  0.00000000E+00  0.00000000E+00  0.00000000E+00
  0.00000000E+00  0.00000000E+00  0.00000000E+00
  0.00000000E+00  0.00000000E+00  0.00000000E+00
  0.00000000E+00  0.00000000E+00  0.00000000E+00
  0.00000000E+00  0.00000000E+00  0.00000000E+00
  0.00000000E+00  0.00000000E+00  0.00000000E+00
  0.00000000E+00  0.00000000E+00  0.00000000E+00
  0.00000000E+00  0.00000000E+00  0.00000000E+00
  0.00000000E+00  0.00000000E+00  0.00000000E+00
  0.00000000E+00  0.00000000E+00  0.00000000E+00
  0.00000000E+00  0.00000000E+00  0.00000000E+00
  0.00000000E+00  0.00000000E+00  0.00000000E+00
  0.00000000E+00  0.00000000E+00  0.00000000E+00
  0.00000000E+00  0.00000000E+00  0.00000000E+00
  0.00000000E+00  0.00000000E+00  0.00000000E+00
  0.00000000E+00  0.00000000E+00  0.00000000E+00
  0.00000000E+00  0.00000000E+00  0.00000000E+00
  0.00000000E+00  0.00000000E+00  0.00000000E+00
  0.00000000E+00  0.00000000E+00  0.00000000E+00
  0.00000000E+00  0.00000000E+00  0.00000000E+00
  0.00000000E+00  0.00000000E+00  0.00000000E+00
  0.00000000E+00  0.00000000E+00  0.00000000E+00
  0.00000000E+00  0.00000000E+00  0.00000000E+00
  0.00000000E+00  0.00000000E+00  0.00000000E+00
  0.00000000E+00  0.00000000E+00  0.00000000E+00
  0.00000000E+00  0.00000000E+00  0.00000000E+00
  0.00000000E+00  0.00000000E+00  0.00000000E+00
  0.00000000E+00  0.00000000E+00  0.00000000E+00
  0.00000000E+00  0.00000000E+00  0.00000000E+00
  0.00000000E+00  0.00000000E+00  0.00000000E+00
  0.00000000E+00  0.00000000E+00  0.00000000E+00
  0.00000000E+00  0.00000000E+00  0.00000000E+00
  0.00000000E+00  0.00000000E+00  0.00000000E+00
  0.00000000E+00  0.00000000E+00  0.00000000E+00
  0.00000000E+00  0.00000000E+00  0.00000000E+00
  0.00000000E+00  0.00000000E+00  0.00000000E+00
  0.00000000E+00  0.00000000E+00  0.00000000E+00
  0.00000000E+00  0.00000000E+00  0.00000000E+00
  0.00000000E+00  0.00000000E+00  0.00000000E+00
  0.00000000E+00  0.00000000E+00  0.00000000E+00
  0.00000000E+00  0.00000000E+00  0.00000000E+00
  0.00000000E+00  0.00000000E+00  0.00000000E+00
  0.00000000E+00  0.00000000E+00  0.00000000E+00
  0.00000000E+00  0.00000000E+00  0.00000000E+00
  0.00000000E+00  0.00000000E+00  0.00000000E+00
  0.00000000E+00  0.00000000E+00  0.00000000E+00
  0.00000000E+00  0.00000000E+00  0.00000000E+00
  0.00000000E+00  0.00000000E+00  0.00000000E+00
  0.00000000E+00  0.00000000E+00  0.00000000E+00
  0.00000000E+00  0.00000000E+00  0.00000000E+00
  0.00000000E+00  0.00000000E+00  0.00000000E+00
  0.00000000E+00  0.00000000E+00  0.00000000E+00
  0.00000000E+00  0.00000000E+00  0.00000000E+00
  0.00000000E+00  0.00000000E+00  0.00000000E+00
  0.00000000E+00  0.00000000E+00  0.00000000E+00
  0.00000000E+00  0.00000000E+00  0.00000000E+00
  0.00000000E+00  0.00000000E+00  0.00000000E+00
  0.00000000E+00  0.00000000E+00  0.00000000E+00
  0.00000000E+00  0.00000000E+00  0.00000000E+00
  0.00000000E+00  0.00000000E+00  0.00000000E+00
  0.00000000E+00  0.00000000E+00  0.00000000E+00
  0.00000000E+00  0.00000000E+00  0.00000000E+00
  0.00000000E+00  0.00000000E+00  0.00000000E+00
  0.00000000E+00  0.00000000E+00  0.00000000E+00
  0.00000000E+00  0.00000000E+00  0.00000000E+00
  0.00000000E+00  0.00000000E+00  0.00000000E+00
  0.00000000E+00  0.00000000E+00  0.00000000E+00
  0.00000000E+00  0.00000000E+00  0.00000000E+00
  0.00000000E+00  0.00000000E+00  0.00000000E+00
  0.00000000E+00  0.00000000E+00  0.00000000E+00
  0.00000000E+00  0.00000000E+00  0.00000000E+00
  0.00000000E+00  0.00000000E+00  0.00000000E+00
  0.00000000E+00  0.00000000E+00  0.00000000E+00
  0.00000000E+00  0.00000000E+00  0.00000000E+00
  0.00000000E+00  0.00000000E+00  0.00000000E+00
  0.00000000E+00  0.00000000E+00  0.00000000E+00
  0.00000000E+00  0.00000000E+00  0.00000000E+00
  0.00000000E+00  0.00000000E+00  0.00000000E+00
  0.00000000E+00  0.00000000E+00  0.00000000E+00
  0.00000000E+00  0.00000000E+00  0.00000000E+00
  0.00000000E+00  0.00000000E+00  0.00000000E+00
  0.00000000E+00  0.00000000E+00  0.00000000E+00
  0.00000000E+00  0.00000000E+00  0.00000000E+00
  0.00000000E+00  0.00000000E+00  0.00000000E+00
  0.00000000E+00  0.00000000E+00  0.00000000E+00
  0.00000000E+00  0.00000000E+00  0.00000000E+00
  0.00000000E+00  0.00000000E+00  0.00000000E+00
  0.00000000E+00  0.00000000E+00  0.00000000E+00
  0.00000000E+00  0.00000000E+00  0.00000000E+00
  0.00000000E+00  0.00000000E+00  0.00000000E+00
  0.00000000E+00  0.00000000E+00  0.00000000E+00
  0.00000000E+00  0.00000000E+00  0.00000000E+00
  0.00000000E+00  0.00000000E+00  0.00000000E+00
