H Mg O Rh                               
   1.00000000000000     
    16.8282433949600012    0.0000000000000000    0.0000000000000000
     0.0000000000000000    8.4141216974800006    0.0000000000000000
     0.0000000000000000    0.0000000000000000   23.4141216974799988
   H    Mg   O    Rh
     2    63    64     1
Selective dynamics
Direct
  0.1250646128994203  0.0013987294687720  0.3354465624729562   T   T   T
  0.6252528385898980  0.8845446110090190  0.2877749461988460   T   T   T
  0.1249633739428481  0.0011432743005356  0.0020970569432785   T   T   T
  0.6250426598330547  0.0011918192733976  0.0049254610678798   T   T   T
  0.1249857010082390  0.5009660031605824  0.0029086101539861   T   T   T
  0.6250324291833319  0.5000734104712891  0.0052389293232248   T   T   T
  0.3761064510894152  0.0009770875603396  0.0041657596879844   T   T   T
  0.8738885781459363  0.0009747955260187  0.0042175469558624   T   T   T
  0.3761587945189204  0.5009613917153675  0.0045921965671448   T   T   T
  0.8738305650637856  0.5009629539329227  0.0047298802370745   T   T   T
  0.9990117365051453  0.2514028561069797  0.0035432629868698   T   T   T
  0.5007646970353610  0.2511215796212966  0.0053005019275771   T   T   T
  0.9990390443936524  0.7506404924368381  0.0034190431305586   T   T   T
  0.5004651888241132  0.7504962404638392  0.0050387823274013   T   T   T
  0.2509424726696876  0.2514318379201311  0.0035231670949321   T   T   T
  0.7492837017697586  0.2511124905542962  0.0053278825612875   T   T   T
  0.2509114236426405  0.7506161244845992  0.0033940316316618   T   T   T
  0.7495825528056163  0.7505185953520206  0.0050627634751489   T   T   T
  0.9989861933874168  0.0011109389158898  0.0918795974143679   T   T   T
  0.5006241881996871 -0.0000388229337128  0.0946814422286047   T   T   T
  0.9991739701697147  0.5010869513882789  0.0932139301238958   T   T   T
  0.5012137755431824  0.5017205838392454  0.0953046150130965   T   T   T
  0.2508808775315063  0.0011689864599393  0.0919387710478349   T   T   T
  0.7495162021373666  0.0000284098005727  0.0946511929364034   T   T   T
  0.2505502009610651  0.5010782609022276  0.0931102265268184   T   T   T
  0.7491044948798342  0.5017483068193075  0.0954464985540797   T   T   T
  0.1249747744858934  0.2523681242390691  0.0915822065238592   T   T   T
  0.6250727094347981  0.2509200456553615  0.0955334900286319   T   T   T
  0.1249490511389749  0.7498732693053494  0.0913545914466756   T   T   T
  0.6250549331175681  0.7497916789237482  0.0941355458291491   T   T   T
  0.3758401816002955  0.2511917793002071  0.0941210386540484   T   T   T
  0.8741263152461700  0.2515593917325879  0.0941951039382038   T   T   T
  0.3758663625053470  0.7508640643472287  0.0942168617362053   T   T   T
  0.8740890183290824  0.7504765282028967  0.0943190061371689   T   T   T
  0.1250834315836205  0.0014005878253699  0.1760603399222705   T   T   T
  0.6249596033423238  0.9939094553142923  0.1837217482030536   T   T   T
  0.1249623606761033  0.5010490938766693  0.1825070486129877   T   T   T
  0.6252639421075633  0.5080782701491010  0.1884500514382157   T   T   T
  0.3758223326626789  0.0005205393379303  0.1837322912854663   T   T   T
  0.8741268585059773  0.0004475320045800  0.1840149893370415   T   T   T
  0.3761472632195373  0.5019884444067773  0.1839591951587399   T   T   T
  0.8736718588698179  0.5019793641301314  0.1851373330253934   T   T   T
  0.9995549060151343  0.2514537189162874  0.1837304802239428   T   T   T
  0.5011998260418750  0.2514979816244962  0.1864547185686810   T   T   T
  0.0001183334420212  0.7509984155233603  0.1833668502324420   T   T   T
  0.5033666080070320  0.7507039340462610  0.1882282381947186   T   T   T
  0.2506105350126034  0.2518218883552457  0.1840364386976789   T   T   T
  0.7487438952108838  0.2514174430824492  0.1863314972042325   T   T   T
  0.2498452475204501  0.7509364674187072  0.1835914692627424   T   T   T
  0.7463654540733268  0.7512198109545848  0.1881985916594441   T   T   T
  0.9949083668352978  0.0028105541103688  0.2727348550154166   T   T   T
  0.4958532271906868  0.9950002313830233  0.2745831394714177   T   T   T
  0.9990827873454502  0.4998803849889268  0.2731899190133903   T   T   T
  0.5102130948737008  0.5161636883765408  0.2781517090450769   T   T   T
  0.2542657861146314  0.0030985761972251  0.2726567937714639   T   T   T
  0.7551085851152537  0.9951946481511592  0.2745604006798690   T   T   T
  0.2477192898222660  0.5010897969112442  0.2750832583992124   T   T   T
  0.7439049860441647  0.5157243271733142  0.2768734111512910   T   T   T
  0.1247812330335766  0.2623678051710242  0.2725365120025225   T   T   T
  0.6252345840801666  0.2509051783559067  0.2749788163707029   T   T   T
  0.1246565951651768  0.7404758930989622  0.2725371434618981   T   T   T
  0.3774940432585600  0.2477590640507036  0.2753266681535014   T   T   T
  0.8729388383401484  0.2539135069169714  0.2740154395757268   T   T   T
  0.3719136856846034  0.7560421266672589  0.2747115674435887   T   T   T
  0.8771850282010855  0.7488091789130953  0.2738135155490710   T   T   T
  0.9997490373553203  0.0012069446577595  0.0010711627191590   T   T   T
  0.4998056476926692  0.0010555636462511  0.0026183206049468   T   T   T
  0.9999004882724942  0.5008634494148070  0.0018548835007768   T   T   T
  0.5000188042117693  0.5006038398230013  0.0028260547645430   T   T   T
  0.2503417696068675  0.0011877540450932  0.0011276466556493   T   T   T
  0.7501110536557993  0.0010561165097040  0.0025608723340041   T   T   T
  0.2501835665852727  0.5008913697240756  0.0018614168894154   T   T   T
  0.7499214195887276  0.5006299615460528  0.0028056222678468   T   T   T
  0.1250463888961837  0.2516193388583836  0.0008715037105679   T   T   T
  0.6249507049014010  0.2507980494993333  0.0026113585704746   T   T   T
  0.1250511568558466  0.7504794646232920  0.0006555939956864   T   T   T
  0.6249558623766617  0.7504721095209848  0.0024936699566324   T   T   T
  0.3751607674457987  0.2509486760198003  0.0025417756427520   T   T   T
  0.8748510935943017  0.2510424152961348  0.0024751392811343   T   T   T
  0.3749075656532285  0.7509600887133906  0.0022475144650678   T   T   T
  0.8750842532626044  0.7508731135788875  0.0021824256096602   T   T   T
  0.1250556281958687  0.0011581294800798  0.0911270531691013   T   T   T
  0.6249305432981456  0.0018400191951617  0.0936671768221103   T   T   T
  0.1251718537519514  0.5010697072444898  0.0936014288055227   T   T   T
  0.6248850133854285  0.4988632475095585  0.0947390989519928   T   T   T
  0.3741597839148990  0.0013333048888913  0.0944354597679812   T   T   T
  0.8758522294504260  0.0013119615312360  0.0943255977803116   T   T   T
  0.3745976928488789  0.5007608286644916  0.0943421266766613   T   T   T
  0.8753954433148281  0.5007665880351009  0.0944909401929576   T   T   T
  0.0007034967476217  0.2505465800378067  0.0937171861252305   T   T   T
  0.4995638429117103  0.2509331563601025  0.0951188902449798   T   T   T
  0.0009720293971606  0.7516510099048590  0.0934210311384664   T   T   T
  0.4988944901795612  0.7507395833217951  0.0942283319754761   T   T   T
  0.2494646993127328  0.2507598033367716  0.0937979950796733   T   T   T
  0.7502915514826100  0.2508333931129930  0.0950105103226354   T   T   T
  0.2491629120912036  0.7514951944163716  0.0935319900108166   T   T   T
  0.7509332155786698  0.7509386097570462  0.0941781316938666   T   T   T
  0.0037232811759739  0.0014648000702037  0.1847065526200938   T   T   T
  0.4994256222021606  0.0000362039382173  0.1847016692391660   T   T   T
  0.0014739337582815  0.5009779863992900  0.1837977319087694   T   T   T
  0.4994229815654734  0.5014157711423284  0.1859193823353052   T   T   T
  0.2465241079364433  0.0017798744136164  0.1844822902217972   T   T   T
  0.7503747171865883  0.0005804366691958  0.1847731710947156   T   T   T
  0.2489527774837472  0.5010198604703663  0.1843776558004737   T   T   T
  0.7503301368813891  0.5013695713883874  0.1854906435761506   T   T   T
  0.1249978811895851  0.2466608133220017  0.1843446265926325   T   T   T
  0.6250612678954023  0.2445162009297605  0.1851329545653023   T   T   T
  0.1248350655725451  0.7558355828795341  0.1842597426841095   T   T   T
  0.6248308956388582  0.7521385267797802  0.1800675272740997   T   T   T
  0.3739822856675453  0.2517166039673874  0.1846665245480417   T   T   T
  0.8761006686740686  0.2507521418265112  0.1842832148778334   T   T   T
  0.3723196580693403  0.7507975518935427  0.1839972714012828   T   T   T
  0.8777725274193284  0.7517252085841908  0.1837696661171342   T   T   T
  0.1249810537052339  0.0014695164349831  0.2937382872225016   T   T   T
  0.6248731926244693  0.9983207951301198  0.2779627573441689   T   T   T
  0.1241395715866567  0.5014226715471671  0.2750854958627235   T   T   T
  0.6263164339764696  0.4829752891723252  0.2765125451448291   T   T   T
  0.3720878667752237  0.0034127951283392  0.2750701925333023   T   T   T
  0.8778203769380244  0.0042376646264087  0.2754689186951909   T   T   T
  0.3717314039167028  0.4987447594265127  0.2754705389712090   T   T   T
  0.8779801003779120  0.4991177319992022  0.2763172161351287   T   T   T
  0.0032349393817675  0.2487058965173460  0.2760955252458266   T   T   T
  0.5001952053407203  0.2423720976562923  0.2761475617910284   T   T   T
  0.0031040736997026  0.7543608809638691  0.2762432719045180   T   T   T
  0.4896644776758156  0.7549102621088286  0.2767946004690743   T   T   T
  0.2465610760706144  0.2481111329795220  0.2754486176876397   T   T   T
  0.7506611551558585  0.2435596550988764  0.2771890137532035   T   T   T
  0.2460880723869471  0.7561422383152104  0.2747186063390427   T   T   T
  0.7600476359280587  0.7555823277080762  0.2767652616565884   T   T   T
  0.3717342533370111  0.4993831601234368  0.3626677850961001   T   T   T
 
  0.00000000E+00  0.00000000E+00  0.00000000E+00
  0.00000000E+00  0.00000000E+00  0.00000000E+00
  0.00000000E+00  0.00000000E+00  0.00000000E+00
  0.00000000E+00  0.00000000E+00  0.00000000E+00
  0.00000000E+00  0.00000000E+00  0.00000000E+00
  0.00000000E+00  0.00000000E+00  0.00000000E+00
  0.00000000E+00  0.00000000E+00  0.00000000E+00
  0.00000000E+00  0.00000000E+00  0.00000000E+00
  0.00000000E+00  0.00000000E+00  0.00000000E+00
  0.00000000E+00  0.00000000E+00  0.00000000E+00
  0.00000000E+00  0.00000000E+00  0.00000000E+00
  0.00000000E+00  0.00000000E+00  0.00000000E+00
  0.00000000E+00  0.00000000E+00  0.00000000E+00
  0.00000000E+00  0.00000000E+00  0.00000000E+00
  0.00000000E+00  0.00000000E+00  0.00000000E+00
  0.00000000E+00  0.00000000E+00  0.00000000E+00
  0.00000000E+00  0.00000000E+00  0.00000000E+00
  0.00000000E+00  0.00000000E+00  0.00000000E+00
  0.00000000E+00  0.00000000E+00  0.00000000E+00
  0.00000000E+00  0.00000000E+00  0.00000000E+00
  0.00000000E+00  0.00000000E+00  0.00000000E+00
  0.00000000E+00  0.00000000E+00  0.00000000E+00
  0.00000000E+00  0.00000000E+00  0.00000000E+00
  0.00000000E+00  0.00000000E+00  0.00000000E+00
  0.00000000E+00  0.00000000E+00  0.00000000E+00
  0.00000000E+00  0.00000000E+00  0.00000000E+00
  0.00000000E+00  0.00000000E+00  0.00000000E+00
  0.00000000E+00  0.00000000E+00  0.00000000E+00
  0.00000000E+00  0.00000000E+00  0.00000000E+00
  0.00000000E+00  0.00000000E+00  0.00000000E+00
  0.00000000E+00  0.00000000E+00  0.00000000E+00
  0.00000000E+00  0.00000000E+00  0.00000000E+00
  0.00000000E+00  0.00000000E+00  0.00000000E+00
  0.00000000E+00  0.00000000E+00  0.00000000E+00
  0.00000000E+00  0.00000000E+00  0.00000000E+00
  0.00000000E+00  0.00000000E+00  0.00000000E+00
  0.00000000E+00  0.00000000E+00  0.00000000E+00
  0.00000000E+00  0.00000000E+00  0.00000000E+00
  0.00000000E+00  0.00000000E+00  0.00000000E+00
  0.00000000E+00  0.00000000E+00  0.00000000E+00
  0.00000000E+00  0.00000000E+00  0.00000000E+00
  0.00000000E+00  0.00000000E+00  0.00000000E+00
  0.00000000E+00  0.00000000E+00  0.00000000E+00
  0.00000000E+00  0.00000000E+00  0.00000000E+00
  0.00000000E+00  0.00000000E+00  0.00000000E+00
  0.00000000E+00  0.00000000E+00  0.00000000E+00
  0.00000000E+00  0.00000000E+00  0.00000000E+00
  0.00000000E+00  0.00000000E+00  0.00000000E+00
  0.00000000E+00  0.00000000E+00  0.00000000E+00
  0.00000000E+00  0.00000000E+00  0.00000000E+00
  0.00000000E+00  0.00000000E+00  0.00000000E+00
  0.00000000E+00  0.00000000E+00  0.00000000E+00
  0.00000000E+00  0.00000000E+00  0.00000000E+00
  0.00000000E+00  0.00000000E+00  0.00000000E+00
  0.00000000E+00  0.00000000E+00  0.00000000E+00
  0.00000000E+00  0.00000000E+00  0.00000000E+00
  0.00000000E+00  0.00000000E+00  0.00000000E+00
  0.00000000E+00  0.00000000E+00  0.00000000E+00
  0.00000000E+00  0.00000000E+00  0.00000000E+00
  0.00000000E+00  0.00000000E+00  0.00000000E+00
  0.00000000E+00  0.00000000E+00  0.00000000E+00
  0.00000000E+00  0.00000000E+00  0.00000000E+00
  0.00000000E+00  0.00000000E+00  0.00000000E+00
  0.00000000E+00  0.00000000E+00  0.00000000E+00
  0.00000000E+00  0.00000000E+00  0.00000000E+00
  0.00000000E+00  0.00000000E+00  0.00000000E+00
  0.00000000E+00  0.00000000E+00  0.00000000E+00
  0.00000000E+00  0.00000000E+00  0.00000000E+00
  0.00000000E+00  0.00000000E+00  0.00000000E+00
  0.00000000E+00  0.00000000E+00  0.00000000E+00
  0.00000000E+00  0.00000000E+00  0.00000000E+00
  0.00000000E+00  0.00000000E+00  0.00000000E+00
  0.00000000E+00  0.00000000E+00  0.00000000E+00
  0.00000000E+00  0.00000000E+00  0.00000000E+00
  0.00000000E+00  0.00000000E+00  0.00000000E+00
  0.00000000E+00  0.00000000E+00  0.00000000E+00
  0.00000000E+00  0.00000000E+00  0.00000000E+00
  0.00000000E+00  0.00000000E+00  0.00000000E+00
  0.00000000E+00  0.00000000E+00  0.00000000E+00
  0.00000000E+00  0.00000000E+00  0.00000000E+00
  0.00000000E+00  0.00000000E+00  0.00000000E+00
  0.00000000E+00  0.00000000E+00  0.00000000E+00
  0.00000000E+00  0.00000000E+00  0.00000000E+00
  0.00000000E+00  0.00000000E+00  0.00000000E+00
  0.00000000E+00  0.00000000E+00  0.00000000E+00
  0.00000000E+00  0.00000000E+00  0.00000000E+00
  0.00000000E+00  0.00000000E+00  0.00000000E+00
  0.00000000E+00  0.00000000E+00  0.00000000E+00
  0.00000000E+00  0.00000000E+00  0.00000000E+00
  0.00000000E+00  0.00000000E+00  0.00000000E+00
  0.00000000E+00  0.00000000E+00  0.00000000E+00
  0.00000000E+00  0.00000000E+00  0.00000000E+00
  0.00000000E+00  0.00000000E+00  0.00000000E+00
  0.00000000E+00  0.00000000E+00  0.00000000E+00
  0.00000000E+00  0.00000000E+00  0.00000000E+00
  0.00000000E+00  0.00000000E+00  0.00000000E+00
  0.00000000E+00  0.00000000E+00  0.00000000E+00
  0.00000000E+00  0.00000000E+00  0.00000000E+00
  0.00000000E+00  0.00000000E+00  0.00000000E+00
  0.00000000E+00  0.00000000E+00  0.00000000E+00
  0.00000000E+00  0.00000000E+00  0.00000000E+00
  0.00000000E+00  0.00000000E+00  0.00000000E+00
  0.00000000E+00  0.00000000E+00  0.00000000E+00
  0.00000000E+00  0.00000000E+00  0.00000000E+00
  0.00000000E+00  0.00000000E+00  0.00000000E+00
  0.00000000E+00  0.00000000E+00  0.00000000E+00
  0.00000000E+00  0.00000000E+00  0.00000000E+00
  0.00000000E+00  0.00000000E+00  0.00000000E+00
  0.00000000E+00  0.00000000E+00  0.00000000E+00
  0.00000000E+00  0.00000000E+00  0.00000000E+00
  0.00000000E+00  0.00000000E+00  0.00000000E+00
  0.00000000E+00  0.00000000E+00  0.00000000E+00
  0.00000000E+00  0.00000000E+00  0.00000000E+00
  0.00000000E+00  0.00000000E+00  0.00000000E+00
  0.00000000E+00  0.00000000E+00  0.00000000E+00
  0.00000000E+00  0.00000000E+00  0.00000000E+00
  0.00000000E+00  0.00000000E+00  0.00000000E+00
  0.00000000E+00  0.00000000E+00  0.00000000E+00
  0.00000000E+00  0.00000000E+00  0.00000000E+00
  0.00000000E+00  0.00000000E+00  0.00000000E+00
  0.00000000E+00  0.00000000E+00  0.00000000E+00
  0.00000000E+00  0.00000000E+00  0.00000000E+00
  0.00000000E+00  0.00000000E+00  0.00000000E+00
  0.00000000E+00  0.00000000E+00  0.00000000E+00
  0.00000000E+00  0.00000000E+00  0.00000000E+00
  0.00000000E+00  0.00000000E+00  0.00000000E+00
  0.00000000E+00  0.00000000E+00  0.00000000E+00
  0.00000000E+00  0.00000000E+00  0.00000000E+00
  0.00000000E+00  0.00000000E+00  0.00000000E+00
  0.00000000E+00  0.00000000E+00  0.00000000E+00
