H Mg O Pd                               
   1.00000000000000     
    16.8282433949600012    0.0000000000000000    0.0000000000000000
     0.0000000000000000    8.4141216974800006    0.0000000000000000
     0.0000000000000000    0.0000000000000000   23.4141216974799988
   H    Mg   O    Pd
     2    63    64     1
Selective dynamics
Direct
  0.1250551872120023  0.0014032622790425  0.3354586401092494   T   T   T
  0.6251385622640162  0.8846410929023814  0.2877059196543065   T   T   T
  0.1249935977707494  0.0011325139754691  0.0021038513594872   T   T   T
  0.6250111242477898  0.0012037672171441  0.0049019118920727   T   T   T
  0.1249942628732100  0.5009661040436147  0.0029173664077510   T   T   T
  0.6250243009589731  0.5000778072881252  0.0052183116899078   T   T   T
  0.3760945685110183  0.0009838633569725  0.0041689952090201   T   T   T
  0.8738992071837349  0.0009761576795742  0.0042042719060893   T   T   T
  0.3761469801847483  0.5009570899122429  0.0046199579658853   T   T   T
  0.8738443352548496  0.5009635043923581  0.0047073945705159   T   T   T
  0.9990390932277727  0.2514104818706357  0.0035434447882621   T   T   T
  0.5007384453293199  0.2511174435131174  0.0053088426272891   T   T   T
  0.9990689779465102  0.7506241423341956  0.0034138409453826   T   T   T
  0.5004373449370257  0.7505253880370890  0.0050453496245145   T   T   T
  0.2509501564837929  0.2514093873018867  0.0035497345000768   T   T   T
  0.7492688247438786  0.2511272391786314  0.0053038809961843   T   T   T
  0.2509160808151697  0.7506234055236134  0.0034181417042346   T   T   T
  0.7495739576881035  0.7505204949243642  0.0050405995852537   T   T   T
  0.9989968247761104  0.0011223719673345  0.0918693456551104   T   T   T
  0.5005989338991326  0.0000370749835303  0.0946686150235343   T   T   T
  0.9992124447969566  0.5010731412304740  0.0931754039644237   T   T   T
  0.5011371562380622  0.5017338321074554  0.0953068245187434   T   T   T
  0.2509130024742424  0.0011253855330721  0.0919468726582197   T   T   T
  0.7494986907231180  0.0000232524355301  0.0946329359579399   T   T   T
  0.2506224383410234  0.5010749138320896  0.0931063040263106   T   T   T
  0.7490670302385970  0.5017651838327151  0.0953943497856893   T   T   T
  0.1250146292756796  0.2523861162044551  0.0915894104778585   T   T   T
  0.6249946902443471  0.2509295858842031  0.0955116375237851   T   T   T
  0.1250126200299836  0.7498604727268100  0.0913377857548064   T   T   T
  0.6250087040338808  0.7497857933696709  0.0941149474450107   T   T   T
  0.3758557421612699  0.2512984748670383  0.0941053232703550   T   T   T
  0.8741251226740293  0.2515229208022872  0.0941662115769268   T   T   T
  0.3758709341633059  0.7507640020655471  0.0941974712732343   T   T   T
  0.8740830476754212  0.7505149119242330  0.0942883664765100   T   T   T
  0.1251031931826819  0.0014688510031923  0.1760280502689425   T   T   T
  0.6249275947045003  0.9938379125677320  0.1836638774275490   T   T   T
  0.1250068115543134  0.5009950183275490  0.1825326850194380   T   T   T
  0.6251892188517398  0.5080772132365918  0.1884779021309559   T   T   T
  0.3758486168540805  0.0004698367858093  0.1838126312183369   T   T   T
  0.8741054407152778  0.0004449433446724  0.1840000930456404   T   T   T
  0.3762450617715060  0.5020604361707437  0.1840673112579707   T   T   T
  0.8736644889371502  0.5019756222973699  0.1851037107630199   T   T   T
  0.9995638899405921  0.2513859532505537  0.1837037313268126   T   T   T
  0.5011138294139857  0.2517195721834180  0.1865319632901092   T   T   T
  0.0001064338276463  0.7510577439901609  0.1833517097642331   T   T   T
  0.5034762680569010  0.7509526834172523  0.1881337510003339   T   T   T
  0.2505530861006525  0.2516934107391114  0.1839958990660862   T   T   T
  0.7487195472565151  0.2513457286641744  0.1863114201596489   T   T   T
  0.2499526451805752  0.7508130757564176  0.1836287007099230   T   T   T
  0.7462942405182358  0.7512806934430274  0.1881838722599476   T   T   T
  0.9948940177183427  0.0027955920263776  0.2727452298892116   T   T   T
  0.4957710809792410  0.9952376250889828  0.2744194419084822   T   T   T
  0.9991237750460704  0.4998496235197012  0.2732194697188549   T   T   T
  0.5099872610044749  0.5180494425376169  0.2781699767723465   T   T   T
  0.2543861096895135  0.0028908598948714  0.2725615753744020   T   T   T
  0.7550783848427962  0.9951411992964417  0.2745413872762020   T   T   T
  0.2480254228724379  0.5000135707976281  0.2748302168118246   T   T   T
  0.7439349485110286  0.5156492162772142  0.2768537602295961   T   T   T
  0.1247330979206742  0.2623634445964811  0.2724432539779010   T   T   T
  0.6251910072511078  0.2510704766619037  0.2749554553317401   T   T   T
  0.1247076460481454  0.7402680016451920  0.2725347033945735   T   T   T
  0.3771032542133075  0.2483715552293137  0.2751985664851917   T   T   T
  0.8729262536988953  0.2538128662523088  0.2740179383555378   T   T   T
  0.3726491954733385  0.7549878599986352  0.2747083682647521   T   T   T
  0.8771689159222863  0.7488961789844216  0.2738157328524480   T   T   T
  0.9997403057926514  0.0011995345633721  0.0010985002237539   T   T   T
  0.4998296707984196  0.0010566561346264  0.0026023786637574   T   T   T
  0.9998881749611959  0.5008606596942701  0.0018847691407536   T   T   T
  0.5000342676098130  0.5006335643956077  0.0027855458597643   T   T   T
  0.2503022340732533  0.0011947145634315  0.0011468288459179   T   T   T
  0.7501344824536316  0.0010652844185535  0.0025597853956230   T   T   T
  0.2501463840078357  0.5008636026280053  0.0018473735135540   T   T   T
  0.7499538713113406  0.5006358614096856  0.0028064373028454   T   T   T
  0.1250306490359397  0.2516002047226287  0.0009057611834085   T   T   T
  0.6249764433599220  0.2507911851203801  0.0025966641635792   T   T   T
  0.1250261643258541  0.7504909301899889  0.0006779439075907   T   T   T
  0.6249782014219012  0.7504923541649271  0.0024849017404047   T   T   T
  0.3751382569510563  0.2509467032073458  0.0025114706326534   T   T   T
  0.8748587984975428  0.2510459133890577  0.0024904641196379   T   T   T
  0.3748937904478734  0.7509680517739502  0.0022175734947443   T   T   T
  0.8751013844498088  0.7508741655050990  0.0021977067808655   T   T   T
  0.1250111556928015  0.0011366151794108  0.0911561963187593   T   T   T
  0.6249841237568438  0.0018704650096232  0.0936515500591479   T   T   T
  0.1250985550512915  0.5010967461006216  0.0936266685995481   T   T   T
  0.6249770716798830  0.4988329913887561  0.0947127240494952   T   T   T
  0.3741364030379854  0.0013507990486676  0.0943913100397141   T   T   T
  0.8758626944335549  0.0013147376037836  0.0943504963159230   T   T   T
  0.3745657833074251  0.5007479664098441  0.0944018467823540   T   T   T
  0.8754085643026210  0.5007643631855638  0.0945247953197053   T   T   T
  0.0006663087926336  0.2505495190145803  0.0937516396865413   T   T   T
  0.4995999029875938  0.2509725771309244  0.0950929506496295   T   T   T
  0.0009653975455463  0.7516437552525965  0.0934764805596406   T   T   T
  0.4989336014147858  0.7508108994719078  0.0942052725961364   T   T   T
  0.2494146871707809  0.2507143818803547  0.0938403634336191   T   T   T
  0.7503185828106379  0.2508393942826848  0.0950319920398919   T   T   T
  0.2490993590143412  0.7514851802115552  0.0935532744649903   T   T   T
  0.7509819970188182  0.7509405912022764  0.0941797595479762   T   T   T
  0.0037169268505779  0.0014319966594295  0.1847214203005907   T   T   T
  0.4994835641616124  0.0005363116185582  0.1846195252307840   T   T   T
  0.0014590975910612  0.5010075099372254  0.1838328999995823   T   T   T
  0.4994607312833361  0.5014050699349412  0.1859436049920443   T   T   T
  0.2464399702157608  0.0014534668062984  0.1844487468644248   T   T   T
  0.7504006709908958  0.0006071530905932  0.1847611058578809   T   T   T
  0.2488528438309814  0.5010452803677231  0.1843865601318314   T   T   T
  0.7503862637277540  0.5013239077220083  0.1854906435278376   T   T   T
  0.1248656066025507  0.2466554488915014  0.1842736962372293   T   T   T
  0.6250491396040900  0.2445090593299173  0.1851764602719545   T   T   T
  0.1248543646571920  0.7558710706452861  0.1843306497242115   T   T   T
  0.6249520947468850  0.7521653433062992  0.1800084345114458   T   T   T
  0.3739500609960709  0.2516508211408949  0.1846837273933072   T   T   T
  0.8761206424828515  0.2507964905658049  0.1842964673598501   T   T   T
  0.3722922797897397  0.7508857536891300  0.1840004040626671   T   T   T
  0.8777827688271349  0.7516724141981430  0.1837765390128163   T   T   T
  0.1248776712606294  0.0011667224786743  0.2937346773875009   T   T   T
  0.6250509564258403  0.9984363169327285  0.2779677027556666   T   T   T
  0.1242794106385056  0.5014089031478772  0.2752505015676577   T   T   T
  0.6262090922897345  0.4830063179956241  0.2766269911006218   T   T   T
  0.3720457760209926  0.0035262663595771  0.2752781980288915   T   T   T
  0.8778049284476398  0.0042369321703075  0.2754762881695756   T   T   T
  0.3716229125646207  0.4990160021476064  0.2751622976777633   T   T   T
  0.8779535333548866  0.4990841406547933  0.2763091014297356   T   T   T
  0.0031598335144136  0.2486669078305750  0.2761155238767867   T   T   T
  0.4998573507856541  0.2427433487366217  0.2766262754827671   T   T   T
  0.0030100429892151  0.7543268232061442  0.2762488197547959   T   T   T
  0.4902078405588318  0.7558587278235487  0.2762042487360781   T   T   T
  0.2462589189833355  0.2478153449687104  0.2751668671855837   T   T   T
  0.7507395906824682  0.2435399694264485  0.2771750869491076   T   T   T
  0.2463415689692574  0.7553209394767798  0.2752891355954724   T   T   T
  0.7601044022010349  0.7555245383166616  0.2767635690365804   T   T   T
  0.3714694799980279  0.4983036242606623  0.3631774215280801   T   T   T
 
  0.00000000E+00  0.00000000E+00  0.00000000E+00
  0.00000000E+00  0.00000000E+00  0.00000000E+00
  0.00000000E+00  0.00000000E+00  0.00000000E+00
  0.00000000E+00  0.00000000E+00  0.00000000E+00
  0.00000000E+00  0.00000000E+00  0.00000000E+00
  0.00000000E+00  0.00000000E+00  0.00000000E+00
  0.00000000E+00  0.00000000E+00  0.00000000E+00
  0.00000000E+00  0.00000000E+00  0.00000000E+00
  0.00000000E+00  0.00000000E+00  0.00000000E+00
  0.00000000E+00  0.00000000E+00  0.00000000E+00
  0.00000000E+00  0.00000000E+00  0.00000000E+00
  0.00000000E+00  0.00000000E+00  0.00000000E+00
  0.00000000E+00  0.00000000E+00  0.00000000E+00
  0.00000000E+00  0.00000000E+00  0.00000000E+00
  0.00000000E+00  0.00000000E+00  0.00000000E+00
  0.00000000E+00  0.00000000E+00  0.00000000E+00
  0.00000000E+00  0.00000000E+00  0.00000000E+00
  0.00000000E+00  0.00000000E+00  0.00000000E+00
  0.00000000E+00  0.00000000E+00  0.00000000E+00
  0.00000000E+00  0.00000000E+00  0.00000000E+00
  0.00000000E+00  0.00000000E+00  0.00000000E+00
  0.00000000E+00  0.00000000E+00  0.00000000E+00
  0.00000000E+00  0.00000000E+00  0.00000000E+00
  0.00000000E+00  0.00000000E+00  0.00000000E+00
  0.00000000E+00  0.00000000E+00  0.00000000E+00
  0.00000000E+00  0.00000000E+00  0.00000000E+00
  0.00000000E+00  0.00000000E+00  0.00000000E+00
  0.00000000E+00  0.00000000E+00  0.00000000E+00
  0.00000000E+00  0.00000000E+00  0.00000000E+00
  0.00000000E+00  0.00000000E+00  0.00000000E+00
  0.00000000E+00  0.00000000E+00  0.00000000E+00
  0.00000000E+00  0.00000000E+00  0.00000000E+00
  0.00000000E+00  0.00000000E+00  0.00000000E+00
  0.00000000E+00  0.00000000E+00  0.00000000E+00
  0.00000000E+00  0.00000000E+00  0.00000000E+00
  0.00000000E+00  0.00000000E+00  0.00000000E+00
  0.00000000E+00  0.00000000E+00  0.00000000E+00
  0.00000000E+00  0.00000000E+00  0.00000000E+00
  0.00000000E+00  0.00000000E+00  0.00000000E+00
  0.00000000E+00  0.00000000E+00  0.00000000E+00
  0.00000000E+00  0.00000000E+00  0.00000000E+00
  0.00000000E+00  0.00000000E+00  0.00000000E+00
  0.00000000E+00  0.00000000E+00  0.00000000E+00
  0.00000000E+00  0.00000000E+00  0.00000000E+00
  0.00000000E+00  0.00000000E+00  0.00000000E+00
  0.00000000E+00  0.00000000E+00  0.00000000E+00
  0.00000000E+00  0.00000000E+00  0.00000000E+00
  0.00000000E+00  0.00000000E+00  0.00000000E+00
  0.00000000E+00  0.00000000E+00  0.00000000E+00
  0.00000000E+00  0.00000000E+00  0.00000000E+00
  0.00000000E+00  0.00000000E+00  0.00000000E+00
  0.00000000E+00  0.00000000E+00  0.00000000E+00
  0.00000000E+00  0.00000000E+00  0.00000000E+00
  0.00000000E+00  0.00000000E+00  0.00000000E+00
  0.00000000E+00  0.00000000E+00  0.00000000E+00
  0.00000000E+00  0.00000000E+00  0.00000000E+00
  0.00000000E+00  0.00000000E+00  0.00000000E+00
  0.00000000E+00  0.00000000E+00  0.00000000E+00
  0.00000000E+00  0.00000000E+00  0.00000000E+00
  0.00000000E+00  0.00000000E+00  0.00000000E+00
  0.00000000E+00  0.00000000E+00  0.00000000E+00
  0.00000000E+00  0.00000000E+00  0.00000000E+00
  0.00000000E+00  0.00000000E+00  0.00000000E+00
  0.00000000E+00  0.00000000E+00  0.00000000E+00
  0.00000000E+00  0.00000000E+00  0.00000000E+00
  0.00000000E+00  0.00000000E+00  0.00000000E+00
  0.00000000E+00  0.00000000E+00  0.00000000E+00
  0.00000000E+00  0.00000000E+00  0.00000000E+00
  0.00000000E+00  0.00000000E+00  0.00000000E+00
  0.00000000E+00  0.00000000E+00  0.00000000E+00
  0.00000000E+00  0.00000000E+00  0.00000000E+00
  0.00000000E+00  0.00000000E+00  0.00000000E+00
  0.00000000E+00  0.00000000E+00  0.00000000E+00
  0.00000000E+00  0.00000000E+00  0.00000000E+00
  0.00000000E+00  0.00000000E+00  0.00000000E+00
  0.00000000E+00  0.00000000E+00  0.00000000E+00
  0.00000000E+00  0.00000000E+00  0.00000000E+00
  0.00000000E+00  0.00000000E+00  0.00000000E+00
  0.00000000E+00  0.00000000E+00  0.00000000E+00
  0.00000000E+00  0.00000000E+00  0.00000000E+00
  0.00000000E+00  0.00000000E+00  0.00000000E+00
  0.00000000E+00  0.00000000E+00  0.00000000E+00
  0.00000000E+00  0.00000000E+00  0.00000000E+00
  0.00000000E+00  0.00000000E+00  0.00000000E+00
  0.00000000E+00  0.00000000E+00  0.00000000E+00
  0.00000000E+00  0.00000000E+00  0.00000000E+00
  0.00000000E+00  0.00000000E+00  0.00000000E+00
  0.00000000E+00  0.00000000E+00  0.00000000E+00
  0.00000000E+00  0.00000000E+00  0.00000000E+00
  0.00000000E+00  0.00000000E+00  0.00000000E+00
  0.00000000E+00  0.00000000E+00  0.00000000E+00
  0.00000000E+00  0.00000000E+00  0.00000000E+00
  0.00000000E+00  0.00000000E+00  0.00000000E+00
  0.00000000E+00  0.00000000E+00  0.00000000E+00
  0.00000000E+00  0.00000000E+00  0.00000000E+00
  0.00000000E+00  0.00000000E+00  0.00000000E+00
  0.00000000E+00  0.00000000E+00  0.00000000E+00
  0.00000000E+00  0.00000000E+00  0.00000000E+00
  0.00000000E+00  0.00000000E+00  0.00000000E+00
  0.00000000E+00  0.00000000E+00  0.00000000E+00
  0.00000000E+00  0.00000000E+00  0.00000000E+00
  0.00000000E+00  0.00000000E+00  0.00000000E+00
  0.00000000E+00  0.00000000E+00  0.00000000E+00
  0.00000000E+00  0.00000000E+00  0.00000000E+00
  0.00000000E+00  0.00000000E+00  0.00000000E+00
  0.00000000E+00  0.00000000E+00  0.00000000E+00
  0.00000000E+00  0.00000000E+00  0.00000000E+00
  0.00000000E+00  0.00000000E+00  0.00000000E+00
  0.00000000E+00  0.00000000E+00  0.00000000E+00
  0.00000000E+00  0.00000000E+00  0.00000000E+00
  0.00000000E+00  0.00000000E+00  0.00000000E+00
  0.00000000E+00  0.00000000E+00  0.00000000E+00
  0.00000000E+00  0.00000000E+00  0.00000000E+00
  0.00000000E+00  0.00000000E+00  0.00000000E+00
  0.00000000E+00  0.00000000E+00  0.00000000E+00
  0.00000000E+00  0.00000000E+00  0.00000000E+00
  0.00000000E+00  0.00000000E+00  0.00000000E+00
  0.00000000E+00  0.00000000E+00  0.00000000E+00
  0.00000000E+00  0.00000000E+00  0.00000000E+00
  0.00000000E+00  0.00000000E+00  0.00000000E+00
  0.00000000E+00  0.00000000E+00  0.00000000E+00
  0.00000000E+00  0.00000000E+00  0.00000000E+00
  0.00000000E+00  0.00000000E+00  0.00000000E+00
  0.00000000E+00  0.00000000E+00  0.00000000E+00
  0.00000000E+00  0.00000000E+00  0.00000000E+00
  0.00000000E+00  0.00000000E+00  0.00000000E+00
  0.00000000E+00  0.00000000E+00  0.00000000E+00
  0.00000000E+00  0.00000000E+00  0.00000000E+00
  0.00000000E+00  0.00000000E+00  0.00000000E+00
  0.00000000E+00  0.00000000E+00  0.00000000E+00
