Ca Li O Pt                              
   1.00000000000000     
     9.6048500000000008    0.0000000000000000    0.0000000000000000
     0.0000000000000000    9.6048500000000008    0.0000000000000000
     0.0000000000000000    0.0000000000000000   24.6048000000000009
   Ca   Li   O    Pt
    31     1    32     1
Selective dynamics
Direct
  0.2499165968813670  0.0000817441130330  0.0986135693575979   T   T   T
  0.7498163640433290  0.0001333212181210  0.0990863772616579   T   T   T
  0.9998199253207001  0.2500458128727557  0.0984371443586359   T   T   T
  0.5000423378641464  0.2501588049071717  0.0987327104738652   T   T   T
  0.2500393440990828  0.5002384389347280  0.0982642926196283   T   T   T
  0.7498457274056222  0.5002609450770048  0.0985953650670739   T   T   T
  0.9997529865797313  0.7502277330759688  0.0986098492927433   T   T   T
  0.4999745955639067  0.7502391349674911  0.0988934075983844   T   T   T
  0.0003479448690854  0.9997980304472430  0.1956830564478021   T   T   T
  0.4993810779158544  0.0000878770712541  0.1958817319035182   T   T   T
  0.2500923731622746  0.2504123646305478  0.1954356113011288   T   T   T
  0.7498452028700376  0.2511187225539757  0.1957016667350390   T   T   T
  0.0000991864259033  0.5003295547511419  0.1953814078516479   T   T   T
  0.5000343631636781  0.5003129877036558  0.1957745887409670   T   T   T
  0.2496410723664961  0.7498686654122494  0.1956627926933485   T   T   T
  0.7499800680068541  0.7493362922330038  0.1959668903621011   T   T   T
  0.2493096803421410  0.9999914661766000  0.2931894898203705   T   T   T
  0.7502773944000960  0.0001531106311162  0.2925589135090558   T   T   T
 -0.0005048043541607  0.2514318880172099  0.2927723574593230   T   T   T
  0.5005442534014803  0.2502932423421500  0.2941411125715380   T   T   T
  0.2485599398418260  0.5003382660369721  0.2920944185979464   T   T   T
  0.7523172902854776  0.5004290645465959  0.2940883170163418   T   T   T
 -0.0007432210790522  0.7478659932003807  0.2945190794314292   T   T   T
  0.5001840656290155  0.7502107630517226  0.2945175036539039   T   T   T
  0.0096048859333864  0.0053311519229753  0.3911359468402496   T   T   T
  0.4884725197166709  0.9996639399241253  0.3922044319914885   T   T   T
  0.2468089285669949  0.2557003868210297  0.3901923183659415   T   T   T
  0.7559033403790304  0.2691462928060568  0.3927693929821183   T   T   T
  0.4930765598974319  0.5011468078083662  0.3896390803973677   T   T   T
  0.2411255022652342  0.7436239108019443  0.3906418326483259   T   T   T
  0.7581297584680354  0.7329878456089930  0.3932672351151773   T   T   T
  0.0312976403847504  0.4733571138005934  0.3761792199714682   T   T   T
  0.9995502087512541  0.0000348653207719  0.0992710865890155   T   T   T
  0.5002057298465217  0.0001244451056077  0.0996202032287373   T   T   T
  0.2501571374163113  0.2497362199332648  0.0989361891669493   T   T   T
  0.7497220212500429  0.2498150062755968  0.0994745735735075   T   T   T
  0.9996091676189601  0.5002736020438798  0.0986039995759097   T   T   T
  0.5002882010697495  0.5002566529133539  0.0989947255955130   T   T   T
  0.2499955072553566  0.7505464840773597  0.0990868753931132   T   T   T
  0.7496901936552152  0.7505990635743751  0.0996566653166739   T   T   T
  0.2500628437132759  0.0000381362133843  0.1947786634291732   T   T   T
  0.7496551822962418  0.0001599103493198  0.1959866009124201   T   T   T
  0.9996600488749147  0.2497088475291389  0.1938612075137585   T   T   T
  0.5003102988758494  0.2497548258047446  0.1946014253658125   T   T   T
  0.2501865150095975  0.5002044434672989  0.1937035090210327   T   T   T
  0.7498342793607041  0.5002750288507715  0.1946802944074800   T   T   T
  0.9995043766547170  0.7505135186324162  0.1943242927102217   T   T   T
  0.5000886526178850  0.7506752843687444  0.1948100557665141   T   T   T
  0.9983346408692662  0.0012961749359918  0.2936102882691228   T   T   T
  0.5013450558753282  0.0000981907650747  0.2947686423530552   T   T   T
  0.2502617111831795  0.2494096153939525  0.2930453936139139   T   T   T
  0.7500280937534844  0.2492735004558602  0.2946571192917147   T   T   T
  0.0010262911734833  0.4988441803296105  0.2920068029046334   T   T   T
  0.4990838996048246  0.5004194120885604  0.2928353362652331   T   T   T
  0.2491891054626655  0.7506172398061192  0.2935412203695503   T   T   T
  0.7501475014489882  0.7512224386205629  0.2949977278383088   T   T   T
  0.2495229095192363  0.0017952443935766  0.3893251043835836   T   T   T
  0.7489808788522697  0.0022129094839828  0.3915508234044781   T   T   T
  0.0021558028377788  0.2518386516239655  0.3864326725245554   T   T   T
  0.4971847634826171  0.2506996886938632  0.3888157699189997   T   T   T
  0.2472029966025988  0.4989736748646732  0.3865676746830088   T   T   T
  0.7322206448917420  0.5009214001051812  0.3882024511203014   T   T   T
  0.9993317452455158  0.7667143392804715  0.3876358072710035   T   T   T
  0.4955543994498884  0.7504920536272058  0.3891769441641859   T   T   T
  0.7487636391780971  0.0029156821071495  0.4690576894323495   T   T   T
 
  0.00000000E+00  0.00000000E+00  0.00000000E+00
  0.00000000E+00  0.00000000E+00  0.00000000E+00
  0.00000000E+00  0.00000000E+00  0.00000000E+00
  0.00000000E+00  0.00000000E+00  0.00000000E+00
  0.00000000E+00  0.00000000E+00  0.00000000E+00
  0.00000000E+00  0.00000000E+00  0.00000000E+00
  0.00000000E+00  0.00000000E+00  0.00000000E+00
  0.00000000E+00  0.00000000E+00  0.00000000E+00
  0.00000000E+00  0.00000000E+00  0.00000000E+00
  0.00000000E+00  0.00000000E+00  0.00000000E+00
  0.00000000E+00  0.00000000E+00  0.00000000E+00
  0.00000000E+00  0.00000000E+00  0.00000000E+00
  0.00000000E+00  0.00000000E+00  0.00000000E+00
  0.00000000E+00  0.00000000E+00  0.00000000E+00
  0.00000000E+00  0.00000000E+00  0.00000000E+00
  0.00000000E+00  0.00000000E+00  0.00000000E+00
  0.00000000E+00  0.00000000E+00  0.00000000E+00
  0.00000000E+00  0.00000000E+00  0.00000000E+00
  0.00000000E+00  0.00000000E+00  0.00000000E+00
  0.00000000E+00  0.00000000E+00  0.00000000E+00
  0.00000000E+00  0.00000000E+00  0.00000000E+00
  0.00000000E+00  0.00000000E+00  0.00000000E+00
  0.00000000E+00  0.00000000E+00  0.00000000E+00
  0.00000000E+00  0.00000000E+00  0.00000000E+00
  0.00000000E+00  0.00000000E+00  0.00000000E+00
  0.00000000E+00  0.00000000E+00  0.00000000E+00
  0.00000000E+00  0.00000000E+00  0.00000000E+00
  0.00000000E+00  0.00000000E+00  0.00000000E+00
  0.00000000E+00  0.00000000E+00  0.00000000E+00
  0.00000000E+00  0.00000000E+00  0.00000000E+00
  0.00000000E+00  0.00000000E+00  0.00000000E+00
  0.00000000E+00  0.00000000E+00  0.00000000E+00
  0.00000000E+00  0.00000000E+00  0.00000000E+00
  0.00000000E+00  0.00000000E+00  0.00000000E+00
  0.00000000E+00  0.00000000E+00  0.00000000E+00
  0.00000000E+00  0.00000000E+00  0.00000000E+00
  0.00000000E+00  0.00000000E+00  0.00000000E+00
  0.00000000E+00  0.00000000E+00  0.00000000E+00
  0.00000000E+00  0.00000000E+00  0.00000000E+00
  0.00000000E+00  0.00000000E+00  0.00000000E+00
  0.00000000E+00  0.00000000E+00  0.00000000E+00
  0.00000000E+00  0.00000000E+00  0.00000000E+00
  0.00000000E+00  0.00000000E+00  0.00000000E+00
  0.00000000E+00  0.00000000E+00  0.00000000E+00
  0.00000000E+00  0.00000000E+00  0.00000000E+00
  0.00000000E+00  0.00000000E+00  0.00000000E+00
  0.00000000E+00  0.00000000E+00  0.00000000E+00
  0.00000000E+00  0.00000000E+00  0.00000000E+00
  0.00000000E+00  0.00000000E+00  0.00000000E+00
  0.00000000E+00  0.00000000E+00  0.00000000E+00
  0.00000000E+00  0.00000000E+00  0.00000000E+00
  0.00000000E+00  0.00000000E+00  0.00000000E+00
  0.00000000E+00  0.00000000E+00  0.00000000E+00
  0.00000000E+00  0.00000000E+00  0.00000000E+00
  0.00000000E+00  0.00000000E+00  0.00000000E+00
  0.00000000E+00  0.00000000E+00  0.00000000E+00
  0.00000000E+00  0.00000000E+00  0.00000000E+00
  0.00000000E+00  0.00000000E+00  0.00000000E+00
  0.00000000E+00  0.00000000E+00  0.00000000E+00
  0.00000000E+00  0.00000000E+00  0.00000000E+00
  0.00000000E+00  0.00000000E+00  0.00000000E+00
  0.00000000E+00  0.00000000E+00  0.00000000E+00
  0.00000000E+00  0.00000000E+00  0.00000000E+00
  0.00000000E+00  0.00000000E+00  0.00000000E+00
  0.00000000E+00  0.00000000E+00  0.00000000E+00
