Ca Cu Li O                              
   1.00000000000000     
     9.6048500000000008    0.0000000000000000    0.0000000000000000
     0.0000000000000000    9.6048500000000008    0.0000000000000000
     0.0000000000000000    0.0000000000000000   24.6048000000000009
   Ca   Cu   Li   O 
    31     1     1    32
Selective dynamics
Direct
  0.2498097670896889  0.0001075376873244  0.0984690377190492   T   T   T
  0.7498918218157840  0.0001235412017863  0.0989730645912735   T   T   T
 -0.0001362959695727  0.2502208879990675  0.0984697579979066   T   T   T
  0.4999667241135424  0.2502938181633291  0.0987684561195187   T   T   T
  0.2499016504117802  0.5002561647883420  0.0981029830849259   T   T   T
  0.7498478844284115  0.5002726297064911  0.0985041613662127   T   T   T
 -0.0002138568786366  0.7501199100183495  0.0986317879521619   T   T   T
  0.4998978480880405  0.7501007835043524  0.0989369869308270   T   T   T
  0.0004103609948428 -0.0001210955516091  0.1954497744613360   T   T   T
  0.4993561275900468  0.0001208112452086  0.1955502711249354   T   T   T
  0.2501260681235199  0.2504547682958909  0.1952734264977447   T   T   T
  0.7497950927165675  0.2510427198007349  0.1954693186327466   T   T   T
  0.0000277599058090  0.5004301366401414  0.1952402361871763   T   T   T
  0.4998613432455540  0.5003335335287790  0.1956379580181845   T   T   T
  0.2496075935571915  0.7498836899469546  0.1955083515623435   T   T   T
  0.7499390365770210  0.7493794027649379  0.1957371218080269   T   T   T
  0.2492948860837911  0.0000378536378470  0.2926248834280698   T   T   T
  0.7503651780923385  0.0001286083133518  0.2916753330183413   T   T   T
  0.0001256921700481  0.2528046985590383  0.2928535343600687   T   T   T
  0.4998730280605058  0.2511745011495451  0.2940616170223108   T   T   T
  0.2482293313955957  0.5003568669065748  0.2922733617666841   T   T   T
  0.7522151610835595  0.5003192155517568  0.2937802535505035   T   T   T
 -0.0001855945247655  0.7469510874064280  0.2947347692725932   T   T   T
  0.4994383632771388  0.7493066422104258  0.2944687098676286   T   T   T
  0.0105565335808870  0.0050562235653340  0.3886908256723336   T   T   T
  0.4872073452187959 -0.0002745428849487  0.3900364456682854   T   T   T
  0.2468196335337939  0.2556236845672408  0.3900496384997902   T   T   T
  0.7558171591288504  0.2705305400112649  0.3906070777324198   T   T   T
  0.4927946780203062  0.5012333450430135  0.3895088806780512   T   T   T
  0.2400494657005212  0.7432933993760102  0.3905737975993312   T   T   T
  0.7586402781734094  0.7306777062947247  0.3909724509588478   T   T   T
  0.7523426201176459 -0.0021373174971061  0.4723762600497483   T   T   T
  0.0334477779175524  0.4738356356389947  0.3770669390252690   T   T   T
  0.9992372524693771  0.0000715997134757  0.0993884464661288   T   T   T
  0.5005625258423724  0.0001450352044455  0.0996227895519116   T   T   T
  0.2502632672417510  0.2495890978255188  0.0990268087627582   T   T   T
  0.7495464425601651  0.2494033849632270  0.0996307512073946   T   T   T
  0.9994138717386613  0.5002801094382018  0.0987199156977448   T   T   T
  0.5002731010024553  0.5002731130111869  0.0990437424866463   T   T   T
  0.2501273570539617  0.7507104750221313  0.0991992410831090   T   T   T
  0.7495614052943382  0.7509403610723786  0.0998147381610055   T   T   T
  0.2501392346952523  0.0000833248592512  0.1949390968261621   T   T   T
  0.7495641198885183  0.0002111752640514  0.1963431702001320   T   T   T
  0.9995283701649242  0.2496676604400084  0.1941999734991324   T   T   T
  0.5004213427960825  0.2495460696954897  0.1950238599785104   T   T   T
  0.2501194672613829  0.5002248708134306  0.1937073014937817   T   T   T
  0.7496866334644241  0.5002099046485042  0.1948398383997961   T   T   T
  0.9993723243558086  0.7507528455086231  0.1946949659337089   T   T   T
  0.5001653807928534  0.7508914215309672  0.1952422889569598   T   T   T
  0.9973337712774646  0.0014303796043979  0.2935399391829275   T   T   T
  0.5025279593580038  0.0000573329605775  0.2949898477720758   T   T   T
  0.2504552573924546  0.2490901909584167  0.2931276574031415   T   T   T
  0.7499074658832331  0.2479597805136593  0.2949950296270094   T   T   T
  0.0009082330241644  0.4989964086230657  0.2917821898327175   T   T   T
  0.4989136082813804  0.5004295240377379  0.2927607748831828   T   T   T
  0.2492523473365931  0.7509944465242738  0.2936626881987126   T   T   T
  0.7499901934747245  0.7523274026932126  0.2952817698924208   T   T   T
  0.2494942969383951  0.0019520664887112  0.3889039521570684   T   T   T
  0.7479467653164242  0.0041365372060340  0.4004476453584666   T   T   T
  0.0008381571411328  0.2508553900090849  0.3873923969782772   T   T   T
  0.4985005332200297  0.2486925075800206  0.3900087255090428   T   T   T
  0.2470835727056591  0.4988463995524585  0.3864025686846737   T   T   T
  0.7312579250147897  0.5006060747821882  0.3876448973107112   T   T   T
  0.9975293597228262  0.7680367053665645  0.3886921952266429   T   T   T
  0.4973297257558011  0.7525819194011386  0.3904211347614009   T   T   T
 
  0.00000000E+00  0.00000000E+00  0.00000000E+00
  0.00000000E+00  0.00000000E+00  0.00000000E+00
  0.00000000E+00  0.00000000E+00  0.00000000E+00
  0.00000000E+00  0.00000000E+00  0.00000000E+00
  0.00000000E+00  0.00000000E+00  0.00000000E+00
  0.00000000E+00  0.00000000E+00  0.00000000E+00
  0.00000000E+00  0.00000000E+00  0.00000000E+00
  0.00000000E+00  0.00000000E+00  0.00000000E+00
  0.00000000E+00  0.00000000E+00  0.00000000E+00
  0.00000000E+00  0.00000000E+00  0.00000000E+00
  0.00000000E+00  0.00000000E+00  0.00000000E+00
  0.00000000E+00  0.00000000E+00  0.00000000E+00
  0.00000000E+00  0.00000000E+00  0.00000000E+00
  0.00000000E+00  0.00000000E+00  0.00000000E+00
  0.00000000E+00  0.00000000E+00  0.00000000E+00
  0.00000000E+00  0.00000000E+00  0.00000000E+00
  0.00000000E+00  0.00000000E+00  0.00000000E+00
  0.00000000E+00  0.00000000E+00  0.00000000E+00
  0.00000000E+00  0.00000000E+00  0.00000000E+00
  0.00000000E+00  0.00000000E+00  0.00000000E+00
  0.00000000E+00  0.00000000E+00  0.00000000E+00
  0.00000000E+00  0.00000000E+00  0.00000000E+00
  0.00000000E+00  0.00000000E+00  0.00000000E+00
  0.00000000E+00  0.00000000E+00  0.00000000E+00
  0.00000000E+00  0.00000000E+00  0.00000000E+00
  0.00000000E+00  0.00000000E+00  0.00000000E+00
  0.00000000E+00  0.00000000E+00  0.00000000E+00
  0.00000000E+00  0.00000000E+00  0.00000000E+00
  0.00000000E+00  0.00000000E+00  0.00000000E+00
  0.00000000E+00  0.00000000E+00  0.00000000E+00
  0.00000000E+00  0.00000000E+00  0.00000000E+00
  0.00000000E+00  0.00000000E+00  0.00000000E+00
  0.00000000E+00  0.00000000E+00  0.00000000E+00
  0.00000000E+00  0.00000000E+00  0.00000000E+00
  0.00000000E+00  0.00000000E+00  0.00000000E+00
  0.00000000E+00  0.00000000E+00  0.00000000E+00
  0.00000000E+00  0.00000000E+00  0.00000000E+00
  0.00000000E+00  0.00000000E+00  0.00000000E+00
  0.00000000E+00  0.00000000E+00  0.00000000E+00
  0.00000000E+00  0.00000000E+00  0.00000000E+00
  0.00000000E+00  0.00000000E+00  0.00000000E+00
  0.00000000E+00  0.00000000E+00  0.00000000E+00
  0.00000000E+00  0.00000000E+00  0.00000000E+00
  0.00000000E+00  0.00000000E+00  0.00000000E+00
  0.00000000E+00  0.00000000E+00  0.00000000E+00
  0.00000000E+00  0.00000000E+00  0.00000000E+00
  0.00000000E+00  0.00000000E+00  0.00000000E+00
  0.00000000E+00  0.00000000E+00  0.00000000E+00
  0.00000000E+00  0.00000000E+00  0.00000000E+00
  0.00000000E+00  0.00000000E+00  0.00000000E+00
  0.00000000E+00  0.00000000E+00  0.00000000E+00
  0.00000000E+00  0.00000000E+00  0.00000000E+00
  0.00000000E+00  0.00000000E+00  0.00000000E+00
  0.00000000E+00  0.00000000E+00  0.00000000E+00
  0.00000000E+00  0.00000000E+00  0.00000000E+00
  0.00000000E+00  0.00000000E+00  0.00000000E+00
  0.00000000E+00  0.00000000E+00  0.00000000E+00
  0.00000000E+00  0.00000000E+00  0.00000000E+00
  0.00000000E+00  0.00000000E+00  0.00000000E+00
  0.00000000E+00  0.00000000E+00  0.00000000E+00
  0.00000000E+00  0.00000000E+00  0.00000000E+00
  0.00000000E+00  0.00000000E+00  0.00000000E+00
  0.00000000E+00  0.00000000E+00  0.00000000E+00
  0.00000000E+00  0.00000000E+00  0.00000000E+00
  0.00000000E+00  0.00000000E+00  0.00000000E+00
