Ca Co Li O                              
   1.00000000000000     
     9.6048500000000008    0.0000000000000000    0.0000000000000000
     0.0000000000000000    9.6048500000000008    0.0000000000000000
     0.0000000000000000    0.0000000000000000   24.6048000000000009
   Ca   Co   Li   O 
    31     1     1    32
Selective dynamics
Direct
  0.2498328109041964  0.0000726602418899  0.0984088714605121   T   T   T
  0.7498056165780148  0.0000897145397714  0.0988477785177032   T   T   T
  0.9998396236408756  0.2502059197051887  0.0984430494764529   T   T   T
  0.4999126134782529  0.2502315952200778  0.0986900466465536   T   T   T
  0.2499135297648335  0.5002428460063592  0.0981447062131876   T   T   T
  0.7497761288778408  0.5002571267293243  0.0985528088065779   T   T   T
  0.9997189854901030  0.7501650032172072  0.0986335203546357   T   T   T
  0.4998079642161031  0.7501036887631664  0.0988897239719540   T   T   T
  0.0005696677916226  0.9998625034776739  0.1953358972706464   T   T   T
  0.4991760148383311  0.0000759181445916  0.1954485106496349   T   T   T
  0.2500632365345514  0.2506637300272576  0.1952042583524376   T   T   T
  0.7497779326195941  0.2513811549897825  0.1953733074386129   T   T   T
 -0.0000102826020436  0.5004899464718938  0.1952350611843201   T   T   T
  0.4997021859044701  0.5003447712247260  0.1956124595363998   T   T   T
  0.2494753493784098  0.7497324365700846  0.1954858097309668   T   T   T
  0.7499161022679273  0.7489704436977123  0.1956914647008629   T   T   T
  0.2493136045869905  0.0000665168857962  0.2924632712072391   T   T   T
  0.7503878888314794  0.0001390773746766  0.2911288011397961   T   T   T
 -0.0001968301759890  0.2524354181034725  0.2926769819357977   T   T   T
  0.5002528826627565  0.2508850827552147  0.2940716508558184   T   T   T
  0.2480690944372465  0.5004085198174161  0.2920233639386511   T   T   T
  0.7521471095100666  0.5002118049023266  0.2937138183534480   T   T   T
  0.9993522898016773  0.7473735433781820  0.2947841736775867   T   T   T
  0.4997199841743003  0.7496816047694442  0.2945642455789466   T   T   T
  0.0130862583328535  0.0061331631472012  0.3892750165190276   T   T   T
  0.4849817266843635  0.9996999679068440  0.3906511326797623   T   T   T
  0.2470975256805936  0.2569091788713118  0.3898632835441552   T   T   T
  0.7564203426844917  0.2718686562185114  0.3913601065440495   T   T   T
  0.4924834996838229  0.5013187023767840  0.3894012110362792   T   T   T
  0.2391103865819327  0.7419781332040776  0.3904979293564194   T   T   T
  0.7597560855679067  0.7287116321113190  0.3917829029913639   T   T   T
  0.7532861530839887  0.9969170135936221  0.4708068724264911   T   T   T
  0.0335842102116566  0.4708207026021792  0.3768670280586249   T   T   T
  0.9993752057747340  0.0000439119749800  0.0993563404127400   T   T   T
  0.5003166955931876  0.0000824446704600  0.0996559162713225   T   T   T
  0.2500834410200380  0.2497349346537995  0.0990252573764692   T   T   T
  0.7496810618810984  0.2496789658774047  0.0996569484290340   T   T   T
  0.9994140482579732  0.5003368401460744  0.0987074713113978   T   T   T
  0.5001841379582683  0.5002371670610537  0.0991180179247944   T   T   T
  0.2498764314984993  0.7505502693092220  0.0992336764482606   T   T   T
  0.7496562870467495  0.7506818996857074  0.0998829516594581   T   T   T
  0.2502112415105801  0.0000803365005328  0.1948690212912570   T   T   T
  0.7494960058123241  0.0001492079455688  0.1962850062440944   T   T   T
  0.9995145496268184  0.2498112047694929  0.1940690462252445   T   T   T
  0.5003836786574106  0.2496465140014385  0.1949281685585665   T   T   T
  0.2500631162770424  0.5002666600019159  0.1937111483810460   T   T   T
  0.7495906560472329  0.5001922850597421  0.1948646281938158   T   T   T
  0.9993187446975698  0.7506544819087692  0.1946532825853935   T   T   T
  0.5000620794963043  0.7507837206308658  0.1952031765280774   T   T   T
  0.9974661505840385  0.0017160160798183  0.2936911287742455   T   T   T
  0.5025109000191225  0.0000279003154418  0.2951489837277326   T   T   T
  0.2504592651703232  0.2492518810548635  0.2930527119157282   T   T   T
  0.7499828741943919  0.2477533881988110  0.2951759240850251   T   T   T
  0.0005477130561618  0.4989641551040547  0.2918641769013295   T   T   T
  0.4987358355730087  0.5004846176520665  0.2927727935783390   T   T   T
  0.2490188967349412  0.7509188755753572  0.2937323084632212   T   T   T
  0.7500678983564459  0.7523459197226879  0.2955134975819453   T   T   T
  0.2495049465912430  0.0022308068970495  0.3889941308942348   T   T   T
  0.7482561293852376  0.0049253642680536  0.4020239582589490   T   T   T
  0.0011501279251703  0.2516803480470160  0.3869540206034452   T   T   T
  0.4987604828980707  0.2489733896016809  0.3896877979621003   T   T   T
  0.2462877203422407  0.4988399019465591  0.3862732515822102   T   T   T
  0.7315265253286786  0.5003071947199722  0.3877568321600854   T   T   T
  0.9973067699541582  0.7695693223271012  0.3885258733969758   T   T   T
  0.4974324220127073  0.7525628001493457  0.3902513018265236   T   T   T
 
  0.00000000E+00  0.00000000E+00  0.00000000E+00
  0.00000000E+00  0.00000000E+00  0.00000000E+00
  0.00000000E+00  0.00000000E+00  0.00000000E+00
  0.00000000E+00  0.00000000E+00  0.00000000E+00
  0.00000000E+00  0.00000000E+00  0.00000000E+00
  0.00000000E+00  0.00000000E+00  0.00000000E+00
  0.00000000E+00  0.00000000E+00  0.00000000E+00
  0.00000000E+00  0.00000000E+00  0.00000000E+00
  0.00000000E+00  0.00000000E+00  0.00000000E+00
  0.00000000E+00  0.00000000E+00  0.00000000E+00
  0.00000000E+00  0.00000000E+00  0.00000000E+00
  0.00000000E+00  0.00000000E+00  0.00000000E+00
  0.00000000E+00  0.00000000E+00  0.00000000E+00
  0.00000000E+00  0.00000000E+00  0.00000000E+00
  0.00000000E+00  0.00000000E+00  0.00000000E+00
  0.00000000E+00  0.00000000E+00  0.00000000E+00
  0.00000000E+00  0.00000000E+00  0.00000000E+00
  0.00000000E+00  0.00000000E+00  0.00000000E+00
  0.00000000E+00  0.00000000E+00  0.00000000E+00
  0.00000000E+00  0.00000000E+00  0.00000000E+00
  0.00000000E+00  0.00000000E+00  0.00000000E+00
  0.00000000E+00  0.00000000E+00  0.00000000E+00
  0.00000000E+00  0.00000000E+00  0.00000000E+00
  0.00000000E+00  0.00000000E+00  0.00000000E+00
  0.00000000E+00  0.00000000E+00  0.00000000E+00
  0.00000000E+00  0.00000000E+00  0.00000000E+00
  0.00000000E+00  0.00000000E+00  0.00000000E+00
  0.00000000E+00  0.00000000E+00  0.00000000E+00
  0.00000000E+00  0.00000000E+00  0.00000000E+00
  0.00000000E+00  0.00000000E+00  0.00000000E+00
  0.00000000E+00  0.00000000E+00  0.00000000E+00
  0.00000000E+00  0.00000000E+00  0.00000000E+00
  0.00000000E+00  0.00000000E+00  0.00000000E+00
  0.00000000E+00  0.00000000E+00  0.00000000E+00
  0.00000000E+00  0.00000000E+00  0.00000000E+00
  0.00000000E+00  0.00000000E+00  0.00000000E+00
  0.00000000E+00  0.00000000E+00  0.00000000E+00
  0.00000000E+00  0.00000000E+00  0.00000000E+00
  0.00000000E+00  0.00000000E+00  0.00000000E+00
  0.00000000E+00  0.00000000E+00  0.00000000E+00
  0.00000000E+00  0.00000000E+00  0.00000000E+00
  0.00000000E+00  0.00000000E+00  0.00000000E+00
  0.00000000E+00  0.00000000E+00  0.00000000E+00
  0.00000000E+00  0.00000000E+00  0.00000000E+00
  0.00000000E+00  0.00000000E+00  0.00000000E+00
  0.00000000E+00  0.00000000E+00  0.00000000E+00
  0.00000000E+00  0.00000000E+00  0.00000000E+00
  0.00000000E+00  0.00000000E+00  0.00000000E+00
  0.00000000E+00  0.00000000E+00  0.00000000E+00
  0.00000000E+00  0.00000000E+00  0.00000000E+00
  0.00000000E+00  0.00000000E+00  0.00000000E+00
  0.00000000E+00  0.00000000E+00  0.00000000E+00
  0.00000000E+00  0.00000000E+00  0.00000000E+00
  0.00000000E+00  0.00000000E+00  0.00000000E+00
  0.00000000E+00  0.00000000E+00  0.00000000E+00
  0.00000000E+00  0.00000000E+00  0.00000000E+00
  0.00000000E+00  0.00000000E+00  0.00000000E+00
  0.00000000E+00  0.00000000E+00  0.00000000E+00
  0.00000000E+00  0.00000000E+00  0.00000000E+00
  0.00000000E+00  0.00000000E+00  0.00000000E+00
  0.00000000E+00  0.00000000E+00  0.00000000E+00
  0.00000000E+00  0.00000000E+00  0.00000000E+00
  0.00000000E+00  0.00000000E+00  0.00000000E+00
  0.00000000E+00  0.00000000E+00  0.00000000E+00
  0.00000000E+00  0.00000000E+00  0.00000000E+00
