Ca Li O                                 
   1.00000000000000     
     9.6048500000000008    0.0000000000000000    0.0000000000000000
     0.0000000000000000    9.6048500000000008    0.0000000000000000
     0.0000000000000000    0.0000000000000000   24.6048000000000009
   Ca   Li   O 
    31     1    32
Selective dynamics
Direct
  0.2499383380505664  0.0000672977959660  0.0986792526697322   T   T   T
  0.7498695627921234  0.0001154998523770  0.0990579981788439   T   T   T
  0.9998116984114747  0.2500478801681246  0.0984335021773123   T   T   T
  0.5000831960794510  0.2500889886263594  0.0987238427493372   T   T   T
  0.2500501107612547  0.5001916255962524  0.0981653971566264   T   T   T
  0.7498843913614279  0.5002431671701698  0.0986682348115549   T   T   T
  0.9997362293697540  0.7502684241950596  0.0985925406494833   T   T   T
  0.5000266463154370  0.7502983432753341  0.0988821855732306   T   T   T
 -0.0004735365316640  0.9997781866338199  0.1959354325921094   T   T   T
  0.5001373347147799  0.0000165477897911  0.1961126068992670   T   T   T
  0.2501660319550446  0.2498674835833963  0.1952591933069947   T   T   T
  0.7498177614781912  0.2501980812167429  0.1959479130055088   T   T   T
 -0.0003805546522558  0.5003105106340656  0.1951874296236077   T   T   T
  0.5004740056627307  0.5002904750125455  0.1955832827994629   T   T   T
  0.2497052654687639  0.7504095628395442  0.1954625432506667   T   T   T
  0.7499686899307357  0.7502406616893127  0.1962158863647579   T   T   T
  0.2493256433603231 -0.0000138721111011  0.2936411644211999   T   T   T
  0.7501881461869844  0.0003047320155886  0.2947138362147167   T   T   T
 -0.0003323921569937  0.2517839612537698  0.2925260691816005   T   T   T
  0.5003076714149260  0.2504632258866731  0.2937003926095005   T   T   T
  0.2486129586250376  0.5002845088737202  0.2918939439563618   T   T   T
  0.7527644193045298  0.5003629692162875  0.2945164548224389   T   T   T
  0.9993502237637233  0.7474778821886087  0.2942127251176613   T   T   T
  0.4998624092934047  0.7500390353159727  0.2941170207172854   T   T   T
 -0.0006383244737897  0.0049525860999634  0.3900834457972225   T   T   T
  0.4995774040177474  0.9999575222637134  0.3911794460008121   T   T   T
  0.2468404604608663  0.2529093125496707  0.3900601372848423   T   T   T
  0.7541563037015703  0.2591787585395533  0.3912940977446756   T   T   T
  0.4939982530144508  0.5010307504473772  0.3895370568595615   T   T   T
  0.2416946730543076  0.7463142982472418  0.3905067005110169   T   T   T
  0.7563367773342500  0.7429094781058283  0.3917924468598210   T   T   T
  0.0311163392126472  0.4743044276195695  0.3761292534157876   T   T   T
  0.9996358539310121  0.0000373807585243  0.0991265813170106   T   T   T
  0.5001608753804558  0.0001176867933726  0.0994563656570373   T   T   T
  0.2502072846923441  0.2498480519756597  0.0988965285559762   T   T   T
  0.7497042592847158  0.2498952000907549  0.0993474270823635   T   T   T
  0.9997338156698922  0.5002763479729054  0.0985485367673500   T   T   T
  0.5001422982469638  0.5002470367516612  0.0989123603692829   T   T   T
  0.2500620419758804  0.7503939036237309  0.0990132421558862   T   T   T
  0.7497232283089384  0.7505279016003369  0.0995436546047739   T   T   T
  0.2500465146988533  0.0000442434408021  0.1946138368578074   T   T   T
  0.7495969384900746  0.0001820476031076  0.1952541276041513   T   T   T
  0.9997975057868718  0.2498779500414471  0.1939583587606339   T   T   T
  0.5002006771809125  0.2498541690444633  0.1947204357764208   T   T   T
  0.2501575121109962  0.5001821205962352  0.1935966765844410   T   T   T
  0.7498238683734526  0.5002482397602285  0.1945081705753191   T   T   T
  0.9996669544284287  0.7503298603175090  0.1944192965377463   T   T   T
  0.4999810262192081  0.7504991468019321  0.1949063779288444   T   T   T
 -0.0006409856520364  0.0012023071409652  0.2934573548477852   T   T   T
  0.5001908613657771  0.0000893282911147  0.2945286844030076   T   T   T
  0.2503520509021279  0.2497280136852375  0.2930910825173228   T   T   T
  0.7499224288833348  0.2505871061955418  0.2943230009408969   T   T   T
  0.0015098363964683  0.4989379160848194  0.2920176142691624   T   T   T
  0.4988487193491788  0.5003511785107624  0.2928984426937489   T   T   T
  0.2491605584520445  0.7503164163890705  0.2935530018930295   T   T   T
  0.7500969407393295  0.7500559363770835  0.2947584373743166   T   T   T
  0.2495354134677178  0.0017484515594084  0.3894815612108614   T   T   T
  0.7489879876147830  0.0028087280981635  0.3908468160452719   T   T   T
  0.0013127381622814  0.2513504356226441  0.3871983943317998   T   T   T
  0.4978378383901848  0.2501472575817398  0.3897228010746667   T   T   T
  0.2476246164594194  0.4988966220355333  0.3865372293013549   T   T   T
  0.7321806269006967  0.5009563403036987  0.3885868478490753   T   T   T
 -0.0011334916767990  0.7663798268981357  0.3884602270012554   T   T   T
  0.4964558570166866  0.7511642143771325  0.3900220892744152   T   T   T
 
  0.00000000E+00  0.00000000E+00  0.00000000E+00
  0.00000000E+00  0.00000000E+00  0.00000000E+00
  0.00000000E+00  0.00000000E+00  0.00000000E+00
  0.00000000E+00  0.00000000E+00  0.00000000E+00
  0.00000000E+00  0.00000000E+00  0.00000000E+00
  0.00000000E+00  0.00000000E+00  0.00000000E+00
  0.00000000E+00  0.00000000E+00  0.00000000E+00
  0.00000000E+00  0.00000000E+00  0.00000000E+00
  0.00000000E+00  0.00000000E+00  0.00000000E+00
  0.00000000E+00  0.00000000E+00  0.00000000E+00
  0.00000000E+00  0.00000000E+00  0.00000000E+00
  0.00000000E+00  0.00000000E+00  0.00000000E+00
  0.00000000E+00  0.00000000E+00  0.00000000E+00
  0.00000000E+00  0.00000000E+00  0.00000000E+00
  0.00000000E+00  0.00000000E+00  0.00000000E+00
  0.00000000E+00  0.00000000E+00  0.00000000E+00
  0.00000000E+00  0.00000000E+00  0.00000000E+00
  0.00000000E+00  0.00000000E+00  0.00000000E+00
  0.00000000E+00  0.00000000E+00  0.00000000E+00
  0.00000000E+00  0.00000000E+00  0.00000000E+00
  0.00000000E+00  0.00000000E+00  0.00000000E+00
  0.00000000E+00  0.00000000E+00  0.00000000E+00
  0.00000000E+00  0.00000000E+00  0.00000000E+00
  0.00000000E+00  0.00000000E+00  0.00000000E+00
  0.00000000E+00  0.00000000E+00  0.00000000E+00
  0.00000000E+00  0.00000000E+00  0.00000000E+00
  0.00000000E+00  0.00000000E+00  0.00000000E+00
  0.00000000E+00  0.00000000E+00  0.00000000E+00
  0.00000000E+00  0.00000000E+00  0.00000000E+00
  0.00000000E+00  0.00000000E+00  0.00000000E+00
  0.00000000E+00  0.00000000E+00  0.00000000E+00
  0.00000000E+00  0.00000000E+00  0.00000000E+00
  0.00000000E+00  0.00000000E+00  0.00000000E+00
  0.00000000E+00  0.00000000E+00  0.00000000E+00
  0.00000000E+00  0.00000000E+00  0.00000000E+00
  0.00000000E+00  0.00000000E+00  0.00000000E+00
  0.00000000E+00  0.00000000E+00  0.00000000E+00
  0.00000000E+00  0.00000000E+00  0.00000000E+00
  0.00000000E+00  0.00000000E+00  0.00000000E+00
  0.00000000E+00  0.00000000E+00  0.00000000E+00
  0.00000000E+00  0.00000000E+00  0.00000000E+00
  0.00000000E+00  0.00000000E+00  0.00000000E+00
  0.00000000E+00  0.00000000E+00  0.00000000E+00
  0.00000000E+00  0.00000000E+00  0.00000000E+00
  0.00000000E+00  0.00000000E+00  0.00000000E+00
  0.00000000E+00  0.00000000E+00  0.00000000E+00
  0.00000000E+00  0.00000000E+00  0.00000000E+00
  0.00000000E+00  0.00000000E+00  0.00000000E+00
  0.00000000E+00  0.00000000E+00  0.00000000E+00
  0.00000000E+00  0.00000000E+00  0.00000000E+00
  0.00000000E+00  0.00000000E+00  0.00000000E+00
  0.00000000E+00  0.00000000E+00  0.00000000E+00
  0.00000000E+00  0.00000000E+00  0.00000000E+00
  0.00000000E+00  0.00000000E+00  0.00000000E+00
  0.00000000E+00  0.00000000E+00  0.00000000E+00
  0.00000000E+00  0.00000000E+00  0.00000000E+00
  0.00000000E+00  0.00000000E+00  0.00000000E+00
  0.00000000E+00  0.00000000E+00  0.00000000E+00
  0.00000000E+00  0.00000000E+00  0.00000000E+00
  0.00000000E+00  0.00000000E+00  0.00000000E+00
  0.00000000E+00  0.00000000E+00  0.00000000E+00
  0.00000000E+00  0.00000000E+00  0.00000000E+00
  0.00000000E+00  0.00000000E+00  0.00000000E+00
  0.00000000E+00  0.00000000E+00  0.00000000E+00
