Ca Li Mn O                              
   1.00000000000000     
     9.6048500000000008    0.0000000000000000    0.0000000000000000
     0.0000000000000000    9.6048500000000008    0.0000000000000000
     0.0000000000000000    0.0000000000000000   24.6048000000000009
   Ca   Li   Mn   O 
    31     1     1    32
Selective dynamics
Direct
  0.2499186213520591  0.0000824429254226  0.0981272904412399   T   T   T
  0.7499105145979731  0.0000828154494525  0.0985221152662490   T   T   T
 -0.0000059782990103  0.2502807368942485  0.0980909383686897   T   T   T
  0.4999214983976102  0.2503349892100877  0.0983665972178769   T   T   T
  0.2499760205454135  0.5002942972050329  0.0978347576960886   T   T   T
  0.7498477811768147  0.5002893078759370  0.0981383660530244   T   T   T
  0.9998943448997769  0.7500968598728284  0.0983210078690225   T   T   T
  0.4998172868586309  0.7500679515612447  0.0986069271825521   T   T   T
  0.0010277124588439  0.9998035892597944  0.1949353169879870   T   T   T
  0.4987837889332095  0.0000595568562736  0.1950954234247227   T   T   T
  0.2501437367281051  0.2508016329812026  0.1949460675522950   T   T   T
  0.7498669672757469  0.2517143903997401  0.1949148241159430   T   T   T
  0.0002818224733856  0.5004992446833804  0.1949592643790138   T   T   T
  0.4995846502354876  0.5003974313013525  0.1953510862841373   T   T   T
  0.2495101944283703  0.7495841879953589  0.1952850014496940   T   T   T
  0.7500097091903255  0.7486315114925686  0.1952739102359762   T   T   T
  0.2491933278278344 -0.0000019604680615  0.2923773752423030   T   T   T
  0.7505254213992115  0.0000199983480501  0.2896605867443508   T   T   T
 -0.0001982734751133  0.2520913051368167  0.2924472881044838   T   T   T
  0.5004858944687092  0.2507320794384735  0.2939493848355342   T   T   T
  0.2480586388423890  0.5003956333366645  0.2918146628899729   T   T   T
  0.7522192777124289  0.5003258015014709  0.2934247960956434   T   T   T
  0.9992257777962176  0.7474684099828068  0.2947147367646346   T   T   T
  0.4998282805270433  0.7497814528019194  0.2944951582795816   T   T   T
  0.0126348183225181  0.0061957731886271  0.3894161670421104   T   T   T
  0.4852624851584669  0.9991822333743160  0.3906331439683106   T   T   T
  0.2475766541282682  0.2565208846099130  0.3895402677099755   T   T   T
  0.7561586310852667  0.2722682664065705  0.3912986446730984   T   T   T
  0.4925564475059516  0.5017075515113220  0.3890179449532017   T   T   T
  0.2386190892878891  0.7419734327826686  0.3902204825969754   T   T   T
  0.7597342092819003  0.7289526481464947  0.3918209172490219   T   T   T
  0.0332819390048039  0.4687348827635089  0.3764953627360606   T   T   T
  0.7499038786149953  0.9983388494213976  0.4815466438740990   T   T   T
  0.9995494672842190  0.0000444028493745  0.0990631089342588   T   T   T
  0.5002995634974167  0.0001043986554683  0.0994334527807403   T   T   T
  0.2502093242188385  0.2497079714513763  0.0987117181278119   T   T   T
  0.7497137186435799  0.2497451275899464  0.0993234095162977   T   T   T
  0.9995161001534267  0.5003317889151584  0.0983483654963787   T   T   T
  0.5003021149225213  0.5002859305300372  0.0987597925783202   T   T   T
  0.2500148712306737  0.7506239669267581  0.0989595388006076   T   T   T
  0.7497041305803352  0.7506316652769237  0.0995670995056659   T   T   T
  0.2501679360441805  0.0000815201082049  0.1946574158405943   T   T   T
  0.7496344944322745  0.0001483937429096  0.1956793685891070   T   T   T
  0.9995074420146988  0.2496284808416248  0.1936739378299665   T   T   T
  0.5005441341713843  0.2495557883878532  0.1945205764431394   T   T   T
  0.2500947294427322  0.5002756245170515  0.1934348519852270   T   T   T
  0.7496481441000376  0.5001764156729013  0.1945163783797564   T   T   T
  0.9993244483981399  0.7507728221528593  0.1942828189959222   T   T   T
  0.5002010007437642  0.7509083724419604  0.1948158691879232   T   T   T
  0.9967926317540868  0.0019060013064518  0.2935060779112519   T   T   T
  0.5032145376234634  0.0000095784989016  0.2950936216033802   T   T   T
  0.2504943162449091  0.2491185283434862  0.2926896944553256   T   T   T
  0.7500544196812280  0.2470005141901850  0.2950037265715107   T   T   T
  0.0005181300474474  0.4986907617234634  0.2914205536092805   T   T   T
  0.4989855837561937  0.5004597775553531  0.2924030678671461   T   T   T
  0.2488745041226783  0.7509544235907704  0.2933863041414644   T   T   T
  0.7500993743097663  0.7529981980619199  0.2953030592378935   T   T   T
  0.2495042052393752  0.0023108959873978  0.3887875455896517   T   T   T
  0.7484907217700572  0.0052316951519133  0.4107785550615917   T   T   T
  0.0011947231314801  0.2518535536878521  0.3865186583945077   T   T   T
  0.4991107847477945  0.2486935225433363  0.3891630557237072   T   T   T
  0.2466259488130259  0.4985357926647639  0.3861204728373828   T   T   T
  0.7318615404682151  0.5005583635691027  0.3874146935880084   T   T   T
  0.9970693512027581  0.7703463373476069  0.3879664639465842   T   T   T
  0.4974941697727444  0.7525321003722252  0.3896221018937252   T   T   T
 
  0.00000000E+00  0.00000000E+00  0.00000000E+00
  0.00000000E+00  0.00000000E+00  0.00000000E+00
  0.00000000E+00  0.00000000E+00  0.00000000E+00
  0.00000000E+00  0.00000000E+00  0.00000000E+00
  0.00000000E+00  0.00000000E+00  0.00000000E+00
  0.00000000E+00  0.00000000E+00  0.00000000E+00
  0.00000000E+00  0.00000000E+00  0.00000000E+00
  0.00000000E+00  0.00000000E+00  0.00000000E+00
  0.00000000E+00  0.00000000E+00  0.00000000E+00
  0.00000000E+00  0.00000000E+00  0.00000000E+00
  0.00000000E+00  0.00000000E+00  0.00000000E+00
  0.00000000E+00  0.00000000E+00  0.00000000E+00
  0.00000000E+00  0.00000000E+00  0.00000000E+00
  0.00000000E+00  0.00000000E+00  0.00000000E+00
  0.00000000E+00  0.00000000E+00  0.00000000E+00
  0.00000000E+00  0.00000000E+00  0.00000000E+00
  0.00000000E+00  0.00000000E+00  0.00000000E+00
  0.00000000E+00  0.00000000E+00  0.00000000E+00
  0.00000000E+00  0.00000000E+00  0.00000000E+00
  0.00000000E+00  0.00000000E+00  0.00000000E+00
  0.00000000E+00  0.00000000E+00  0.00000000E+00
  0.00000000E+00  0.00000000E+00  0.00000000E+00
  0.00000000E+00  0.00000000E+00  0.00000000E+00
  0.00000000E+00  0.00000000E+00  0.00000000E+00
  0.00000000E+00  0.00000000E+00  0.00000000E+00
  0.00000000E+00  0.00000000E+00  0.00000000E+00
  0.00000000E+00  0.00000000E+00  0.00000000E+00
  0.00000000E+00  0.00000000E+00  0.00000000E+00
  0.00000000E+00  0.00000000E+00  0.00000000E+00
  0.00000000E+00  0.00000000E+00  0.00000000E+00
  0.00000000E+00  0.00000000E+00  0.00000000E+00
  0.00000000E+00  0.00000000E+00  0.00000000E+00
  0.00000000E+00  0.00000000E+00  0.00000000E+00
  0.00000000E+00  0.00000000E+00  0.00000000E+00
  0.00000000E+00  0.00000000E+00  0.00000000E+00
  0.00000000E+00  0.00000000E+00  0.00000000E+00
  0.00000000E+00  0.00000000E+00  0.00000000E+00
  0.00000000E+00  0.00000000E+00  0.00000000E+00
  0.00000000E+00  0.00000000E+00  0.00000000E+00
  0.00000000E+00  0.00000000E+00  0.00000000E+00
  0.00000000E+00  0.00000000E+00  0.00000000E+00
  0.00000000E+00  0.00000000E+00  0.00000000E+00
  0.00000000E+00  0.00000000E+00  0.00000000E+00
  0.00000000E+00  0.00000000E+00  0.00000000E+00
  0.00000000E+00  0.00000000E+00  0.00000000E+00
  0.00000000E+00  0.00000000E+00  0.00000000E+00
  0.00000000E+00  0.00000000E+00  0.00000000E+00
  0.00000000E+00  0.00000000E+00  0.00000000E+00
  0.00000000E+00  0.00000000E+00  0.00000000E+00
  0.00000000E+00  0.00000000E+00  0.00000000E+00
  0.00000000E+00  0.00000000E+00  0.00000000E+00
  0.00000000E+00  0.00000000E+00  0.00000000E+00
  0.00000000E+00  0.00000000E+00  0.00000000E+00
  0.00000000E+00  0.00000000E+00  0.00000000E+00
  0.00000000E+00  0.00000000E+00  0.00000000E+00
  0.00000000E+00  0.00000000E+00  0.00000000E+00
  0.00000000E+00  0.00000000E+00  0.00000000E+00
  0.00000000E+00  0.00000000E+00  0.00000000E+00
  0.00000000E+00  0.00000000E+00  0.00000000E+00
  0.00000000E+00  0.00000000E+00  0.00000000E+00
  0.00000000E+00  0.00000000E+00  0.00000000E+00
  0.00000000E+00  0.00000000E+00  0.00000000E+00
  0.00000000E+00  0.00000000E+00  0.00000000E+00
  0.00000000E+00  0.00000000E+00  0.00000000E+00
  0.00000000E+00  0.00000000E+00  0.00000000E+00
