Ca Li O V                               
   1.00000000000000     
     9.6048500000000008    0.0000000000000000    0.0000000000000000
     0.0000000000000000    9.6048500000000008    0.0000000000000000
     0.0000000000000000    0.0000000000000000   24.6048000000000009
   Ca   Li   O    V 
    31     1    32     1
Selective dynamics
Direct
  0.2498684380713358  0.0001481203054871  0.0981745323058925   T   T   T
  0.7498416030994531  0.0001276178821862  0.0984893132918068   T   T   T
  0.0000006947496897  0.2503246629697927  0.0980785728223008   T   T   T
  0.4997610771237973  0.2503345408025544  0.0984341368243097   T   T   T
  0.2499343978450467  0.5001982903477650  0.0978873877844645   T   T   T
  0.7498924036344501  0.5001845612708113  0.0980479461942329   T   T   T
 -0.0000024078249209  0.7499823297946808  0.0981295923408557   T   T   T
  0.4997782055142243  0.7500111116675445  0.0985120074020001   T   T   T
  0.0008391147563608  0.0000693198916082  0.1949732289298307   T   T   T
  0.4989864247138257  0.0001431513524224  0.1952138620191799   T   T   T
  0.2498289069898098  0.2507132613333369  0.1951019559059372   T   T   T
  0.7500056369560708  0.2515144604777139  0.1950540062925908   T   T   T
  0.0002494400167283  0.5002327288246344  0.1949773662306798   T   T   T
  0.4997296471473506  0.5002374915272687  0.1952967807320240   T   T   T
  0.2497204372113455  0.7496594928252310  0.1951815640183598   T   T   T
  0.7500760152727897  0.7487923620786971  0.1951550187106294   T   T   T
  0.2491757992819288  0.0001605798117502  0.2923445586607520   T   T   T
  0.7506112181018245  0.0001294128065388  0.2903883494203029   T   T   T
  0.9998766059177836  0.2524707548299340  0.2934166583467310   T   T   T
  0.4999538733612687  0.2509336379533798  0.2941031579782102   T   T   T
  0.2486011272290110  0.5003039615415948  0.2918011819295560   T   T   T
  0.7520175112277397  0.5002047435267721  0.2931269821400822   T   T   T
 -0.0000866341097058  0.7475801367583116  0.2939603873381549   T   T   T
  0.4999649452641272  0.7496595099324646  0.2943467663177372   T   T   T
  0.0132394652685863  0.0014067158722309  0.3892026830184135   T   T   T
  0.4845210762877862  0.0005882856697766  0.3903064923108702   T   T   T
  0.2435805603479046  0.2579250343690094  0.3902877036087564   T   T   T
  0.7571600522403052  0.2719606904538140  0.3909664827965267   T   T   T
  0.4932493194070705  0.5006077745825505  0.3894267959095748   T   T   T
  0.2411922772390627  0.7420774588594807  0.3904785645932437   T   T   T
  0.7593871587613451  0.7283405458225590  0.3911373800981987   T   T   T
  0.0325487694012341  0.4911003084855400  0.3759373271439757   T   T   T
  0.9995665058830431  0.0001157733142460  0.0989699872177282   T   T   T
  0.5001729616833341  0.0001557879006406  0.0994430083613975   T   T   T
  0.2500427503808558  0.2498535522220349  0.0988163074402453   T   T   T
  0.7496896706970312  0.2497736308460231  0.0992535593350243   T   T   T
  0.9997045808099198  0.5001775480370064  0.0982936074026416   T   T   T
  0.5001447856159625  0.5002000153894878  0.0987802500017918   T   T   T
  0.2500418167476307  0.7504720656189484  0.0988782791975552   T   T   T
  0.7497275223252906  0.7505463751723016  0.0993273277056290   T   T   T
  0.2501147030594555  0.0001726711815477  0.1946906168565445   T   T   T
  0.7497167068978586  0.0001505150859646  0.1959303505810576   T   T   T
  0.9995654140611308  0.2498275918771439  0.1939616182608801   T   T   T
  0.5002787662516179  0.2497002544656892  0.1946963064852465   T   T   T
  0.2500682489906997  0.5002044274701805  0.1935245311749376   T   T   T
  0.7498121807556098  0.5001452340870921  0.1944319451788936   T   T   T
  0.9995697103336486  0.7504859739892843  0.1940924061707497   T   T   T
  0.5002377377880819  0.7506677865848674  0.1947866378232271   T   T   T
  0.9972961289916171  0.0006561377311522  0.2935632620837895   T   T   T
  0.5027837786905008  0.0001890460474938  0.2949668524981369   T   T   T
  0.2498776447379240  0.2494656074424343  0.2931952156538272   T   T   T
  0.7501522660979719  0.2474419543121976  0.2949092205697434   T   T   T
  0.0005507393890908  0.4997141316272443  0.2918241973036588   T   T   T
  0.4990984187094413  0.5003568107124003  0.2926162068341944   T   T   T
  0.2496981545298094  0.7509015340045035  0.2933728864518292   T   T   T
  0.7502583265678909  0.7528001818109460  0.2949873648032104   T   T   T
  0.2493759551595229  0.0008204191163111  0.3887309511306273   T   T   T
  0.7486587914319737  0.0016166568268930  0.4093653584468149   T   T   T
  0.9989677706137552  0.2440661456452477  0.3874790079035367   T   T   T
  0.4986660258354711  0.2489364790345898  0.3894885645485371   T   T   T
  0.2459411723752081  0.4998397083441785  0.3860520243404385   T   T   T
  0.7324813907154828  0.5001950091798205  0.3871195062425533   T   T   T
  0.9986836866618822  0.7623135482491225  0.3876087035598717   T   T   T
  0.4993637075493371  0.7526664518101541  0.3899629801288201   T   T   T
  0.7485605504622681  0.9991788231374196  0.4815084028996868   T   T   T
 
  0.00000000E+00  0.00000000E+00  0.00000000E+00
  0.00000000E+00  0.00000000E+00  0.00000000E+00
  0.00000000E+00  0.00000000E+00  0.00000000E+00
  0.00000000E+00  0.00000000E+00  0.00000000E+00
  0.00000000E+00  0.00000000E+00  0.00000000E+00
  0.00000000E+00  0.00000000E+00  0.00000000E+00
  0.00000000E+00  0.00000000E+00  0.00000000E+00
  0.00000000E+00  0.00000000E+00  0.00000000E+00
  0.00000000E+00  0.00000000E+00  0.00000000E+00
  0.00000000E+00  0.00000000E+00  0.00000000E+00
  0.00000000E+00  0.00000000E+00  0.00000000E+00
  0.00000000E+00  0.00000000E+00  0.00000000E+00
  0.00000000E+00  0.00000000E+00  0.00000000E+00
  0.00000000E+00  0.00000000E+00  0.00000000E+00
  0.00000000E+00  0.00000000E+00  0.00000000E+00
  0.00000000E+00  0.00000000E+00  0.00000000E+00
  0.00000000E+00  0.00000000E+00  0.00000000E+00
  0.00000000E+00  0.00000000E+00  0.00000000E+00
  0.00000000E+00  0.00000000E+00  0.00000000E+00
  0.00000000E+00  0.00000000E+00  0.00000000E+00
  0.00000000E+00  0.00000000E+00  0.00000000E+00
  0.00000000E+00  0.00000000E+00  0.00000000E+00
  0.00000000E+00  0.00000000E+00  0.00000000E+00
  0.00000000E+00  0.00000000E+00  0.00000000E+00
  0.00000000E+00  0.00000000E+00  0.00000000E+00
  0.00000000E+00  0.00000000E+00  0.00000000E+00
  0.00000000E+00  0.00000000E+00  0.00000000E+00
  0.00000000E+00  0.00000000E+00  0.00000000E+00
  0.00000000E+00  0.00000000E+00  0.00000000E+00
  0.00000000E+00  0.00000000E+00  0.00000000E+00
  0.00000000E+00  0.00000000E+00  0.00000000E+00
  0.00000000E+00  0.00000000E+00  0.00000000E+00
  0.00000000E+00  0.00000000E+00  0.00000000E+00
  0.00000000E+00  0.00000000E+00  0.00000000E+00
  0.00000000E+00  0.00000000E+00  0.00000000E+00
  0.00000000E+00  0.00000000E+00  0.00000000E+00
  0.00000000E+00  0.00000000E+00  0.00000000E+00
  0.00000000E+00  0.00000000E+00  0.00000000E+00
  0.00000000E+00  0.00000000E+00  0.00000000E+00
  0.00000000E+00  0.00000000E+00  0.00000000E+00
  0.00000000E+00  0.00000000E+00  0.00000000E+00
  0.00000000E+00  0.00000000E+00  0.00000000E+00
  0.00000000E+00  0.00000000E+00  0.00000000E+00
  0.00000000E+00  0.00000000E+00  0.00000000E+00
  0.00000000E+00  0.00000000E+00  0.00000000E+00
  0.00000000E+00  0.00000000E+00  0.00000000E+00
  0.00000000E+00  0.00000000E+00  0.00000000E+00
  0.00000000E+00  0.00000000E+00  0.00000000E+00
  0.00000000E+00  0.00000000E+00  0.00000000E+00
  0.00000000E+00  0.00000000E+00  0.00000000E+00
  0.00000000E+00  0.00000000E+00  0.00000000E+00
  0.00000000E+00  0.00000000E+00  0.00000000E+00
  0.00000000E+00  0.00000000E+00  0.00000000E+00
  0.00000000E+00  0.00000000E+00  0.00000000E+00
  0.00000000E+00  0.00000000E+00  0.00000000E+00
  0.00000000E+00  0.00000000E+00  0.00000000E+00
  0.00000000E+00  0.00000000E+00  0.00000000E+00
  0.00000000E+00  0.00000000E+00  0.00000000E+00
  0.00000000E+00  0.00000000E+00  0.00000000E+00
  0.00000000E+00  0.00000000E+00  0.00000000E+00
  0.00000000E+00  0.00000000E+00  0.00000000E+00
  0.00000000E+00  0.00000000E+00  0.00000000E+00
  0.00000000E+00  0.00000000E+00  0.00000000E+00
  0.00000000E+00  0.00000000E+00  0.00000000E+00
  0.00000000E+00  0.00000000E+00  0.00000000E+00
