Ca Li O Ag                              
   1.00000000000000     
     9.6048500000000008    0.0000000000000000    0.0000000000000000
     0.0000000000000000    9.6048500000000008    0.0000000000000000
     0.0000000000000000    0.0000000000000000   24.6048000000000009
   Ca   Li   O    Ag
    31     1    32     1
Selective dynamics
Direct
  0.2499041586064923  0.0000548799421177  0.0985130257269050   T   T   T
  0.7498927987657484  0.0000720559485468  0.0987309581784986   T   T   T
 -0.0000196130400803  0.2502302581391549  0.0983764730509985   T   T   T
  0.4999213725015754  0.2502911199254544  0.0986603879519160   T   T   T
  0.2499446393938635  0.5002513418257527  0.0982335448446481   T   T   T
  0.7498587858677265  0.5002809591058791  0.0984968588422267   T   T   T
 -0.0000648219300280  0.7500680442308955  0.0986009046273547   T   T   T
  0.4998749399139913  0.7500782708062302  0.0988956089888809   T   T   T
  0.0003188681949560  0.9998229741317680  0.1952658961323787   T   T   T
  0.4994212961325974  0.0000975397966608  0.1954773720583739   T   T   T
  0.2501089589739439  0.2506897118778630  0.1950971738084515   T   T   T
  0.7498601679863666  0.2510138819697175  0.1952666880539752   T   T   T
  0.0002190076445707  0.5004195809761185  0.1950372285281642   T   T   T
  0.4996247416449875  0.5003551647146862  0.1954369535706279   T   T   T
  0.2496385566750354  0.7496384595039285  0.1954180273795464   T   T   T
  0.7500466439127268  0.7494049858871763  0.1956093079901725   T   T   T
  0.2492241287444993 -0.0000025121895023  0.2923481462129769   T   T   T
  0.7503166038661669  0.0001598041407908  0.2920914831392844   T   T   T
  0.0005502516985680  0.2529207105585793  0.2923488756783831   T   T   T
  0.4995695741374240  0.2514822870829097  0.2936658560855920   T   T   T
  0.2482235502852179  0.5003471793523290  0.2922957476786107   T   T   T
  0.7522111529121043  0.5004263362234023  0.2931342722521529   T   T   T
  0.0002002587950321  0.7466524468825708  0.2944061509974703   T   T   T
  0.4991844801672339  0.7490863836920669  0.2941943842730891   T   T   T
  0.0094680261072947  0.0053229843060057  0.3877295466530141   T   T   T
  0.4884548764973211  0.9997519783444005  0.3890604824602893   T   T   T
  0.2467406223823482  0.2557198195298230  0.3900330257053439   T   T   T
  0.7558667278194805  0.2693056851939309  0.3894317069168552   T   T   T
  0.4934426104888644  0.5013286519639393  0.3894742361561797   T   T   T
  0.2396528748118275  0.7431980648112839  0.3906674291860911   T   T   T
  0.7589235880196978  0.7320512123222499  0.3900386153954464   T   T   T
  0.0320232383962980  0.4724703599422185  0.3768481272399613   T   T   T
  0.9994683147307201 -0.0000126635570787  0.0992815193106006   T   T   T
  0.5003675648800915  0.0000897118299266  0.0996988228882418   T   T   T
  0.2502076854645845  0.2498538788985022  0.0990382696002771   T   T   T
  0.7496803031848134  0.2496453228390352  0.0995390036484978   T   T   T
  0.9997000264586765  0.5002899325253006  0.0986658932310839   T   T   T
  0.5001026944528394  0.5002636859382685  0.0990539732945322   T   T   T
  0.2500826773522892  0.7504422908960492  0.0992820670437525   T   T   T
  0.7497095212644000  0.7507004965640011  0.0997968562202126   T   T   T
  0.2501354487558461  0.0000659466499331  0.1947124894861645   T   T   T
  0.7495960191753126  0.0001535331183939  0.1961783753769585   T   T   T
  0.9997027968068281  0.2497898919341824  0.1940542687687486   T   T   T
  0.5002767738266602  0.2497666668337404  0.1949334812041562   T   T   T
  0.2500745232413035  0.5002468560995580  0.1937732798611934   T   T   T
  0.7496204569988041  0.5002431757475858  0.1944939439442946   T   T   T
  0.9995927531686674  0.7505438755775007  0.1946673432559341   T   T   T
  0.5000911686956283  0.7507121970489626  0.1952323018336697   T   T   T
  0.9978825084790158  0.0014738513035759  0.2930410608938538   T   T   T
  0.5018010819851588  0.0000475897950104  0.2944207129503783   T   T   T
  0.2504393310235288  0.2494700540467563  0.2930078343354820   T   T   T
  0.7499401262005034  0.2484950581458743  0.2942111992683540   T   T   T
  0.0007911476196945  0.4989259556498448  0.2916420106961667   T   T   T
  0.4986447558734458  0.5004778066186880  0.2926737879999713   T   T   T
  0.2492424463493116  0.7506541783856886  0.2936742079251226   T   T   T
  0.7501848712029278  0.7519170668634400  0.2946782973527888   T   T   T
  0.2494304756000610  0.0022265482907039  0.3883306749950798   T   T   T
  0.7482489109203080  0.0044131890309790  0.3977937241996725   T   T   T
  0.0008863772499036  0.2514808265209905  0.3869554470536807   T   T   T
  0.4986255024937262  0.2490993830338069  0.3898380947373366   T   T   T
  0.2470354760953895  0.4988381019744261  0.3866210669968256   T   T   T
  0.7319797227475685  0.5007362346357780  0.3867752494577500   T   T   T
  0.9978038689013113  0.7681900162506714  0.3885017167754654   T   T   T
  0.4976058778478915  0.7524892590089124  0.3903568800632322   T   T   T
  0.7502930688929265  0.0000618650640520  0.4814405973776773   T   T   T
 
  0.00000000E+00  0.00000000E+00  0.00000000E+00
  0.00000000E+00  0.00000000E+00  0.00000000E+00
  0.00000000E+00  0.00000000E+00  0.00000000E+00
  0.00000000E+00  0.00000000E+00  0.00000000E+00
  0.00000000E+00  0.00000000E+00  0.00000000E+00
  0.00000000E+00  0.00000000E+00  0.00000000E+00
  0.00000000E+00  0.00000000E+00  0.00000000E+00
  0.00000000E+00  0.00000000E+00  0.00000000E+00
  0.00000000E+00  0.00000000E+00  0.00000000E+00
  0.00000000E+00  0.00000000E+00  0.00000000E+00
  0.00000000E+00  0.00000000E+00  0.00000000E+00
  0.00000000E+00  0.00000000E+00  0.00000000E+00
  0.00000000E+00  0.00000000E+00  0.00000000E+00
  0.00000000E+00  0.00000000E+00  0.00000000E+00
  0.00000000E+00  0.00000000E+00  0.00000000E+00
  0.00000000E+00  0.00000000E+00  0.00000000E+00
  0.00000000E+00  0.00000000E+00  0.00000000E+00
  0.00000000E+00  0.00000000E+00  0.00000000E+00
  0.00000000E+00  0.00000000E+00  0.00000000E+00
  0.00000000E+00  0.00000000E+00  0.00000000E+00
  0.00000000E+00  0.00000000E+00  0.00000000E+00
  0.00000000E+00  0.00000000E+00  0.00000000E+00
  0.00000000E+00  0.00000000E+00  0.00000000E+00
  0.00000000E+00  0.00000000E+00  0.00000000E+00
  0.00000000E+00  0.00000000E+00  0.00000000E+00
  0.00000000E+00  0.00000000E+00  0.00000000E+00
  0.00000000E+00  0.00000000E+00  0.00000000E+00
  0.00000000E+00  0.00000000E+00  0.00000000E+00
  0.00000000E+00  0.00000000E+00  0.00000000E+00
  0.00000000E+00  0.00000000E+00  0.00000000E+00
  0.00000000E+00  0.00000000E+00  0.00000000E+00
  0.00000000E+00  0.00000000E+00  0.00000000E+00
  0.00000000E+00  0.00000000E+00  0.00000000E+00
  0.00000000E+00  0.00000000E+00  0.00000000E+00
  0.00000000E+00  0.00000000E+00  0.00000000E+00
  0.00000000E+00  0.00000000E+00  0.00000000E+00
  0.00000000E+00  0.00000000E+00  0.00000000E+00
  0.00000000E+00  0.00000000E+00  0.00000000E+00
  0.00000000E+00  0.00000000E+00  0.00000000E+00
  0.00000000E+00  0.00000000E+00  0.00000000E+00
  0.00000000E+00  0.00000000E+00  0.00000000E+00
  0.00000000E+00  0.00000000E+00  0.00000000E+00
  0.00000000E+00  0.00000000E+00  0.00000000E+00
  0.00000000E+00  0.00000000E+00  0.00000000E+00
  0.00000000E+00  0.00000000E+00  0.00000000E+00
  0.00000000E+00  0.00000000E+00  0.00000000E+00
  0.00000000E+00  0.00000000E+00  0.00000000E+00
  0.00000000E+00  0.00000000E+00  0.00000000E+00
  0.00000000E+00  0.00000000E+00  0.00000000E+00
  0.00000000E+00  0.00000000E+00  0.00000000E+00
  0.00000000E+00  0.00000000E+00  0.00000000E+00
  0.00000000E+00  0.00000000E+00  0.00000000E+00
  0.00000000E+00  0.00000000E+00  0.00000000E+00
  0.00000000E+00  0.00000000E+00  0.00000000E+00
  0.00000000E+00  0.00000000E+00  0.00000000E+00
  0.00000000E+00  0.00000000E+00  0.00000000E+00
  0.00000000E+00  0.00000000E+00  0.00000000E+00
  0.00000000E+00  0.00000000E+00  0.00000000E+00
  0.00000000E+00  0.00000000E+00  0.00000000E+00
  0.00000000E+00  0.00000000E+00  0.00000000E+00
  0.00000000E+00  0.00000000E+00  0.00000000E+00
  0.00000000E+00  0.00000000E+00  0.00000000E+00
  0.00000000E+00  0.00000000E+00  0.00000000E+00
  0.00000000E+00  0.00000000E+00  0.00000000E+00
  0.00000000E+00  0.00000000E+00  0.00000000E+00
