Ca Li O Pd                              
   1.00000000000000     
     9.6048500000000008    0.0000000000000000    0.0000000000000000
     0.0000000000000000    9.6048500000000008    0.0000000000000000
     0.0000000000000000    0.0000000000000000   24.6048000000000009
   Ca   Li   O    Pd
    31     1    32     1
Selective dynamics
Direct
  0.2499205241649084  0.0000780216613730  0.0986094915606283   T   T   T
  0.7498696399961194  0.0001068808598286  0.0990330001673895   T   T   T
  0.9998492095348186  0.2500587526742106  0.0984270622125943   T   T   T
  0.5000407501096914  0.2501338440074392  0.0987100897616785   T   T   T
  0.2500529681595896  0.5002149378220655  0.0982243773726209   T   T   T
  0.7498740136207046  0.5002737323476631  0.0986126935648206   T   T   T
  0.9997736441720253  0.7502222907794022  0.0986001057514973   T   T   T
  0.4999827933573725  0.7502134275909759  0.0988752058137653   T   T   T
  0.0001306741649073  0.9998011044237133  0.1957422993131964   T   T   T
  0.4995880606980964  0.0000892132950251  0.1958931380434502   T   T   T
  0.2500799772193530  0.2501747968407814  0.1953148617997212   T   T   T
  0.7498665371360292  0.2508679618713860  0.1957296266725242   T   T   T
  0.9998900318301089  0.5003171980009330  0.1952815861339424   T   T   T
  0.5002503375062731  0.5003033159987729  0.1956724880963296   T   T   T
  0.2496423773438292  0.7500727972153950  0.1955509960203946   T   T   T
  0.7500169095153595  0.7495556200056642  0.1959995401470544   T   T   T
  0.2493081965648881  0.9999968504315937  0.2931778381850119   T   T   T
  0.7502601341907061  0.0002140935627801  0.2930382406643671   T   T   T
 -0.0002809083154001  0.2517430343575515  0.2926895930541271   T   T   T
  0.5002461731106105  0.2506280662747881  0.2939368901886466   T   T   T
  0.2486331178172518  0.5003138696813859  0.2922132484909453   T   T   T
  0.7525116987491196  0.5004420729377499  0.2941535214601009   T   T   T
  0.9994569137091516  0.7475443543477319  0.2944700242795115   T   T   T
  0.4998736693953329  0.7498856792948324  0.2943377008148385   T   T   T
  0.0073458380135610  0.0052330105241592  0.3902168635326415   T   T   T
  0.4908062744345528  0.9997980008514589  0.3912932299959571   T   T   T
  0.2467602129008644  0.2548390142523053  0.3903039347886570   T   T   T
  0.7551107328654278  0.2671970474454228  0.3917284325317955   T   T   T
  0.4933482467033250  0.5011074142633795  0.3897743220706599   T   T   T
  0.2412888497829644  0.7445907028576263  0.3907581830045896   T   T   T
  0.7572627757215895  0.7349500841497473  0.3922484522971393   T   T   T
  0.0309953615104306  0.4737188339012535  0.3763165158639956   T   T   T
  0.9995414086783974  0.0000209589078834  0.0992419915065214   T   T   T
  0.5002689163009584  0.0001095407270290  0.0996013277582287   T   T   T
  0.2501941558185845  0.2497529695720884  0.0989822428428861   T   T   T
  0.7496972324503098  0.2498019659953071  0.0995108099486428   T   T   T
  0.9996158857359334  0.5002609359252163  0.0986262160372057   T   T   T
  0.5002910734066488  0.5002303588434309  0.0990570584988135   T   T   T
  0.2500514767419200  0.7505055269663813  0.0991313836283263   T   T   T
  0.7497176269709873  0.7505981671687697  0.0997099574425934   T   T   T
  0.2501344423979334  0.0000766789008049  0.1947933129495818   T   T   T
  0.7496026247115013  0.0001550640130256  0.1958538623433895   T   T   T
  0.9996630991663573  0.2497816598711863  0.1939317581520998   T   T   T
  0.5002801287102433  0.2498393616078194  0.1946979625391264   T   T   T
  0.2502753970152024  0.5001711542805236  0.1937087834668275   T   T   T
  0.7497338647611731  0.5002795223572689  0.1946856840829532   T   T   T
  0.9994939954377979  0.7504332338087640  0.1944206432853177   T   T   T
  0.5001210078666278  0.7505346768323427  0.1949235078233706   T   T   T
  0.9985014545962323  0.0012770985218657  0.2934561644869016   T   T   T
  0.5011249581104719  0.0001169890768021  0.2945421146990335   T   T   T
  0.2503320088263706  0.2493489978690075  0.2930722497238684   T   T   T
  0.7498722622643120  0.2495799361300789  0.2943513160866813   T   T   T
  0.0010648768731218  0.4988572075866154  0.2920066180040433   T   T   T
  0.4991607828340059  0.5003894259710370  0.2928216759167893   T   T   T
  0.2492695199886686  0.7506900401436148  0.2935770428850702   T   T   T
  0.7500693858766143  0.7509800058815533  0.2947325293504464   T   T   T
  0.2496277307327553  0.0017643247475809  0.3892509580440291   T   T   T
  0.7489606415175979  0.0025465763777168  0.3918133644023003   T   T   T
  0.0017458531927604  0.2513603641474008  0.3865537596206284   T   T   T
  0.4976920464714540  0.2502206369056436  0.3889953785226701   T   T   T
  0.2475852235992640  0.4989118061961532  0.3865484152072440   T   T   T
  0.7322826547922311  0.5009483443098671  0.3881555052850388   T   T   T
  0.9990721381586412  0.7668064775616059  0.3878270978234519   T   T   T
  0.4962603188048690  0.7510464596566561  0.3893425622936704   T   T   T
  0.7487874158204794  0.0026999131125699  0.4723921394986713   T   T   T
 
  0.00000000E+00  0.00000000E+00  0.00000000E+00
  0.00000000E+00  0.00000000E+00  0.00000000E+00
  0.00000000E+00  0.00000000E+00  0.00000000E+00
  0.00000000E+00  0.00000000E+00  0.00000000E+00
  0.00000000E+00  0.00000000E+00  0.00000000E+00
  0.00000000E+00  0.00000000E+00  0.00000000E+00
  0.00000000E+00  0.00000000E+00  0.00000000E+00
  0.00000000E+00  0.00000000E+00  0.00000000E+00
  0.00000000E+00  0.00000000E+00  0.00000000E+00
  0.00000000E+00  0.00000000E+00  0.00000000E+00
  0.00000000E+00  0.00000000E+00  0.00000000E+00
  0.00000000E+00  0.00000000E+00  0.00000000E+00
  0.00000000E+00  0.00000000E+00  0.00000000E+00
  0.00000000E+00  0.00000000E+00  0.00000000E+00
  0.00000000E+00  0.00000000E+00  0.00000000E+00
  0.00000000E+00  0.00000000E+00  0.00000000E+00
  0.00000000E+00  0.00000000E+00  0.00000000E+00
  0.00000000E+00  0.00000000E+00  0.00000000E+00
  0.00000000E+00  0.00000000E+00  0.00000000E+00
  0.00000000E+00  0.00000000E+00  0.00000000E+00
  0.00000000E+00  0.00000000E+00  0.00000000E+00
  0.00000000E+00  0.00000000E+00  0.00000000E+00
  0.00000000E+00  0.00000000E+00  0.00000000E+00
  0.00000000E+00  0.00000000E+00  0.00000000E+00
  0.00000000E+00  0.00000000E+00  0.00000000E+00
  0.00000000E+00  0.00000000E+00  0.00000000E+00
  0.00000000E+00  0.00000000E+00  0.00000000E+00
  0.00000000E+00  0.00000000E+00  0.00000000E+00
  0.00000000E+00  0.00000000E+00  0.00000000E+00
  0.00000000E+00  0.00000000E+00  0.00000000E+00
  0.00000000E+00  0.00000000E+00  0.00000000E+00
  0.00000000E+00  0.00000000E+00  0.00000000E+00
  0.00000000E+00  0.00000000E+00  0.00000000E+00
  0.00000000E+00  0.00000000E+00  0.00000000E+00
  0.00000000E+00  0.00000000E+00  0.00000000E+00
  0.00000000E+00  0.00000000E+00  0.00000000E+00
  0.00000000E+00  0.00000000E+00  0.00000000E+00
  0.00000000E+00  0.00000000E+00  0.00000000E+00
  0.00000000E+00  0.00000000E+00  0.00000000E+00
  0.00000000E+00  0.00000000E+00  0.00000000E+00
  0.00000000E+00  0.00000000E+00  0.00000000E+00
  0.00000000E+00  0.00000000E+00  0.00000000E+00
  0.00000000E+00  0.00000000E+00  0.00000000E+00
  0.00000000E+00  0.00000000E+00  0.00000000E+00
  0.00000000E+00  0.00000000E+00  0.00000000E+00
  0.00000000E+00  0.00000000E+00  0.00000000E+00
  0.00000000E+00  0.00000000E+00  0.00000000E+00
  0.00000000E+00  0.00000000E+00  0.00000000E+00
  0.00000000E+00  0.00000000E+00  0.00000000E+00
  0.00000000E+00  0.00000000E+00  0.00000000E+00
  0.00000000E+00  0.00000000E+00  0.00000000E+00
  0.00000000E+00  0.00000000E+00  0.00000000E+00
  0.00000000E+00  0.00000000E+00  0.00000000E+00
  0.00000000E+00  0.00000000E+00  0.00000000E+00
  0.00000000E+00  0.00000000E+00  0.00000000E+00
  0.00000000E+00  0.00000000E+00  0.00000000E+00
  0.00000000E+00  0.00000000E+00  0.00000000E+00
  0.00000000E+00  0.00000000E+00  0.00000000E+00
  0.00000000E+00  0.00000000E+00  0.00000000E+00
  0.00000000E+00  0.00000000E+00  0.00000000E+00
  0.00000000E+00  0.00000000E+00  0.00000000E+00
  0.00000000E+00  0.00000000E+00  0.00000000E+00
  0.00000000E+00  0.00000000E+00  0.00000000E+00
  0.00000000E+00  0.00000000E+00  0.00000000E+00
  0.00000000E+00  0.00000000E+00  0.00000000E+00
