Ca Li O V                               
   1.00000000000000     
     9.6048500000000008    0.0000000000000000    0.0000000000000000
     0.0000000000000000    9.6048500000000008    0.0000000000000000
     0.0000000000000000    0.0000000000000000   24.6048000000000009
   Ca   Li   O    V 
    31     1    32     1
Selective dynamics
Direct
  0.2499313828394550  0.0000978143084563  0.0982057716081360   T   T   T
  0.7498490903663266  0.0001085160031909  0.0987315342383740   T   T   T
  0.0000200365707694  0.2503570282849213  0.0980321178252377   T   T   T
  0.4998286122719541  0.2503515956181738  0.0984346646277842   T   T   T
  0.2499814541428375  0.5003022696907780  0.0977605856570574   T   T   T
  0.7498016032075989  0.5003103871349454  0.0981354969951860   T   T   T
 -0.0001601577662406  0.7500759253322385  0.0982650453495698   T   T   T
  0.4996531200023338  0.7499920344122479  0.0986698676061432   T   T   T
  0.0005379418291757  0.9998031339330529  0.1949886547064411   T   T   T
  0.4992138550860283  0.0000269080750556  0.1952210623114068   T   T   T
  0.2502125948013396  0.2506191275594787  0.1948461954381520   T   T   T
  0.7498206357831626  0.2512714143940579  0.1949787087697131   T   T   T
  0.0000998276563430  0.5005948036009876  0.1948387327928018   T   T   T
  0.4997536572350629  0.5003489605744152  0.1952528289905754   T   T   T
  0.2494239576120002  0.7497859341189808  0.1951878341363809   T   T   T
  0.7499482195937427  0.7491415744292240  0.1953483537004545   T   T   T
  0.2493236844599247  0.0000492081158679  0.2921846560688424   T   T   T
  0.7504868641650343  0.0000988936494725  0.2906376327441577   T   T   T
  0.0001453415554296  0.2524154426200176  0.2920993389803976   T   T   T
  0.5003407149874258  0.2509697326702713  0.2938089442135136   T   T   T
  0.2481715607495060  0.5004105882602290  0.2917572070082922   T   T   T
  0.7521962493661403  0.5003844870598387  0.2931489343184820   T   T   T
 -0.0005852000400330  0.7473387493430173  0.2946068028354530   T   T   T
  0.4994891933255503  0.7493983163632063  0.2942835181338747   T   T   T
  0.0130467714289067  0.0068657928991148  0.3887402650086457   T   T   T
  0.4848237428442182  0.9987734964746213  0.3900567022162945   T   T   T
  0.2474645302464317  0.2567453149077319  0.3896078876249024   T   T   T
  0.7566207900170070  0.2726337435029365  0.3905455422789698   T   T   T
  0.4927720049145515  0.5016814447371803  0.3891279693382244   T   T   T
  0.2385476071740318  0.7419793717059485  0.3902851719290014   T   T   T
  0.7588199801213362  0.7288965936628178  0.3911273547992193   T   T   T
  0.0326926651431792  0.4685731530375293  0.3760308313978622   T   T   T
  0.9994065050478942  0.0000758211085743  0.0990481045317870   T   T   T
  0.5004232976549203  0.0000851527424183  0.0994697351855063   T   T   T
  0.2502524280118317  0.2495996355844417  0.0987494775909859   T   T   T
  0.7496396011602834  0.2495927628463464  0.0992577453285198   T   T   T
  0.9993935728290773  0.5003772825575195  0.0983166463699376   T   T   T
  0.5003396859127758  0.5002483201249842  0.0988299342431251   T   T   T
  0.2499504156497515  0.7507613047138801  0.0989825628228912   T   T   T
  0.7495740692041225  0.7508368697718694  0.0995138666826796   T   T   T
  0.2501440000734974  0.0001089605098210  0.1947064846353413   T   T   T
  0.7496449763989350  0.0001926735464074  0.1960168617799055   T   T   T
  0.9996144999545177  0.2497527721433071  0.1936623228556678   T   T   T
  0.5004109587460528  0.2496087892926085  0.1946368837386989   T   T   T
  0.2500933801276850  0.5002880959710011  0.1934235482600804   T   T   T
  0.7496897050400336  0.5002262916317777  0.1945036065290549   T   T   T
  0.9993328733122154  0.7507223478312919  0.1943219943799963   T   T   T
  0.4999696511254102  0.7507479777380142  0.1949064207757249   T   T   T
  0.9970934011033415  0.0018769506423385  0.2933142452931108   T   T   T
  0.5029629622503907  0.9999971374569431  0.2949303733014179   T   T   T
  0.2507141654819992  0.2491401187916184  0.2927745821476661   T   T   T
  0.7500612233571442  0.2474702743707204  0.2947236221155048   T   T   T
  0.0006833325006987  0.4987939598823868  0.2914553508881721   T   T   T
  0.4990337209584817  0.5003130086627726  0.2924354886015428   T   T   T
  0.2488484779836031  0.7509452446711598  0.2934551679487967   T   T   T
  0.7500333815964453  0.7527461272528554  0.2950935167807272   T   T   T
  0.2496141351539485  0.0023160040754667  0.3886431344207494   T   T   T
  0.7486415767575749  0.0047341674947792  0.4082134890524567   T   T   T
  0.0013474111435444  0.2522945355517838  0.3863407426179095   T   T   T
  0.5001438943109802  0.2480242562196796  0.3894817774318801   T   T   T
  0.2468992585477710  0.4985675578704210  0.3857956252780619   T   T   T
  0.7318363173301254  0.5006797016262291  0.3871567786902315   T   T   T
  0.9962858560741720  0.7710532307080465  0.3882201269208030   T   T   T
  0.4977145537663141  0.7523971787249933  0.3896446557226279   T   T   T
  0.7497817240579419 -0.0001938640944574  0.4802778612399153   T   T   T
 
  0.00000000E+00  0.00000000E+00  0.00000000E+00
  0.00000000E+00  0.00000000E+00  0.00000000E+00
  0.00000000E+00  0.00000000E+00  0.00000000E+00
  0.00000000E+00  0.00000000E+00  0.00000000E+00
  0.00000000E+00  0.00000000E+00  0.00000000E+00
  0.00000000E+00  0.00000000E+00  0.00000000E+00
  0.00000000E+00  0.00000000E+00  0.00000000E+00
  0.00000000E+00  0.00000000E+00  0.00000000E+00
  0.00000000E+00  0.00000000E+00  0.00000000E+00
  0.00000000E+00  0.00000000E+00  0.00000000E+00
  0.00000000E+00  0.00000000E+00  0.00000000E+00
  0.00000000E+00  0.00000000E+00  0.00000000E+00
  0.00000000E+00  0.00000000E+00  0.00000000E+00
  0.00000000E+00  0.00000000E+00  0.00000000E+00
  0.00000000E+00  0.00000000E+00  0.00000000E+00
  0.00000000E+00  0.00000000E+00  0.00000000E+00
  0.00000000E+00  0.00000000E+00  0.00000000E+00
  0.00000000E+00  0.00000000E+00  0.00000000E+00
  0.00000000E+00  0.00000000E+00  0.00000000E+00
  0.00000000E+00  0.00000000E+00  0.00000000E+00
  0.00000000E+00  0.00000000E+00  0.00000000E+00
  0.00000000E+00  0.00000000E+00  0.00000000E+00
  0.00000000E+00  0.00000000E+00  0.00000000E+00
  0.00000000E+00  0.00000000E+00  0.00000000E+00
  0.00000000E+00  0.00000000E+00  0.00000000E+00
  0.00000000E+00  0.00000000E+00  0.00000000E+00
  0.00000000E+00  0.00000000E+00  0.00000000E+00
  0.00000000E+00  0.00000000E+00  0.00000000E+00
  0.00000000E+00  0.00000000E+00  0.00000000E+00
  0.00000000E+00  0.00000000E+00  0.00000000E+00
  0.00000000E+00  0.00000000E+00  0.00000000E+00
  0.00000000E+00  0.00000000E+00  0.00000000E+00
  0.00000000E+00  0.00000000E+00  0.00000000E+00
  0.00000000E+00  0.00000000E+00  0.00000000E+00
  0.00000000E+00  0.00000000E+00  0.00000000E+00
  0.00000000E+00  0.00000000E+00  0.00000000E+00
  0.00000000E+00  0.00000000E+00  0.00000000E+00
  0.00000000E+00  0.00000000E+00  0.00000000E+00
  0.00000000E+00  0.00000000E+00  0.00000000E+00
  0.00000000E+00  0.00000000E+00  0.00000000E+00
  0.00000000E+00  0.00000000E+00  0.00000000E+00
  0.00000000E+00  0.00000000E+00  0.00000000E+00
  0.00000000E+00  0.00000000E+00  0.00000000E+00
  0.00000000E+00  0.00000000E+00  0.00000000E+00
  0.00000000E+00  0.00000000E+00  0.00000000E+00
  0.00000000E+00  0.00000000E+00  0.00000000E+00
  0.00000000E+00  0.00000000E+00  0.00000000E+00
  0.00000000E+00  0.00000000E+00  0.00000000E+00
  0.00000000E+00  0.00000000E+00  0.00000000E+00
  0.00000000E+00  0.00000000E+00  0.00000000E+00
  0.00000000E+00  0.00000000E+00  0.00000000E+00
  0.00000000E+00  0.00000000E+00  0.00000000E+00
  0.00000000E+00  0.00000000E+00  0.00000000E+00
  0.00000000E+00  0.00000000E+00  0.00000000E+00
  0.00000000E+00  0.00000000E+00  0.00000000E+00
  0.00000000E+00  0.00000000E+00  0.00000000E+00
  0.00000000E+00  0.00000000E+00  0.00000000E+00
  0.00000000E+00  0.00000000E+00  0.00000000E+00
  0.00000000E+00  0.00000000E+00  0.00000000E+00
  0.00000000E+00  0.00000000E+00  0.00000000E+00
  0.00000000E+00  0.00000000E+00  0.00000000E+00
  0.00000000E+00  0.00000000E+00  0.00000000E+00
  0.00000000E+00  0.00000000E+00  0.00000000E+00
  0.00000000E+00  0.00000000E+00  0.00000000E+00
  0.00000000E+00  0.00000000E+00  0.00000000E+00
