Ca Li O Ru                              
   1.00000000000000     
     9.6048500000000008    0.0000000000000000    0.0000000000000000
     0.0000000000000000    9.6048500000000008    0.0000000000000000
     0.0000000000000000    0.0000000000000000   24.6048000000000009
   Ca   Li   O    Ru
    31     1    32     1
Selective dynamics
Direct
  0.2499134526120697  0.0000984771815690  0.0983325006083295   T   T   T
  0.7499219803824241  0.0001184787260719  0.0987943476449692   T   T   T
 -0.0002334094304880  0.2500766777873621  0.0983938367096771   T   T   T
  0.5000026871988353  0.2502476036417251  0.0985900047701558   T   T   T
  0.2499772427291386  0.5002012027499734  0.0980283147853847   T   T   T
  0.7497598646904723  0.5002331583671245  0.0983806494840236   T   T   T
  0.9997514849568724  0.7501550396144520  0.0985247238158698   T   T   T
  0.4999916891073264  0.7501472876695628  0.0987406666345403   T   T   T
  0.0004993477752257  0.9998085979618024  0.1953247539243122   T   T   T
  0.4992873257133070  0.0001205093523686  0.1954308009563649   T   T   T
  0.2502686880431219  0.2504618310698146  0.1951527289784900   T   T   T
  0.7497779456359275  0.2509942658775037  0.1953448670676170   T   T   T
 -0.0000241357674444  0.5004818403052356  0.1950766195034215   T   T   T
  0.4998373385175709  0.5001862767967286  0.1955048459443490   T   T   T
  0.2495888298550694  0.7498143417361464  0.1953596210740599   T   T   T
  0.7499850949380898  0.7493536547450416  0.1955698303032564   T   T   T
  0.2493093965030003  0.0000344080577167  0.2922438960394735   T   T   T
  0.7503379050105011  0.0001092809517767  0.2910580415601705   T   T   T
  0.9998885670642700  0.2521783485258545  0.2926002086313271   T   T   T
  0.5007184443943764  0.2502838915495773  0.2943589214853897   T   T   T
  0.2481793227026534  0.5003711186261435  0.2917207804976786   T   T   T
  0.7521049522144673  0.5003280783149845  0.2932213480468385   T   T   T
  0.9991092868847254  0.7478211790310096  0.2946684009092936   T   T   T
  0.4998544375894807  0.7496587472667061  0.2944445718136762   T   T   T
  0.0145782594243122  0.0058642173063983  0.3895254860886581   T   T   T
  0.4828600894840338  0.9984414439786827  0.3909825678530220   T   T   T
  0.2461719828743673  0.2572854687752536  0.3898241933431709   T   T   T
  0.7582307772769724  0.2739348772948754  0.3916439301719457   T   T   T
  0.4926838960055784  0.5011222533908907  0.3890953098498285   T   T   T
  0.2399026458874130  0.7417115109333680  0.3902452617535953   T   T   T
  0.7586431147535450  0.7277101075177789  0.3920424401161337   T   T   T
  0.0326955825373073  0.4743735055359796  0.3758927017626799   T   T   T
  0.9992957337057669 -0.0000176574944532  0.0992347069337545   T   T   T
  0.5005249566444236  0.0001958626288965  0.0995269064824785   T   T   T
  0.2502297783916070  0.2496108589465738  0.0989310568690241   T   T   T
  0.7495824680493589  0.2495282154135666  0.0995276623493724   T   T   T
  0.9993483924344102  0.5002312325223006  0.0986189976186728   T   T   T
  0.5003553295927483  0.5002306639954351  0.0989175473762859   T   T   T
  0.2500775176239444  0.7506595657255382  0.0990902869188653   T   T   T
  0.7497118827519488  0.7508181381005749  0.0996726045539525   T   T   T
  0.2501278800673531  0.0000787076523099  0.1949168263028239   T   T   T
  0.7496257332967772  0.0001532346679864  0.1962950332501568   T   T   T
  0.9994570477626403  0.2494618635424458  0.1940279986515643   T   T   T
  0.5005635077457693  0.2493793042799737  0.1949950672143619   T   T   T
  0.2501107644774219  0.5001968825561486  0.1936452789515370   T   T   T
  0.7495699696597128  0.5001871630782579  0.1947758768941226   T   T   T
  0.9992323110173793  0.7508819917613530  0.1946125180325430   T   T   T
  0.5003205894751569  0.7509374810793323  0.1950385805512264   T   T   T
  0.9970196813577223  0.0015158435677547  0.2937936774802778   T   T   T
  0.5027218725816874 -0.0000649959049631  0.2953553555988367   T   T   T
  0.2507150978719284  0.2491114649874747  0.2930124089785009   T   T   T
  0.7501617029207968  0.2473633314643029  0.2952707582989183   T   T   T
  0.0004201826295318  0.4993504603066072  0.2916565436304429   T   T   T
  0.4992191098100047  0.4999666138676243  0.2927290943744000   T   T   T
  0.2488265004579831  0.7509966814445264  0.2934537435211538   T   T   T
  0.7499155069182605  0.7528057166799079  0.2955161929244743   T   T   T
  0.2491632013531584  0.0017768727651322  0.3886237357953762   T   T   T
  0.7484930102443109  0.0030737256964913  0.4031018539491730   T   T   T
  0.0018243667969247  0.2513811620418004  0.3863140667745066   T   T   T
  0.4992490303371094  0.2480569844913561  0.3898313475470616   T   T   T
  0.2463282010246620  0.4988960784434449  0.3858110175909108   T   T   T
  0.7321327598556229  0.5006075284545423  0.3873042886094089   T   T   T
  0.9970671753035569  0.7685946273969742  0.3882607415190503   T   T   T
  0.4960877039360432  0.7513385894749099  0.3893431193990554   T   T   T
  0.7513186776447189  0.0008990286284339  0.4772457466380422   T   T   T
 
  0.00000000E+00  0.00000000E+00  0.00000000E+00
  0.00000000E+00  0.00000000E+00  0.00000000E+00
  0.00000000E+00  0.00000000E+00  0.00000000E+00
  0.00000000E+00  0.00000000E+00  0.00000000E+00
  0.00000000E+00  0.00000000E+00  0.00000000E+00
  0.00000000E+00  0.00000000E+00  0.00000000E+00
  0.00000000E+00  0.00000000E+00  0.00000000E+00
  0.00000000E+00  0.00000000E+00  0.00000000E+00
  0.00000000E+00  0.00000000E+00  0.00000000E+00
  0.00000000E+00  0.00000000E+00  0.00000000E+00
  0.00000000E+00  0.00000000E+00  0.00000000E+00
  0.00000000E+00  0.00000000E+00  0.00000000E+00
  0.00000000E+00  0.00000000E+00  0.00000000E+00
  0.00000000E+00  0.00000000E+00  0.00000000E+00
  0.00000000E+00  0.00000000E+00  0.00000000E+00
  0.00000000E+00  0.00000000E+00  0.00000000E+00
  0.00000000E+00  0.00000000E+00  0.00000000E+00
  0.00000000E+00  0.00000000E+00  0.00000000E+00
  0.00000000E+00  0.00000000E+00  0.00000000E+00
  0.00000000E+00  0.00000000E+00  0.00000000E+00
  0.00000000E+00  0.00000000E+00  0.00000000E+00
  0.00000000E+00  0.00000000E+00  0.00000000E+00
  0.00000000E+00  0.00000000E+00  0.00000000E+00
  0.00000000E+00  0.00000000E+00  0.00000000E+00
  0.00000000E+00  0.00000000E+00  0.00000000E+00
  0.00000000E+00  0.00000000E+00  0.00000000E+00
  0.00000000E+00  0.00000000E+00  0.00000000E+00
  0.00000000E+00  0.00000000E+00  0.00000000E+00
  0.00000000E+00  0.00000000E+00  0.00000000E+00
  0.00000000E+00  0.00000000E+00  0.00000000E+00
  0.00000000E+00  0.00000000E+00  0.00000000E+00
  0.00000000E+00  0.00000000E+00  0.00000000E+00
  0.00000000E+00  0.00000000E+00  0.00000000E+00
  0.00000000E+00  0.00000000E+00  0.00000000E+00
  0.00000000E+00  0.00000000E+00  0.00000000E+00
  0.00000000E+00  0.00000000E+00  0.00000000E+00
  0.00000000E+00  0.00000000E+00  0.00000000E+00
  0.00000000E+00  0.00000000E+00  0.00000000E+00
  0.00000000E+00  0.00000000E+00  0.00000000E+00
  0.00000000E+00  0.00000000E+00  0.00000000E+00
  0.00000000E+00  0.00000000E+00  0.00000000E+00
  0.00000000E+00  0.00000000E+00  0.00000000E+00
  0.00000000E+00  0.00000000E+00  0.00000000E+00
  0.00000000E+00  0.00000000E+00  0.00000000E+00
  0.00000000E+00  0.00000000E+00  0.00000000E+00
  0.00000000E+00  0.00000000E+00  0.00000000E+00
  0.00000000E+00  0.00000000E+00  0.00000000E+00
  0.00000000E+00  0.00000000E+00  0.00000000E+00
  0.00000000E+00  0.00000000E+00  0.00000000E+00
  0.00000000E+00  0.00000000E+00  0.00000000E+00
  0.00000000E+00  0.00000000E+00  0.00000000E+00
  0.00000000E+00  0.00000000E+00  0.00000000E+00
  0.00000000E+00  0.00000000E+00  0.00000000E+00
  0.00000000E+00  0.00000000E+00  0.00000000E+00
  0.00000000E+00  0.00000000E+00  0.00000000E+00
  0.00000000E+00  0.00000000E+00  0.00000000E+00
  0.00000000E+00  0.00000000E+00  0.00000000E+00
  0.00000000E+00  0.00000000E+00  0.00000000E+00
  0.00000000E+00  0.00000000E+00  0.00000000E+00
  0.00000000E+00  0.00000000E+00  0.00000000E+00
  0.00000000E+00  0.00000000E+00  0.00000000E+00
  0.00000000E+00  0.00000000E+00  0.00000000E+00
  0.00000000E+00  0.00000000E+00  0.00000000E+00
  0.00000000E+00  0.00000000E+00  0.00000000E+00
  0.00000000E+00  0.00000000E+00  0.00000000E+00
