Ca Li O Ir                              
   1.00000000000000     
     9.6048500000000008    0.0000000000000000    0.0000000000000000
     0.0000000000000000    9.6048500000000008    0.0000000000000000
     0.0000000000000000    0.0000000000000000   24.6048000000000009
   Ca   Li   O    Ir
    31     1    32     1
Selective dynamics
Direct
  0.2499190434207964  0.0000759447565746  0.0984810958577680   T   T   T
  0.7498678332222932  0.0000998236634328  0.0988716692905541   T   T   T
  0.0000341665914241  0.2503007349299439  0.0984249496206483   T   T   T
  0.4998215203956615  0.2503694447721699  0.0987189668694166   T   T   T
  0.2499999433934794  0.5002357030037028  0.0981576247075684   T   T   T
  0.7498636477729649  0.5002674599251812  0.0984703504194399   T   T   T
  0.9999797344153937  0.7499956977082973  0.0986034944955040   T   T   T
  0.4997680695928821  0.7499932410296496  0.0989042850954437   T   T   T
  0.0008328871779051  0.9998307404976686  0.1952906476100502   T   T   T
  0.4989382696189559  0.0000911196272170  0.1954646681111037   T   T   T
  0.2501107805668065  0.2505898260171003  0.1952994032875068   T   T   T
  0.7498124872078379  0.2515426411690251  0.1953256854994775   T   T   T
  0.0001289097895934  0.5003797606078961  0.1953051116180600   T   T   T
  0.4997873849118982  0.5003323002006973  0.1956585855029964   T   T   T
  0.2496619333309212  0.7497201288374831  0.1955531906598078   T   T   T
  0.7499918835900629  0.7488474750037319  0.1955923474258688   T   T   T
  0.2492116781507782  0.0000132130037207  0.2924021972138791   T   T   T
  0.7505281897130276  0.0000741243450581  0.2901188297586687   T   T   T
  0.9995197890263074  0.2518248383179092  0.2928224146937182   T   T   T
  0.5005723827316597  0.2505837434944281  0.2942849685356487   T   T   T
  0.2482536490829449  0.5003413469848301  0.2919514289259508   T   T   T
  0.7520514021542796  0.5004809805555733  0.2934784728976441   T   T   T
  0.9991970514844041  0.7477238709883184  0.2946700524694167   T   T   T
  0.5001402568911063  0.7499658557935323  0.2947149157962746   T   T   T
  0.0161992197991642  0.0052989523558810  0.3904609634919681   T   T   T
  0.4814747617053177  0.9993549786531960  0.3917242331073481   T   T   T
  0.2466287494944336  0.2579489908672093  0.3899272021264691   T   T   T
  0.7571646426551759  0.2751370715533182  0.3924277247161740   T   T   T
  0.4922057532138765  0.5015377777464886  0.3893058440609500   T   T   T
  0.2394800965544977  0.7409647720245196  0.3904205862705247   T   T   T
  0.7603843788643154  0.7267499879233662  0.3929885593184174   T   T   T
  0.0325635694605250  0.4727832162710756  0.3760150131734739   T   T   T
  0.9995043488957481  0.0000385316543214  0.0993164025432848   T   T   T
  0.5002997718588066  0.0001188036038298  0.0997109585038349   T   T   T
  0.2501530235053717  0.2497131398624819  0.0990416095984565   T   T   T
  0.7496825560172760  0.2497195874901366  0.0995781909596800   T   T   T
  0.9995534764553158  0.5002695777386649  0.0987009572070647   T   T   T
  0.5002905195855389  0.5002353943166994  0.0990867306225508   T   T   T
  0.2500321143370657  0.7505751534246371  0.0992302452624613   T   T   T
  0.7496987145420866  0.7506411536463600  0.0997670135790006   T   T   T
  0.2501128961847572  0.0000586743001296  0.1949727157717822   T   T   T
  0.7496406636996455  0.0001649371895503  0.1960309531538227   T   T   T
  0.9995278661841975  0.2496693504820299  0.1939781220805256   T   T   T
  0.5004271218446440  0.2495973026552326  0.1948081329144730   T   T   T
  0.2500876644873492  0.5002044825690020  0.1937788784516696   T   T   T
  0.7497432990482741  0.5002197586113504  0.1948339686494071   T   T   T
  0.9994100525582598  0.7506405237245115  0.1944664885584522   T   T   T
  0.5002348446962247  0.7508210046599578  0.1950274335517242   T   T   T
  0.9974487387097719  0.0015828890116439  0.2938261315926981   T   T   T
  0.5024556565544664  0.0000843878779740  0.2953567852605496   T   T   T
  0.2502631239340548  0.2491885852403294  0.2930687008734854   T   T   T
  0.7500450932987935  0.2477896713839907  0.2952072443904471   T   T   T
  0.0005103956103615  0.4988686716229803  0.2919046555748367   T   T   T
  0.4990181656202191  0.5004514992191886  0.2927308196674454   T   T   T
  0.2490667892027372  0.7508514629619103  0.2935838041229136   T   T   T
  0.7501763763301141  0.7524950933953467  0.2954817392118303   T   T   T
  0.2494769717594529  0.0020770520184459  0.3891282524113988   T   T   T
  0.7484179321405645  0.0023429017381799  0.3966888739191998   T   T   T
  0.0011815822365046  0.2512741925301937  0.3865691050877831   T   T   T
  0.4982109343454832  0.2492500887356834  0.3891012739017269   T   T   T
  0.2465273500481301  0.4988632632822193  0.3862282765334707   T   T   T
  0.7319390451777434  0.5008789420259271  0.3877701046597700   T   T   T
  0.9979672828178335  0.7684732182600374  0.3877002759976937   T   T   T
  0.4964602660067721  0.7520016992796217  0.3894879734590089   T   T   T
  0.7501886406397191  0.0021656473612498  0.4692506471108118   T   T   T
 
  0.00000000E+00  0.00000000E+00  0.00000000E+00
  0.00000000E+00  0.00000000E+00  0.00000000E+00
  0.00000000E+00  0.00000000E+00  0.00000000E+00
  0.00000000E+00  0.00000000E+00  0.00000000E+00
  0.00000000E+00  0.00000000E+00  0.00000000E+00
  0.00000000E+00  0.00000000E+00  0.00000000E+00
  0.00000000E+00  0.00000000E+00  0.00000000E+00
  0.00000000E+00  0.00000000E+00  0.00000000E+00
  0.00000000E+00  0.00000000E+00  0.00000000E+00
  0.00000000E+00  0.00000000E+00  0.00000000E+00
  0.00000000E+00  0.00000000E+00  0.00000000E+00
  0.00000000E+00  0.00000000E+00  0.00000000E+00
  0.00000000E+00  0.00000000E+00  0.00000000E+00
  0.00000000E+00  0.00000000E+00  0.00000000E+00
  0.00000000E+00  0.00000000E+00  0.00000000E+00
  0.00000000E+00  0.00000000E+00  0.00000000E+00
  0.00000000E+00  0.00000000E+00  0.00000000E+00
  0.00000000E+00  0.00000000E+00  0.00000000E+00
  0.00000000E+00  0.00000000E+00  0.00000000E+00
  0.00000000E+00  0.00000000E+00  0.00000000E+00
  0.00000000E+00  0.00000000E+00  0.00000000E+00
  0.00000000E+00  0.00000000E+00  0.00000000E+00
  0.00000000E+00  0.00000000E+00  0.00000000E+00
  0.00000000E+00  0.00000000E+00  0.00000000E+00
  0.00000000E+00  0.00000000E+00  0.00000000E+00
  0.00000000E+00  0.00000000E+00  0.00000000E+00
  0.00000000E+00  0.00000000E+00  0.00000000E+00
  0.00000000E+00  0.00000000E+00  0.00000000E+00
  0.00000000E+00  0.00000000E+00  0.00000000E+00
  0.00000000E+00  0.00000000E+00  0.00000000E+00
  0.00000000E+00  0.00000000E+00  0.00000000E+00
  0.00000000E+00  0.00000000E+00  0.00000000E+00
  0.00000000E+00  0.00000000E+00  0.00000000E+00
  0.00000000E+00  0.00000000E+00  0.00000000E+00
  0.00000000E+00  0.00000000E+00  0.00000000E+00
  0.00000000E+00  0.00000000E+00  0.00000000E+00
  0.00000000E+00  0.00000000E+00  0.00000000E+00
  0.00000000E+00  0.00000000E+00  0.00000000E+00
  0.00000000E+00  0.00000000E+00  0.00000000E+00
  0.00000000E+00  0.00000000E+00  0.00000000E+00
  0.00000000E+00  0.00000000E+00  0.00000000E+00
  0.00000000E+00  0.00000000E+00  0.00000000E+00
  0.00000000E+00  0.00000000E+00  0.00000000E+00
  0.00000000E+00  0.00000000E+00  0.00000000E+00
  0.00000000E+00  0.00000000E+00  0.00000000E+00
  0.00000000E+00  0.00000000E+00  0.00000000E+00
  0.00000000E+00  0.00000000E+00  0.00000000E+00
  0.00000000E+00  0.00000000E+00  0.00000000E+00
  0.00000000E+00  0.00000000E+00  0.00000000E+00
  0.00000000E+00  0.00000000E+00  0.00000000E+00
  0.00000000E+00  0.00000000E+00  0.00000000E+00
  0.00000000E+00  0.00000000E+00  0.00000000E+00
  0.00000000E+00  0.00000000E+00  0.00000000E+00
  0.00000000E+00  0.00000000E+00  0.00000000E+00
  0.00000000E+00  0.00000000E+00  0.00000000E+00
  0.00000000E+00  0.00000000E+00  0.00000000E+00
  0.00000000E+00  0.00000000E+00  0.00000000E+00
  0.00000000E+00  0.00000000E+00  0.00000000E+00
  0.00000000E+00  0.00000000E+00  0.00000000E+00
  0.00000000E+00  0.00000000E+00  0.00000000E+00
  0.00000000E+00  0.00000000E+00  0.00000000E+00
  0.00000000E+00  0.00000000E+00  0.00000000E+00
  0.00000000E+00  0.00000000E+00  0.00000000E+00
  0.00000000E+00  0.00000000E+00  0.00000000E+00
  0.00000000E+00  0.00000000E+00  0.00000000E+00
