Ca Li O Fe                              
   1.00000000000000     
     9.6048500000000008    0.0000000000000000    0.0000000000000000
     0.0000000000000000    9.6048500000000008    0.0000000000000000
     0.0000000000000000    0.0000000000000000   24.6048000000000009
   Ca   Li   O    Fe
    31     1    32     1
Selective dynamics
Direct
  0.2499788893565412  0.0001315318974699  0.0984490033404662   T   T   T
  0.7499212817991981  0.0001355691677051  0.0988117552445145   T   T   T
  0.0000648492556873  0.2503238518884612  0.0984036798800967   T   T   T
  0.4999011118811653  0.2503840423682998  0.0986883868918971   T   T   T
  0.2500031896775906  0.5003032263541169  0.0981462588097992   T   T   T
  0.7498547943069528  0.5003242653766868  0.0984419962716943   T   T   T
  0.0000035507344947  0.7500969578109742  0.0985860771948013   T   T   T
  0.4998444344506935  0.7500850871498028  0.0989078086225178   T   T   T
  0.0005828447534026  0.9999609795954302  0.1952657500494552   T   T   T
  0.4993018012989527  0.0001218789467153  0.1954831230803499   T   T   T
  0.2501222219527323  0.2506807929179594  0.1951789479972626   T   T   T
  0.7499088143925439  0.2512337312537879  0.1953081515628423   T   T   T
  0.0001336877765974  0.5004027016064609  0.1951229373216401   T   T   T
  0.4997604855906831  0.5004172024747640  0.1955494686581172   T   T   T
  0.2497338197041748  0.7497891382962413  0.1954740349501913   T   T   T
  0.7500053511142136  0.7492509912324885  0.1955924462317589   T   T   T
  0.2493243415815682  0.0000445912375405  0.2923277244532621   T   T   T
  0.7504243726752098  0.0000895308889394  0.2910994279852369   T   T   T
 -0.0000183757233338  0.2523668778657137  0.2926119388761588   T   T   T
  0.5002066548913416  0.2509675359861534  0.2940109522789481   T   T   T
  0.2482743536065393  0.5004036913459154  0.2920106862699011   T   T   T
  0.7521714510541625  0.5004556833622498  0.2932790828030466   T   T   T
  0.9996936506186210  0.7472906904768919  0.2946039323253333   T   T   T
  0.4998182317332278  0.7496757746246226  0.2945686297962588   T   T   T
  0.0130867927477969  0.0057729253202516  0.3888167566083393   T   T   T
  0.4842652182029047  0.9992316751547420  0.3901704200694052   T   T   T
  0.2467522730654090  0.2568202223634724  0.3899270807723187   T   T   T
  0.7565424697925729  0.2725387907750140  0.3907340283511739   T   T   T
  0.4927182211341157  0.5016563444971595  0.3893078856351513   T   T   T
  0.2392684308409399  0.7419638100782693  0.3905242979720611   T   T   T
  0.7598131956694135  0.7286494506798414  0.3912063809137630   T   T   T
  0.0326641602829458  0.4716721470366797  0.3762945494456159   T   T   T
  0.9995753240359166  0.0000742864612909  0.0992749246908347   T   T   T
  0.5003303298336592  0.0001773550737255  0.0997114343692694   T   T   T
  0.2502462278596137  0.2498082330350350  0.0990641438115302   T   T   T
  0.7496862596142041  0.2497519157292589  0.0995773203386049   T   T   T
  0.9996399475639131  0.5003550688272963  0.0986894040674603   T   T   T
  0.5002290203887697  0.5003020795500490  0.0990958107332567   T   T   T
  0.2500839771409945  0.7505923339134311  0.0992782716025512   T   T   T
  0.7497400909950345  0.7506793441224698  0.0997996225524896   T   T   T
  0.2502242381427408  0.0001294818972359  0.1948689291875157   T   T   T
  0.7496485656356713  0.0001683962680263  0.1961631033080384   T   T   T
  0.9996599225690871  0.2498165229158059  0.1940455195567092   T   T   T
  0.5004163381241826  0.2497101790666348  0.1949413600853416   T   T   T
  0.2500881335032747  0.5003010019737126  0.1937461309646892   T   T   T
  0.7496338943686437  0.5003142081458672  0.1947021118145732   T   T   T
  0.9995151507462952  0.7506754409129015  0.1945912858798771   T   T   T
  0.5002172655386259  0.7508195562176400  0.1952166611565826   T   T   T
  0.9973935927798836  0.0017105876923176  0.2934134724022478   T   T   T
  0.5025308905597329  0.0000797596640120  0.2950139246825178   T   T   T
  0.2504199011924220  0.2493655517606185  0.2929925009548489   T   T   T
  0.7500482584865524  0.2477204560265591  0.2948771091956591   T   T   T
  0.0005824384463565  0.4988198314156171  0.2917222012925881   T   T   T
  0.4989251980083438  0.5005384959931857  0.2926650647166775   T   T   T
  0.2491695583251491  0.7508650179096440  0.2935689882880217   T   T   T
  0.7502715212886416  0.7525506176154833  0.2952083647523161   T   T   T
  0.2493536985481259  0.0023639864554237  0.3886651567540588   T   T   T
  0.7480893651722894  0.0036463269969472  0.4017086124391710   T   T   T
  0.0008660088710672  0.2513249190097344  0.3868083844035839   T   T   T
  0.4988412029522846  0.2489020339584456  0.3896771905787926   T   T   T
  0.2467375382280828  0.4986907735901934  0.3862368752244633   T   T   T
  0.7319299036204248  0.5005747704127140  0.3872491405218182   T   T   T
  0.9975433649426986  0.7689483879269926  0.3883042539317962   T   T   T
  0.4972449539098832  0.7522922342034956  0.3901101713543924   T   T   T
  0.7488386927023228 -0.0005284402705848  0.4713579015353733   T   T   T
 
  0.00000000E+00  0.00000000E+00  0.00000000E+00
  0.00000000E+00  0.00000000E+00  0.00000000E+00
  0.00000000E+00  0.00000000E+00  0.00000000E+00
  0.00000000E+00  0.00000000E+00  0.00000000E+00
  0.00000000E+00  0.00000000E+00  0.00000000E+00
  0.00000000E+00  0.00000000E+00  0.00000000E+00
  0.00000000E+00  0.00000000E+00  0.00000000E+00
  0.00000000E+00  0.00000000E+00  0.00000000E+00
  0.00000000E+00  0.00000000E+00  0.00000000E+00
  0.00000000E+00  0.00000000E+00  0.00000000E+00
  0.00000000E+00  0.00000000E+00  0.00000000E+00
  0.00000000E+00  0.00000000E+00  0.00000000E+00
  0.00000000E+00  0.00000000E+00  0.00000000E+00
  0.00000000E+00  0.00000000E+00  0.00000000E+00
  0.00000000E+00  0.00000000E+00  0.00000000E+00
  0.00000000E+00  0.00000000E+00  0.00000000E+00
  0.00000000E+00  0.00000000E+00  0.00000000E+00
  0.00000000E+00  0.00000000E+00  0.00000000E+00
  0.00000000E+00  0.00000000E+00  0.00000000E+00
  0.00000000E+00  0.00000000E+00  0.00000000E+00
  0.00000000E+00  0.00000000E+00  0.00000000E+00
  0.00000000E+00  0.00000000E+00  0.00000000E+00
  0.00000000E+00  0.00000000E+00  0.00000000E+00
  0.00000000E+00  0.00000000E+00  0.00000000E+00
  0.00000000E+00  0.00000000E+00  0.00000000E+00
  0.00000000E+00  0.00000000E+00  0.00000000E+00
  0.00000000E+00  0.00000000E+00  0.00000000E+00
  0.00000000E+00  0.00000000E+00  0.00000000E+00
  0.00000000E+00  0.00000000E+00  0.00000000E+00
  0.00000000E+00  0.00000000E+00  0.00000000E+00
  0.00000000E+00  0.00000000E+00  0.00000000E+00
  0.00000000E+00  0.00000000E+00  0.00000000E+00
  0.00000000E+00  0.00000000E+00  0.00000000E+00
  0.00000000E+00  0.00000000E+00  0.00000000E+00
  0.00000000E+00  0.00000000E+00  0.00000000E+00
  0.00000000E+00  0.00000000E+00  0.00000000E+00
  0.00000000E+00  0.00000000E+00  0.00000000E+00
  0.00000000E+00  0.00000000E+00  0.00000000E+00
  0.00000000E+00  0.00000000E+00  0.00000000E+00
  0.00000000E+00  0.00000000E+00  0.00000000E+00
  0.00000000E+00  0.00000000E+00  0.00000000E+00
  0.00000000E+00  0.00000000E+00  0.00000000E+00
  0.00000000E+00  0.00000000E+00  0.00000000E+00
  0.00000000E+00  0.00000000E+00  0.00000000E+00
  0.00000000E+00  0.00000000E+00  0.00000000E+00
  0.00000000E+00  0.00000000E+00  0.00000000E+00
  0.00000000E+00  0.00000000E+00  0.00000000E+00
  0.00000000E+00  0.00000000E+00  0.00000000E+00
  0.00000000E+00  0.00000000E+00  0.00000000E+00
  0.00000000E+00  0.00000000E+00  0.00000000E+00
  0.00000000E+00  0.00000000E+00  0.00000000E+00
  0.00000000E+00  0.00000000E+00  0.00000000E+00
  0.00000000E+00  0.00000000E+00  0.00000000E+00
  0.00000000E+00  0.00000000E+00  0.00000000E+00
  0.00000000E+00  0.00000000E+00  0.00000000E+00
  0.00000000E+00  0.00000000E+00  0.00000000E+00
  0.00000000E+00  0.00000000E+00  0.00000000E+00
  0.00000000E+00  0.00000000E+00  0.00000000E+00
  0.00000000E+00  0.00000000E+00  0.00000000E+00
  0.00000000E+00  0.00000000E+00  0.00000000E+00
  0.00000000E+00  0.00000000E+00  0.00000000E+00
  0.00000000E+00  0.00000000E+00  0.00000000E+00
  0.00000000E+00  0.00000000E+00  0.00000000E+00
  0.00000000E+00  0.00000000E+00  0.00000000E+00
  0.00000000E+00  0.00000000E+00  0.00000000E+00
