Ca Li O Rh                              
   1.00000000000000     
     9.6048500000000008    0.0000000000000000    0.0000000000000000
     0.0000000000000000    9.6048500000000008    0.0000000000000000
     0.0000000000000000    0.0000000000000000   24.6048000000000009
   Ca   Li   O    Rh
    31     1    32     1
Selective dynamics
Direct
  0.2499433036929101  0.0001017688719771  0.0983413695862983   T   T   T
  0.7499955225403969  0.0001281249794130  0.0988710972596639   T   T   T
 -0.0001111126590622  0.2501888955324951  0.0983988752482493   T   T   T
  0.5000501848507319  0.2503016866117851  0.0986289332332340   T   T   T
  0.2500028222544156  0.5002114756229694  0.0981097090161437   T   T   T
  0.7498775392967105  0.5002531703946096  0.0984701196261079   T   T   T
 -0.0001681379455375  0.7501179337755532  0.0985364825761011   T   T   T
  0.4999832524619641  0.7500847105452000  0.0987704162180403   T   T   T
  0.0003912539338862 -0.0000955688992849  0.1954071345593436   T   T   T
  0.4994366430201519  0.0000960104984448  0.1954659363520301   T   T   T
  0.2501421796389787  0.2504239019515103  0.1952066624142377   T   T   T
  0.7500094608191236  0.2509828388735282  0.1954850311776852   T   T   T
  0.0000748118862119  0.5003678092920082  0.1952782789725808   T   T   T
  0.5000114131723903  0.5002643709463552  0.1956161050918446   T   T   T
  0.2496403673607703  0.7498418650990445  0.1954014935835159   T   T   T
  0.7500785650229832  0.7494080724198994  0.1956945676141036   T   T   T
  0.2491619016290428 -0.0000211039350686  0.2923182679440415   T   T   T
  0.7505146999338178  0.0000957258730923  0.2912921685904507   T   T   T
 -0.0001021476328298  0.2521993015199324  0.2930450813573097   T   T   T
  0.5005473546737027  0.2505923783574686  0.2942196104725092   T   T   T
  0.2483781829390962  0.5003004119190733  0.2918205062762281   T   T   T
  0.7522255441726099  0.5003927131507808  0.2936866640768380   T   T   T
 -0.0005613363092271  0.7474935406056616  0.2947253929014276   T   T   T
  0.4999426194751623  0.7497155211399690  0.2945394682764362   T   T   T
  0.0136941339081961  0.0049500063357448  0.3900401614972269   T   T   T
  0.4837854604693251 -0.0007211508773369  0.3910695880938904   T   T   T
  0.2467715399770049  0.2562275852248426  0.3899712027899552   T   T   T
  0.7567243810765092  0.2732951872027924  0.3920954989235468   T   T   T
  0.4919967720224636  0.5012193653464261  0.3893599150465986   T   T   T
  0.2400524557971092  0.7424474882785769  0.3903483804444325   T   T   T
  0.7594053346052682  0.7284205010104242  0.3925180504635190   T   T   T
  0.0348072427536704  0.4740437386177664  0.3765698794948779   T   T   T
  0.9994052107420031  0.0000618844725475  0.0992535086522108   T   T   T
  0.5005266719696049  0.0001424805938255  0.0995292170429666   T   T   T
  0.2502755154370435  0.2495918984469385  0.0989367639944223   T   T   T
  0.7496901964378987  0.2496273254419185  0.0995628371592332   T   T   T
  0.9994696662415073  0.5002471909106736  0.0986953899871159   T   T   T
  0.5004364305190190  0.5002442156361868  0.0989743977016597   T   T   T
  0.2501646633918264  0.7506423290200981  0.0990613196394444   T   T   T
  0.7497174281116805  0.7507373560880791  0.0997188876273187   T   T   T
  0.2501263173159612  0.0000695066412602  0.1948808144543486   T   T   T
  0.7497317800480698  0.0001733479550530  0.1961876571173899   T   T   T
  0.9995460011125455  0.2495575120946119  0.1941042485014358   T   T   T
  0.5006287223672284  0.2494295735717378  0.1948357965172620   T   T   T
  0.2501629307343270  0.5001648326990346  0.1937186906485931   T   T   T
  0.7497806837422670  0.5001744568454888  0.1949471712840511   T   T   T
  0.9993392490001891  0.7508336394600575  0.1945133169402535   T   T   T
  0.5003558647749278  0.7509466409209778  0.1949964889655068   T   T   T
  0.9973312845053754  0.0015447251262175  0.2938749719936954   T   T   T
  0.5024684875818560 -0.0000378892555240  0.2952512026365992   T   T   T
  0.2504541259032553  0.2490238598234422  0.2930693451687528   T   T   T
  0.7501531659373637  0.2480313345433269  0.2954330318597450   T   T   T
  0.0008699219993939  0.4990263889063365  0.2919241319018249   T   T   T
  0.4992933727261406  0.5003333912768169  0.2928059148545011   T   T   T
  0.2491215965434899  0.7509586175745806  0.2934945047539969   T   T   T
  0.7500101383633446  0.7522168475384134  0.2956373770687494   T   T   T
  0.2492262533379591  0.0017953382270587  0.3889775522575075   T   T   T
  0.7488419868007449  0.0023863039888188  0.3991019321620958   T   T   T
  0.0014901683300561  0.2508295896972343  0.3869623437538685   T   T   T
  0.4979365098438046  0.2487959352004572  0.3892969980575673   T   T   T
  0.2466649127802701  0.4987289848462260  0.3862059568690579   T   T   T
  0.7310292756479585  0.5007082285817701  0.3881447234950581   T   T   T
  0.9980318366606716  0.7679156339872342  0.3879601392407754   T   T   T
  0.4958333303894136  0.7519592894195838  0.3895876579501678   T   T   T
  0.7475558231698254  0.0017418563358702  0.4736214742723552   T   T   T
 
  0.00000000E+00  0.00000000E+00  0.00000000E+00
  0.00000000E+00  0.00000000E+00  0.00000000E+00
  0.00000000E+00  0.00000000E+00  0.00000000E+00
  0.00000000E+00  0.00000000E+00  0.00000000E+00
  0.00000000E+00  0.00000000E+00  0.00000000E+00
  0.00000000E+00  0.00000000E+00  0.00000000E+00
  0.00000000E+00  0.00000000E+00  0.00000000E+00
  0.00000000E+00  0.00000000E+00  0.00000000E+00
  0.00000000E+00  0.00000000E+00  0.00000000E+00
  0.00000000E+00  0.00000000E+00  0.00000000E+00
  0.00000000E+00  0.00000000E+00  0.00000000E+00
  0.00000000E+00  0.00000000E+00  0.00000000E+00
  0.00000000E+00  0.00000000E+00  0.00000000E+00
  0.00000000E+00  0.00000000E+00  0.00000000E+00
  0.00000000E+00  0.00000000E+00  0.00000000E+00
  0.00000000E+00  0.00000000E+00  0.00000000E+00
  0.00000000E+00  0.00000000E+00  0.00000000E+00
  0.00000000E+00  0.00000000E+00  0.00000000E+00
  0.00000000E+00  0.00000000E+00  0.00000000E+00
  0.00000000E+00  0.00000000E+00  0.00000000E+00
  0.00000000E+00  0.00000000E+00  0.00000000E+00
  0.00000000E+00  0.00000000E+00  0.00000000E+00
  0.00000000E+00  0.00000000E+00  0.00000000E+00
  0.00000000E+00  0.00000000E+00  0.00000000E+00
  0.00000000E+00  0.00000000E+00  0.00000000E+00
  0.00000000E+00  0.00000000E+00  0.00000000E+00
  0.00000000E+00  0.00000000E+00  0.00000000E+00
  0.00000000E+00  0.00000000E+00  0.00000000E+00
  0.00000000E+00  0.00000000E+00  0.00000000E+00
  0.00000000E+00  0.00000000E+00  0.00000000E+00
  0.00000000E+00  0.00000000E+00  0.00000000E+00
  0.00000000E+00  0.00000000E+00  0.00000000E+00
  0.00000000E+00  0.00000000E+00  0.00000000E+00
  0.00000000E+00  0.00000000E+00  0.00000000E+00
  0.00000000E+00  0.00000000E+00  0.00000000E+00
  0.00000000E+00  0.00000000E+00  0.00000000E+00
  0.00000000E+00  0.00000000E+00  0.00000000E+00
  0.00000000E+00  0.00000000E+00  0.00000000E+00
  0.00000000E+00  0.00000000E+00  0.00000000E+00
  0.00000000E+00  0.00000000E+00  0.00000000E+00
  0.00000000E+00  0.00000000E+00  0.00000000E+00
  0.00000000E+00  0.00000000E+00  0.00000000E+00
  0.00000000E+00  0.00000000E+00  0.00000000E+00
  0.00000000E+00  0.00000000E+00  0.00000000E+00
  0.00000000E+00  0.00000000E+00  0.00000000E+00
  0.00000000E+00  0.00000000E+00  0.00000000E+00
  0.00000000E+00  0.00000000E+00  0.00000000E+00
  0.00000000E+00  0.00000000E+00  0.00000000E+00
  0.00000000E+00  0.00000000E+00  0.00000000E+00
  0.00000000E+00  0.00000000E+00  0.00000000E+00
  0.00000000E+00  0.00000000E+00  0.00000000E+00
  0.00000000E+00  0.00000000E+00  0.00000000E+00
  0.00000000E+00  0.00000000E+00  0.00000000E+00
  0.00000000E+00  0.00000000E+00  0.00000000E+00
  0.00000000E+00  0.00000000E+00  0.00000000E+00
  0.00000000E+00  0.00000000E+00  0.00000000E+00
  0.00000000E+00  0.00000000E+00  0.00000000E+00
  0.00000000E+00  0.00000000E+00  0.00000000E+00
  0.00000000E+00  0.00000000E+00  0.00000000E+00
  0.00000000E+00  0.00000000E+00  0.00000000E+00
  0.00000000E+00  0.00000000E+00  0.00000000E+00
  0.00000000E+00  0.00000000E+00  0.00000000E+00
  0.00000000E+00  0.00000000E+00  0.00000000E+00
  0.00000000E+00  0.00000000E+00  0.00000000E+00
  0.00000000E+00  0.00000000E+00  0.00000000E+00
