Ca Li O Ru                              
   1.00000000000000     
     9.6048500000000008    0.0000000000000000    0.0000000000000000
     0.0000000000000000    9.6048500000000008    0.0000000000000000
     0.0000000000000000    0.0000000000000000   24.6048000000000009
   Ca   Li   O    Ru
    31     1    32     1
Selective dynamics
Direct
  0.2499532414256313  0.0000965928107135  0.0984348468770334   T   T   T
  0.7498271861339667  0.0000796247836767  0.0987834644249252   T   T   T
 -0.0000610616904905  0.2501770186266062  0.0983348987003829   T   T   T
  0.4999697406530748  0.2501673212763240  0.0986206199600716   T   T   T
  0.2499915457003744  0.5002470360726718  0.0980846835921918   T   T   T
  0.7497285241508462  0.5002804502459607  0.0984361538589790   T   T   T
 -0.0002264363330168  0.7502170977721264  0.0985522493336230   T   T   T
  0.4998123656437126  0.7501050649846944  0.0988486256268935   T   T   T
  0.0005427486502927  0.9998757201431717  0.1952328488627824   T   T   T
  0.4992228692881312  0.0000026178626697  0.1954408340002764   T   T   T
  0.2502271143388333  0.2505143259096644  0.1951058566929608   T   T   T
  0.7498924564272809  0.2512730414612841  0.1952643327238656   T   T   T
 -0.0000498353637429  0.5005612367386639  0.1951101462959685   T   T   T
  0.4998530561041958  0.5002060376418083  0.1955161140814048   T   T   T
  0.2493833450889154  0.7498239725951604  0.1953997865394769   T   T   T
  0.7499017595829057  0.7491379425005864  0.1955899138445333   T   T   T
  0.2493391738417497  0.0000282140327323  0.2921332040086996   T   T   T
  0.7504325229429913  0.0001618892519999  0.2910531333717622   T   T   T
 -0.0000191198380535  0.2521609253264532  0.2923525662783754   T   T   T
  0.5007613311139955  0.2504091562194466  0.2941077836763589   T   T   T
  0.2483382624720872  0.5003419545834527  0.2918091176587651   T   T   T
  0.7520719349475877  0.5004381896521914  0.2931309684179118   T   T   T
  0.9990018486299558  0.7478828945753334  0.2947321859257515   T   T   T
  0.4996358956174849  0.7495289857483689  0.2944060320070152   T   T   T
  0.0149671301467993  0.0071056401063514  0.3892479253595759   T   T   T
  0.4828679543150909  0.9980999818941096  0.3906234938657506   T   T   T
  0.2472097578714071  0.2570617162179263  0.3898734921396842   T   T   T
  0.7578622417986302  0.2745054721766066  0.3912386514041292   T   T   T
  0.4923053477546437  0.5014837794346642  0.3892748738267671   T   T   T
  0.2392167139126341  0.7416848956215403  0.3904379955682978   T   T   T
  0.7583784548554968  0.7276754445153111  0.3918110042714653   T   T   T
  0.0332707719285695  0.4700978582362976  0.3759658317475356   T   T   T
  0.9995223182248167  0.0000218738103440  0.0992801508825343   T   T   T
  0.5003049208893107  0.0000742715336638  0.0997169452743298   T   T   T
  0.2502446299292748  0.2497109673114776  0.0990042262649109   T   T   T
  0.7496671781773557  0.2497159716035605  0.0995421150869448   T   T   T
  0.9994786740674629  0.5003659404074076  0.0986095881748242   T   T   T
  0.5002264477705172  0.5001990995757909  0.0990477192685862   T   T   T
  0.2499549793654181  0.7505989885971356  0.0992202857851258   T   T   T
  0.7496460350068923  0.7506443024490067  0.0997825871107240   T   T   T
  0.2501537661518441  0.0001081743383036  0.1949064408932940   T   T   T
  0.7496125886665119  0.0001678536457531  0.1961932427302810   T   T   T
  0.9996557294114052  0.2497465661090085  0.1939349862117565   T   T   T
  0.5005312685125697  0.2494691073386641  0.1949110180355010   T   T   T
  0.2500517812760262  0.5002301672750674  0.1936652756721794   T   T   T
  0.7495661533147215  0.5002310836725672  0.1947234405141763   T   T   T
  0.9992346375034803  0.7508169664182087  0.1946442415646839   T   T   T
  0.5000030356118135  0.7507143499748287  0.1951118823611698   T   T   T
  0.9976035732373590  0.0018632155831151  0.2935281297445380   T   T   T
  0.5024083389807963  0.9997714525988948  0.2951014708860106   T   T   T
  0.2507953449646201  0.2491206723066387  0.2930242118459404   T   T   T
  0.7502798188570544  0.2479748003241441  0.2949503401195766   T   T   T
  0.0005823532521707  0.4991499762280611  0.2917472231400109   T   T   T
  0.4989765138120316  0.5000553861774664  0.2926939938203158   T   T   T
  0.2484377556174354  0.7509699163509923  0.2936563588894919   T   T   T
  0.7498888738844920  0.7523498535267578  0.2953192393361274   T   T   T
  0.2493928337348012  0.0021950161745309  0.3887237361992582   T   T   T
  0.7483697135706850  0.0037669350770931  0.4000580228873248   T   T   T
  0.0020948718578524  0.2525150827472626  0.3861438934843809   T   T   T
  0.4995050997083803  0.2480110319390509  0.3897298505980700   T   T   T
  0.2468114716058482  0.4985928047549679  0.3860123369367102   T   T   T
  0.7315215908665285  0.5008639806114656  0.3873094997948454   T   T   T
  0.9964633998956346  0.7704088648038195  0.3884436142393879   T   T   T
  0.4957270932780391  0.7513930869496404  0.3893844051636848   T   T   T
  0.7515257111988513  0.0015325452687348  0.4741748399510771   T   T   T
 
  0.00000000E+00  0.00000000E+00  0.00000000E+00
  0.00000000E+00  0.00000000E+00  0.00000000E+00
  0.00000000E+00  0.00000000E+00  0.00000000E+00
  0.00000000E+00  0.00000000E+00  0.00000000E+00
  0.00000000E+00  0.00000000E+00  0.00000000E+00
  0.00000000E+00  0.00000000E+00  0.00000000E+00
  0.00000000E+00  0.00000000E+00  0.00000000E+00
  0.00000000E+00  0.00000000E+00  0.00000000E+00
  0.00000000E+00  0.00000000E+00  0.00000000E+00
  0.00000000E+00  0.00000000E+00  0.00000000E+00
  0.00000000E+00  0.00000000E+00  0.00000000E+00
  0.00000000E+00  0.00000000E+00  0.00000000E+00
  0.00000000E+00  0.00000000E+00  0.00000000E+00
  0.00000000E+00  0.00000000E+00  0.00000000E+00
  0.00000000E+00  0.00000000E+00  0.00000000E+00
  0.00000000E+00  0.00000000E+00  0.00000000E+00
  0.00000000E+00  0.00000000E+00  0.00000000E+00
  0.00000000E+00  0.00000000E+00  0.00000000E+00
  0.00000000E+00  0.00000000E+00  0.00000000E+00
  0.00000000E+00  0.00000000E+00  0.00000000E+00
  0.00000000E+00  0.00000000E+00  0.00000000E+00
  0.00000000E+00  0.00000000E+00  0.00000000E+00
  0.00000000E+00  0.00000000E+00  0.00000000E+00
  0.00000000E+00  0.00000000E+00  0.00000000E+00
  0.00000000E+00  0.00000000E+00  0.00000000E+00
  0.00000000E+00  0.00000000E+00  0.00000000E+00
  0.00000000E+00  0.00000000E+00  0.00000000E+00
  0.00000000E+00  0.00000000E+00  0.00000000E+00
  0.00000000E+00  0.00000000E+00  0.00000000E+00
  0.00000000E+00  0.00000000E+00  0.00000000E+00
  0.00000000E+00  0.00000000E+00  0.00000000E+00
  0.00000000E+00  0.00000000E+00  0.00000000E+00
  0.00000000E+00  0.00000000E+00  0.00000000E+00
  0.00000000E+00  0.00000000E+00  0.00000000E+00
  0.00000000E+00  0.00000000E+00  0.00000000E+00
  0.00000000E+00  0.00000000E+00  0.00000000E+00
  0.00000000E+00  0.00000000E+00  0.00000000E+00
  0.00000000E+00  0.00000000E+00  0.00000000E+00
  0.00000000E+00  0.00000000E+00  0.00000000E+00
  0.00000000E+00  0.00000000E+00  0.00000000E+00
  0.00000000E+00  0.00000000E+00  0.00000000E+00
  0.00000000E+00  0.00000000E+00  0.00000000E+00
  0.00000000E+00  0.00000000E+00  0.00000000E+00
  0.00000000E+00  0.00000000E+00  0.00000000E+00
  0.00000000E+00  0.00000000E+00  0.00000000E+00
  0.00000000E+00  0.00000000E+00  0.00000000E+00
  0.00000000E+00  0.00000000E+00  0.00000000E+00
  0.00000000E+00  0.00000000E+00  0.00000000E+00
  0.00000000E+00  0.00000000E+00  0.00000000E+00
  0.00000000E+00  0.00000000E+00  0.00000000E+00
  0.00000000E+00  0.00000000E+00  0.00000000E+00
  0.00000000E+00  0.00000000E+00  0.00000000E+00
  0.00000000E+00  0.00000000E+00  0.00000000E+00
  0.00000000E+00  0.00000000E+00  0.00000000E+00
  0.00000000E+00  0.00000000E+00  0.00000000E+00
  0.00000000E+00  0.00000000E+00  0.00000000E+00
  0.00000000E+00  0.00000000E+00  0.00000000E+00
  0.00000000E+00  0.00000000E+00  0.00000000E+00
  0.00000000E+00  0.00000000E+00  0.00000000E+00
  0.00000000E+00  0.00000000E+00  0.00000000E+00
  0.00000000E+00  0.00000000E+00  0.00000000E+00
  0.00000000E+00  0.00000000E+00  0.00000000E+00
  0.00000000E+00  0.00000000E+00  0.00000000E+00
  0.00000000E+00  0.00000000E+00  0.00000000E+00
  0.00000000E+00  0.00000000E+00  0.00000000E+00
