Au Ca Li O                              
   1.00000000000000     
     9.6048500000000008    0.0000000000000000    0.0000000000000000
     0.0000000000000000    9.6048500000000008    0.0000000000000000
     0.0000000000000000    0.0000000000000000   24.6048000000000009
   Au   Ca   Li   O 
     1    31     1    32
Selective dynamics
Direct
  0.7495129424715089 -0.0000427760139726  0.4794508182238582   T   T   T
  0.2499148719591039  0.0000988238503080  0.0984917851688824   T   T   T
  0.7499453525037154  0.0000900529296424  0.0988842736377066   T   T   T
 -0.0001059665156691  0.2502628344635386  0.0984483888062363   T   T   T
  0.4999648471848147  0.2503406973747287  0.0986948936620149   T   T   T
  0.2499496358401524  0.5002215524971492  0.0980796120243256   T   T   T
  0.7498619835601851  0.5002316122397852  0.0984616641879209   T   T   T
 -0.0001249386845753  0.7500241443744836  0.0985794063221579   T   T   T
  0.4999268967063518  0.7500296096482464  0.0988510291129242   T   T   T
  0.0003425207106451 -0.0001419358790805  0.1955589378449855   T   T   T
  0.4993890700382583  0.0001001767588469  0.1957224199185540   T   T   T
  0.2501752433528973  0.2504685418811294  0.1952677335525401   T   T   T
  0.7498213059930630  0.2509450857010382  0.1955810904863778   T   T   T
  0.0001540465467985  0.5003403197982292  0.1951878796585670   T   T   T
  0.4998994150350480  0.5002989649374828  0.1955546696074759   T   T   T
  0.2497868266667318  0.7498317882708717  0.1954633444699294   T   T   T
  0.7499847138516991  0.7493880081214432  0.1958237562635056   T   T   T
  0.2491471156872068 -0.0000222544205725  0.2925733062480969   T   T   T
  0.7504218720165416  0.0000954814205592  0.2919844132681481   T   T   T
  0.0003064164448675  0.2525599566892785  0.2928433534724713   T   T   T
  0.4999762424816230  0.2510397766711976  0.2941779964202169   T   T   T
  0.2485827092583611  0.5002385181800952  0.2919511164269505   T   T   T
  0.7522497675084331  0.5004117728631093  0.2935457590939273   T   T   T
 -0.0000416891212065  0.7469870954356260  0.2944766681508951   T   T   T
  0.4995447485405492  0.7494175383404377  0.2945327392811080   T   T   T
  0.0100437220600876  0.0046397796611608  0.3893109549355762   T   T   T
  0.4870898427145771 -0.0004094485021392  0.3905873965314742   T   T   T
  0.2466235905692275  0.2556211946353466  0.3902398984213424   T   T   T
  0.7563145751299037  0.2704655126900087  0.3912221857364089   T   T   T
  0.4926744881721316  0.5011466180377354  0.3896462476559410   T   T   T
  0.2405037594409896  0.7431646009111260  0.3906647724238593   T   T   T
  0.7587521313446911  0.7312512841922314  0.3916430569327389   T   T   T
  0.0331351574674250  0.4756703806390320  0.3764845307277627   T   T   T
  0.9992662055797756  0.0000526657987448  0.0992666587975403   T   T   T
  0.5006001471152504  0.0001304291652662  0.0996272596465066   T   T   T
  0.2501667104717067  0.2496220206771019  0.0989058016157646   T   T   T
  0.7496618585669839  0.2493755065306402  0.0995442831666191   T   T   T
  0.9995293071513296  0.5002121500287681  0.0985986568942196   T   T   T
  0.5003056162204863  0.5002308170247306  0.0989016813121163   T   T   T
  0.2501011182201150  0.7506489325558677  0.0990492650166813   T   T   T
  0.7497257284098394  0.7509026622488914  0.0997089889604677   T   T   T
  0.2501142215215672  0.0000966836245765  0.1946965285956531   T   T   T
  0.7496965564714138  0.0001309952080720  0.1963413617897354   T   T   T
  0.9995276368603997  0.2495751292135431  0.1940379660173799   T   T   T
  0.5004895670448269  0.2495624816084160  0.1948199171994744   T   T   T
  0.2501755090314987  0.5002201394961143  0.1935611835417542   T   T   T
  0.7497150671632113  0.5001619396092409  0.1946122433769786   T   T   T
  0.9994597415864512  0.7507114607041235  0.1944642460202273   T   T   T
  0.5003282111376824  0.7508400639543591  0.1950085877745747   T   T   T
  0.9975430780176827  0.0013157324675326  0.2935911090250952   T   T   T
  0.5022059701001383  0.0000572559929225  0.2950197233471342   T   T   T
  0.2503314725037903  0.2493004086058293  0.2929186756116037   T   T   T
  0.7501364877011377  0.2482479020378796  0.2949792605400600   T   T   T
  0.0010675457686003  0.4990449603809227  0.2917012372807380   T   T   T
  0.4991032040303068  0.5003828242603091  0.2925881652272443   T   T   T
  0.2492297911754585  0.7507541483930855  0.2933827534817578   T   T   T
  0.7502432531532544  0.7520270169291698  0.2952135986760517   T   T   T
  0.2492395825878550  0.0017806997797698  0.3884628193484868   T   T   T
  0.7479926162555450  0.0034456065343162  0.3975216061999096   T   T   T
  0.0012692590477044  0.2506621338197954  0.3870094560989938   T   T   T
  0.4975323841560926  0.2492474268518358  0.3895806446525034   T   T   T
  0.2473921179349216  0.4988953019839670  0.3862197329932109   T   T   T
  0.7319391904473211  0.5008650220247710  0.3872811871196333   T   T   T
  0.9983974184544382  0.7666929296403163  0.3881035261660793   T   T   T
  0.4961619404820490  0.7519721473530254  0.3898635895389239   T   T   T
 
  0.00000000E+00  0.00000000E+00  0.00000000E+00
  0.00000000E+00  0.00000000E+00  0.00000000E+00
  0.00000000E+00  0.00000000E+00  0.00000000E+00
  0.00000000E+00  0.00000000E+00  0.00000000E+00
  0.00000000E+00  0.00000000E+00  0.00000000E+00
  0.00000000E+00  0.00000000E+00  0.00000000E+00
  0.00000000E+00  0.00000000E+00  0.00000000E+00
  0.00000000E+00  0.00000000E+00  0.00000000E+00
  0.00000000E+00  0.00000000E+00  0.00000000E+00
  0.00000000E+00  0.00000000E+00  0.00000000E+00
  0.00000000E+00  0.00000000E+00  0.00000000E+00
  0.00000000E+00  0.00000000E+00  0.00000000E+00
  0.00000000E+00  0.00000000E+00  0.00000000E+00
  0.00000000E+00  0.00000000E+00  0.00000000E+00
  0.00000000E+00  0.00000000E+00  0.00000000E+00
  0.00000000E+00  0.00000000E+00  0.00000000E+00
  0.00000000E+00  0.00000000E+00  0.00000000E+00
  0.00000000E+00  0.00000000E+00  0.00000000E+00
  0.00000000E+00  0.00000000E+00  0.00000000E+00
  0.00000000E+00  0.00000000E+00  0.00000000E+00
  0.00000000E+00  0.00000000E+00  0.00000000E+00
  0.00000000E+00  0.00000000E+00  0.00000000E+00
  0.00000000E+00  0.00000000E+00  0.00000000E+00
  0.00000000E+00  0.00000000E+00  0.00000000E+00
  0.00000000E+00  0.00000000E+00  0.00000000E+00
  0.00000000E+00  0.00000000E+00  0.00000000E+00
  0.00000000E+00  0.00000000E+00  0.00000000E+00
  0.00000000E+00  0.00000000E+00  0.00000000E+00
  0.00000000E+00  0.00000000E+00  0.00000000E+00
  0.00000000E+00  0.00000000E+00  0.00000000E+00
  0.00000000E+00  0.00000000E+00  0.00000000E+00
  0.00000000E+00  0.00000000E+00  0.00000000E+00
  0.00000000E+00  0.00000000E+00  0.00000000E+00
  0.00000000E+00  0.00000000E+00  0.00000000E+00
  0.00000000E+00  0.00000000E+00  0.00000000E+00
  0.00000000E+00  0.00000000E+00  0.00000000E+00
  0.00000000E+00  0.00000000E+00  0.00000000E+00
  0.00000000E+00  0.00000000E+00  0.00000000E+00
  0.00000000E+00  0.00000000E+00  0.00000000E+00
  0.00000000E+00  0.00000000E+00  0.00000000E+00
  0.00000000E+00  0.00000000E+00  0.00000000E+00
  0.00000000E+00  0.00000000E+00  0.00000000E+00
  0.00000000E+00  0.00000000E+00  0.00000000E+00
  0.00000000E+00  0.00000000E+00  0.00000000E+00
  0.00000000E+00  0.00000000E+00  0.00000000E+00
  0.00000000E+00  0.00000000E+00  0.00000000E+00
  0.00000000E+00  0.00000000E+00  0.00000000E+00
  0.00000000E+00  0.00000000E+00  0.00000000E+00
  0.00000000E+00  0.00000000E+00  0.00000000E+00
  0.00000000E+00  0.00000000E+00  0.00000000E+00
  0.00000000E+00  0.00000000E+00  0.00000000E+00
  0.00000000E+00  0.00000000E+00  0.00000000E+00
  0.00000000E+00  0.00000000E+00  0.00000000E+00
  0.00000000E+00  0.00000000E+00  0.00000000E+00
  0.00000000E+00  0.00000000E+00  0.00000000E+00
  0.00000000E+00  0.00000000E+00  0.00000000E+00
  0.00000000E+00  0.00000000E+00  0.00000000E+00
  0.00000000E+00  0.00000000E+00  0.00000000E+00
  0.00000000E+00  0.00000000E+00  0.00000000E+00
  0.00000000E+00  0.00000000E+00  0.00000000E+00
  0.00000000E+00  0.00000000E+00  0.00000000E+00
  0.00000000E+00  0.00000000E+00  0.00000000E+00
  0.00000000E+00  0.00000000E+00  0.00000000E+00
  0.00000000E+00  0.00000000E+00  0.00000000E+00
  0.00000000E+00  0.00000000E+00  0.00000000E+00
