Ca Li O Pd                              
   1.00000000000000     
     9.6048500000000008    0.0000000000000000    0.0000000000000000
     0.0000000000000000    9.6048500000000008    0.0000000000000000
     0.0000000000000000    0.0000000000000000   24.6048000000000009
   Ca   Li   O    Pd
    31     1    32     1
Selective dynamics
Direct
  0.2499812232977339  0.0000945495192086  0.0987406296216152   T   T   T
  0.7498623653993118  0.0000847775769812  0.0993233708534431   T   T   T
 -0.0002439560728850  0.2499561917338762  0.0985078710993068   T   T   T
  0.5000412089175665  0.2500874979155515  0.0988097504424866   T   T   T
  0.2500997664441680  0.5002397012714285  0.0982171700197484   T   T   T
  0.7498496690772133  0.5002302841767859  0.0986989323547549   T   T   T
 -0.0002559499035689  0.7503023640944104  0.0986716543775837   T   T   T
  0.5000169952550703  0.7502811590827212  0.0989611865926389   T   T   T
 -0.0001520939578225 -0.0001651366614805  0.1958170622086026   T   T   T
  0.4998510712937384  0.0001045164631968  0.1960654328504047   T   T   T
  0.2501283485763937  0.2502749735441561  0.1953496041380342   T   T   T
  0.7499624761143694  0.2505299293458970  0.1959018081832706   T   T   T
  0.0000304083878980  0.5003028525053084  0.1953341615574385   T   T   T
  0.5001640996961623  0.5003023590729569  0.1957068701817533   T   T   T
  0.2497248187311870  0.7500213740257018  0.1955844847996729   T   T   T
  0.7501181811404632  0.7497885622316005  0.1961313573175849   T   T   T
  0.2493073299661773 -0.0000356739490934  0.2931456242914494   T   T   T
  0.7502950578614017  0.0001360400727607  0.2937080407701180   T   T   T
  0.0000156949746379  0.2518075155612280  0.2927520219456002   T   T   T
  0.5005041562321574  0.2505208787050965  0.2941314562433694   T   T   T
  0.2487171446760378  0.5002362029514595  0.2919018694353758   T   T   T
  0.7523366558264893  0.5003360860226375  0.2939829410755734   T   T   T
 -0.0003535236875276  0.7475764918812425  0.2943724880477221   T   T   T
  0.4999641021187525  0.7498608924846701  0.2944718192605530   T   T   T
  0.0077087482920329  0.0047828140101060  0.3903461028407206   T   T   T
  0.4901847372367220 -0.0004295689225718  0.3914064652130353   T   T   T
  0.2465565212532617  0.2551318582479932  0.3902220343859660   T   T   T
  0.7562309553310098  0.2675485236994573  0.3919984037797141   T   T   T
  0.4930371088630796  0.5010102623997862  0.3896032435180284   T   T   T
  0.2410506370236511  0.7439098813044769  0.3906176118535623   T   T   T
  0.7582625866032636  0.7341917626089848  0.3924633913837293   T   T   T
  0.0329411995455244  0.4751168442366786  0.3760938846915805   T   T   T
  0.9994487353995080  0.0000296573807765  0.0993312188062816   T   T   T
  0.5002700360121638  0.0001289001861414  0.0997733809473330   T   T   T
  0.2501238786916035  0.2497257184137046  0.0989541900808482   T   T   T
  0.7497066515731591  0.2497552173756321  0.0995994538100072   T   T   T
  0.9995730963413387  0.5002198797506324  0.0985970503835949   T   T   T
  0.5003874181353282  0.5002489638584572  0.0990008614762545   T   T   T
  0.2500258230181755  0.7505556435064759  0.0990980833543825   T   T   T
  0.7497668678232393  0.7505489423052062  0.0997687382503385   T   T   T
  0.2499914153459203  0.0001155470720366  0.1948375254265915   T   T   T
  0.7497819590284633  0.0001294578463721  0.1962170751546537   T   T   T
  0.9996940871719597  0.2497004914047340  0.1939889599447407   T   T   T
  0.5003655783331017  0.2498173114055104  0.1947748206602756   T   T   T
  0.2501788204363782  0.5002345460522387  0.1937494557174760   T   T   T
  0.7498289644263978  0.5001837114705668  0.1946991725130041   T   T   T
  0.9996204420184457  0.7505139299961842  0.1944331631355617   T   T   T
  0.5002019106351060  0.7505864862563141  0.1949710264820348   T   T   T
  0.9986428605409118  0.0012506658670500  0.2937060410790416   T   T   T
  0.5011186384957189  0.0000617396955782  0.2948808645026589   T   T   T
  0.2502723883455307  0.2496221602016229  0.2930359310707846   T   T   T
  0.7502876552749383  0.2494788347693945  0.2948469995482456   T   T   T
  0.0012843842092620  0.4990183944011869  0.2919724479856792   T   T   T
  0.4989900506410277  0.5003611987486669  0.2928372715357578   T   T   T
  0.2491195640276557  0.7504156670321687  0.2935113688328597   T   T   T
  0.7502751381184398  0.7508735137705908  0.2951569509460971   T   T   T
  0.2493567898782790  0.0018571199124938  0.3892335108859640   T   T   T
  0.7491469475454448  0.0025212327896096  0.3930892462009123   T   T   T
  0.0021416984494362  0.2516384127917670  0.3867044090797871   T   T   T
  0.4969191287640369  0.2504544271856984  0.3891545281721041   T   T   T
  0.2467906078931135  0.4990220415345106  0.3864792320011486   T   T   T
  0.7318114949765642  0.5008307898865889  0.3882208268940598   T   T   T
 -0.0006067180257388  0.7660095556749323  0.3878729936165015   T   T   T
  0.4948382710725353  0.7505537579283477  0.3894514311970858   T   T   T
  0.7470794021938535  0.0013302192176046  0.4735792129824964   T   T   T
 
  0.00000000E+00  0.00000000E+00  0.00000000E+00
  0.00000000E+00  0.00000000E+00  0.00000000E+00
  0.00000000E+00  0.00000000E+00  0.00000000E+00
  0.00000000E+00  0.00000000E+00  0.00000000E+00
  0.00000000E+00  0.00000000E+00  0.00000000E+00
  0.00000000E+00  0.00000000E+00  0.00000000E+00
  0.00000000E+00  0.00000000E+00  0.00000000E+00
  0.00000000E+00  0.00000000E+00  0.00000000E+00
  0.00000000E+00  0.00000000E+00  0.00000000E+00
  0.00000000E+00  0.00000000E+00  0.00000000E+00
  0.00000000E+00  0.00000000E+00  0.00000000E+00
  0.00000000E+00  0.00000000E+00  0.00000000E+00
  0.00000000E+00  0.00000000E+00  0.00000000E+00
  0.00000000E+00  0.00000000E+00  0.00000000E+00
  0.00000000E+00  0.00000000E+00  0.00000000E+00
  0.00000000E+00  0.00000000E+00  0.00000000E+00
  0.00000000E+00  0.00000000E+00  0.00000000E+00
  0.00000000E+00  0.00000000E+00  0.00000000E+00
  0.00000000E+00  0.00000000E+00  0.00000000E+00
  0.00000000E+00  0.00000000E+00  0.00000000E+00
  0.00000000E+00  0.00000000E+00  0.00000000E+00
  0.00000000E+00  0.00000000E+00  0.00000000E+00
  0.00000000E+00  0.00000000E+00  0.00000000E+00
  0.00000000E+00  0.00000000E+00  0.00000000E+00
  0.00000000E+00  0.00000000E+00  0.00000000E+00
  0.00000000E+00  0.00000000E+00  0.00000000E+00
  0.00000000E+00  0.00000000E+00  0.00000000E+00
  0.00000000E+00  0.00000000E+00  0.00000000E+00
  0.00000000E+00  0.00000000E+00  0.00000000E+00
  0.00000000E+00  0.00000000E+00  0.00000000E+00
  0.00000000E+00  0.00000000E+00  0.00000000E+00
  0.00000000E+00  0.00000000E+00  0.00000000E+00
  0.00000000E+00  0.00000000E+00  0.00000000E+00
  0.00000000E+00  0.00000000E+00  0.00000000E+00
  0.00000000E+00  0.00000000E+00  0.00000000E+00
  0.00000000E+00  0.00000000E+00  0.00000000E+00
  0.00000000E+00  0.00000000E+00  0.00000000E+00
  0.00000000E+00  0.00000000E+00  0.00000000E+00
  0.00000000E+00  0.00000000E+00  0.00000000E+00
  0.00000000E+00  0.00000000E+00  0.00000000E+00
  0.00000000E+00  0.00000000E+00  0.00000000E+00
  0.00000000E+00  0.00000000E+00  0.00000000E+00
  0.00000000E+00  0.00000000E+00  0.00000000E+00
  0.00000000E+00  0.00000000E+00  0.00000000E+00
  0.00000000E+00  0.00000000E+00  0.00000000E+00
  0.00000000E+00  0.00000000E+00  0.00000000E+00
  0.00000000E+00  0.00000000E+00  0.00000000E+00
  0.00000000E+00  0.00000000E+00  0.00000000E+00
  0.00000000E+00  0.00000000E+00  0.00000000E+00
  0.00000000E+00  0.00000000E+00  0.00000000E+00
  0.00000000E+00  0.00000000E+00  0.00000000E+00
  0.00000000E+00  0.00000000E+00  0.00000000E+00
  0.00000000E+00  0.00000000E+00  0.00000000E+00
  0.00000000E+00  0.00000000E+00  0.00000000E+00
  0.00000000E+00  0.00000000E+00  0.00000000E+00
  0.00000000E+00  0.00000000E+00  0.00000000E+00
  0.00000000E+00  0.00000000E+00  0.00000000E+00
  0.00000000E+00  0.00000000E+00  0.00000000E+00
  0.00000000E+00  0.00000000E+00  0.00000000E+00
  0.00000000E+00  0.00000000E+00  0.00000000E+00
  0.00000000E+00  0.00000000E+00  0.00000000E+00
  0.00000000E+00  0.00000000E+00  0.00000000E+00
  0.00000000E+00  0.00000000E+00  0.00000000E+00
  0.00000000E+00  0.00000000E+00  0.00000000E+00
  0.00000000E+00  0.00000000E+00  0.00000000E+00
