Ca Ir Li O                              
   1.00000000000000     
     9.6048500000000008    0.0000000000000000    0.0000000000000000
     0.0000000000000000    9.6048500000000008    0.0000000000000000
     0.0000000000000000    0.0000000000000000   24.6048000000000009
   Ca   Ir   Li   O 
    31     1     1    32
Selective dynamics
Direct
  0.2500107622166883  0.0001158716494649  0.0983755043088645   T   T   T
  0.7499796811222170  0.0001549433661903  0.0987750171658161   T   T   T
  0.9999070256791489  0.2502231654644041  0.0985120459882621   T   T   T
  0.5000125224345157  0.2502971653784436  0.0987401896936791   T   T   T
  0.2500169236901914  0.5002164228682719  0.0982208059942638   T   T   T
  0.7497906144551288  0.5002364595276368  0.0984867828782932   T   T   T
  0.9998458073896348  0.7501391475354052  0.0986296573285566   T   T   T
  0.4999494484731790  0.7500972733848933  0.0988531843819648   T   T   T
  0.0007907399358392  0.9999439423405879  0.1953569655990376   T   T   T
  0.4990895586144852  0.0000792750574008  0.1955033289849973   T   T   T
  0.2501424879539406  0.2504090637862231  0.1953350253666012   T   T   T
  0.7499493636390741  0.2512557920005400  0.1954766410719978   T   T   T
 -0.0000430376076863  0.5003568777219977  0.1953091210672002   T   T   T
  0.4999889943902566  0.5002699252781214  0.1957249045242155   T   T   T
  0.2497120728622853  0.7499100352387043  0.1955024060553479   T   T   T
  0.7499962356507147  0.7491107711291461  0.1956461992444574   T   T   T
  0.2492337462998752  0.0000290816764341  0.2923443910328452   T   T   T
  0.7504848733781533  0.0000314634407014  0.2904655846062409   T   T   T
  0.9995314371359731  0.2516815829281560  0.2932137115907927   T   T   T
  0.5008337885652964  0.2502163361965956  0.2946256927844073   T   T   T
  0.2482992386563980  0.5003442002108310  0.2915861712399071   T   T   T
  0.7520813666980443  0.5003590053834397  0.2934256690208555   T   T   T
  0.9991613814241499  0.7480463333277183  0.2947162790645393   T   T   T
  0.5003422605618832  0.7501178347034829  0.2949180483595502   T   T   T
  0.0160357777078048  0.0044225379556529  0.3906726653232764   T   T   T
  0.4812827265626782  0.9993587204947397  0.3919995715030622   T   T   T
  0.2459588837206947  0.2579592083285878  0.3898805799065422   T   T   T
  0.7576039525363006  0.2748042898886969  0.3928998347409978   T   T   T
  0.4922270838718900  0.5011713896806892  0.3891268532271099   T   T   T
  0.2400371280615180  0.7411224780279912  0.3902143991286319   T   T   T
  0.7603515563770646  0.7266484787510222  0.3932543701686212   T   T   T
  0.7483539265013023  0.0016072771812979  0.4712455073744439   T   T   T
  0.0324086793900647  0.4766268665968801  0.3755862366581196   T   T   T
  0.9995027028229106  0.0001081435943175  0.0993378739792157   T   T   T
  0.5004142988083984  0.0001526638506833  0.0996894322333652   T   T   T
  0.2502381656861011  0.2496262960462520  0.0990391051824757   T   T   T
  0.7496610476911808  0.2496782766373023  0.0996521276099909   T   T   T
  0.9994217470709366  0.5002213778501987  0.0987625019851994   T   T   T
  0.5003773666404036  0.5002276002530788  0.0990677895387569   T   T   T
  0.2501574095720716  0.7506593205895191  0.0991544097464024   T   T   T
  0.7496746392610261  0.7506807483685427  0.0997555051388863   T   T   T
  0.2501710168555776  0.0000614594409822  0.1949635320829480   T   T   T
  0.7497544572029587  0.0001463772553052  0.1961430276286851   T   T   T
  0.9994287598761055  0.2494326687475704  0.1941376613830190   T   T   T
  0.5006640639394688  0.2492748254264158  0.1949479740744861   T   T   T
  0.2501283548426160  0.5001806206159634  0.1937049809696332   T   T   T
  0.7496584036553489  0.5001632245300991  0.1948903855949200   T   T   T
  0.9992486789008451  0.7510068858320126  0.1944697130575047   T   T   T
  0.5004293810516501  0.7510555284941668  0.1951054593587358   T   T   T
  0.9971592266619687  0.0014669600074059  0.2941264815178101   T   T   T
  0.5027782001100233 -0.0000166520682470  0.2957637766709234   T   T   T
  0.2503156304134627  0.2489775036582903  0.2930647444392055   T   T   T
  0.7501852828161492  0.2475533296800639  0.2956433629153968   T   T   T
  0.0004262727687473  0.4991018090553462  0.2917709764013058   T   T   T
  0.4995867119927922  0.5003100604385818  0.2927998601480676   T   T   T
  0.2491471992457385  0.7510996267699460  0.2934146730623308   T   T   T
  0.7501125453188887  0.7525945647851293  0.2957738407236158   T   T   T
  0.2490878433803111  0.0016690107201926  0.3890105430995017   T   T   T
  0.7487259534711284  0.0016615162861157  0.3986707656903272   T   T   T
  0.0011891084313976  0.2499720859631998  0.3868000560879291   T   T   T
  0.4979925070903616  0.2490599303304983  0.3893676247511734   T   T   T
  0.2464172949994871  0.4990095693333351  0.3856903094221408   T   T   T
  0.7324167432564513  0.5005817038988708  0.3879323866690032   T   T   T
  0.9983443113395998  0.7671547040052060  0.3876652515887816   T   T   T
  0.4961893977821583  0.7516959460053094  0.3896283355727710   T   T   T
 
  0.00000000E+00  0.00000000E+00  0.00000000E+00
  0.00000000E+00  0.00000000E+00  0.00000000E+00
  0.00000000E+00  0.00000000E+00  0.00000000E+00
  0.00000000E+00  0.00000000E+00  0.00000000E+00
  0.00000000E+00  0.00000000E+00  0.00000000E+00
  0.00000000E+00  0.00000000E+00  0.00000000E+00
  0.00000000E+00  0.00000000E+00  0.00000000E+00
  0.00000000E+00  0.00000000E+00  0.00000000E+00
  0.00000000E+00  0.00000000E+00  0.00000000E+00
  0.00000000E+00  0.00000000E+00  0.00000000E+00
  0.00000000E+00  0.00000000E+00  0.00000000E+00
  0.00000000E+00  0.00000000E+00  0.00000000E+00
  0.00000000E+00  0.00000000E+00  0.00000000E+00
  0.00000000E+00  0.00000000E+00  0.00000000E+00
  0.00000000E+00  0.00000000E+00  0.00000000E+00
  0.00000000E+00  0.00000000E+00  0.00000000E+00
  0.00000000E+00  0.00000000E+00  0.00000000E+00
  0.00000000E+00  0.00000000E+00  0.00000000E+00
  0.00000000E+00  0.00000000E+00  0.00000000E+00
  0.00000000E+00  0.00000000E+00  0.00000000E+00
  0.00000000E+00  0.00000000E+00  0.00000000E+00
  0.00000000E+00  0.00000000E+00  0.00000000E+00
  0.00000000E+00  0.00000000E+00  0.00000000E+00
  0.00000000E+00  0.00000000E+00  0.00000000E+00
  0.00000000E+00  0.00000000E+00  0.00000000E+00
  0.00000000E+00  0.00000000E+00  0.00000000E+00
  0.00000000E+00  0.00000000E+00  0.00000000E+00
  0.00000000E+00  0.00000000E+00  0.00000000E+00
  0.00000000E+00  0.00000000E+00  0.00000000E+00
  0.00000000E+00  0.00000000E+00  0.00000000E+00
  0.00000000E+00  0.00000000E+00  0.00000000E+00
  0.00000000E+00  0.00000000E+00  0.00000000E+00
  0.00000000E+00  0.00000000E+00  0.00000000E+00
  0.00000000E+00  0.00000000E+00  0.00000000E+00
  0.00000000E+00  0.00000000E+00  0.00000000E+00
  0.00000000E+00  0.00000000E+00  0.00000000E+00
  0.00000000E+00  0.00000000E+00  0.00000000E+00
  0.00000000E+00  0.00000000E+00  0.00000000E+00
  0.00000000E+00  0.00000000E+00  0.00000000E+00
  0.00000000E+00  0.00000000E+00  0.00000000E+00
  0.00000000E+00  0.00000000E+00  0.00000000E+00
  0.00000000E+00  0.00000000E+00  0.00000000E+00
  0.00000000E+00  0.00000000E+00  0.00000000E+00
  0.00000000E+00  0.00000000E+00  0.00000000E+00
  0.00000000E+00  0.00000000E+00  0.00000000E+00
  0.00000000E+00  0.00000000E+00  0.00000000E+00
  0.00000000E+00  0.00000000E+00  0.00000000E+00
  0.00000000E+00  0.00000000E+00  0.00000000E+00
  0.00000000E+00  0.00000000E+00  0.00000000E+00
  0.00000000E+00  0.00000000E+00  0.00000000E+00
  0.00000000E+00  0.00000000E+00  0.00000000E+00
  0.00000000E+00  0.00000000E+00  0.00000000E+00
  0.00000000E+00  0.00000000E+00  0.00000000E+00
  0.00000000E+00  0.00000000E+00  0.00000000E+00
  0.00000000E+00  0.00000000E+00  0.00000000E+00
  0.00000000E+00  0.00000000E+00  0.00000000E+00
  0.00000000E+00  0.00000000E+00  0.00000000E+00
  0.00000000E+00  0.00000000E+00  0.00000000E+00
  0.00000000E+00  0.00000000E+00  0.00000000E+00
  0.00000000E+00  0.00000000E+00  0.00000000E+00
  0.00000000E+00  0.00000000E+00  0.00000000E+00
  0.00000000E+00  0.00000000E+00  0.00000000E+00
  0.00000000E+00  0.00000000E+00  0.00000000E+00
  0.00000000E+00  0.00000000E+00  0.00000000E+00
  0.00000000E+00  0.00000000E+00  0.00000000E+00
