                                        
   1.00000000000000     
     9.6048500000000008    0.0000000000000000    0.0000000000000000
     0.0000000000000010    9.6048500000000008    0.0000000000000000
     0.0000000000000020    0.0000000000000020   24.6048000000000009
   Ca   Li   Ca   O 
    28     1     3    32
Direct
  0.2500034835460621  0.0000042573052449  0.0988328599184663
  0.7498634811818674  0.0000038318836822  0.0988388771466591
  0.9999305214713453  0.2499790619916053  0.0984491979007334
  0.4999373694990594  0.2501320267667320  0.0988400670698777
  0.2501804541113720  0.5002265644429159  0.0984830006163704
  0.7496883947776563  0.5002269959697068  0.0984848014317367
  0.9999302233969427  0.7502624433402127  0.0984993960566140
  0.4999372006821040  0.7500639325319454  0.0988716745772955
  0.9999143951407766  0.0000805594855654  0.1957806078877176
  0.4998969270816584  0.0002150689070773  0.1959238599144262
  0.2499162826989540  0.2501822526794801  0.1958113031806140
  0.7498928866024170  0.2501865783765108  0.1958111767102255
  0.9999054333010381  0.5002220728091824  0.1951844650955993
  0.4999048006765093  0.5000633993271701  0.1958630130927578
  0.2497825050307610  0.7501855969415887  0.1958556538627688
  0.7500401160738861  0.7501829796270686  0.1958584312919771
  0.2493582100717282  0.0002274692278844  0.2940558239842545
  0.7503631040515496  0.0002333325209251  0.2940529800374478
  0.9998614835019081  0.2522797645908533  0.2935885119937660
  0.4998553060198216  0.2507285419341149  0.2940260400857763
  0.2476624035915578  0.5001931852076472  0.2936582994961706
  0.7520678234307264  0.5001872988687623  0.2936575229829308
  0.9998883291711091  0.7479275836524489  0.2937710053587250
  0.4998645517767670  0.7497334564807359  0.2938813324136430
  0.9998493634218087  0.0008516244265980  0.3899478693193934
  0.4998414542129418 -0.0002390744523585  0.3904718589687655
  0.2448428308696696  0.2558443925546864  0.3913629494720887
  0.7548378194047469  0.2558532662284547  0.3913599005719502
  0.0000005279765347  0.4967998497700907  0.3763307272386750
  0.4998139668352171  0.5007544421499027  0.3897893281645072
  0.2443909555233027  0.7448645342375231  0.3913091484331764
  0.7553341831386614  0.7448332124940349  0.3912846717702001
  0.9999356286666734  0.0000664812271452  0.0990862962550437
  0.4999425151734225  0.0001217186495513  0.0992349274619078
  0.2501655573725848  0.2499353609783591  0.0992697002850605
  0.7497166088768603  0.2499327041587559  0.0992741640773573
  0.9999337623809502  0.5001544631696706  0.0986132288556218
  0.4999446055208855  0.5000465606252377  0.0991666081499288
  0.2500833870950769  0.7502652084792988  0.0993280986979001
  0.7497997188353127  0.7502656863273237  0.0993319276332642
  0.2500220476991495  0.0002067716909519  0.1949366500134368
  0.7497885168672437  0.0002054059593324  0.1949409885124730
  0.9999120094340301  0.2501189502855157  0.1942290987433522
  0.4999102884132710  0.2500178137333669  0.1949687523881624
  0.2499466848661340  0.5001317032875965  0.1943058700662106
  0.7498741741984519  0.5001348147227648  0.1943074756837105
  0.9999078574089942  0.7501999928804655  0.1943589573492147
  0.4999072841910506  0.7502588667455967  0.1949479931576634
  0.9998774582675914  0.0002339370012096  0.2933536745741674
  0.4998520377959476  0.0000807665966551  0.2939464567349548
  0.2496499447208957  0.2506339005666051  0.2942830094094634
  0.7500534123009506  0.2506368342470406  0.2942819671571275
  0.9998672821174388  0.5001388377213912  0.2927654800982485
  0.4998483376529432  0.5003471569903176  0.2932927917447457
  0.2495970271663257  0.7498411887652869  0.2941796444340450
  0.7501746872186233  0.7498458203121761  0.2941821710175624
  0.2503278020760591  0.0002592372171549  0.3898552082319348
  0.7493692129749644  0.0002586574418358  0.3898452786070572
  0.9998428638923590  0.2444705851005900  0.3882731008662273
  0.4998199742716041  0.2500968962858406  0.3898606209598004
  0.2569347529254212  0.5001940386665674  0.3883402949469893
  0.7426315037309743  0.5001984820856945  0.3883345101305178
  0.9998552995814826  0.7583297659657434  0.3884156723922939
  0.4997770233358446  0.7506307803569824  0.3899200253192224
 
  0.00000000E+00  0.00000000E+00  0.00000000E+00
  0.00000000E+00  0.00000000E+00  0.00000000E+00
  0.00000000E+00  0.00000000E+00  0.00000000E+00
  0.00000000E+00  0.00000000E+00  0.00000000E+00
  0.00000000E+00  0.00000000E+00  0.00000000E+00
  0.00000000E+00  0.00000000E+00  0.00000000E+00
  0.00000000E+00  0.00000000E+00  0.00000000E+00
  0.00000000E+00  0.00000000E+00  0.00000000E+00
  0.00000000E+00  0.00000000E+00  0.00000000E+00
  0.00000000E+00  0.00000000E+00  0.00000000E+00
  0.00000000E+00  0.00000000E+00  0.00000000E+00
  0.00000000E+00  0.00000000E+00  0.00000000E+00
  0.00000000E+00  0.00000000E+00  0.00000000E+00
  0.00000000E+00  0.00000000E+00  0.00000000E+00
  0.00000000E+00  0.00000000E+00  0.00000000E+00
  0.00000000E+00  0.00000000E+00  0.00000000E+00
  0.00000000E+00  0.00000000E+00  0.00000000E+00
  0.00000000E+00  0.00000000E+00  0.00000000E+00
  0.00000000E+00  0.00000000E+00  0.00000000E+00
  0.00000000E+00  0.00000000E+00  0.00000000E+00
  0.00000000E+00  0.00000000E+00  0.00000000E+00
  0.00000000E+00  0.00000000E+00  0.00000000E+00
  0.00000000E+00  0.00000000E+00  0.00000000E+00
  0.00000000E+00  0.00000000E+00  0.00000000E+00
  0.00000000E+00  0.00000000E+00  0.00000000E+00
  0.00000000E+00  0.00000000E+00  0.00000000E+00
  0.00000000E+00  0.00000000E+00  0.00000000E+00
  0.00000000E+00  0.00000000E+00  0.00000000E+00
  0.00000000E+00  0.00000000E+00  0.00000000E+00
  0.00000000E+00  0.00000000E+00  0.00000000E+00
  0.00000000E+00  0.00000000E+00  0.00000000E+00
  0.00000000E+00  0.00000000E+00  0.00000000E+00
  0.00000000E+00  0.00000000E+00  0.00000000E+00
  0.00000000E+00  0.00000000E+00  0.00000000E+00
  0.00000000E+00  0.00000000E+00  0.00000000E+00
  0.00000000E+00  0.00000000E+00  0.00000000E+00
  0.00000000E+00  0.00000000E+00  0.00000000E+00
  0.00000000E+00  0.00000000E+00  0.00000000E+00
  0.00000000E+00  0.00000000E+00  0.00000000E+00
  0.00000000E+00  0.00000000E+00  0.00000000E+00
  0.00000000E+00  0.00000000E+00  0.00000000E+00
  0.00000000E+00  0.00000000E+00  0.00000000E+00
  0.00000000E+00  0.00000000E+00  0.00000000E+00
  0.00000000E+00  0.00000000E+00  0.00000000E+00
  0.00000000E+00  0.00000000E+00  0.00000000E+00
  0.00000000E+00  0.00000000E+00  0.00000000E+00
  0.00000000E+00  0.00000000E+00  0.00000000E+00
  0.00000000E+00  0.00000000E+00  0.00000000E+00
  0.00000000E+00  0.00000000E+00  0.00000000E+00
  0.00000000E+00  0.00000000E+00  0.00000000E+00
  0.00000000E+00  0.00000000E+00  0.00000000E+00
  0.00000000E+00  0.00000000E+00  0.00000000E+00
  0.00000000E+00  0.00000000E+00  0.00000000E+00
  0.00000000E+00  0.00000000E+00  0.00000000E+00
  0.00000000E+00  0.00000000E+00  0.00000000E+00
  0.00000000E+00  0.00000000E+00  0.00000000E+00
  0.00000000E+00  0.00000000E+00  0.00000000E+00
  0.00000000E+00  0.00000000E+00  0.00000000E+00
  0.00000000E+00  0.00000000E+00  0.00000000E+00
  0.00000000E+00  0.00000000E+00  0.00000000E+00
  0.00000000E+00  0.00000000E+00  0.00000000E+00
  0.00000000E+00  0.00000000E+00  0.00000000E+00
  0.00000000E+00  0.00000000E+00  0.00000000E+00
  0.00000000E+00  0.00000000E+00  0.00000000E+00
