Ca Fe Li O                              
   1.00000000000000     
     9.6048500000000008    0.0000000000000000    0.0000000000000000
     0.0000000000000000    9.6048500000000008    0.0000000000000000
     0.0000000000000000    0.0000000000000000   24.6048000000000009
   Ca   Fe   Li   O 
    31     1     1    32
Selective dynamics
Direct
  0.2498995958507125  0.0001148061861277  0.0983014298314685   T   T   T
  0.7498617273802076  0.0001296907887716  0.0988064879241552   T   T   T
  0.9998638029215740  0.2501697242889581  0.0983690902232377   T   T   T
  0.4999670848713610  0.2502757694275909  0.0986629027021701   T   T   T
  0.2500139060545367  0.5002379266131662  0.0979808626241690   T   T   T
  0.7497690171091281  0.5002479732128216  0.0983251645959943   T   T   T
  0.9997979039616378  0.7501648062462639  0.0984985343959343   T   T   T
  0.4999050572211490  0.7500931033744321  0.0987982289662226   T   T   T
  0.0006876185566029  0.9998819105199040  0.1952955783786453   T   T   T
  0.4991317320136636  0.0000909134166197  0.1954186658350459   T   T   T
  0.2500656684522805  0.2505475770520427  0.1951834962707208   T   T   T
  0.7498861584185108  0.2512636825381628  0.1953061792962555   T   T   T
  0.0001240143126565  0.5003940235795877  0.1950924319730237   T   T   T
  0.4998313133340729  0.5002948858025021  0.1955466083681318   T   T   T
  0.2496066276010902  0.7497892358255845  0.1953871144613295   T   T   T
  0.7500174599665961  0.7491087573287517  0.1955255798260222   T   T   T
  0.2493474731455763  0.0000385155860209  0.2924640927271707   T   T   T
  0.7504097605919732  0.0000717076059528  0.2907976469450068   T   T   T
 -0.0002078269431667  0.2522218230349095  0.2929205112028102   T   T   T
  0.5003361787861490  0.2507324673936566  0.2942334635600502   T   T   T
  0.2483436747076988  0.5003462242816183  0.2918835733608486   T   T   T
  0.7521830627745586  0.5002992761712648  0.2934592010327010   T   T   T
  0.9994948170387608  0.7474298564217563  0.2946161658761792   T   T   T
  0.4999349278086200  0.7496420545663040  0.2945658256092499   T   T   T
  0.0130170748565822  0.0044569918456685  0.3893440736479026   T   T   T
  0.4846649661473194  0.9994992170995101  0.3906829844769090   T   T   T
  0.2459781407713277  0.2568312245765521  0.3898487012033375   T   T   T
  0.7566480995378295  0.2724136845878542  0.3912834471647431   T   T   T
  0.4927762861608002  0.5011893733489993  0.3892232384871134   T   T   T
  0.2399551602285024  0.7422416666549699  0.3902851430113479   T   T   T
  0.7592723341110100  0.7287674362318238  0.3916852059367691   T   T   T
  0.7502074794477231  0.0000286209039497  0.4741726943465132   T   T   T
  0.0329858600105469  0.4764333538096110  0.3760434672446911   T   T   T
  0.9993704055647905  0.0000825264375915  0.0992277079952025   T   T   T
  0.5004855636539981  0.0001482309035620  0.0995729868142547   T   T   T
  0.2502393295639925  0.2496304973017812  0.0989176448088224   T   T   T
  0.7496014990203165  0.2495906160768784  0.0995175709594346   T   T   T
  0.9993895986385554  0.5002684051683337  0.0984988536499425   T   T   T
  0.5003563365812622  0.5002310391514680  0.0989306151348148   T   T   T
  0.2501173833427556  0.7506756916607678  0.0990500284585742   T   T   T
  0.7496251430977221  0.7507607528334590  0.0996463330748042   T   T   T
  0.2501484636455445  0.0001050345002730  0.1950322054949069   T   T   T
  0.7495745136763211  0.0001902155525189  0.1962268375085134   T   T   T
  0.9994753515661425  0.2495814675392817  0.1941062175524504   T   T   T
  0.5004932617480985  0.2494322025830979  0.1949965828850201   T   T   T
  0.2501291040722489  0.5002067948688518  0.1936169066654151   T   T   T
  0.7496908836830871  0.5002113885331649  0.1948645813986421   T   T   T
  0.9993210135551795  0.7508006543528649  0.1945260482919165   T   T   T
  0.5002505877476540  0.7509177378673665  0.1951533986504236   T   T   T
  0.9968972068738952  0.0013606333322559  0.2937284362026387   T   T   T
  0.5030049499380892  0.0000186668165280  0.2953513897421228   T   T   T
  0.2504158044303057  0.2490388460284798  0.2930986703492440   T   T   T
  0.7499447994163240  0.2474269624691593  0.2951970008978876   T   T   T
  0.0006575979133250  0.4990452204174455  0.2918009264118066   T   T   T
  0.4992045903088990  0.5003352436073333  0.2927700217590815   T   T   T
  0.2493453869372311  0.7510701884184063  0.2935341981614272   T   T   T
  0.7499824547034745  0.7527425669861715  0.2954054284014036   T   T   T
  0.2493636080654179  0.0018266780797164  0.3889499116152524   T   T   T
  0.7485531944492185  0.0032351813607522  0.4045205311857232   T   T   T
  0.0005721291079387  0.2496444009799600  0.3869625997414601   T   T   T
  0.4987593708854449  0.2485628999156035  0.3897144452828487   T   T   T
  0.2465095361620559  0.4990035368511640  0.3859820424298208   T   T   T
  0.7318951834066653  0.5005103102692826  0.3875837455846313   T   T   T
  0.9977079852774617  0.7675679881310601  0.3880869724422847   T   T   T
  0.4975133370639366  0.7522600435857409  0.3899891826513864   T   T   T
 
  0.00000000E+00  0.00000000E+00  0.00000000E+00
  0.00000000E+00  0.00000000E+00  0.00000000E+00
  0.00000000E+00  0.00000000E+00  0.00000000E+00
  0.00000000E+00  0.00000000E+00  0.00000000E+00
  0.00000000E+00  0.00000000E+00  0.00000000E+00
  0.00000000E+00  0.00000000E+00  0.00000000E+00
  0.00000000E+00  0.00000000E+00  0.00000000E+00
  0.00000000E+00  0.00000000E+00  0.00000000E+00
  0.00000000E+00  0.00000000E+00  0.00000000E+00
  0.00000000E+00  0.00000000E+00  0.00000000E+00
  0.00000000E+00  0.00000000E+00  0.00000000E+00
  0.00000000E+00  0.00000000E+00  0.00000000E+00
  0.00000000E+00  0.00000000E+00  0.00000000E+00
  0.00000000E+00  0.00000000E+00  0.00000000E+00
  0.00000000E+00  0.00000000E+00  0.00000000E+00
  0.00000000E+00  0.00000000E+00  0.00000000E+00
  0.00000000E+00  0.00000000E+00  0.00000000E+00
  0.00000000E+00  0.00000000E+00  0.00000000E+00
  0.00000000E+00  0.00000000E+00  0.00000000E+00
  0.00000000E+00  0.00000000E+00  0.00000000E+00
  0.00000000E+00  0.00000000E+00  0.00000000E+00
  0.00000000E+00  0.00000000E+00  0.00000000E+00
  0.00000000E+00  0.00000000E+00  0.00000000E+00
  0.00000000E+00  0.00000000E+00  0.00000000E+00
  0.00000000E+00  0.00000000E+00  0.00000000E+00
  0.00000000E+00  0.00000000E+00  0.00000000E+00
  0.00000000E+00  0.00000000E+00  0.00000000E+00
  0.00000000E+00  0.00000000E+00  0.00000000E+00
  0.00000000E+00  0.00000000E+00  0.00000000E+00
  0.00000000E+00  0.00000000E+00  0.00000000E+00
  0.00000000E+00  0.00000000E+00  0.00000000E+00
  0.00000000E+00  0.00000000E+00  0.00000000E+00
  0.00000000E+00  0.00000000E+00  0.00000000E+00
  0.00000000E+00  0.00000000E+00  0.00000000E+00
  0.00000000E+00  0.00000000E+00  0.00000000E+00
  0.00000000E+00  0.00000000E+00  0.00000000E+00
  0.00000000E+00  0.00000000E+00  0.00000000E+00
  0.00000000E+00  0.00000000E+00  0.00000000E+00
  0.00000000E+00  0.00000000E+00  0.00000000E+00
  0.00000000E+00  0.00000000E+00  0.00000000E+00
  0.00000000E+00  0.00000000E+00  0.00000000E+00
  0.00000000E+00  0.00000000E+00  0.00000000E+00
  0.00000000E+00  0.00000000E+00  0.00000000E+00
  0.00000000E+00  0.00000000E+00  0.00000000E+00
  0.00000000E+00  0.00000000E+00  0.00000000E+00
  0.00000000E+00  0.00000000E+00  0.00000000E+00
  0.00000000E+00  0.00000000E+00  0.00000000E+00
  0.00000000E+00  0.00000000E+00  0.00000000E+00
  0.00000000E+00  0.00000000E+00  0.00000000E+00
  0.00000000E+00  0.00000000E+00  0.00000000E+00
  0.00000000E+00  0.00000000E+00  0.00000000E+00
  0.00000000E+00  0.00000000E+00  0.00000000E+00
  0.00000000E+00  0.00000000E+00  0.00000000E+00
  0.00000000E+00  0.00000000E+00  0.00000000E+00
  0.00000000E+00  0.00000000E+00  0.00000000E+00
  0.00000000E+00  0.00000000E+00  0.00000000E+00
  0.00000000E+00  0.00000000E+00  0.00000000E+00
  0.00000000E+00  0.00000000E+00  0.00000000E+00
  0.00000000E+00  0.00000000E+00  0.00000000E+00
  0.00000000E+00  0.00000000E+00  0.00000000E+00
  0.00000000E+00  0.00000000E+00  0.00000000E+00
  0.00000000E+00  0.00000000E+00  0.00000000E+00
  0.00000000E+00  0.00000000E+00  0.00000000E+00
  0.00000000E+00  0.00000000E+00  0.00000000E+00
  0.00000000E+00  0.00000000E+00  0.00000000E+00
