Ca Li O Mn                              
   1.00000000000000     
     9.6048500000000008    0.0000000000000000    0.0000000000000000
     0.0000000000000000    9.6048500000000008    0.0000000000000000
     0.0000000000000000    0.0000000000000000   24.6048000000000009
   Ca   Li   O    Mn
    31     1    32     1
Selective dynamics
Direct
  0.2499015194420316  0.0000974624486230  0.0981590957395261   T   T   T
  0.7498309406914184  0.0000891047978934  0.0985012410508387   T   T   T
  0.9999406567497374  0.2502895912978901  0.0980101717120398   T   T   T
  0.4998373154117793  0.2503447395582071  0.0983492933636975   T   T   T
  0.2499379743757361  0.5003360312639342  0.0978103973687690   T   T   T
  0.7497655573385887  0.5003287164309217  0.0980806648560274   T   T   T
  0.9998701884518282  0.7501216324372835  0.0982651723413401   T   T   T
  0.4997601199151897  0.7501102939745017  0.0986113170764288   T   T   T
  0.0008939276217312  0.9998213797818871  0.1949037606358694   T   T   T
  0.4988670664623292  0.0001015450910055  0.1951274073531063   T   T   T
  0.2500829917261719  0.2508340039358365  0.1948867874710290   T   T   T
  0.7498071183891956  0.2516103419254502  0.1948622861613238   T   T   T
  0.0002372002981518  0.5005268078284909  0.1948509324538282   T   T   T
  0.4995467367645861  0.5004414289866909  0.1952781740447564   T   T   T
  0.2495111015890352  0.7496451558319004  0.1952494439106649   T   T   T
  0.7500005385576594  0.7487866348965325  0.1952428468799877   T   T   T
  0.2492524260445289  0.0000890321709267  0.2922939629914906   T   T   T
  0.7505227891508429  0.0000614681450684  0.2897856310803703   T   T   T
 -0.0001003368719291  0.2522011667588199  0.2922822182779392   T   T   T
  0.5002962228096458  0.2509325529933394  0.2938421302165830   T   T   T
  0.2481299428359442  0.5004851887787889  0.2917865899986900   T   T   T
  0.7521559842552333  0.5003437756531317  0.2931756771949509   T   T   T
  0.9994316773118099  0.7474278662512583  0.2945623333031070   T   T   T
  0.4997667315007033  0.7497313818964521  0.2944152826797046   T   T   T
  0.0127929547491845  0.0060666998865291  0.3891125282838913   T   T   T
  0.4851819525731039  0.9994146375191936  0.3904232458936652   T   T   T
  0.2472054875268645  0.2568738205911151  0.3895506696646028   T   T   T
  0.7562383844675743  0.2722003099706125  0.3909617396650315   T   T   T
  0.4928860971127255  0.5016780905381155  0.3890066134133907   T   T   T
  0.2388063252699968  0.7420441064261183  0.3902496372621572   T   T   T
  0.7597366583653067  0.7289272610722508  0.3914922214859775   T   T   T
  0.0321192678132889  0.4697112536204470  0.3761123858693450   T   T   T
  0.9994888445780922  0.0000451885488349  0.0990209227311488   T   T   T
  0.5002777238601154  0.0001141635823828  0.0994542935393815   T   T   T
  0.2501613321016435  0.2497382356595090  0.0986903765085377   T   T   T
  0.7496264567412996  0.2497019930152565  0.0992440885637550   T   T   T
  0.9994653911402318  0.5003762717972685  0.0982680242759827   T   T   T
  0.5002088561972144  0.5003096120644328  0.0987501240821944   T   T   T
  0.2499975132871307  0.7506526367260592  0.0989663711163099   T   T   T
  0.7496365593340601  0.7507026599311495  0.0995105216236449   T   T   T
  0.2501324105195571  0.0001232281997603  0.1946497853787167   T   T   T
  0.7496108949558583  0.0001649392785980  0.1957456902587348   T   T   T
  0.9994863920393702  0.2496882167529620  0.1935999282250167   T   T   T
  0.5004246031260734  0.2496363614540877  0.1945014031648888   T   T   T
  0.2500377204529344  0.5003268314403853  0.1934064163256099   T   T   T
  0.7496262914293446  0.5002084996808955  0.1944040791869705   T   T   T
  0.9993580886972169  0.7507436346353782  0.1942286389991152   T   T   T
  0.5001659728843465  0.7509140287444008  0.1948242733665635   T   T   T
  0.9968657165228479  0.0018593705548482  0.2933842787735109   T   T   T
  0.5031500578197284  0.0000950444746687  0.2950047547425288   T   T   T
  0.2504326650041405  0.2492495277135177  0.2926582668680646   T   T   T
  0.7500038222453687  0.2470969563410659  0.2947850690820273   T   T   T
  0.0004945285441825  0.4987941209873192  0.2913521129565991   T   T   T
  0.4990055901684471  0.5005237137019920  0.2923640998287788   T   T   T
  0.2489886728652162  0.7510280959643815  0.2933783732228966   T   T   T
  0.7501559708609866  0.7529816144370175  0.2951293851841158   T   T   T
  0.2495413885523224  0.0024079146469620  0.3886712389490166   T   T   T
  0.7486431546563617  0.0049918659402731  0.4095874544919078   T   T   T
  0.0010054892242815  0.2517678225069407  0.3863310780724355   T   T   T
  0.4991760602407663  0.2488154413457611  0.3891112639516512   T   T   T
  0.2468522280271505  0.4987606117168988  0.3860328132323655   T   T   T
  0.7322722574569392  0.5005055245457378  0.3871255323528501   T   T   T
  0.9972275399402688  0.7700769940393150  0.3878419147160207   T   T   T
  0.4978808490791098  0.7526317657984403  0.3896038811534860   T   T   T
  0.7502327830613370  0.9980760355162975  0.4803806331860800   T   T   T
 
  0.00000000E+00  0.00000000E+00  0.00000000E+00
  0.00000000E+00  0.00000000E+00  0.00000000E+00
  0.00000000E+00  0.00000000E+00  0.00000000E+00
  0.00000000E+00  0.00000000E+00  0.00000000E+00
  0.00000000E+00  0.00000000E+00  0.00000000E+00
  0.00000000E+00  0.00000000E+00  0.00000000E+00
  0.00000000E+00  0.00000000E+00  0.00000000E+00
  0.00000000E+00  0.00000000E+00  0.00000000E+00
  0.00000000E+00  0.00000000E+00  0.00000000E+00
  0.00000000E+00  0.00000000E+00  0.00000000E+00
  0.00000000E+00  0.00000000E+00  0.00000000E+00
  0.00000000E+00  0.00000000E+00  0.00000000E+00
  0.00000000E+00  0.00000000E+00  0.00000000E+00
  0.00000000E+00  0.00000000E+00  0.00000000E+00
  0.00000000E+00  0.00000000E+00  0.00000000E+00
  0.00000000E+00  0.00000000E+00  0.00000000E+00
  0.00000000E+00  0.00000000E+00  0.00000000E+00
  0.00000000E+00  0.00000000E+00  0.00000000E+00
  0.00000000E+00  0.00000000E+00  0.00000000E+00
  0.00000000E+00  0.00000000E+00  0.00000000E+00
  0.00000000E+00  0.00000000E+00  0.00000000E+00
  0.00000000E+00  0.00000000E+00  0.00000000E+00
  0.00000000E+00  0.00000000E+00  0.00000000E+00
  0.00000000E+00  0.00000000E+00  0.00000000E+00
  0.00000000E+00  0.00000000E+00  0.00000000E+00
  0.00000000E+00  0.00000000E+00  0.00000000E+00
  0.00000000E+00  0.00000000E+00  0.00000000E+00
  0.00000000E+00  0.00000000E+00  0.00000000E+00
  0.00000000E+00  0.00000000E+00  0.00000000E+00
  0.00000000E+00  0.00000000E+00  0.00000000E+00
  0.00000000E+00  0.00000000E+00  0.00000000E+00
  0.00000000E+00  0.00000000E+00  0.00000000E+00
  0.00000000E+00  0.00000000E+00  0.00000000E+00
  0.00000000E+00  0.00000000E+00  0.00000000E+00
  0.00000000E+00  0.00000000E+00  0.00000000E+00
  0.00000000E+00  0.00000000E+00  0.00000000E+00
  0.00000000E+00  0.00000000E+00  0.00000000E+00
  0.00000000E+00  0.00000000E+00  0.00000000E+00
  0.00000000E+00  0.00000000E+00  0.00000000E+00
  0.00000000E+00  0.00000000E+00  0.00000000E+00
  0.00000000E+00  0.00000000E+00  0.00000000E+00
  0.00000000E+00  0.00000000E+00  0.00000000E+00
  0.00000000E+00  0.00000000E+00  0.00000000E+00
  0.00000000E+00  0.00000000E+00  0.00000000E+00
  0.00000000E+00  0.00000000E+00  0.00000000E+00
  0.00000000E+00  0.00000000E+00  0.00000000E+00
  0.00000000E+00  0.00000000E+00  0.00000000E+00
  0.00000000E+00  0.00000000E+00  0.00000000E+00
  0.00000000E+00  0.00000000E+00  0.00000000E+00
  0.00000000E+00  0.00000000E+00  0.00000000E+00
  0.00000000E+00  0.00000000E+00  0.00000000E+00
  0.00000000E+00  0.00000000E+00  0.00000000E+00
  0.00000000E+00  0.00000000E+00  0.00000000E+00
  0.00000000E+00  0.00000000E+00  0.00000000E+00
  0.00000000E+00  0.00000000E+00  0.00000000E+00
  0.00000000E+00  0.00000000E+00  0.00000000E+00
  0.00000000E+00  0.00000000E+00  0.00000000E+00
  0.00000000E+00  0.00000000E+00  0.00000000E+00
  0.00000000E+00  0.00000000E+00  0.00000000E+00
  0.00000000E+00  0.00000000E+00  0.00000000E+00
  0.00000000E+00  0.00000000E+00  0.00000000E+00
  0.00000000E+00  0.00000000E+00  0.00000000E+00
  0.00000000E+00  0.00000000E+00  0.00000000E+00
  0.00000000E+00  0.00000000E+00  0.00000000E+00
  0.00000000E+00  0.00000000E+00  0.00000000E+00
