Ca Li Ni O                              
   1.00000000000000     
     9.6048500000000008    0.0000000000000000    0.0000000000000000
     0.0000000000000000    9.6048500000000008    0.0000000000000000
     0.0000000000000000    0.0000000000000000   24.6048000000000009
   Ca   Li   Ni   O 
    31     1     1    32
Selective dynamics
Direct
  0.2499492792523695  0.0001152494822177  0.0986849439626968   T   T   T
  0.7498315247656222  0.0001119709778084  0.0993356434731536   T   T   T
  0.9999069015532845  0.2502555747461311  0.0985297912151381   T   T   T
  0.4998875980157541  0.2503083818823367  0.0989110369413636   T   T   T
  0.2500210541571674  0.5002424969789960  0.0980816941158879   T   T   T
  0.7497797071327237  0.5002449113432447  0.0986165370640614   T   T   T
  0.9998359259803230  0.7500906470805082  0.0986897311791434   T   T   T
  0.4998190542246438  0.7500479919251529  0.0990627165579795   T   T   T
  0.0001903409875414  0.9998907044617988  0.1956320135518026   T   T   T
  0.4995411810619839  0.0000764236128678  0.1958523490748599   T   T   T
  0.2501393199762832  0.2503574091625164  0.1952869093495035   T   T   T
  0.7499321441260008  0.2508219668956700  0.1956621076964701   T   T   T
  0.0000198807019316  0.5003862905229136  0.1952151658778372   T   T   T
  0.4999657127582785  0.5002611135093261  0.1956183791000343   T   T   T
  0.2496471697500549  0.7499738432071561  0.1954917469349958   T   T   T
  0.7500048218965094  0.7495527972825202  0.1958884184107557   T   T   T
  0.2493452011982708  0.0000524168686007  0.2927118405569271   T   T   T
  0.7504708205211474  0.0001045990876998  0.2921225161582894   T   T   T
  0.0001131351360837  0.2522434460920536  0.2927785066282815   T   T   T
  0.5002333333407019  0.2506812876731378  0.2942396315733923   T   T   T
  0.2486072677700339  0.5003146342170406  0.2918311011778652   T   T   T
  0.7522025783410708  0.5003144282186225  0.2935976236442579   T   T   T
  0.9996381921149100  0.7474296688870516  0.2944562090619762   T   T   T
  0.4996675243719089  0.7495587503463171  0.2945322149119697   T   T   T
  0.0110123349324511  0.0049049838735252  0.3897789560208048   T   T   T
  0.4866955747482937  0.9992264539201926  0.3910762115528335   T   T   T
  0.2461404777199736  0.2564835058247584  0.3899930517830786   T   T   T
  0.7569789353600240  0.2706931979223002  0.3914971149889513   T   T   T
  0.4926599331916603  0.5010567951059696  0.3893760384896199   T   T   T
  0.2403184226355942  0.7426513141028102  0.3904098537752339   T   T   T
  0.7584808369420449  0.7307564974104070  0.3918898874332705   T   T   T
  0.0329449068578034  0.4762933365644562  0.3758013605275320   T   T   T
  0.7493717739933404  0.0008618210663492  0.4685690562844473   T   T   T
  0.9992824970092689  0.0000687576906167  0.0994745088880985   T   T   T
  0.5004200819489322  0.0001395864818256  0.0999690953386067   T   T   T
  0.2501759573535831  0.2495532736006314  0.0990971680564492   T   T   T
  0.7495962007721182  0.2495167295461144  0.0998062878406711   T   T   T
  0.9993958806236646  0.5002759487270347  0.0987096183106536   T   T   T
  0.5004071116772375  0.5002333812784294  0.0991476256811173   T   T   T
  0.2500437846310183  0.7507743154097732  0.0992567656311925   T   T   T
  0.7495984219919715  0.7508085267194695  0.0999661881224701   T   T   T
  0.2500825267140060  0.0000921842635904  0.1950546379453082   T   T   T
  0.7496562135449631  0.0001405343309654  0.1965631199997487   T   T   T
  0.9996170677642978  0.2497091893156236  0.1941818893819214   T   T   T
  0.5004509882832512  0.2495916932160885  0.1951095875765197   T   T   T
  0.2501245229431663  0.5002148086615643  0.1937562342373374   T   T   T
  0.7497387959156816  0.5001921549278373  0.1949284902955468   T   T   T
  0.9994202837102177  0.7506665726850658  0.1946450430666213   T   T   T
  0.5001633709294634  0.7507361007153498  0.1952836215718835   T   T   T
  0.9976827395367794  0.0013640616377697  0.2938147911830530   T   T   T
  0.5022191414966315 -0.0000225246708944  0.2953696518319455   T   T   T
  0.2504490679499179  0.2493253836230253  0.2931586925198096   T   T   T
  0.7501751354525575  0.2482547373941665  0.2952607447095606   T   T   T
  0.0009433547762984  0.4991536865285884  0.2919086982706151   T   T   T
  0.4990956031012431  0.5002398649838624  0.2928272179992046   T   T   T
  0.2491226639700999  0.7507756884234832  0.2936106268336703   T   T   T
  0.7500835620346843  0.7519681901381970  0.2955128526265845   T   T   T
  0.2494023881522335  0.0017180639765388  0.3891684753869615   T   T   T
  0.7489052642092782  0.0025947006626416  0.3989057485234263   T   T   T
  0.0014763237543042  0.2506482394511996  0.3869305419956370   T   T   T
  0.4984488892044558  0.2489837150454124  0.3898060618325885   T   T   T
  0.2466399640481265  0.4989954764787267  0.3860698734483847   T   T   T
  0.7319065253735906  0.5005553139637083  0.3878581590246563   T   T   T
  0.9979002318617688  0.7669298241066899  0.3882267726582427   T   T   T
  0.4963943050543596  0.7513678133364635  0.3899686638450912   T   T   T
 
  0.00000000E+00  0.00000000E+00  0.00000000E+00
  0.00000000E+00  0.00000000E+00  0.00000000E+00
  0.00000000E+00  0.00000000E+00  0.00000000E+00
  0.00000000E+00  0.00000000E+00  0.00000000E+00
  0.00000000E+00  0.00000000E+00  0.00000000E+00
  0.00000000E+00  0.00000000E+00  0.00000000E+00
  0.00000000E+00  0.00000000E+00  0.00000000E+00
  0.00000000E+00  0.00000000E+00  0.00000000E+00
  0.00000000E+00  0.00000000E+00  0.00000000E+00
  0.00000000E+00  0.00000000E+00  0.00000000E+00
  0.00000000E+00  0.00000000E+00  0.00000000E+00
  0.00000000E+00  0.00000000E+00  0.00000000E+00
  0.00000000E+00  0.00000000E+00  0.00000000E+00
  0.00000000E+00  0.00000000E+00  0.00000000E+00
  0.00000000E+00  0.00000000E+00  0.00000000E+00
  0.00000000E+00  0.00000000E+00  0.00000000E+00
  0.00000000E+00  0.00000000E+00  0.00000000E+00
  0.00000000E+00  0.00000000E+00  0.00000000E+00
  0.00000000E+00  0.00000000E+00  0.00000000E+00
  0.00000000E+00  0.00000000E+00  0.00000000E+00
  0.00000000E+00  0.00000000E+00  0.00000000E+00
  0.00000000E+00  0.00000000E+00  0.00000000E+00
  0.00000000E+00  0.00000000E+00  0.00000000E+00
  0.00000000E+00  0.00000000E+00  0.00000000E+00
  0.00000000E+00  0.00000000E+00  0.00000000E+00
  0.00000000E+00  0.00000000E+00  0.00000000E+00
  0.00000000E+00  0.00000000E+00  0.00000000E+00
  0.00000000E+00  0.00000000E+00  0.00000000E+00
  0.00000000E+00  0.00000000E+00  0.00000000E+00
  0.00000000E+00  0.00000000E+00  0.00000000E+00
  0.00000000E+00  0.00000000E+00  0.00000000E+00
  0.00000000E+00  0.00000000E+00  0.00000000E+00
  0.00000000E+00  0.00000000E+00  0.00000000E+00
  0.00000000E+00  0.00000000E+00  0.00000000E+00
  0.00000000E+00  0.00000000E+00  0.00000000E+00
  0.00000000E+00  0.00000000E+00  0.00000000E+00
  0.00000000E+00  0.00000000E+00  0.00000000E+00
  0.00000000E+00  0.00000000E+00  0.00000000E+00
  0.00000000E+00  0.00000000E+00  0.00000000E+00
  0.00000000E+00  0.00000000E+00  0.00000000E+00
  0.00000000E+00  0.00000000E+00  0.00000000E+00
  0.00000000E+00  0.00000000E+00  0.00000000E+00
  0.00000000E+00  0.00000000E+00  0.00000000E+00
  0.00000000E+00  0.00000000E+00  0.00000000E+00
  0.00000000E+00  0.00000000E+00  0.00000000E+00
  0.00000000E+00  0.00000000E+00  0.00000000E+00
  0.00000000E+00  0.00000000E+00  0.00000000E+00
  0.00000000E+00  0.00000000E+00  0.00000000E+00
  0.00000000E+00  0.00000000E+00  0.00000000E+00
  0.00000000E+00  0.00000000E+00  0.00000000E+00
  0.00000000E+00  0.00000000E+00  0.00000000E+00
  0.00000000E+00  0.00000000E+00  0.00000000E+00
  0.00000000E+00  0.00000000E+00  0.00000000E+00
  0.00000000E+00  0.00000000E+00  0.00000000E+00
  0.00000000E+00  0.00000000E+00  0.00000000E+00
  0.00000000E+00  0.00000000E+00  0.00000000E+00
  0.00000000E+00  0.00000000E+00  0.00000000E+00
  0.00000000E+00  0.00000000E+00  0.00000000E+00
  0.00000000E+00  0.00000000E+00  0.00000000E+00
  0.00000000E+00  0.00000000E+00  0.00000000E+00
  0.00000000E+00  0.00000000E+00  0.00000000E+00
  0.00000000E+00  0.00000000E+00  0.00000000E+00
  0.00000000E+00  0.00000000E+00  0.00000000E+00
  0.00000000E+00  0.00000000E+00  0.00000000E+00
  0.00000000E+00  0.00000000E+00  0.00000000E+00
