Ca Li O Pt                              
   1.00000000000000     
     9.6048500000000008    0.0000000000000000    0.0000000000000000
     0.0000000000000000    9.6048500000000008    0.0000000000000000
     0.0000000000000000    0.0000000000000000   24.6048000000000009
   Ca   Li   O    Pt
    31     1    32     1
Selective dynamics
Direct
  0.2499745476198132  0.0000816923386606  0.0988426112553391   T   T   T
  0.7498325071913107  0.0000889767482429  0.0992053815519289   T   T   T
  0.9997609276425482  0.2499595771798582  0.0985890874493038   T   T   T
  0.5001143297586216  0.2500222676957406  0.0988962622175029   T   T   T
  0.2500352548311489  0.5002113215528459  0.0984489770006280   T   T   T
  0.7498293984321488  0.5002053827416206  0.0988361664476822   T   T   T
  0.9997313097519049  0.7503122872265305  0.0987322625745727   T   T   T
  0.5000687478582635  0.7503140555955192  0.0990278750956491   T   T   T
  0.0003539300334821  0.9998843966215141  0.1959075563366149   T   T   T
  0.4994252488290316  0.0000934618578346  0.1962140790721259   T   T   T
  0.2501153655503064  0.2502156099057133  0.1954978302099470   T   T   T
  0.7499240157847588  0.2509815207417120  0.1960472618652722   T   T   T
 -0.0000401840673483  0.5002925258155861  0.1954217052481549   T   T   T
  0.5002098874669743  0.5002450929650931  0.1958444345570739   T   T   T
  0.2497186146517649  0.7500396197047769  0.1957072246061137   T   T   T
  0.7499923019708622  0.7493628582757653  0.1962467287532907   T   T   T
  0.2492452005593318 -0.0000080527721451  0.2934137337885102   T   T   T
  0.7502947435035293  0.0001441206597551  0.2926997936708248   T   T   T
  0.9997571488052457  0.2515881094824996  0.2930419057784408   T   T   T
  0.5006519339900125  0.2502451825780848  0.2943954514296821   T   T   T
  0.2486657967916532  0.5002617218049852  0.2919383536595882   T   T   T
  0.7523674505678066  0.5003642063705527  0.2942225271502584   T   T   T
  0.9993824741253217  0.7478963855034049  0.2944632131531959   T   T   T
  0.5000799950913732  0.7500790176802526  0.2946724846813666   T   T   T
  0.0093066205823887  0.0044303883377750  0.3910878144843699   T   T   T
  0.4884823601442342  0.9995111801233171  0.3922972309656368   T   T   T
  0.2461891742995525  0.2557141909205799  0.3903548185477392   T   T   T
  0.7564722056695478  0.2689388097788604  0.3929404532730137   T   T   T
  0.4932402176964352  0.5009257413647595  0.3897187672822683   T   T   T
  0.2413026476051975  0.7436572943779224  0.3907059939622556   T   T   T
  0.7584540010072786  0.7327561025322196  0.3932896530643129   T   T   T
  0.0320121000339244  0.4768852843357063  0.3758864745361891   T   T   T
  0.9994858408080655  0.0000308010793879  0.0993992593981269   T   T   T
  0.5001943515776925  0.0001619663963031  0.0998311340529128   T   T   T
  0.2501497281739012  0.2497715621631404  0.0990217141434181   T   T   T
  0.7496929058948658  0.2498629354156619  0.0996914254268481   T   T   T
  0.9996169325012451  0.5002255813565846  0.0986923294314113   T   T   T
  0.5003123482423245  0.5002140091401369  0.0990748668915719   T   T   T
  0.2500785731380279  0.7504867090289096  0.0991767545792606   T   T   T
  0.7496840414837946  0.7504542072213125  0.0998509545322194   T   T   T
  0.2499866373279408  0.0000502725784625  0.1948706254736152   T   T   T
  0.7497817899234296  0.0001610956057154  0.1961903187258590   T   T   T
  0.9996731448274327  0.2497578220243671  0.1940302397447412   T   T   T
  0.5003509381205868  0.2497805072297520  0.1948405007353438   T   T   T
  0.2501095927715656  0.5001948832809390  0.1937707149015861   T   T   T
  0.7497951707900453  0.5001869438271666  0.1947455439410510   T   T   T
  0.9995895053459605  0.7505144544784275  0.1943891586856903   T   T   T
  0.5002391987657732  0.7506220221511692  0.1950069037831005   T   T   T
  0.9984282640852246  0.0011813218594056  0.2938787508115204   T   T   T
  0.5013465630825206  0.0000206926584227  0.2950519483590826   T   T   T
  0.2501730818284081  0.2494690561845069  0.2930829647549546   T   T   T
  0.7502843862860994  0.2491307390496214  0.2949637384507798   T   T   T
  0.0008966486309151  0.4991161055702574  0.2920632750321163   T   T   T
  0.4992490860663163  0.5003156389296795  0.2929572868576860   T   T   T
  0.2491049790724301  0.7506142230012351  0.2934898524176152   T   T   T
  0.7501623490410702  0.7512355800224749  0.2952085693302177   T   T   T
  0.2491826279128843  0.0016833834970456  0.3892879645353105   T   T   T
  0.7490062402752797  0.0018889629052428  0.3912216542987675   T   T   T
  0.0020422073981854  0.2512475125382354  0.3866622568603755   T   T   T
  0.4967820911520162  0.2504709235911270  0.3890886088351894   T   T   T
  0.2465869516163505  0.4991148653485797  0.3863192337409670   T   T   T
  0.7321822109386311  0.5007863081245785  0.3883326751771987   T   T   T
  0.9996053234202579  0.7652351868471967  0.3876088956400060   T   T   T
  0.4948304598196899  0.7503819410299215  0.3893642080769298   T   T   T
  0.7488172872076001  0.0018623587215053  0.4688077467146532   T   T   T
 
  0.00000000E+00  0.00000000E+00  0.00000000E+00
  0.00000000E+00  0.00000000E+00  0.00000000E+00
  0.00000000E+00  0.00000000E+00  0.00000000E+00
  0.00000000E+00  0.00000000E+00  0.00000000E+00
  0.00000000E+00  0.00000000E+00  0.00000000E+00
  0.00000000E+00  0.00000000E+00  0.00000000E+00
  0.00000000E+00  0.00000000E+00  0.00000000E+00
  0.00000000E+00  0.00000000E+00  0.00000000E+00
  0.00000000E+00  0.00000000E+00  0.00000000E+00
  0.00000000E+00  0.00000000E+00  0.00000000E+00
  0.00000000E+00  0.00000000E+00  0.00000000E+00
  0.00000000E+00  0.00000000E+00  0.00000000E+00
  0.00000000E+00  0.00000000E+00  0.00000000E+00
  0.00000000E+00  0.00000000E+00  0.00000000E+00
  0.00000000E+00  0.00000000E+00  0.00000000E+00
  0.00000000E+00  0.00000000E+00  0.00000000E+00
  0.00000000E+00  0.00000000E+00  0.00000000E+00
  0.00000000E+00  0.00000000E+00  0.00000000E+00
  0.00000000E+00  0.00000000E+00  0.00000000E+00
  0.00000000E+00  0.00000000E+00  0.00000000E+00
  0.00000000E+00  0.00000000E+00  0.00000000E+00
  0.00000000E+00  0.00000000E+00  0.00000000E+00
  0.00000000E+00  0.00000000E+00  0.00000000E+00
  0.00000000E+00  0.00000000E+00  0.00000000E+00
  0.00000000E+00  0.00000000E+00  0.00000000E+00
  0.00000000E+00  0.00000000E+00  0.00000000E+00
  0.00000000E+00  0.00000000E+00  0.00000000E+00
  0.00000000E+00  0.00000000E+00  0.00000000E+00
  0.00000000E+00  0.00000000E+00  0.00000000E+00
  0.00000000E+00  0.00000000E+00  0.00000000E+00
  0.00000000E+00  0.00000000E+00  0.00000000E+00
  0.00000000E+00  0.00000000E+00  0.00000000E+00
  0.00000000E+00  0.00000000E+00  0.00000000E+00
  0.00000000E+00  0.00000000E+00  0.00000000E+00
  0.00000000E+00  0.00000000E+00  0.00000000E+00
  0.00000000E+00  0.00000000E+00  0.00000000E+00
  0.00000000E+00  0.00000000E+00  0.00000000E+00
  0.00000000E+00  0.00000000E+00  0.00000000E+00
  0.00000000E+00  0.00000000E+00  0.00000000E+00
  0.00000000E+00  0.00000000E+00  0.00000000E+00
  0.00000000E+00  0.00000000E+00  0.00000000E+00
  0.00000000E+00  0.00000000E+00  0.00000000E+00
  0.00000000E+00  0.00000000E+00  0.00000000E+00
  0.00000000E+00  0.00000000E+00  0.00000000E+00
  0.00000000E+00  0.00000000E+00  0.00000000E+00
  0.00000000E+00  0.00000000E+00  0.00000000E+00
  0.00000000E+00  0.00000000E+00  0.00000000E+00
  0.00000000E+00  0.00000000E+00  0.00000000E+00
  0.00000000E+00  0.00000000E+00  0.00000000E+00
  0.00000000E+00  0.00000000E+00  0.00000000E+00
  0.00000000E+00  0.00000000E+00  0.00000000E+00
  0.00000000E+00  0.00000000E+00  0.00000000E+00
  0.00000000E+00  0.00000000E+00  0.00000000E+00
  0.00000000E+00  0.00000000E+00  0.00000000E+00
  0.00000000E+00  0.00000000E+00  0.00000000E+00
  0.00000000E+00  0.00000000E+00  0.00000000E+00
  0.00000000E+00  0.00000000E+00  0.00000000E+00
  0.00000000E+00  0.00000000E+00  0.00000000E+00
  0.00000000E+00  0.00000000E+00  0.00000000E+00
  0.00000000E+00  0.00000000E+00  0.00000000E+00
  0.00000000E+00  0.00000000E+00  0.00000000E+00
  0.00000000E+00  0.00000000E+00  0.00000000E+00
  0.00000000E+00  0.00000000E+00  0.00000000E+00
  0.00000000E+00  0.00000000E+00  0.00000000E+00
  0.00000000E+00  0.00000000E+00  0.00000000E+00
