Ca Li O Co                              
   1.00000000000000     
     9.6048500000000008    0.0000000000000000    0.0000000000000000
     0.0000000000000000    9.6048500000000008    0.0000000000000000
     0.0000000000000000    0.0000000000000000   24.6048000000000009
   Ca   Li   O    Co
    31     1    32     1
Selective dynamics
Direct
  0.2499381684409961  0.0000769541661107  0.0984723882660337   T   T   T
  0.7498573533662154  0.0001308515229687  0.0988737560270949   T   T   T
  0.9999865502024353  0.2502678649368635  0.0984034496332949   T   T   T
  0.4998464436973093  0.2503493416853490  0.0986696081937259   T   T   T
  0.2499949541214229  0.5002768716156355  0.0981366975577370   T   T   T
  0.7498431389159852  0.5002839417881333  0.0984683476535376   T   T   T
  0.9999260313553769  0.7500746511764153  0.0985584818981151   T   T   T
  0.4998308366203735  0.7500493526645672  0.0988526383202783   T   T   T
  0.0006149642368879  0.9997965816904356  0.1953039371044425   T   T   T
  0.4991793636219274  0.0000603411515274  0.1954566674417900   T   T   T
  0.2500684801842507  0.2506021200883075  0.1952033366462595   T   T   T
  0.7498520424556401  0.2513479579034898  0.1953195504364132   T   T   T
  0.0001559938013940  0.5003988242467737  0.1952109850365850   T   T   T
  0.4997819564368078  0.5003299075480541  0.1955466916515644   T   T   T
  0.2495965777953094  0.7496887902348016  0.1954564474909015   T   T   T
  0.7500366336540271  0.7490407507149710  0.1956007539001471   T   T   T
  0.2492931596167677  0.9999881821454166  0.2924283424043340   T   T   T
  0.7503954252049738  0.0000793655548967  0.2910736234369987   T   T   T
  0.9999099468040937  0.2521997853703667  0.2927022738882880   T   T   T
  0.5001735721714805  0.2509397718728075  0.2940931802649812   T   T   T
  0.2483298186745158  0.5003339685867751  0.2920851913932652   T   T   T
  0.7521098434739140  0.5004533204333403  0.2934686852329386   T   T   T
  0.9995870282816230  0.7472903598593398  0.2946329360147477   T   T   T
  0.4997353907009721  0.7495350356083272  0.2945130361939433   T   T   T
  0.0133328284401356  0.0050424152999017  0.3890106969429635   T   T   T
  0.4851751075879076  0.9993830797215513  0.3902667589105218   T   T   T
  0.2467906030399123  0.2569113528657674  0.3899250544440583   T   T   T
  0.7560335924072753  0.2723776506682099  0.3908508399153295   T   T   T
  0.4928470880150916  0.5014807682087749  0.3893517132469940   T   T   T
  0.2397580377095804  0.7419284206338991  0.3904552693167778   T   T   T
  0.7590907015663138  0.7294255382182927  0.3914612047776193   T   T   T
  0.0321188484834736  0.4733938136521527  0.3763560139914249   T   T   T
  0.9995033330702170  0.0000530529359715  0.0993305070574469   T   T   T
  0.5003317401267268  0.0001291734378882  0.0997054271045935   T   T   T
  0.2501469635283361  0.2497188435001388  0.0990495232251426   T   T   T
  0.7496832162408071  0.2496893999988862  0.0995888510886768   T   T   T
  0.9995491840759830  0.5002912897897117  0.0986831465028346   T   T   T
  0.5002562203344516  0.5002571004895763  0.0990812052089537   T   T   T
  0.2500604859230716  0.7506125390814953  0.0992324655790667   T   T   T
  0.7496993658565198  0.7506857669120813  0.0997843859984709   T   T   T
  0.2501243849779690  0.0000418715053212  0.1949451891428980   T   T   T
  0.7496630336643985  0.0001560182490168  0.1961449723636473   T   T   T
  0.9995875290600124  0.2496942568163516  0.1940828091741187   T   T   T
  0.5003455592499049  0.2496749158532076  0.1949133263356880   T   T   T
  0.2500891036672999  0.5002300616296076  0.1937860037391032   T   T   T
  0.7497295722477044  0.5002155647931847  0.1947963003593468   T   T   T
  0.9994835630390689  0.7505758012527451  0.1945889413694808   T   T   T
  0.5001452233921146  0.7507493258507087  0.1951339032886795   T   T   T
  0.9976177766375760  0.0015002234433183  0.2936225045193663   T   T   T
  0.5023134586062886  0.0000333074568134  0.2950375560027280   T   T   T
  0.2502987022762836  0.2492082341506128  0.2931838732173751   T   T   T
  0.7500188030837255  0.2480293883344410  0.2949389033179784   T   T   T
  0.0006622321456597  0.4988422342874083  0.2919371189597063   T   T   T
  0.4989646254323497  0.5003984810220914  0.2927650656853479   T   T   T
  0.2490962638478860  0.7508214624438637  0.2936874978222829   T   T   T
  0.7501586716093080  0.7522851102006188  0.2952570373612790   T   T   T
  0.2495683268750928  0.0020289823045071  0.3890812084336572   T   T   T
  0.7481733053989795  0.0026958838626475  0.4002583388363798   T   T   T
  0.0006820597971438  0.2506016388977476  0.3871096835126371   T   T   T
  0.4988177560913619  0.2487517784595741  0.3896681027383017   T   T   T
  0.2467866052808878  0.4987398862899784  0.3864050417029966   T   T   T
  0.7321380650913144  0.5008356806859615  0.3876603779927881   T   T   T
  0.9975865231544413  0.7683675418547574  0.3883859537670251   T   T   T
  0.4973177450594872  0.7522401397850056  0.3899891009856372   T   T   T
  0.7500574643872413  0.0030895170925652  0.4692060677843027   T   T   T
 
  0.00000000E+00  0.00000000E+00  0.00000000E+00
  0.00000000E+00  0.00000000E+00  0.00000000E+00
  0.00000000E+00  0.00000000E+00  0.00000000E+00
  0.00000000E+00  0.00000000E+00  0.00000000E+00
  0.00000000E+00  0.00000000E+00  0.00000000E+00
  0.00000000E+00  0.00000000E+00  0.00000000E+00
  0.00000000E+00  0.00000000E+00  0.00000000E+00
  0.00000000E+00  0.00000000E+00  0.00000000E+00
  0.00000000E+00  0.00000000E+00  0.00000000E+00
  0.00000000E+00  0.00000000E+00  0.00000000E+00
  0.00000000E+00  0.00000000E+00  0.00000000E+00
  0.00000000E+00  0.00000000E+00  0.00000000E+00
  0.00000000E+00  0.00000000E+00  0.00000000E+00
  0.00000000E+00  0.00000000E+00  0.00000000E+00
  0.00000000E+00  0.00000000E+00  0.00000000E+00
  0.00000000E+00  0.00000000E+00  0.00000000E+00
  0.00000000E+00  0.00000000E+00  0.00000000E+00
  0.00000000E+00  0.00000000E+00  0.00000000E+00
  0.00000000E+00  0.00000000E+00  0.00000000E+00
  0.00000000E+00  0.00000000E+00  0.00000000E+00
  0.00000000E+00  0.00000000E+00  0.00000000E+00
  0.00000000E+00  0.00000000E+00  0.00000000E+00
  0.00000000E+00  0.00000000E+00  0.00000000E+00
  0.00000000E+00  0.00000000E+00  0.00000000E+00
  0.00000000E+00  0.00000000E+00  0.00000000E+00
  0.00000000E+00  0.00000000E+00  0.00000000E+00
  0.00000000E+00  0.00000000E+00  0.00000000E+00
  0.00000000E+00  0.00000000E+00  0.00000000E+00
  0.00000000E+00  0.00000000E+00  0.00000000E+00
  0.00000000E+00  0.00000000E+00  0.00000000E+00
  0.00000000E+00  0.00000000E+00  0.00000000E+00
  0.00000000E+00  0.00000000E+00  0.00000000E+00
  0.00000000E+00  0.00000000E+00  0.00000000E+00
  0.00000000E+00  0.00000000E+00  0.00000000E+00
  0.00000000E+00  0.00000000E+00  0.00000000E+00
  0.00000000E+00  0.00000000E+00  0.00000000E+00
  0.00000000E+00  0.00000000E+00  0.00000000E+00
  0.00000000E+00  0.00000000E+00  0.00000000E+00
  0.00000000E+00  0.00000000E+00  0.00000000E+00
  0.00000000E+00  0.00000000E+00  0.00000000E+00
  0.00000000E+00  0.00000000E+00  0.00000000E+00
  0.00000000E+00  0.00000000E+00  0.00000000E+00
  0.00000000E+00  0.00000000E+00  0.00000000E+00
  0.00000000E+00  0.00000000E+00  0.00000000E+00
  0.00000000E+00  0.00000000E+00  0.00000000E+00
  0.00000000E+00  0.00000000E+00  0.00000000E+00
  0.00000000E+00  0.00000000E+00  0.00000000E+00
  0.00000000E+00  0.00000000E+00  0.00000000E+00
  0.00000000E+00  0.00000000E+00  0.00000000E+00
  0.00000000E+00  0.00000000E+00  0.00000000E+00
  0.00000000E+00  0.00000000E+00  0.00000000E+00
  0.00000000E+00  0.00000000E+00  0.00000000E+00
  0.00000000E+00  0.00000000E+00  0.00000000E+00
  0.00000000E+00  0.00000000E+00  0.00000000E+00
  0.00000000E+00  0.00000000E+00  0.00000000E+00
  0.00000000E+00  0.00000000E+00  0.00000000E+00
  0.00000000E+00  0.00000000E+00  0.00000000E+00
  0.00000000E+00  0.00000000E+00  0.00000000E+00
  0.00000000E+00  0.00000000E+00  0.00000000E+00
  0.00000000E+00  0.00000000E+00  0.00000000E+00
  0.00000000E+00  0.00000000E+00  0.00000000E+00
  0.00000000E+00  0.00000000E+00  0.00000000E+00
  0.00000000E+00  0.00000000E+00  0.00000000E+00
  0.00000000E+00  0.00000000E+00  0.00000000E+00
  0.00000000E+00  0.00000000E+00  0.00000000E+00
