Ag Ca Li O                              
   1.00000000000000     
     9.6048500000000008    0.0000000000000000    0.0000000000000000
     0.0000000000000000    9.6048500000000008    0.0000000000000000
     0.0000000000000000    0.0000000000000000   24.6048000000000009
   Ag   Ca   Li   O 
     1    31     1    32
Selective dynamics
Direct
  0.7521501122664039 -0.0020209136236122  0.4838852040324455   T   T   T
  0.2498818207810016  0.0001213384432243  0.0984255071032132   T   T   T
  0.7498318446143639  0.0000930971736327  0.0988872098938534   T   T   T
 -0.0001868962253498  0.2501083594441181  0.0984061001764998   T   T   T
  0.4999410964449161  0.2502338004424812  0.0986435891713638   T   T   T
  0.2499813007145419  0.5002505586090434  0.0979112890088917   T   T   T
  0.7497785351250579  0.5002287650544170  0.0984102937486117   T   T   T
 -0.0002140051845833  0.7501936413769670  0.0985599867093149   T   T   T
  0.4999277613719888  0.7501719391844605  0.0988010064425102   T   T   T
  0.0003031558463941 -0.0001373062675940  0.1953440669584919   T   T   T
  0.4994112713110432  0.0001144403796167  0.1954646373893327   T   T   T
  0.2500929529634405  0.2505681219913057  0.1950764128797478   T   T   T
  0.7497891218111693  0.2509228167662738  0.1953579789364173   T   T   T
  0.0001553095588192  0.5004139075966448  0.1950064882563309   T   T   T
  0.4997905415280747  0.5003468488025309  0.1954113932357767   T   T   T
  0.2496689686447602  0.7498200755062275  0.1953185788764109   T   T   T
  0.7499857838846791  0.7494028267143825  0.1956105560282961   T   T   T
  0.2492994254692542  0.0000346018779257  0.2924382271748265   T   T   T
  0.7502736642926323  0.0001535973276548  0.2919568928259591   T   T   T
  0.0003835796971542  0.2528603346070488  0.2925773228578286   T   T   T
  0.4997899290936513  0.2512426167682449  0.2938969609571794   T   T   T
  0.2485107347610480  0.5003265860927180  0.2920102220559293   T   T   T
  0.7520764588110419  0.5003207334078852  0.2933440195224276   T   T   T
  0.0000316235472470  0.7468176202169678  0.2943614032708552   T   T   T
  0.4993526941823325  0.7493214240890491  0.2943148749096254   T   T   T
  0.0090481198950111  0.0048053860994036  0.3881684462552474   T   T   T
  0.4887185108631892 -0.0001907858774658  0.3896626542070218   T   T   T
  0.2466700586231602  0.2553209187860570  0.3898959700508818   T   T   T
  0.7558373236032734  0.2694047617492110  0.3901053718964546   T   T   T
  0.4930359157859195  0.5011482222548677  0.3894035121603447   T   T   T
  0.2402425354958924  0.7435842921995138  0.3904287214752649   T   T   T
  0.7583590257393701  0.7318107161993836  0.3904446982335775   T   T   T
  0.0326961496804386  0.4752239032582499  0.3767106434516309   T   T   T
  0.9992766004963082  0.0000400140346911  0.0992959895447343   T   T   T
  0.5005088303201646  0.0001309500493556  0.0996275396543489   T   T   T
  0.2501571116425313  0.2496629990949087  0.0989350021071428   T   T   T
  0.7495734941972576  0.2494598948168505  0.0995759071366783   T   T   T
  0.9994137101898640  0.5002660000798856  0.0985607611453864   T   T   T
  0.5002791565724380  0.5002613462784806  0.0989132365247688   T   T   T
  0.2500666585413125  0.7506687312569179  0.0991044345569847   T   T   T
  0.7496418912502321  0.7508598713761837  0.0997402969169105   T   T   T
  0.2501623275180972  0.0001282963046645  0.1947538244071423   T   T   T
  0.7495342504225868  0.0001318569041301  0.1963326273281570   T   T   T
 -0.0004326153927873  0.2496956837096028  0.1940976133148971   T   T   T
  0.5003247105578608  0.2496394209551525  0.1949430279581603   T   T   T
  0.2501998660132694  0.5002668895346750  0.1935021536272926   T   T   T
  0.7496286586858659  0.5001666913134031  0.1945841043104586   T   T   T
 -0.0005258213497407  0.7506285794152560  0.1945890089840672   T   T   T
  0.5001626931831089  0.7508211690632914  0.1951746989352282   T   T   T
  0.9973784564745841  0.0013691641468509  0.2932657014168604   T   T   T
  0.5023924465562892  0.0000667430252480  0.2947798615499154   T   T   T
  0.2503383093774226  0.2493016680506961  0.2929165578019332   T   T   T
  0.7499585463441754  0.2481447077857189  0.2946837028114942   T   T   T
  0.0011101767751023  0.4990985805252885  0.2915755244165645   T   T   T
  0.4988190186774198  0.5004384467183730  0.2925284061743197   T   T   T
  0.2492228591729351  0.7508624590463218  0.2934762647145502   T   T   T
  0.7501185267940803  0.7521300020150363  0.2949625062429156   T   T   T
  0.2492094744306206  0.0018865097190068  0.3885376628484051   T   T   T
  0.7481400158587229  0.0039940757021002  0.4004404817672542   T   T   T
  0.0009518141026615  0.2507133550989256  0.3871865752532388   T   T   T
  0.4981193234687014  0.2488386625110738  0.3899943720169594   T   T   T
  0.2476186479057061  0.4989379491790398  0.3862329420067591   T   T   T
  0.7316078816197217  0.5006761968019857  0.3871161735716130   T   T   T
  0.9978229924221645  0.7671402098080241  0.3884927174614412   T   T   T
  0.4969772934789559  0.7524865319300342  0.3904078970488539   T   T   T
 
  0.00000000E+00  0.00000000E+00  0.00000000E+00
  0.00000000E+00  0.00000000E+00  0.00000000E+00
  0.00000000E+00  0.00000000E+00  0.00000000E+00
  0.00000000E+00  0.00000000E+00  0.00000000E+00
  0.00000000E+00  0.00000000E+00  0.00000000E+00
  0.00000000E+00  0.00000000E+00  0.00000000E+00
  0.00000000E+00  0.00000000E+00  0.00000000E+00
  0.00000000E+00  0.00000000E+00  0.00000000E+00
  0.00000000E+00  0.00000000E+00  0.00000000E+00
  0.00000000E+00  0.00000000E+00  0.00000000E+00
  0.00000000E+00  0.00000000E+00  0.00000000E+00
  0.00000000E+00  0.00000000E+00  0.00000000E+00
  0.00000000E+00  0.00000000E+00  0.00000000E+00
  0.00000000E+00  0.00000000E+00  0.00000000E+00
  0.00000000E+00  0.00000000E+00  0.00000000E+00
  0.00000000E+00  0.00000000E+00  0.00000000E+00
  0.00000000E+00  0.00000000E+00  0.00000000E+00
  0.00000000E+00  0.00000000E+00  0.00000000E+00
  0.00000000E+00  0.00000000E+00  0.00000000E+00
  0.00000000E+00  0.00000000E+00  0.00000000E+00
  0.00000000E+00  0.00000000E+00  0.00000000E+00
  0.00000000E+00  0.00000000E+00  0.00000000E+00
  0.00000000E+00  0.00000000E+00  0.00000000E+00
  0.00000000E+00  0.00000000E+00  0.00000000E+00
  0.00000000E+00  0.00000000E+00  0.00000000E+00
  0.00000000E+00  0.00000000E+00  0.00000000E+00
  0.00000000E+00  0.00000000E+00  0.00000000E+00
  0.00000000E+00  0.00000000E+00  0.00000000E+00
  0.00000000E+00  0.00000000E+00  0.00000000E+00
  0.00000000E+00  0.00000000E+00  0.00000000E+00
  0.00000000E+00  0.00000000E+00  0.00000000E+00
  0.00000000E+00  0.00000000E+00  0.00000000E+00
  0.00000000E+00  0.00000000E+00  0.00000000E+00
  0.00000000E+00  0.00000000E+00  0.00000000E+00
  0.00000000E+00  0.00000000E+00  0.00000000E+00
  0.00000000E+00  0.00000000E+00  0.00000000E+00
  0.00000000E+00  0.00000000E+00  0.00000000E+00
  0.00000000E+00  0.00000000E+00  0.00000000E+00
  0.00000000E+00  0.00000000E+00  0.00000000E+00
  0.00000000E+00  0.00000000E+00  0.00000000E+00
  0.00000000E+00  0.00000000E+00  0.00000000E+00
  0.00000000E+00  0.00000000E+00  0.00000000E+00
  0.00000000E+00  0.00000000E+00  0.00000000E+00
  0.00000000E+00  0.00000000E+00  0.00000000E+00
  0.00000000E+00  0.00000000E+00  0.00000000E+00
  0.00000000E+00  0.00000000E+00  0.00000000E+00
  0.00000000E+00  0.00000000E+00  0.00000000E+00
  0.00000000E+00  0.00000000E+00  0.00000000E+00
  0.00000000E+00  0.00000000E+00  0.00000000E+00
  0.00000000E+00  0.00000000E+00  0.00000000E+00
  0.00000000E+00  0.00000000E+00  0.00000000E+00
  0.00000000E+00  0.00000000E+00  0.00000000E+00
  0.00000000E+00  0.00000000E+00  0.00000000E+00
  0.00000000E+00  0.00000000E+00  0.00000000E+00
  0.00000000E+00  0.00000000E+00  0.00000000E+00
  0.00000000E+00  0.00000000E+00  0.00000000E+00
  0.00000000E+00  0.00000000E+00  0.00000000E+00
  0.00000000E+00  0.00000000E+00  0.00000000E+00
  0.00000000E+00  0.00000000E+00  0.00000000E+00
  0.00000000E+00  0.00000000E+00  0.00000000E+00
  0.00000000E+00  0.00000000E+00  0.00000000E+00
  0.00000000E+00  0.00000000E+00  0.00000000E+00
  0.00000000E+00  0.00000000E+00  0.00000000E+00
  0.00000000E+00  0.00000000E+00  0.00000000E+00
  0.00000000E+00  0.00000000E+00  0.00000000E+00
