Ca Li O Cu                              
   1.00000000000000     
     9.6048500000000008    0.0000000000000000    0.0000000000000000
     0.0000000000000000    9.6048500000000008    0.0000000000000000
     0.0000000000000000    0.0000000000000000   24.6048000000000009
   Ca   Li   O    Cu
    31     1    32     1
Selective dynamics
Direct
  0.2499232573210565  0.0000645362926189  0.0985550378150804   T   T   T
  0.7498873490704964  0.0000906231515415  0.0990101092243581   T   T   T
  0.9999697054696635  0.2502149681149157  0.0984534139203399   T   T   T
  0.4999110935445368  0.2502849979272342  0.0987392354468105   T   T   T
  0.2500116498928323  0.5002198661357694  0.0981913274916574   T   T   T
  0.7498931820778107  0.5002583450744493  0.0985280479696986   T   T   T
  0.9999140691550874  0.7500496116902665  0.0986398783232831   T   T   T
  0.4998624205903878  0.7500574817503846  0.0989358360165671   T   T   T
  0.0003897780273211  0.9997649803533759  0.1953495349937171   T   T   T
  0.4993622456596181  0.0000748774098888  0.1954953312550827   T   T   T
  0.2500709278446245  0.2506128675748902  0.1952563867888734   T   T   T
  0.7498890882484381  0.2511341843206807  0.1953660011876877   T   T   T
  0.0002047225821883  0.5004075215651504  0.1952928647844311   T   T   T
  0.4997776158293949  0.5003342463028354  0.1955984338331213   T   T   T
  0.2495971418619282  0.7496778148325725  0.1955408146274993   T   T   T
  0.7501080942384549  0.7492800577058056  0.1956689696388433   T   T   T
  0.2492548354468253  0.0000062204480020  0.2924278970119627   T   T   T
  0.7503305317985326  0.0001263939809080  0.2917727681539738   T   T   T
  0.0003682199969435  0.2527379273128523  0.2926311931533639   T   T   T
  0.4997859341843418  0.2514337408905179  0.2940110204715334   T   T   T
  0.2483059553295709  0.5003207646183666  0.2921927322996337   T   T   T
  0.7520395171347446  0.5004545960735685  0.2933567305630810   T   T   T
  0.0000810111606823  0.7468195580783412  0.2946336392707496   T   T   T
  0.4994162899738444  0.7491312602722012  0.2944703884450685   T   T   T
  0.0111811796592459  0.0050752799733253  0.3883957775949250   T   T   T
  0.4866104619250747  0.9996127384735897  0.3895931481724273   T   T   T
  0.2466391087828313  0.2563931329710917  0.3901563783266220   T   T   T
  0.7560435709460197  0.2706540213871518  0.3901492142421180   T   T   T
  0.4934609405112234  0.5014621760052902  0.3895756444516780   T   T   T
  0.2395733757610028  0.7423875282079864  0.3907299081668969   T   T   T
  0.7591245852143947  0.7309455480569946  0.3907980639354877   T   T   T
  0.0320084358221317  0.4732923659741877  0.3766859438466306   T   T   T
  0.9994722521977587 -0.0000049590213081  0.0993933387823872   T   T   T
  0.5003708067443472  0.0001063069987217  0.0997651312338844   T   T   T
  0.2501671532321602  0.2497179030852728  0.0990889581785738   T   T   T
  0.7496900562927806  0.2496558233557890  0.0996382123445247   T   T   T
  0.9995880691824072  0.5002775354261582  0.0987412130631412   T   T   T
  0.5002910390503057  0.5002295962744830  0.0991254206660137   T   T   T
  0.2500367414614922  0.7505487903667021  0.0992926727343109   T   T   T
  0.7497265299712219  0.7506871771025181  0.0998438096823672   T   T   T
  0.2500842278612380  0.0000444967660090  0.1949185622681415   T   T   T
  0.7496602041359821  0.0001770630467282  0.1964106788565751   T   T   T
  0.9996953503946239  0.2497894578651288  0.1941799873778045   T   T   T
  0.5002699016566007  0.2497881391336379  0.1950192525596451   T   T   T
  0.2501206704105854  0.5002030714665588  0.1938518929538110   T   T   T
  0.7497595160997335  0.5002328900861478  0.1947706549554450   T   T   T
  0.9995909226627231  0.7504705095933683  0.1947266945457675   T   T   T
  0.5000912442183157  0.7506313751296125  0.1952614974520858   T   T   T
  0.9977589834287287  0.0014148747366486  0.2933485526265643   T   T   T
  0.5019845049810656  0.0000829827083065  0.2946472145420306   T   T   T
  0.2503483424347818  0.2493851434059455  0.2932194515790260   T   T   T
  0.7500166696245368  0.2483648097302428  0.2946285174644374   T   T   T
  0.0007998892465403  0.4988514187020420  0.2919661181450845   T   T   T
  0.4988054397677963  0.5004385994611037  0.2928118619567432   T   T   T
  0.2491898581260544  0.7506506297993280  0.2938051763332078   T   T   T
  0.7502748374638406  0.7520493622584392  0.2950116411424070   T   T   T
  0.2493097929397140  0.0021272101637094  0.3887955368465966   T   T   T
  0.7481588518013869  0.0038736870923962  0.3983924043016438   T   T   T
  0.0009460433632098  0.2512757064859450  0.3872369958696871   T   T   T
  0.4986354189187808  0.2491679028090223  0.3900062191876481   T   T   T
  0.2467795588196671  0.4988669776274626  0.3864897004003021   T   T   T
  0.7319084432272004  0.5007295161156293  0.3873268181493991   T   T   T
  0.9979747742029060  0.7677914752660416  0.3886384524144053   T   T   T
  0.4975322474227626  0.7522202187138819  0.3903847812037238   T   T   T
  0.7498127079114908  0.0015564798235796  0.4703098565704268   T   T   T
 
  0.00000000E+00  0.00000000E+00  0.00000000E+00
  0.00000000E+00  0.00000000E+00  0.00000000E+00
  0.00000000E+00  0.00000000E+00  0.00000000E+00
  0.00000000E+00  0.00000000E+00  0.00000000E+00
  0.00000000E+00  0.00000000E+00  0.00000000E+00
  0.00000000E+00  0.00000000E+00  0.00000000E+00
  0.00000000E+00  0.00000000E+00  0.00000000E+00
  0.00000000E+00  0.00000000E+00  0.00000000E+00
  0.00000000E+00  0.00000000E+00  0.00000000E+00
  0.00000000E+00  0.00000000E+00  0.00000000E+00
  0.00000000E+00  0.00000000E+00  0.00000000E+00
  0.00000000E+00  0.00000000E+00  0.00000000E+00
  0.00000000E+00  0.00000000E+00  0.00000000E+00
  0.00000000E+00  0.00000000E+00  0.00000000E+00
  0.00000000E+00  0.00000000E+00  0.00000000E+00
  0.00000000E+00  0.00000000E+00  0.00000000E+00
  0.00000000E+00  0.00000000E+00  0.00000000E+00
  0.00000000E+00  0.00000000E+00  0.00000000E+00
  0.00000000E+00  0.00000000E+00  0.00000000E+00
  0.00000000E+00  0.00000000E+00  0.00000000E+00
  0.00000000E+00  0.00000000E+00  0.00000000E+00
  0.00000000E+00  0.00000000E+00  0.00000000E+00
  0.00000000E+00  0.00000000E+00  0.00000000E+00
  0.00000000E+00  0.00000000E+00  0.00000000E+00
  0.00000000E+00  0.00000000E+00  0.00000000E+00
  0.00000000E+00  0.00000000E+00  0.00000000E+00
  0.00000000E+00  0.00000000E+00  0.00000000E+00
  0.00000000E+00  0.00000000E+00  0.00000000E+00
  0.00000000E+00  0.00000000E+00  0.00000000E+00
  0.00000000E+00  0.00000000E+00  0.00000000E+00
  0.00000000E+00  0.00000000E+00  0.00000000E+00
  0.00000000E+00  0.00000000E+00  0.00000000E+00
  0.00000000E+00  0.00000000E+00  0.00000000E+00
  0.00000000E+00  0.00000000E+00  0.00000000E+00
  0.00000000E+00  0.00000000E+00  0.00000000E+00
  0.00000000E+00  0.00000000E+00  0.00000000E+00
  0.00000000E+00  0.00000000E+00  0.00000000E+00
  0.00000000E+00  0.00000000E+00  0.00000000E+00
  0.00000000E+00  0.00000000E+00  0.00000000E+00
  0.00000000E+00  0.00000000E+00  0.00000000E+00
  0.00000000E+00  0.00000000E+00  0.00000000E+00
  0.00000000E+00  0.00000000E+00  0.00000000E+00
  0.00000000E+00  0.00000000E+00  0.00000000E+00
  0.00000000E+00  0.00000000E+00  0.00000000E+00
  0.00000000E+00  0.00000000E+00  0.00000000E+00
  0.00000000E+00  0.00000000E+00  0.00000000E+00
  0.00000000E+00  0.00000000E+00  0.00000000E+00
  0.00000000E+00  0.00000000E+00  0.00000000E+00
  0.00000000E+00  0.00000000E+00  0.00000000E+00
  0.00000000E+00  0.00000000E+00  0.00000000E+00
  0.00000000E+00  0.00000000E+00  0.00000000E+00
  0.00000000E+00  0.00000000E+00  0.00000000E+00
  0.00000000E+00  0.00000000E+00  0.00000000E+00
  0.00000000E+00  0.00000000E+00  0.00000000E+00
  0.00000000E+00  0.00000000E+00  0.00000000E+00
  0.00000000E+00  0.00000000E+00  0.00000000E+00
  0.00000000E+00  0.00000000E+00  0.00000000E+00
  0.00000000E+00  0.00000000E+00  0.00000000E+00
  0.00000000E+00  0.00000000E+00  0.00000000E+00
  0.00000000E+00  0.00000000E+00  0.00000000E+00
  0.00000000E+00  0.00000000E+00  0.00000000E+00
  0.00000000E+00  0.00000000E+00  0.00000000E+00
  0.00000000E+00  0.00000000E+00  0.00000000E+00
  0.00000000E+00  0.00000000E+00  0.00000000E+00
  0.00000000E+00  0.00000000E+00  0.00000000E+00
