Ca Li O Au                              
   1.00000000000000     
     9.6048500000000008    0.0000000000000000    0.0000000000000000
     0.0000000000000000    9.6048500000000008    0.0000000000000000
     0.0000000000000000    0.0000000000000000   24.6048000000000009
   Ca   Li   O    Au
    31     1    32     1
Selective dynamics
Direct
  0.2499330783478680  0.0000604208029260  0.0985549440640301   T   T   T
  0.7498697513046291  0.0000806940558687  0.0990517555022255   T   T   T
  0.0000087021039648  0.2502356547708035  0.0984663045745264   T   T   T
  0.4998718995582969  0.2503084520620159  0.0987570046878209   T   T   T
  0.2500190903323103  0.5002253845895649  0.0982130762383604   T   T   T
  0.7498768299409797  0.5002690135449896  0.0985210382929474   T   T   T
  0.9999513784316824  0.7500227617558779  0.0986581232472878   T   T   T
  0.4998253308517849  0.7500275713623281  0.0989533005157764   T   T   T
  0.0002833930123816  0.9997666699153428  0.1954343966786390   T   T   T
  0.4994386978454040  0.0000785182880109  0.1956458817573749   T   T   T
  0.2501264418799763  0.2505549506351132  0.1953266448224570   T   T   T
  0.7498441761899499  0.2510186309852437  0.1954860689235463   T   T   T
  0.0001739926025143  0.5003926455146090  0.1953244800210520   T   T   T
  0.4998183237511567  0.5003167082540079  0.1956673002392409   T   T   T
  0.2496727985944698  0.7497381669086151  0.1955952926883511   T   T   T
  0.7500723012389570  0.7493954075243312  0.1957782353023655   T   T   T
  0.2493375808931240  0.0000343875998029  0.2926150119762286   T   T   T
  0.7501883039504437  0.0001397554373085  0.2920818008722689   T   T   T
  0.0001133969073570  0.2523545848069156  0.2926006814169859   T   T   T
  0.5000574300331435  0.2510804980671387  0.2940717072607690   T   T   T
  0.2484196961600498  0.5003116744472087  0.2922106098886030   T   T   T
  0.7519796317683827  0.5004561516182665  0.2934273495116241   T   T   T
  0.9998741848464707  0.7470727581681091  0.2945124414706905   T   T   T
  0.4996980696382556  0.7494454144336463  0.2945012670932083   T   T   T
  0.0109159299979996  0.0051030218964230  0.3889093961300407   T   T   T
  0.4869697151799553  0.9996390548932524  0.3900390398263819   T   T   T
  0.2467703930891593  0.2560458126243998  0.3903175604273356   T   T   T
  0.7560607983991195  0.2701499620050988  0.3906216679575076   T   T   T
  0.4937329748968995  0.5013658374501835  0.3896919943127295   T   T   T
  0.2401083571838596  0.7427240945019116  0.3908555102749949   T   T   T
  0.7590713276316429  0.7315814774833980  0.3912423521526266   T   T   T
  0.0318159326086654  0.4731154359240794  0.3764945052441638   T   T   T
  0.9994684875674351  0.0000101608784728  0.0992954526634842   T   T   T
  0.5003743896362518  0.0001080042428219  0.0996668912613203   T   T   T
  0.2501591690932448  0.2497534947416685  0.0990355798692590   T   T   T
  0.7497146080142444  0.2496705988131121  0.0995016651940734   T   T   T
  0.9996270616714217  0.5002630590953767  0.0987051503792681   T   T   T
  0.5002469653956202  0.5002221370511958  0.0990835008857157   T   T   T
  0.2500286603890388  0.7505057510269879  0.0992337616224250   T   T   T
  0.7497320834998836  0.7506787052744276  0.0997154801521820   T   T   T
  0.2500754049451186  0.0000686735253730  0.1947434778700249   T   T   T
  0.7496657398047772  0.0001708750465322  0.1962069550283563   T   T   T
  0.9998068562787008  0.2498732062000520  0.1940042924732974   T   T   T
  0.5001654729957093  0.2499019034408016  0.1947910100784156   T   T   T
  0.2501217154227530  0.5002021845122940  0.1938117338433857   T   T   T
  0.7497451167218211  0.5002432633108238  0.1945822072959598   T   T   T
  0.9997128698349902  0.7503741370060771  0.1945251043472701   T   T   T
  0.4999874162403031  0.7504921910083390  0.1950301705031680   T   T   T
  0.9979482269670756  0.0013630212411563  0.2932477543179978   T   T   T
  0.5016672541789972  0.0000552028975846  0.2944639256077738   T   T   T
  0.2502636033304350  0.2496907697417980  0.2930285511597384   T   T   T
  0.7501367125861874  0.2487405466458495  0.2944248768303173   T   T   T
  0.0010502698839025  0.4988542095716685  0.2918939077346948   T   T   T
  0.4986261294466643  0.5004341258970736  0.2926844973255511   T   T   T
  0.2491560660074326  0.7503561333944251  0.2935880180731179   T   T   T
  0.7504102039091913  0.7517001892055375  0.2948062403783816   T   T   T
  0.2491637223442579  0.0021007523145168  0.3885103763016383   T   T   T
  0.7481587106715828  0.0034429947643291  0.3946448339748843   T   T   T
  0.0013529061067309  0.2515956324419633  0.3868151472560300   T   T   T
  0.4980549654524939  0.2498204418190084  0.3894272386507757   T   T   T
  0.2467403427042152  0.4989465248242995  0.3864158801842656   T   T   T
  0.7320575012041496  0.5009038285467641  0.3871628418073431   T   T   T
  0.9986060727864425  0.7673667408894768  0.3881279840065703   T   T   T
  0.4967791464164228  0.7515721745597126  0.3898046398565528   T   T   T
  0.7491435836356408  0.0021891982456954  0.4766430575056156   T   T   T
 
  0.00000000E+00  0.00000000E+00  0.00000000E+00
  0.00000000E+00  0.00000000E+00  0.00000000E+00
  0.00000000E+00  0.00000000E+00  0.00000000E+00
  0.00000000E+00  0.00000000E+00  0.00000000E+00
  0.00000000E+00  0.00000000E+00  0.00000000E+00
  0.00000000E+00  0.00000000E+00  0.00000000E+00
  0.00000000E+00  0.00000000E+00  0.00000000E+00
  0.00000000E+00  0.00000000E+00  0.00000000E+00
  0.00000000E+00  0.00000000E+00  0.00000000E+00
  0.00000000E+00  0.00000000E+00  0.00000000E+00
  0.00000000E+00  0.00000000E+00  0.00000000E+00
  0.00000000E+00  0.00000000E+00  0.00000000E+00
  0.00000000E+00  0.00000000E+00  0.00000000E+00
  0.00000000E+00  0.00000000E+00  0.00000000E+00
  0.00000000E+00  0.00000000E+00  0.00000000E+00
  0.00000000E+00  0.00000000E+00  0.00000000E+00
  0.00000000E+00  0.00000000E+00  0.00000000E+00
  0.00000000E+00  0.00000000E+00  0.00000000E+00
  0.00000000E+00  0.00000000E+00  0.00000000E+00
  0.00000000E+00  0.00000000E+00  0.00000000E+00
  0.00000000E+00  0.00000000E+00  0.00000000E+00
  0.00000000E+00  0.00000000E+00  0.00000000E+00
  0.00000000E+00  0.00000000E+00  0.00000000E+00
  0.00000000E+00  0.00000000E+00  0.00000000E+00
  0.00000000E+00  0.00000000E+00  0.00000000E+00
  0.00000000E+00  0.00000000E+00  0.00000000E+00
  0.00000000E+00  0.00000000E+00  0.00000000E+00
  0.00000000E+00  0.00000000E+00  0.00000000E+00
  0.00000000E+00  0.00000000E+00  0.00000000E+00
  0.00000000E+00  0.00000000E+00  0.00000000E+00
  0.00000000E+00  0.00000000E+00  0.00000000E+00
  0.00000000E+00  0.00000000E+00  0.00000000E+00
  0.00000000E+00  0.00000000E+00  0.00000000E+00
  0.00000000E+00  0.00000000E+00  0.00000000E+00
  0.00000000E+00  0.00000000E+00  0.00000000E+00
  0.00000000E+00  0.00000000E+00  0.00000000E+00
  0.00000000E+00  0.00000000E+00  0.00000000E+00
  0.00000000E+00  0.00000000E+00  0.00000000E+00
  0.00000000E+00  0.00000000E+00  0.00000000E+00
  0.00000000E+00  0.00000000E+00  0.00000000E+00
  0.00000000E+00  0.00000000E+00  0.00000000E+00
  0.00000000E+00  0.00000000E+00  0.00000000E+00
  0.00000000E+00  0.00000000E+00  0.00000000E+00
  0.00000000E+00  0.00000000E+00  0.00000000E+00
  0.00000000E+00  0.00000000E+00  0.00000000E+00
  0.00000000E+00  0.00000000E+00  0.00000000E+00
  0.00000000E+00  0.00000000E+00  0.00000000E+00
  0.00000000E+00  0.00000000E+00  0.00000000E+00
  0.00000000E+00  0.00000000E+00  0.00000000E+00
  0.00000000E+00  0.00000000E+00  0.00000000E+00
  0.00000000E+00  0.00000000E+00  0.00000000E+00
  0.00000000E+00  0.00000000E+00  0.00000000E+00
  0.00000000E+00  0.00000000E+00  0.00000000E+00
  0.00000000E+00  0.00000000E+00  0.00000000E+00
  0.00000000E+00  0.00000000E+00  0.00000000E+00
  0.00000000E+00  0.00000000E+00  0.00000000E+00
  0.00000000E+00  0.00000000E+00  0.00000000E+00
  0.00000000E+00  0.00000000E+00  0.00000000E+00
  0.00000000E+00  0.00000000E+00  0.00000000E+00
  0.00000000E+00  0.00000000E+00  0.00000000E+00
  0.00000000E+00  0.00000000E+00  0.00000000E+00
  0.00000000E+00  0.00000000E+00  0.00000000E+00
  0.00000000E+00  0.00000000E+00  0.00000000E+00
  0.00000000E+00  0.00000000E+00  0.00000000E+00
  0.00000000E+00  0.00000000E+00  0.00000000E+00
