Ca Li O Rh                              
   1.00000000000000     
     9.6048500000000008    0.0000000000000000    0.0000000000000000
     0.0000000000000000    9.6048500000000008    0.0000000000000000
     0.0000000000000000    0.0000000000000000   24.6048000000000009
   Ca   Li   O    Rh
    31     1    32     1
Selective dynamics
Direct
  0.2499376241090900  0.0000668941315050  0.0985155974925276   T   T   T
  0.7498760925272947  0.0000766832676741  0.0988914693808492   T   T   T
  0.0001433115190912  0.2504263119887833  0.0984177749526782   T   T   T
  0.4997485194604036  0.2504645216579363  0.0987250014817802   T   T   T
  0.2499612541565893  0.5002402301005323  0.0981932202263889   T   T   T
  0.7498514359791388  0.5002579714562847  0.0985004430454399   T   T   T
  0.0000914338746835  0.7498743288365467  0.0986039715420240   T   T   T
  0.4996919218546829  0.7498703823874541  0.0989397160139951   T   T   T
  0.0004224018972167  0.9998704413818642  0.1953139833075449   T   T   T
  0.4993918486227490  0.0000820191543605  0.1955608621703646   T   T   T
  0.2502353756255301  0.2505498400243220  0.1952181836137764   T   T   T
  0.7497902536456502  0.2510302897635664  0.1953696681765111   T   T   T
  0.0000214510759337  0.5003870529618387  0.1951727005935207   T   T   T
  0.4997367049680980  0.5003273493833809  0.1955477131904730   T   T   T
  0.2497833627225016  0.7497995856057140  0.1954902004140347   T   T   T
  0.7499266693580771  0.7493106328548724  0.1956441442520028   T   T   T
  0.2492099539089582  0.0000205515882822  0.2924355863087472   T   T   T
  0.7505863864683840  0.0000517754882640  0.2912962232917931   T   T   T
 -0.0001357538397867  0.2521858195828099  0.2924907994076176   T   T   T
  0.5004097210791794  0.2507162057062276  0.2940304689010323   T   T   T
  0.2481707286658639  0.5003356988430362  0.2918686539319521   T   T   T
  0.7521242791031354  0.5004174609456380  0.2934414227243797   T   T   T
 -0.0005405715152813  0.7474600995270546  0.2943393511954984   T   T   T
  0.4998757558438727  0.7497717949084057  0.2944845457762484   T   T   T
  0.0139044915003250  0.0054855835848354  0.3898270160353061   T   T   T
  0.4838544967433007  0.9992143580608458  0.3911466341268521   T   T   T
  0.2470128372499493  0.2573017480478353  0.3897986448456961   T   T   T
  0.7571694123228835  0.2731797643850080  0.3916816150354430   T   T   T
  0.4925965126717688  0.5014754674423056  0.3891604226175420   T   T   T
  0.2393598789734178  0.7413647116972196  0.3903264021721837   T   T   T
  0.7605641580261504  0.7285920744137871  0.3922993658275559   T   T   T
  0.0327740489824887  0.4718964228314798  0.3758549239239221   T   T   T
  0.9994760302120645  0.0000328669012332  0.0992366115096516   T   T   T
  0.5003665293249481  0.0000971077481900  0.0996606268533003   T   T   T
  0.2501578796592108  0.2498033569029516  0.0990508287176769   T   T   T
  0.7496905153859630  0.2496722171830695  0.0995249712177854   T   T   T
  0.9996296777932299  0.5002698963976038  0.0987214695324518   T   T   T
  0.5001788089740052  0.5002365746780630  0.0990937072950076   T   T   T
  0.2500514493518002  0.7504797542033445  0.0992595098323859   T   T   T
  0.7497046156496893  0.7506568201933507  0.0997378455232077   T   T   T
  0.2501422933398662  0.0000753247658279  0.1948356188206939   T   T   T
  0.7496518631119315  0.0001426546207714  0.1961524383565688   T   T   T
  0.9995924600498157  0.2497770226605170  0.1939732121179434   T   T   T
  0.5004410934362638  0.2496603404889484  0.1948207519739256   T   T   T
  0.2500013042084341  0.5002265461653207  0.1937741220641457   T   T   T
  0.7496615182663857  0.5001994741616349  0.1947080725900740   T   T   T
  0.9994628285123884  0.7505753689565767  0.1944708594513427   T   T   T
  0.5002108629525780  0.7507313244605307  0.1950798884398738   T   T   T
  0.9977178458114143  0.0017140475039862  0.2936648888506935   T   T   T
  0.5022572939446603 -0.0000323880566409  0.2951850991597392   T   T   T
  0.2503326274734620  0.2494851326804038  0.2928888143663161   T   T   T
  0.7502821526382757  0.2479344818916155  0.2950750729847042   T   T   T
  0.0004947433517517  0.4988675756332575  0.2917579721706564   T   T   T
  0.4988112242284130  0.5005024413827481  0.2926035679904537   T   T   T
  0.2490335385243156  0.7506408995424316  0.2934452909033904   T   T   T
  0.7502820237591636  0.7522662460634055  0.2953824188937109   T   T   T
  0.2494671827519235  0.0023222844599820  0.3888515381488530   T   T   T
  0.7492915234133076  0.0023720777762295  0.3982156385102525   T   T   T
  0.0012873259971812  0.2518948723224780  0.3865903125030012   T   T   T
  0.4981469416566408  0.2493626381508144  0.3891528717086996   T   T   T
  0.2462156454942675  0.4988320430435257  0.3861429245529939   T   T   T
  0.7320873579751651  0.5007725024351035  0.3875171612403202   T   T   T
  0.9979015244046163  0.7686218670211141  0.3878081725773119   T   T   T
  0.4960952975927363  0.7518066320050053  0.3895956894566397   T   T   T
  0.7481773674867805  0.0026783281489437  0.4726842535215628   T   T   T
 
  0.00000000E+00  0.00000000E+00  0.00000000E+00
  0.00000000E+00  0.00000000E+00  0.00000000E+00
  0.00000000E+00  0.00000000E+00  0.00000000E+00
  0.00000000E+00  0.00000000E+00  0.00000000E+00
  0.00000000E+00  0.00000000E+00  0.00000000E+00
  0.00000000E+00  0.00000000E+00  0.00000000E+00
  0.00000000E+00  0.00000000E+00  0.00000000E+00
  0.00000000E+00  0.00000000E+00  0.00000000E+00
  0.00000000E+00  0.00000000E+00  0.00000000E+00
  0.00000000E+00  0.00000000E+00  0.00000000E+00
  0.00000000E+00  0.00000000E+00  0.00000000E+00
  0.00000000E+00  0.00000000E+00  0.00000000E+00
  0.00000000E+00  0.00000000E+00  0.00000000E+00
  0.00000000E+00  0.00000000E+00  0.00000000E+00
  0.00000000E+00  0.00000000E+00  0.00000000E+00
  0.00000000E+00  0.00000000E+00  0.00000000E+00
  0.00000000E+00  0.00000000E+00  0.00000000E+00
  0.00000000E+00  0.00000000E+00  0.00000000E+00
  0.00000000E+00  0.00000000E+00  0.00000000E+00
  0.00000000E+00  0.00000000E+00  0.00000000E+00
  0.00000000E+00  0.00000000E+00  0.00000000E+00
  0.00000000E+00  0.00000000E+00  0.00000000E+00
  0.00000000E+00  0.00000000E+00  0.00000000E+00
  0.00000000E+00  0.00000000E+00  0.00000000E+00
  0.00000000E+00  0.00000000E+00  0.00000000E+00
  0.00000000E+00  0.00000000E+00  0.00000000E+00
  0.00000000E+00  0.00000000E+00  0.00000000E+00
  0.00000000E+00  0.00000000E+00  0.00000000E+00
  0.00000000E+00  0.00000000E+00  0.00000000E+00
  0.00000000E+00  0.00000000E+00  0.00000000E+00
  0.00000000E+00  0.00000000E+00  0.00000000E+00
  0.00000000E+00  0.00000000E+00  0.00000000E+00
  0.00000000E+00  0.00000000E+00  0.00000000E+00
  0.00000000E+00  0.00000000E+00  0.00000000E+00
  0.00000000E+00  0.00000000E+00  0.00000000E+00
  0.00000000E+00  0.00000000E+00  0.00000000E+00
  0.00000000E+00  0.00000000E+00  0.00000000E+00
  0.00000000E+00  0.00000000E+00  0.00000000E+00
  0.00000000E+00  0.00000000E+00  0.00000000E+00
  0.00000000E+00  0.00000000E+00  0.00000000E+00
  0.00000000E+00  0.00000000E+00  0.00000000E+00
  0.00000000E+00  0.00000000E+00  0.00000000E+00
  0.00000000E+00  0.00000000E+00  0.00000000E+00
  0.00000000E+00  0.00000000E+00  0.00000000E+00
  0.00000000E+00  0.00000000E+00  0.00000000E+00
  0.00000000E+00  0.00000000E+00  0.00000000E+00
  0.00000000E+00  0.00000000E+00  0.00000000E+00
  0.00000000E+00  0.00000000E+00  0.00000000E+00
  0.00000000E+00  0.00000000E+00  0.00000000E+00
  0.00000000E+00  0.00000000E+00  0.00000000E+00
  0.00000000E+00  0.00000000E+00  0.00000000E+00
  0.00000000E+00  0.00000000E+00  0.00000000E+00
  0.00000000E+00  0.00000000E+00  0.00000000E+00
  0.00000000E+00  0.00000000E+00  0.00000000E+00
  0.00000000E+00  0.00000000E+00  0.00000000E+00
  0.00000000E+00  0.00000000E+00  0.00000000E+00
  0.00000000E+00  0.00000000E+00  0.00000000E+00
  0.00000000E+00  0.00000000E+00  0.00000000E+00
  0.00000000E+00  0.00000000E+00  0.00000000E+00
  0.00000000E+00  0.00000000E+00  0.00000000E+00
  0.00000000E+00  0.00000000E+00  0.00000000E+00
  0.00000000E+00  0.00000000E+00  0.00000000E+00
  0.00000000E+00  0.00000000E+00  0.00000000E+00
  0.00000000E+00  0.00000000E+00  0.00000000E+00
  0.00000000E+00  0.00000000E+00  0.00000000E+00
