Ca Li O Ni                              
   1.00000000000000     
     9.6048500000000008    0.0000000000000000    0.0000000000000000
     0.0000000000000000    9.6048500000000008    0.0000000000000000
     0.0000000000000000    0.0000000000000000   24.6048000000000009
   Ca   Li   O    Ni
    31     1    32     1
Selective dynamics
Direct
  0.2499145674872524  0.0000787561864754  0.0985374720935719   T   T   T
  0.7498887257493041  0.0001169798211331  0.0989702813490486   T   T   T
  0.9999070473717792  0.2501298872212142  0.0984162054605682   T   T   T
  0.4999807293266079  0.2502154004013715  0.0986722662982737   T   T   T
  0.2500182540847390  0.5002281816533606  0.0981857296937068   T   T   T
  0.7499123894361968  0.5002769704233128  0.0985318021657494   T   T   T
  0.9998360534062579  0.7501649045926407  0.0985874458898282   T   T   T
  0.4999361094223463  0.7501492176841102  0.0988549081907476   T   T   T
  0.0003925087335882  0.9998118248220449  0.1954477917911933   T   T   T
  0.4993475435690413  0.0000845053135252  0.1955806007931045   T   T   T
  0.2500497174807241  0.2505046984374361  0.1952398380570234   T   T   T
  0.7498814913304848  0.2511523345814093  0.1954264482302696   T   T   T
  0.0001487650693473  0.5003561178825819  0.1952522516828533   T   T   T
  0.4999317920791833  0.5003369174879561  0.1955956827467878   T   T   T
  0.2496041354870692  0.7497875648869601  0.1954867833940225   T   T   T
  0.7500550814539465  0.7492858062347386  0.1957079546243397   T   T   T
  0.2492440602388923  0.0000090901456673  0.2927188810324184   T   T   T
  0.7503563180785899  0.0001514887915586  0.2918262340438738   T   T   T
  0.0000373949925219  0.2521235945753168  0.2926567596497512   T   T   T
  0.5000272778854590  0.2509276055284725  0.2939452733338838   T   T   T
  0.2484128653555706  0.5003403691298702  0.2920918707800464   T   T   T
  0.7522716410119096  0.5004431859406651  0.2936231819265550   T   T   T
 -0.0002977072521259  0.7473856235495812  0.2945954035419587   T   T   T
  0.4996275221505652  0.7495784885321277  0.2943327329267161   T   T   T
  0.0111469419440247  0.0053658151393464  0.3895203785951332   T   T   T
  0.4868296663191011  0.9993908706970657  0.3906022119495161   T   T   T
  0.2465055848080552  0.2561288642454698  0.3900571538428447   T   T   T
  0.7561610517840764  0.2706894249599419  0.3910889295572292   T   T   T
  0.4928756844062608  0.5013131124013895  0.3895056300382554   T   T   T
  0.2401418479999331  0.7430682943262210  0.3905614176730686   T   T   T
  0.7582420166387041  0.7311911917393141  0.3916600497486306   T   T   T
  0.0316278365020997  0.4734234374700231  0.3763680989574130   T   T   T
  0.9995518803324905  0.0000177927920361  0.0993621233541067   T   T   T
  0.5002737264430025  0.0001193930986236  0.0996978806977848   T   T   T
  0.2501852309210146  0.2496834943154598  0.0990212852776900   T   T   T
  0.7497081888293072  0.2497587137286541  0.0995744764475796   T   T   T
  0.9995759164689956  0.5002955902965962  0.0986930086340574   T   T   T
  0.5003264344396108  0.5002410554390447  0.0990655957534934   T   T   T
  0.2500467133450838  0.7505869848966410  0.0991945701783192   T   T   T
  0.7497207840530908  0.7506447578138618  0.0997898176035669   T   T   T
  0.2500902282981226  0.0000450632629039  0.1949648934429050   T   T   T
  0.7496465090057990  0.0001796222556804  0.1962919652927485   T   T   T
  0.9996216243948187  0.2497051730055541  0.1940905817862716   T   T   T
  0.5003365391261448  0.2496992085310797  0.1948839821514674   T   T   T
  0.2501675178174051  0.5002143155122033  0.1938124968043331   T   T   T
  0.7498110921415562  0.5002525876112464  0.1948589345571503   T   T   T
  0.9995038126308752  0.7505701462495971  0.1946190452453877   T   T   T
  0.5001363536172075  0.7507180810800054  0.1951146905888959   T   T   T
  0.9977278584042548  0.0014191581342190  0.2936490089592558   T   T   T
  0.5020388088966834  0.0000878763827213  0.2949756129281780   T   T   T
  0.2503115865923429  0.2492528139013703  0.2932193929530328   T   T   T
  0.7499457785061773  0.2484835664001369  0.2949177013891201   T   T   T
  0.0008070016764095  0.4988977773102839  0.2920590634125769   T   T   T
  0.4991140477836158  0.5004060681573164  0.2929068958577160   T   T   T
  0.2491426073576926  0.7507965731757905  0.2937543464873756   T   T   T
  0.7501043756806369  0.7519158480111393  0.2952534726411154   T   T   T
  0.2494956737704091  0.0018555866854031  0.3892511699118554   T   T   T
  0.7486803474381447  0.0026725981212255  0.3978873316792506   T   T   T
  0.0011166869835869  0.2510247099134618  0.3868672730459808   T   T   T
  0.4988225787432598  0.2491162035718984  0.3895700906311148   T   T   T
  0.2471080511997796  0.4988808213559591  0.3865088443532858   T   T   T
  0.7321470163226151  0.5007583717760890  0.3879906232646937   T   T   T
  0.9976607588846150  0.7679540954439713  0.3882877227306797   T   T   T
  0.4970218809593679  0.7516914486921196  0.3898283545301015   T   T   T
  0.7498848188983518  0.0026263827773847  0.4676390251615420   T   T   T
 
  0.00000000E+00  0.00000000E+00  0.00000000E+00
  0.00000000E+00  0.00000000E+00  0.00000000E+00
  0.00000000E+00  0.00000000E+00  0.00000000E+00
  0.00000000E+00  0.00000000E+00  0.00000000E+00
  0.00000000E+00  0.00000000E+00  0.00000000E+00
  0.00000000E+00  0.00000000E+00  0.00000000E+00
  0.00000000E+00  0.00000000E+00  0.00000000E+00
  0.00000000E+00  0.00000000E+00  0.00000000E+00
  0.00000000E+00  0.00000000E+00  0.00000000E+00
  0.00000000E+00  0.00000000E+00  0.00000000E+00
  0.00000000E+00  0.00000000E+00  0.00000000E+00
  0.00000000E+00  0.00000000E+00  0.00000000E+00
  0.00000000E+00  0.00000000E+00  0.00000000E+00
  0.00000000E+00  0.00000000E+00  0.00000000E+00
  0.00000000E+00  0.00000000E+00  0.00000000E+00
  0.00000000E+00  0.00000000E+00  0.00000000E+00
  0.00000000E+00  0.00000000E+00  0.00000000E+00
  0.00000000E+00  0.00000000E+00  0.00000000E+00
  0.00000000E+00  0.00000000E+00  0.00000000E+00
  0.00000000E+00  0.00000000E+00  0.00000000E+00
  0.00000000E+00  0.00000000E+00  0.00000000E+00
  0.00000000E+00  0.00000000E+00  0.00000000E+00
  0.00000000E+00  0.00000000E+00  0.00000000E+00
  0.00000000E+00  0.00000000E+00  0.00000000E+00
  0.00000000E+00  0.00000000E+00  0.00000000E+00
  0.00000000E+00  0.00000000E+00  0.00000000E+00
  0.00000000E+00  0.00000000E+00  0.00000000E+00
  0.00000000E+00  0.00000000E+00  0.00000000E+00
  0.00000000E+00  0.00000000E+00  0.00000000E+00
  0.00000000E+00  0.00000000E+00  0.00000000E+00
  0.00000000E+00  0.00000000E+00  0.00000000E+00
  0.00000000E+00  0.00000000E+00  0.00000000E+00
  0.00000000E+00  0.00000000E+00  0.00000000E+00
  0.00000000E+00  0.00000000E+00  0.00000000E+00
  0.00000000E+00  0.00000000E+00  0.00000000E+00
  0.00000000E+00  0.00000000E+00  0.00000000E+00
  0.00000000E+00  0.00000000E+00  0.00000000E+00
  0.00000000E+00  0.00000000E+00  0.00000000E+00
  0.00000000E+00  0.00000000E+00  0.00000000E+00
  0.00000000E+00  0.00000000E+00  0.00000000E+00
  0.00000000E+00  0.00000000E+00  0.00000000E+00
  0.00000000E+00  0.00000000E+00  0.00000000E+00
  0.00000000E+00  0.00000000E+00  0.00000000E+00
  0.00000000E+00  0.00000000E+00  0.00000000E+00
  0.00000000E+00  0.00000000E+00  0.00000000E+00
  0.00000000E+00  0.00000000E+00  0.00000000E+00
  0.00000000E+00  0.00000000E+00  0.00000000E+00
  0.00000000E+00  0.00000000E+00  0.00000000E+00
  0.00000000E+00  0.00000000E+00  0.00000000E+00
  0.00000000E+00  0.00000000E+00  0.00000000E+00
  0.00000000E+00  0.00000000E+00  0.00000000E+00
  0.00000000E+00  0.00000000E+00  0.00000000E+00
  0.00000000E+00  0.00000000E+00  0.00000000E+00
  0.00000000E+00  0.00000000E+00  0.00000000E+00
  0.00000000E+00  0.00000000E+00  0.00000000E+00
  0.00000000E+00  0.00000000E+00  0.00000000E+00
  0.00000000E+00  0.00000000E+00  0.00000000E+00
  0.00000000E+00  0.00000000E+00  0.00000000E+00
  0.00000000E+00  0.00000000E+00  0.00000000E+00
  0.00000000E+00  0.00000000E+00  0.00000000E+00
  0.00000000E+00  0.00000000E+00  0.00000000E+00
  0.00000000E+00  0.00000000E+00  0.00000000E+00
  0.00000000E+00  0.00000000E+00  0.00000000E+00
  0.00000000E+00  0.00000000E+00  0.00000000E+00
  0.00000000E+00  0.00000000E+00  0.00000000E+00
