Mg O                                    
   1.00000000000000     
     8.4141216974800006    0.0000000000000000    0.0000000000000000
     0.0000000000000000    8.4141216974800006    0.0000000000000000
     0.0000000000000000    0.0000000000000000   23.4141216974799988
   Mg   O 
    34    34
Selective dynamics
Direct
  0.2501557693353019  0.0002763225442006  0.0054040488074254   T   T   T
  0.2502845577538002  0.4997154422461998  0.0054652843532476   T   T   T
  0.7498363444907215  0.0001636555092784  0.0052351874168875   T   T   T
  0.7497236774557993  0.4998442306646982  0.0054040488074254   T   T   T
  0.0002774054056506  0.2501587753495194  0.0054077033602807   T   T   T
  0.0001639007700359  0.7498360992299640  0.0052395217637026   T   T   T
  0.4997140507611903  0.2502859492388097  0.0054699315279620   T   T   T
  0.4998412246504805  0.7497225945943492  0.0054077033602807   T   T   T
  0.0000777661355154  0.0000780738724300  0.0943374998926931   T   T   T
  0.0007342756653651  0.4998295061740728  0.0948330664273841   T   T   T
  0.4998238500542605  0.0007343701049578  0.0948329428873171   T   T   T
  0.4992612399744412  0.4992637636222547  0.0952058029754192   T   T   T
  0.2507362363777452  0.2507387600255588  0.0952058029754192   T   T   T
  0.2501704938259273  0.7492657243346348  0.0948330664273841   T   T   T
  0.7492656298950422  0.2501761499457394  0.0948329428873171   T   T   T
  0.7499219261275699  0.7499222338644843  0.0943374998926931   T   T   T
  0.2498358667963919  0.0024084304045002  0.1850277512142915   T   T   T
  0.2521574003389643  0.4978425996610357  0.1868911170275972   T   T   T
  0.7500929749125264 -0.0000929749125265  0.1840482500919963   T   T   T
  0.7475915695954999  0.5001641332036081  0.1850277512142915   T   T   T
  0.0024077124407110  0.2498414738568041  0.1850232372189997   T   T   T
 -0.0000919033635545  0.7500919033635542  0.1840493564223136   T   T   T
  0.4978406976220476  0.2521593023779523  0.1868866899140613   T   T   T
  0.5001585261431960  0.7475922875592889  0.1850232372189997   T   T   T
 -0.0024277870194952 -0.0024261141610466  0.2736875777187253   T   T   T
 -0.0063966276368038  0.5014160224416886  0.2720903999030909   T   T   T
  0.5014213447423683 -0.0063962319039156  0.2720856189511503   T   T   T
  0.5173636074778802  0.5173671539925653  0.2865497136438627   T   T   T
  0.2326326947014377  0.2326362412161228  0.2865497136438627   T   T   T
  0.2485839775583115  0.7563966276368037  0.2720903999030909   T   T   T
  0.7563962319039157  0.2485786552576316  0.2720856189511503   T   T   T
  0.7524261141610467  0.7524277870194954  0.2736875777187253   T   T   T
  0.2698666408079792  0.4801332078860237  0.3676673163453630   T   T   T
  0.4801534947931678  0.2698463539008351  0.3676675708988303   T   T   T
  0.0001174641865061  0.0001163403521237  0.0030458021963042   T   T   T
  0.0000514574282995  0.4998649293010435  0.0032509803818796   T   T   T
  0.4998615978479490  0.0000528265840746  0.0032515725932575   T   T   T
  0.4999486986356971  0.4999481581887111  0.0032106154268234   T   T   T
  0.2500518418112889  0.2500513013643030  0.0032106154268234   T   T   T
  0.2501350706989565  0.7499485425717005  0.0032509803818796   T   T   T
  0.7499471734159258  0.2501384021520511  0.0032515725932575   T   T   T
  0.7498836596478763  0.7498825358134938  0.0030458021963042   T   T   T
  0.2501073214229855  0.0007293325327308  0.0952116814197689   T   T   T
  0.2507255550904807  0.4992744449095194  0.0953699001219896   T   T   T
  0.7497916413696720  0.0002083586303282  0.0945185008232994   T   T   T
  0.7492706674672691  0.4998926785770144  0.0952116814197689   T   T   T
  0.0007299972002967  0.2501112970659440  0.0952083804075963   T   T   T
  0.0002087131634067  0.7497912868365935  0.0945187154175553   T   T   T
  0.4992694687931485  0.2507305312068515  0.0953669667704835   T   T   T
  0.4998887029340561  0.7492700027997031  0.0952083804075963   T   T   T
 -0.0002248942898907 -0.0002235337086101  0.1838605907947723   T   T   T
  0.0020943520039864  0.5001335147296848  0.1843958989410062   T   T   T
  0.5001289443769600  0.0020946855099053  0.1843925779865792   T   T   T
  0.4981345068568758  0.4981414143478416  0.1878102958595491   T   T   T
  0.2518585856521584  0.2518654931431242  0.1878102042405487   T   T   T
  0.2498664852703152  0.7479056479960136  0.1843958073220058   T   T   T
  0.7479053144900947  0.2498710556230402  0.1843924863675788   T   T   T
  0.7502235337086099  0.7502248942898908  0.1838604991757719   T   T   T
  0.2487244277443495 -0.0053850630123773  0.2740746512475881   T   T   T
  0.2366668359713873  0.5133330127226157  0.2843670090736041   T   T   T
  0.7517005506058845 -0.0017006010408828  0.2757064642057478   T   T   T
  0.7553850125773790  0.5012755218206522  0.2740746512475881   T   T   T
 -0.0053876198314312  0.2487308155500113  0.2740762645003327   T   T   T
 -0.0017015938378125  0.7517015938378125  0.2757160936663934   T   T   T
  0.5133477343402090  0.2366521143537940  0.2843654251671198   T   T   T
  0.5012691844499887  0.7553876198314312  0.2740762645003327   T   T   T
  0.4958629128236360  0.4958447939039378  0.3716587500573313   T   T   T
  0.2541550547900651  0.2541369358703670  0.3716587500573313   T   T   T
 
  0.00000000E+00  0.00000000E+00  0.00000000E+00
  0.00000000E+00  0.00000000E+00  0.00000000E+00
  0.00000000E+00  0.00000000E+00  0.00000000E+00
  0.00000000E+00  0.00000000E+00  0.00000000E+00
  0.00000000E+00  0.00000000E+00  0.00000000E+00
  0.00000000E+00  0.00000000E+00  0.00000000E+00
  0.00000000E+00  0.00000000E+00  0.00000000E+00
  0.00000000E+00  0.00000000E+00  0.00000000E+00
  0.00000000E+00  0.00000000E+00  0.00000000E+00
  0.00000000E+00  0.00000000E+00  0.00000000E+00
  0.00000000E+00  0.00000000E+00  0.00000000E+00
  0.00000000E+00  0.00000000E+00  0.00000000E+00
  0.00000000E+00  0.00000000E+00  0.00000000E+00
  0.00000000E+00  0.00000000E+00  0.00000000E+00
  0.00000000E+00  0.00000000E+00  0.00000000E+00
  0.00000000E+00  0.00000000E+00  0.00000000E+00
  0.00000000E+00  0.00000000E+00  0.00000000E+00
  0.00000000E+00  0.00000000E+00  0.00000000E+00
  0.00000000E+00  0.00000000E+00  0.00000000E+00
  0.00000000E+00  0.00000000E+00  0.00000000E+00
  0.00000000E+00  0.00000000E+00  0.00000000E+00
  0.00000000E+00  0.00000000E+00  0.00000000E+00
  0.00000000E+00  0.00000000E+00  0.00000000E+00
  0.00000000E+00  0.00000000E+00  0.00000000E+00
  0.00000000E+00  0.00000000E+00  0.00000000E+00
  0.00000000E+00  0.00000000E+00  0.00000000E+00
  0.00000000E+00  0.00000000E+00  0.00000000E+00
  0.00000000E+00  0.00000000E+00  0.00000000E+00
  0.00000000E+00  0.00000000E+00  0.00000000E+00
  0.00000000E+00  0.00000000E+00  0.00000000E+00
  0.00000000E+00  0.00000000E+00  0.00000000E+00
  0.00000000E+00  0.00000000E+00  0.00000000E+00
  0.00000000E+00  0.00000000E+00  0.00000000E+00
  0.00000000E+00  0.00000000E+00  0.00000000E+00
  0.00000000E+00  0.00000000E+00  0.00000000E+00
  0.00000000E+00  0.00000000E+00  0.00000000E+00
  0.00000000E+00  0.00000000E+00  0.00000000E+00
  0.00000000E+00  0.00000000E+00  0.00000000E+00
  0.00000000E+00  0.00000000E+00  0.00000000E+00
  0.00000000E+00  0.00000000E+00  0.00000000E+00
  0.00000000E+00  0.00000000E+00  0.00000000E+00
  0.00000000E+00  0.00000000E+00  0.00000000E+00
  0.00000000E+00  0.00000000E+00  0.00000000E+00
  0.00000000E+00  0.00000000E+00  0.00000000E+00
  0.00000000E+00  0.00000000E+00  0.00000000E+00
  0.00000000E+00  0.00000000E+00  0.00000000E+00
  0.00000000E+00  0.00000000E+00  0.00000000E+00
  0.00000000E+00  0.00000000E+00  0.00000000E+00
  0.00000000E+00  0.00000000E+00  0.00000000E+00
  0.00000000E+00  0.00000000E+00  0.00000000E+00
  0.00000000E+00  0.00000000E+00  0.00000000E+00
  0.00000000E+00  0.00000000E+00  0.00000000E+00
  0.00000000E+00  0.00000000E+00  0.00000000E+00
  0.00000000E+00  0.00000000E+00  0.00000000E+00
  0.00000000E+00  0.00000000E+00  0.00000000E+00
  0.00000000E+00  0.00000000E+00  0.00000000E+00
  0.00000000E+00  0.00000000E+00  0.00000000E+00
  0.00000000E+00  0.00000000E+00  0.00000000E+00
  0.00000000E+00  0.00000000E+00  0.00000000E+00
  0.00000000E+00  0.00000000E+00  0.00000000E+00
  0.00000000E+00  0.00000000E+00  0.00000000E+00
  0.00000000E+00  0.00000000E+00  0.00000000E+00
  0.00000000E+00  0.00000000E+00  0.00000000E+00
  0.00000000E+00  0.00000000E+00  0.00000000E+00
  0.00000000E+00  0.00000000E+00  0.00000000E+00
  0.00000000E+00  0.00000000E+00  0.00000000E+00
  0.00000000E+00  0.00000000E+00  0.00000000E+00
  0.00000000E+00  0.00000000E+00  0.00000000E+00
