Al Mg O Rh                              
   1.00000000000000     
    16.8282433949600012    0.0000000000000000    0.0000000000000000
     0.0000000000000000    8.4141216974800006    0.0000000000000000
     0.0000000000000000    0.0000000000000000   23.4141216974799988
   Al   Mg   O    Rh
     2    61    64     1
Selective dynamics
Direct
  0.1232636312609855  0.2496262605972979  0.2667212159950548   T   T   T
  0.6266334684780943  0.2483826709660878  0.2675246851036563   T   T   T
  0.1250382830995936  0.0000840918505750  0.0047009329575936   T   T   T
  0.6249422107304189  0.0001283291135053  0.0055512708140178   T   T   T
  0.1250726515209963  0.5001117245448137  0.0047057597797267   T   T   T
  0.6249504059299646  0.4995614176842347  0.0055341092638652   T   T   T
  0.3755993491979940  0.9999858565480316  0.0056607513225224   T   T   T
  0.8743517221218640  0.9997624265837370  0.0053522467059901   T   T   T
  0.3755964563124198  0.5002253254034146  0.0056172921721904   T   T   T
  0.8743801645532043  0.5001802393455365  0.0053814148976519   T   T   T
  0.9994897477464227  0.2500508852837324  0.0048617175080087   T   T   T
  0.5003060508080110  0.2499886198188108  0.0058023612287762   T   T   T
  0.9994577696575397  0.7499996680232276  0.0048746553102999   T   T   T
  0.4999951584344790  0.7499068506320415  0.0056996600475423   T   T   T
  0.2506153241639947  0.2501921661761605  0.0051592790142456   T   T   T
  0.7496035597267401  0.2499088823891754  0.0055781328197972   T   T   T
  0.2505416696059733  0.7501040496630068  0.0051210787809475   T   T   T
  0.7498595178481408  0.7498827133253618  0.0055177294651345   T   T   T
  0.9991765285130829  0.9996774996487433  0.0940712202837882   T   T   T
  0.5005928478705028  0.9985067142053681  0.0957663741912635   T   T   T
  0.9992343947571787  0.5004269746679946  0.0941350344069040   T   T   T
  0.5007306182167267  0.5013434375729952  0.0957151214951641   T   T   T
  0.2506493133107290  0.0001367790591044  0.0945871403007432   T   T   T
  0.7494920161626617  0.9981320605721608  0.0953646015424006   T   T   T
  0.2505442630662182  0.5005341790641824  0.0945896902320641   T   T   T
  0.7495494492377417  0.5013536301505537  0.0953783364226192   T   T   T
  0.1250210168981114  0.2502342368974564  0.0932812347664972   T   T   T
  0.6250827689795586  0.2496463083150484  0.0950815927763444   T   T   T
  0.1249824982248069  0.7501586828912087  0.0935225644561772   T   T   T
  0.6249800556707186  0.7496920374166800  0.0946560051111309   T   T   T
  0.3757236936500172  0.2500124171867098  0.0951185021686310   T   T   T
  0.8742658773405828  0.2499226456229342  0.0944757824884522   T   T   T
  0.3756025651398580  0.7504942175731418  0.0955564565286751   T   T   T
  0.8741471186069218  0.7498934224217044  0.0951559928001984   T   T   T
  0.1246717638552776  0.9980064658812722  0.1828832267987910   T   T   T
  0.6255049630507566  0.9898006503500481  0.1866397501051656   T   T   T
  0.1244743243686892  0.5029257061832302  0.1832468800302132   T   T   T
  0.6258645989272631  0.5087379641271563  0.1866454417807436   T   T   T
  0.3759817204532132  0.9995345763519369  0.1864898610847400   T   T   T
  0.8738658786971488  0.9982556933781124  0.1858036700566601   T   T   T
  0.3760324274460743  0.5017456793739787  0.1854328394397771   T   T   T
  0.8739695587395665  0.5013260940878331  0.1858198918882873   T   T   T
  0.9976950413765471  0.2501361376870635  0.1834087926051772   T   T   T
  0.5002434321000850  0.2504175676332794  0.1857522252444231   T   T   T
  0.9994404127394083  0.7500868720544317  0.1841578724269627   T   T   T
  0.5025690027144945  0.7495259519310927  0.1888064304811145   T   T   T
  0.2520132903604784  0.2511942588472734  0.1849249526869347   T   T   T
  0.7505885201947696  0.2494084757986046  0.1848592622494284   T   T   T
  0.2500763444722806  0.7503786438958222  0.1850951867297863   T   T   T
  0.7471085866903526  0.7495296018849521  0.1887749822596620   T   T   T
  0.9993740341558207  0.0021853103038025  0.2738047044934548   T   T   T
  0.5086145016077890  0.9859610628884848  0.2767796112104330   T   T   T
  0.9994229269598709  0.4983129034427761  0.2740012994382457   T   T   T
  0.5129649175832323  0.5164587796950996  0.2787619128211055   T   T   T
  0.2483853161543141  0.0046729166229257  0.2742287470216102   T   T   T
  0.7453070255157268  0.9865238434718164  0.2766415534006926   T   T   T
  0.2442399820416872  0.4994042751830469  0.2764364822603297   T   T   T
  0.7462075688539136  0.5119308538708135  0.2766724172412580   T   T   T
  0.1237814717786712  0.7532991570761256  0.2734508551810307   T   T   T
  0.3859468985376882  0.2431374257786283  0.2781796543056069   T   T   T
  0.8686898533213330  0.2493382674304165  0.2744004372936923   T   T   T
  0.3714258472952077  0.7601251437552429  0.2771511945842222   T   T   T
  0.8777593004560785  0.7502243889541788  0.2753049183455369   T   T   T
  0.0000757108016954  0.0002800143674457  0.0028803627916258   T   T   T
  0.4997536507004290  0.0002637356847355  0.0034175552750335   T   T   T
  0.0001366433477468  0.4997850910335364  0.0029332896461177   T   T   T
  0.4997575524327464  0.4996451845854650  0.0033677103179569   T   T   T
  0.2500521479151331  0.0004323023523387  0.0032356408684481   T   T   T
  0.7500542742446584  0.0001422895386023  0.0031443136465302   T   T   T
  0.2500576357138591  0.4998681170756274  0.0031935789093064   T   T   T
  0.7500557681002139  0.4996411838668005  0.0031670395027725   T   T   T
  0.1251558591558660  0.2501613564185065  0.0027859009697669   T   T   T
  0.6248785984217869  0.2498859607044388  0.0030938810474229   T   T   T
  0.1251003069692186  0.7500400488772700  0.0026994097521623   T   T   T
  0.6248504121126164  0.7498227902500956  0.0031172782117382   T   T   T
  0.3749335924550372  0.2501127659833542  0.0036230451082416   T   T   T
  0.8750545355889278  0.2499993287029534  0.0032367009556821   T   T   T
  0.3746538963102068  0.7500937985218049  0.0033054313103061   T   T   T
  0.8752762350073996  0.7499343733956683  0.0029872806944695   T   T   T
  0.1249564369716196  0.0010076121532107  0.0946359396925419   T   T   T
  0.6249450368449435  0.0017245056708542  0.0948622249840528   T   T   T
  0.1250814790435031  0.4994108108546788  0.0948431780829634   T   T   T
  0.6249255240694249  0.4976292603405150  0.0949374274135432   T   T   T
  0.3748189829441122  0.0009755962403955  0.0957390020054455   T   T   T
  0.8751896987867409  0.0004073347321373  0.0951065602407069   T   T   T
  0.3748235283412423  0.4994913701300648  0.0957030039764695   T   T   T
  0.8752252264472518  0.4993988252254376  0.0951213794091985   T   T   T
  0.0004553635775842  0.2501090129944666  0.0947950046751265   T   T   T
  0.4998607346664242  0.2502446764324535  0.0959598541952758   T   T   T
  0.0005672034656983  0.7500084238165253  0.0944898369722345   T   T   T
  0.4988908114513845  0.7496416474028814  0.0949467169815644   T   T   T
  0.2496672289098875  0.2506705437944906  0.0955319132199094   T   T   T
  0.7500989786238548  0.2497728804364018  0.0953840388383183   T   T   T
  0.2494380778725308  0.7500273479969487  0.0949727703705004   T   T   T
  0.7508301466259146  0.7497032979786953  0.0946102068266366   T   T   T
  0.0004391343924084  0.0006101482480938  0.1843227622915961   T   T   T
  0.5001352176263819  0.9992808023779748  0.1858134395054316   T   T   T
  0.0003437241639234  0.4996220670395293  0.1844201070517032   T   T   T
  0.5000429045846233  0.5005329474512221  0.1867228197353289   T   T   T
  0.2489573855887988  0.0016135925863889  0.1846493277084489   T   T   T
  0.7503300081752711  0.9988868885314006  0.1852689203460880   T   T   T
  0.2492103405957641  0.4999264652724450  0.1856709509554758   T   T   T
  0.7504934697325172  0.5000474735778436  0.1853503547560652   T   T   T
  0.1239378322149839  0.2504838239317451  0.1861229553241582   T   T   T
  0.6257071604449995  0.2497504422754486  0.1860019691651067   T   T   T
  0.1244198566278463  0.7503789334515194  0.1848698265584896   T   T   T
  0.6249571020330503  0.7491840399986440  0.1807290648944118   T   T   T
  0.3749278773596779  0.2514613535181957  0.1872563702751054   T   T   T
  0.8754612121064450  0.2497617104101282  0.1853374035126551   T   T   T
  0.3725435846244788  0.7497167653017710  0.1857193204603449   T   T   T
  0.8773381879931682  0.7498340300394265  0.1848671406387892   T   T   T
  0.1233994331326365  0.0160207776057790  0.2744427090863858   T   T   T
  0.6266518504685833  0.0343238524391494  0.2759962544776439   T   T   T
  0.1225250938136446  0.4846549695588480  0.2746594541189665   T   T   T
  0.6280051536020731  0.4628149159804689  0.2763385989140905   T   T   T
  0.3708807369332867  0.0063201972257925  0.2776180364947640   T   T   T
  0.8782645873321679  0.0068038033301952  0.2774027205029608   T   T   T
  0.3703504276476850  0.4947862351336607  0.2765005969712877   T   T   T
  0.8781675632688316  0.4923473342504527  0.2774853946639022   T   T   T
  0.0117131392142426  0.2498176626357889  0.2752768687197498   T   T   T
  0.5081077356153098  0.2480819402976117  0.2748945822490085   T   T   T
  0.0028086410419699  0.7505301109130121  0.2770925486275561   T   T   T
  0.4891041829268287  0.7502054717374297  0.2769767716990594   T   T   T
  0.2337883615810095  0.2502924119974497  0.2750075973403484   T   T   T
  0.7457874862278142  0.2483845453535919  0.2749690908923877   T   T   T
  0.2446754142804069  0.7529856652355782  0.2763748902259483   T   T   T
  0.7612746136428099  0.7494193957026664  0.2769526246434215   T   T   T
  0.3706181164986805  0.4827701242347714  0.3596739981891113   T   T   T
 
  0.00000000E+00  0.00000000E+00  0.00000000E+00
  0.00000000E+00  0.00000000E+00  0.00000000E+00
  0.00000000E+00  0.00000000E+00  0.00000000E+00
  0.00000000E+00  0.00000000E+00  0.00000000E+00
  0.00000000E+00  0.00000000E+00  0.00000000E+00
  0.00000000E+00  0.00000000E+00  0.00000000E+00
  0.00000000E+00  0.00000000E+00  0.00000000E+00
  0.00000000E+00  0.00000000E+00  0.00000000E+00
  0.00000000E+00  0.00000000E+00  0.00000000E+00
  0.00000000E+00  0.00000000E+00  0.00000000E+00
  0.00000000E+00  0.00000000E+00  0.00000000E+00
  0.00000000E+00  0.00000000E+00  0.00000000E+00
  0.00000000E+00  0.00000000E+00  0.00000000E+00
  0.00000000E+00  0.00000000E+00  0.00000000E+00
  0.00000000E+00  0.00000000E+00  0.00000000E+00
  0.00000000E+00  0.00000000E+00  0.00000000E+00
  0.00000000E+00  0.00000000E+00  0.00000000E+00
  0.00000000E+00  0.00000000E+00  0.00000000E+00
  0.00000000E+00  0.00000000E+00  0.00000000E+00
  0.00000000E+00  0.00000000E+00  0.00000000E+00
  0.00000000E+00  0.00000000E+00  0.00000000E+00
  0.00000000E+00  0.00000000E+00  0.00000000E+00
  0.00000000E+00  0.00000000E+00  0.00000000E+00
  0.00000000E+00  0.00000000E+00  0.00000000E+00
  0.00000000E+00  0.00000000E+00  0.00000000E+00
  0.00000000E+00  0.00000000E+00  0.00000000E+00
  0.00000000E+00  0.00000000E+00  0.00000000E+00
  0.00000000E+00  0.00000000E+00  0.00000000E+00
  0.00000000E+00  0.00000000E+00  0.00000000E+00
  0.00000000E+00  0.00000000E+00  0.00000000E+00
  0.00000000E+00  0.00000000E+00  0.00000000E+00
  0.00000000E+00  0.00000000E+00  0.00000000E+00
  0.00000000E+00  0.00000000E+00  0.00000000E+00
  0.00000000E+00  0.00000000E+00  0.00000000E+00
  0.00000000E+00  0.00000000E+00  0.00000000E+00
  0.00000000E+00  0.00000000E+00  0.00000000E+00
  0.00000000E+00  0.00000000E+00  0.00000000E+00
  0.00000000E+00  0.00000000E+00  0.00000000E+00
  0.00000000E+00  0.00000000E+00  0.00000000E+00
  0.00000000E+00  0.00000000E+00  0.00000000E+00
  0.00000000E+00  0.00000000E+00  0.00000000E+00
  0.00000000E+00  0.00000000E+00  0.00000000E+00
  0.00000000E+00  0.00000000E+00  0.00000000E+00
  0.00000000E+00  0.00000000E+00  0.00000000E+00
  0.00000000E+00  0.00000000E+00  0.00000000E+00
  0.00000000E+00  0.00000000E+00  0.00000000E+00
  0.00000000E+00  0.00000000E+00  0.00000000E+00
  0.00000000E+00  0.00000000E+00  0.00000000E+00
  0.00000000E+00  0.00000000E+00  0.00000000E+00
  0.00000000E+00  0.00000000E+00  0.00000000E+00
  0.00000000E+00  0.00000000E+00  0.00000000E+00
  0.00000000E+00  0.00000000E+00  0.00000000E+00
  0.00000000E+00  0.00000000E+00  0.00000000E+00
  0.00000000E+00  0.00000000E+00  0.00000000E+00
  0.00000000E+00  0.00000000E+00  0.00000000E+00
  0.00000000E+00  0.00000000E+00  0.00000000E+00
  0.00000000E+00  0.00000000E+00  0.00000000E+00
  0.00000000E+00  0.00000000E+00  0.00000000E+00
  0.00000000E+00  0.00000000E+00  0.00000000E+00
  0.00000000E+00  0.00000000E+00  0.00000000E+00
  0.00000000E+00  0.00000000E+00  0.00000000E+00
  0.00000000E+00  0.00000000E+00  0.00000000E+00
  0.00000000E+00  0.00000000E+00  0.00000000E+00
  0.00000000E+00  0.00000000E+00  0.00000000E+00
  0.00000000E+00  0.00000000E+00  0.00000000E+00
  0.00000000E+00  0.00000000E+00  0.00000000E+00
  0.00000000E+00  0.00000000E+00  0.00000000E+00
  0.00000000E+00  0.00000000E+00  0.00000000E+00
  0.00000000E+00  0.00000000E+00  0.00000000E+00
  0.00000000E+00  0.00000000E+00  0.00000000E+00
  0.00000000E+00  0.00000000E+00  0.00000000E+00
  0.00000000E+00  0.00000000E+00  0.00000000E+00
  0.00000000E+00  0.00000000E+00  0.00000000E+00
  0.00000000E+00  0.00000000E+00  0.00000000E+00
  0.00000000E+00  0.00000000E+00  0.00000000E+00
  0.00000000E+00  0.00000000E+00  0.00000000E+00
  0.00000000E+00  0.00000000E+00  0.00000000E+00
  0.00000000E+00  0.00000000E+00  0.00000000E+00
  0.00000000E+00  0.00000000E+00  0.00000000E+00
  0.00000000E+00  0.00000000E+00  0.00000000E+00
  0.00000000E+00  0.00000000E+00  0.00000000E+00
  0.00000000E+00  0.00000000E+00  0.00000000E+00
  0.00000000E+00  0.00000000E+00  0.00000000E+00
  0.00000000E+00  0.00000000E+00  0.00000000E+00
  0.00000000E+00  0.00000000E+00  0.00000000E+00
  0.00000000E+00  0.00000000E+00  0.00000000E+00
  0.00000000E+00  0.00000000E+00  0.00000000E+00
  0.00000000E+00  0.00000000E+00  0.00000000E+00
  0.00000000E+00  0.00000000E+00  0.00000000E+00
  0.00000000E+00  0.00000000E+00  0.00000000E+00
  0.00000000E+00  0.00000000E+00  0.00000000E+00
  0.00000000E+00  0.00000000E+00  0.00000000E+00
  0.00000000E+00  0.00000000E+00  0.00000000E+00
  0.00000000E+00  0.00000000E+00  0.00000000E+00
  0.00000000E+00  0.00000000E+00  0.00000000E+00
  0.00000000E+00  0.00000000E+00  0.00000000E+00
  0.00000000E+00  0.00000000E+00  0.00000000E+00
  0.00000000E+00  0.00000000E+00  0.00000000E+00
  0.00000000E+00  0.00000000E+00  0.00000000E+00
  0.00000000E+00  0.00000000E+00  0.00000000E+00
  0.00000000E+00  0.00000000E+00  0.00000000E+00
  0.00000000E+00  0.00000000E+00  0.00000000E+00
  0.00000000E+00  0.00000000E+00  0.00000000E+00
  0.00000000E+00  0.00000000E+00  0.00000000E+00
  0.00000000E+00  0.00000000E+00  0.00000000E+00
  0.00000000E+00  0.00000000E+00  0.00000000E+00
  0.00000000E+00  0.00000000E+00  0.00000000E+00
  0.00000000E+00  0.00000000E+00  0.00000000E+00
  0.00000000E+00  0.00000000E+00  0.00000000E+00
  0.00000000E+00  0.00000000E+00  0.00000000E+00
  0.00000000E+00  0.00000000E+00  0.00000000E+00
  0.00000000E+00  0.00000000E+00  0.00000000E+00
  0.00000000E+00  0.00000000E+00  0.00000000E+00
  0.00000000E+00  0.00000000E+00  0.00000000E+00
  0.00000000E+00  0.00000000E+00  0.00000000E+00
  0.00000000E+00  0.00000000E+00  0.00000000E+00
  0.00000000E+00  0.00000000E+00  0.00000000E+00
  0.00000000E+00  0.00000000E+00  0.00000000E+00
  0.00000000E+00  0.00000000E+00  0.00000000E+00
  0.00000000E+00  0.00000000E+00  0.00000000E+00
  0.00000000E+00  0.00000000E+00  0.00000000E+00
  0.00000000E+00  0.00000000E+00  0.00000000E+00
  0.00000000E+00  0.00000000E+00  0.00000000E+00
  0.00000000E+00  0.00000000E+00  0.00000000E+00
  0.00000000E+00  0.00000000E+00  0.00000000E+00
  0.00000000E+00  0.00000000E+00  0.00000000E+00
  0.00000000E+00  0.00000000E+00  0.00000000E+00
  0.00000000E+00  0.00000000E+00  0.00000000E+00
