Al Mg O V                               
   1.00000000000000     
    16.8282433949600012    0.0000000000000000    0.0000000000000000
     0.0000000000000000    8.4141216974800006    0.0000000000000000
     0.0000000000000000    0.0000000000000000   23.4141216974799988
   Al   Mg   O    V 
     2    61    64     1
Selective dynamics
Direct
  0.1242871968394625  0.2493799522773338  0.2670428655843786   T   T   T
  0.6257890720389243  0.2493799847268701  0.2673171552940412   T   T   T
  0.1249636417906531  0.9999395935502502  0.0048626081094538   T   T   T
  0.6250426383063318  0.0002499430476937  0.0053066306906502   T   T   T
  0.1249513488608045  0.5000486223439629  0.0048639314848460   T   T   T
  0.6250775354899477  0.4997331145509226  0.0052926399161137   T   T   T
  0.3754426484041450  0.9998739420904429  0.0054412042096032   T   T   T
  0.8745420390409783  0.9997906522866975  0.0055113402581579   T   T   T
  0.3754442069407756  0.5001677084782726  0.0054319392888820   T   T   T
  0.8745459155340414  0.5002092310538645  0.0054872723378590   T   T   T
  0.9995600449575626  0.2499775378370132  0.0050833396920546   T   T   T
  0.5002880338121095  0.2499403455254162  0.0054895410327347   T   T   T
  0.9995747385660096  0.7500240480064924  0.0051172428665918   T   T   T
  0.5000198840315963  0.7500736720028948  0.0054109687596981   T   T   T
  0.2503734866144289  0.2499628807322151  0.0050733188572356   T   T   T
  0.7497687978666417  0.2499652079819946  0.0054971289915047   T   T   T
  0.2503285105112206  0.7500478609428478  0.0050938364036060   T   T   T
  0.7500558354735367  0.7500356398950545  0.0054359752996573   T   T   T
  0.9993028204157479  0.9996306936982865  0.0944846971325668   T   T   T
  0.5006711076610606  0.9985429542987376  0.0953194409470332   T   T   T
  0.9992552497813897  0.5003597177118255  0.0943994772013475   T   T   T
  0.5005459858414348  0.5015067044101760  0.0953428453007740   T   T   T
  0.2504912146126886  0.9997307052355630  0.0943918524767985   T   T   T
  0.7495178252145518  0.9984304424358469  0.0954209411025608   T   T   T
  0.2506064824529704  0.5003307633393602  0.0944724939517455   T   T   T
  0.7496655266247847  0.5015493557434991  0.0952831977163115   T   T   T
  0.1249288779787878  0.2499444990159314  0.0933879761860657   T   T   T
  0.6250767738367038  0.2497960215196711  0.0947950041262831   T   T   T
  0.1249095071070078  0.7499996621064927  0.0937072609095369   T   T   T
  0.6250821346290097  0.7500959584364787  0.0944095966372082   T   T   T
  0.3756327458883509  0.2503462355309831  0.0946283515885504   T   T   T
  0.8743401270245525  0.2499433903326103  0.0947118885073770   T   T   T
  0.3756143435486504  0.7497674417024200  0.0951360112201838   T   T   T
  0.8743057013242540  0.7500640260828645  0.0953638902185135   T   T   T
  0.1248683977008030  0.9975025638918172  0.1833243751536262   T   T   T
  0.6251538839194231  0.9901921516683915  0.1866373263128552   T   T   T
  0.1246891850282242  0.5024383428564977  0.1833743959685718   T   T   T
  0.6256801606318179  0.5091025361440582  0.1862374063605716   T   T   T
  0.3759355708745201  0.9990358786426572  0.1856146175183005   T   T   T
  0.8739223895826833  0.9985520815290519  0.1861928545808684   T   T   T
  0.3760276201109752  0.5014801363742980  0.1859154081422292   T   T   T
  0.8739873648713005  0.5014285270869008  0.1860812909307892   T   T   T
  0.9979027727390329  0.2497980977125775  0.1839241579466624   T   T   T
  0.5000401164992844  0.2502676271446156  0.1850770482794147   T   T   T
  0.9996221763027586  0.7501235775347078  0.1846412471043117   T   T   T
  0.5028625153825648  0.7499058879703928  0.1882374635949008   T   T   T
  0.2517729132655321  0.2502508187325319  0.1841710616154364   T   T   T
  0.7503225414548589  0.2497306778227182  0.1848797119881743   T   T   T
  0.2499866097411922  0.7499894544594444  0.1846755714970692   T   T   T
  0.7470884298985209  0.7501371142531273  0.1887136362371631   T   T   T
 -0.0001972547261676  0.0023667946615313  0.2744280252035998   T   T   T
  0.5071427526710247  0.9868590023149421  0.2768293076080365   T   T   T
 -0.0002068508509408  0.4974898429115129  0.2743711273938839   T   T   T
  0.5107879207842445  0.5152458912827770  0.2771646866943013   T   T   T
  0.2490317383160380  0.0030823633884411  0.2743523171433975   T   T   T
  0.7444133043936838  0.9868821707603183  0.2767837927323711   T   T   T
  0.2462922605188073  0.4979598006751684  0.2752806777311289   T   T   T
  0.7451960727964332  0.5127594784346757  0.2766679747675578   T   T   T
  0.1243886715632630  0.7514185658972414  0.2740077844521958   T   T   T
  0.3829668115904749  0.2440660056068500  0.2755763046617741   T   T   T
  0.8678933566402025  0.2495982352522902  0.2746552165842258   T   T   T
  0.3719639955370771  0.7582669153238096  0.2753069060003465   T   T   T
  0.8776286482324929  0.7503715311041076  0.2755563623030662   T   T   T
  0.0001757713283953  0.0002454765513689  0.0031427151252697   T   T   T
  0.4997264304925515  0.0002863923825446  0.0031175637462993   T   T   T
  0.0001804161790600  0.4997549270463744  0.0031413938265102   T   T   T
  0.4997096222026247  0.4997282004030538  0.0030648748319569   T   T   T
  0.2498693290061883  0.0002424149494344  0.0031846381736144   T   T   T
  0.7502215411963813  0.0002740037374128  0.0030770615241683   T   T   T
  0.2499003058500150  0.4997705372008439  0.0031155448654907   T   T   T
  0.7502312895070228  0.4997251342460251  0.0030675396782239   T   T   T
  0.1250557855529728  0.2499819852146583  0.0029085834064872   T   T   T
  0.6249402706732576  0.2499768614135606  0.0028214931541494   T   T   T
  0.1250414037204821  0.7500050014226849  0.0028955488533927   T   T   T
  0.6249445892874873  0.7499933248137656  0.0028712452328417   T   T   T
  0.3747775451586113  0.2500385535664753  0.0033621526214510   T   T   T
  0.8752151970895629  0.2500129340248952  0.0033666148997561   T   T   T
  0.3745141479331690  0.7500035091145197  0.0030938379959436   T   T   T
  0.8754739175205203  0.7499876164557232  0.0030885359975693   T   T   T
  0.1249756562884892  0.0007131657184584  0.0948911577439258   T   T   T
  0.6249889202142600  0.0019197369903600  0.0946333876153551   T   T   T
  0.1250692820485524  0.4992153643492529  0.0949958999073532   T   T   T
  0.6249895880525740  0.4979030045407206  0.0946483975823513   T   T   T
  0.3747275578308045  0.0007167407656711  0.0953376137813548   T   T   T
  0.8752717301489722  0.0005116467005328  0.0953617960258896   T   T   T
  0.3747434310856895  0.4994069951490807  0.0953511528216132   T   T   T
  0.8752736241801580  0.4994899344221440  0.0952740889391189   T   T   T
  0.0005278433773623  0.2499743488518153  0.0951288754026803   T   T   T
  0.4998624457979927  0.2501479153957177  0.0954861846321458   T   T   T
  0.0006702078571072  0.7500084703114974  0.0948243063951495   T   T   T
  0.4990006385399397  0.7499172518418787  0.0945607754716980   T   T   T
  0.2494907899811480  0.2502046398179815  0.0952560571356420   T   T   T
  0.7500922153378841  0.2499562148319941  0.0953742219798096   T   T   T
  0.2493114291085517  0.7498666839610246  0.0948497038216538   T   T   T
  0.7509193636741116  0.7500212442804232  0.0945856816013353   T   T   T
  0.0007909112650852  0.0004718454520024  0.1847937369336324   T   T   T
  0.4999668932731541  0.9993822186435836  0.1853704691426516   T   T   T
  0.0005707454356617  0.4994251107144751  0.1847382255393619   T   T   T
  0.4996881762659857  0.5007030951667114  0.1860552294036218   T   T   T
  0.2490573708011024  0.0007690814240375  0.1844512604453651   T   T   T
  0.7500409621200493  0.9994097102691660  0.1854233161042371   T   T   T
  0.2495959353211064  0.4995056326856310  0.1853796920974739   T   T   T
  0.7503685975544003  0.5003896901318879  0.1853139774918138   T   T   T
  0.1244911038434814  0.2498208974437462  0.1863477352969298   T   T   T
  0.6252749020158411  0.2496934771630893  0.1857784644939053   T   T   T
  0.1246643812347757  0.7499631634864899  0.1852305154268072   T   T   T
  0.6249495491835526  0.7497196405666606  0.1804861827932726   T   T   T
  0.3746453547472590  0.2516956234620465  0.1863027122085285   T   T   T
  0.8754050080604507  0.2499150826065672  0.1856021408787826   T   T   T
  0.3725890166530719  0.7489415546567607  0.1852123571573961   T   T   T
  0.8774453652334230  0.7500544767836114  0.1851009335231058   T   T   T
  0.1243684443098912  0.0158878075796394  0.2750074719253485   T   T   T
  0.6254997755969106  0.0355033044832794  0.2760366989466627   T   T   T
  0.1238241526270669  0.4835983294206409  0.2746046644490626   T   T   T
  0.6268220327558655  0.4634060453391807  0.2756713376634123   T   T   T
  0.3712194420098765  0.0060854490096615  0.2764760404234894   T   T   T
  0.8783167150927063  0.0071816143588119  0.2775867882659346   T   T   T
  0.3703936047767699  0.4921495041637807  0.2804607189666015   T   T   T
  0.8781906552673330  0.4924713957984941  0.2775862518995533   T   T   T
  0.0126924686335658  0.2496966418870886  0.2755813264110896   T   T   T
  0.5061626982809206  0.2496558258059707  0.2745642130746222   T   T   T
  0.0031911100153904  0.7500924419216769  0.2775033841445165   T   T   T
  0.4890485262867386  0.7500029609290839  0.2765572763994902   T   T   T
  0.2357367727454837  0.2494983776763982  0.2746296901917787   T   T   T
  0.7450395731966047  0.2489579580941688  0.2749970766234257   T   T   T
  0.2457529778957363  0.7512962400023605  0.2763225775781794   T   T   T
  0.7609672906541973  0.7499842487881799  0.2768920615805064   T   T   T
  0.3728516168354009  0.4923452176017874  0.3683528514335125   T   T   T
 
  0.00000000E+00  0.00000000E+00  0.00000000E+00
  0.00000000E+00  0.00000000E+00  0.00000000E+00
  0.00000000E+00  0.00000000E+00  0.00000000E+00
  0.00000000E+00  0.00000000E+00  0.00000000E+00
  0.00000000E+00  0.00000000E+00  0.00000000E+00
  0.00000000E+00  0.00000000E+00  0.00000000E+00
  0.00000000E+00  0.00000000E+00  0.00000000E+00
  0.00000000E+00  0.00000000E+00  0.00000000E+00
  0.00000000E+00  0.00000000E+00  0.00000000E+00
  0.00000000E+00  0.00000000E+00  0.00000000E+00
  0.00000000E+00  0.00000000E+00  0.00000000E+00
  0.00000000E+00  0.00000000E+00  0.00000000E+00
  0.00000000E+00  0.00000000E+00  0.00000000E+00
  0.00000000E+00  0.00000000E+00  0.00000000E+00
  0.00000000E+00  0.00000000E+00  0.00000000E+00
  0.00000000E+00  0.00000000E+00  0.00000000E+00
  0.00000000E+00  0.00000000E+00  0.00000000E+00
  0.00000000E+00  0.00000000E+00  0.00000000E+00
  0.00000000E+00  0.00000000E+00  0.00000000E+00
  0.00000000E+00  0.00000000E+00  0.00000000E+00
  0.00000000E+00  0.00000000E+00  0.00000000E+00
  0.00000000E+00  0.00000000E+00  0.00000000E+00
  0.00000000E+00  0.00000000E+00  0.00000000E+00
  0.00000000E+00  0.00000000E+00  0.00000000E+00
  0.00000000E+00  0.00000000E+00  0.00000000E+00
  0.00000000E+00  0.00000000E+00  0.00000000E+00
  0.00000000E+00  0.00000000E+00  0.00000000E+00
  0.00000000E+00  0.00000000E+00  0.00000000E+00
  0.00000000E+00  0.00000000E+00  0.00000000E+00
  0.00000000E+00  0.00000000E+00  0.00000000E+00
  0.00000000E+00  0.00000000E+00  0.00000000E+00
  0.00000000E+00  0.00000000E+00  0.00000000E+00
  0.00000000E+00  0.00000000E+00  0.00000000E+00
  0.00000000E+00  0.00000000E+00  0.00000000E+00
  0.00000000E+00  0.00000000E+00  0.00000000E+00
  0.00000000E+00  0.00000000E+00  0.00000000E+00
  0.00000000E+00  0.00000000E+00  0.00000000E+00
  0.00000000E+00  0.00000000E+00  0.00000000E+00
  0.00000000E+00  0.00000000E+00  0.00000000E+00
  0.00000000E+00  0.00000000E+00  0.00000000E+00
  0.00000000E+00  0.00000000E+00  0.00000000E+00
  0.00000000E+00  0.00000000E+00  0.00000000E+00
  0.00000000E+00  0.00000000E+00  0.00000000E+00
  0.00000000E+00  0.00000000E+00  0.00000000E+00
  0.00000000E+00  0.00000000E+00  0.00000000E+00
  0.00000000E+00  0.00000000E+00  0.00000000E+00
  0.00000000E+00  0.00000000E+00  0.00000000E+00
  0.00000000E+00  0.00000000E+00  0.00000000E+00
  0.00000000E+00  0.00000000E+00  0.00000000E+00
  0.00000000E+00  0.00000000E+00  0.00000000E+00
  0.00000000E+00  0.00000000E+00  0.00000000E+00
  0.00000000E+00  0.00000000E+00  0.00000000E+00
  0.00000000E+00  0.00000000E+00  0.00000000E+00
  0.00000000E+00  0.00000000E+00  0.00000000E+00
  0.00000000E+00  0.00000000E+00  0.00000000E+00
  0.00000000E+00  0.00000000E+00  0.00000000E+00
  0.00000000E+00  0.00000000E+00  0.00000000E+00
  0.00000000E+00  0.00000000E+00  0.00000000E+00
  0.00000000E+00  0.00000000E+00  0.00000000E+00
  0.00000000E+00  0.00000000E+00  0.00000000E+00
  0.00000000E+00  0.00000000E+00  0.00000000E+00
  0.00000000E+00  0.00000000E+00  0.00000000E+00
  0.00000000E+00  0.00000000E+00  0.00000000E+00
  0.00000000E+00  0.00000000E+00  0.00000000E+00
  0.00000000E+00  0.00000000E+00  0.00000000E+00
  0.00000000E+00  0.00000000E+00  0.00000000E+00
  0.00000000E+00  0.00000000E+00  0.00000000E+00
  0.00000000E+00  0.00000000E+00  0.00000000E+00
  0.00000000E+00  0.00000000E+00  0.00000000E+00
  0.00000000E+00  0.00000000E+00  0.00000000E+00
  0.00000000E+00  0.00000000E+00  0.00000000E+00
  0.00000000E+00  0.00000000E+00  0.00000000E+00
  0.00000000E+00  0.00000000E+00  0.00000000E+00
  0.00000000E+00  0.00000000E+00  0.00000000E+00
  0.00000000E+00  0.00000000E+00  0.00000000E+00
  0.00000000E+00  0.00000000E+00  0.00000000E+00
  0.00000000E+00  0.00000000E+00  0.00000000E+00
  0.00000000E+00  0.00000000E+00  0.00000000E+00
  0.00000000E+00  0.00000000E+00  0.00000000E+00
  0.00000000E+00  0.00000000E+00  0.00000000E+00
  0.00000000E+00  0.00000000E+00  0.00000000E+00
  0.00000000E+00  0.00000000E+00  0.00000000E+00
  0.00000000E+00  0.00000000E+00  0.00000000E+00
  0.00000000E+00  0.00000000E+00  0.00000000E+00
  0.00000000E+00  0.00000000E+00  0.00000000E+00
  0.00000000E+00  0.00000000E+00  0.00000000E+00
  0.00000000E+00  0.00000000E+00  0.00000000E+00
  0.00000000E+00  0.00000000E+00  0.00000000E+00
  0.00000000E+00  0.00000000E+00  0.00000000E+00
  0.00000000E+00  0.00000000E+00  0.00000000E+00
  0.00000000E+00  0.00000000E+00  0.00000000E+00
  0.00000000E+00  0.00000000E+00  0.00000000E+00
  0.00000000E+00  0.00000000E+00  0.00000000E+00
  0.00000000E+00  0.00000000E+00  0.00000000E+00
  0.00000000E+00  0.00000000E+00  0.00000000E+00
  0.00000000E+00  0.00000000E+00  0.00000000E+00
  0.00000000E+00  0.00000000E+00  0.00000000E+00
  0.00000000E+00  0.00000000E+00  0.00000000E+00
  0.00000000E+00  0.00000000E+00  0.00000000E+00
  0.00000000E+00  0.00000000E+00  0.00000000E+00
  0.00000000E+00  0.00000000E+00  0.00000000E+00
  0.00000000E+00  0.00000000E+00  0.00000000E+00
  0.00000000E+00  0.00000000E+00  0.00000000E+00
  0.00000000E+00  0.00000000E+00  0.00000000E+00
  0.00000000E+00  0.00000000E+00  0.00000000E+00
  0.00000000E+00  0.00000000E+00  0.00000000E+00
  0.00000000E+00  0.00000000E+00  0.00000000E+00
  0.00000000E+00  0.00000000E+00  0.00000000E+00
  0.00000000E+00  0.00000000E+00  0.00000000E+00
  0.00000000E+00  0.00000000E+00  0.00000000E+00
  0.00000000E+00  0.00000000E+00  0.00000000E+00
  0.00000000E+00  0.00000000E+00  0.00000000E+00
  0.00000000E+00  0.00000000E+00  0.00000000E+00
  0.00000000E+00  0.00000000E+00  0.00000000E+00
  0.00000000E+00  0.00000000E+00  0.00000000E+00
  0.00000000E+00  0.00000000E+00  0.00000000E+00
  0.00000000E+00  0.00000000E+00  0.00000000E+00
  0.00000000E+00  0.00000000E+00  0.00000000E+00
  0.00000000E+00  0.00000000E+00  0.00000000E+00
  0.00000000E+00  0.00000000E+00  0.00000000E+00
  0.00000000E+00  0.00000000E+00  0.00000000E+00
  0.00000000E+00  0.00000000E+00  0.00000000E+00
  0.00000000E+00  0.00000000E+00  0.00000000E+00
  0.00000000E+00  0.00000000E+00  0.00000000E+00
  0.00000000E+00  0.00000000E+00  0.00000000E+00
  0.00000000E+00  0.00000000E+00  0.00000000E+00
  0.00000000E+00  0.00000000E+00  0.00000000E+00
  0.00000000E+00  0.00000000E+00  0.00000000E+00
