Al Mg O Mn                              
   1.00000000000000     
    16.8282433949600012    0.0000000000000000    0.0000000000000000
     0.0000000000000000    8.4141216974800006    0.0000000000000000
     0.0000000000000000    0.0000000000000000   23.4141216974799988
   Al   Mg   O    Mn
     2    61    64     1
Selective dynamics
Direct
  0.1238581442025556  0.2492585680752991  0.2667515123936817   T   T   T
  0.6263247552069082  0.2490431830671339  0.2673000696557922   T   T   T
  0.1249026905898610  0.0000127800451136  0.0047807120479806   T   T   T
  0.6251750846020534  0.0002630877508145  0.0053591298586367   T   T   T
  0.1250125610670509  0.5000429952064009  0.0047725310287881   T   T   T
  0.6250917160861291  0.4997041520934306  0.0053673278916012   T   T   T
  0.3755512509327233  0.9999128190950507  0.0054268215897741   T   T   T
  0.8745428452747690  0.9998260591506279  0.0055272258105676   T   T   T
  0.3755423750170772  0.5001976217598622  0.0053271706091612   T   T   T
  0.8745701961368660  0.5002282560385628  0.0054584230569620   T   T   T
  0.9995165326806004  0.2499579014281190  0.0050362851037410   T   T   T
  0.5004158075526971  0.2501145373562725  0.0055046330701939   T   T   T
  0.9995187844364462  0.7500831973874851  0.0050603992876127   T   T   T
  0.5001011898675997  0.7499340983782418  0.0054244294229530   T   T   T
  0.2504375721224491  0.2501628962271107  0.0050106991727407   T   T   T
  0.7498560930974011  0.2499328998312265  0.0055298372393002   T   T   T
  0.2503955448491159  0.7499459801333309  0.0049826105737262   T   T   T
  0.7501386659071017  0.7500969526021467  0.0054869447418906   T   T   T
  0.9992136803788754  0.9996212272560960  0.0943237539636775   T   T   T
  0.5007112118743817  0.9985436067427269  0.0953625937374550   T   T   T
  0.9991769686934063  0.5004061672306443  0.0943467713893865   T   T   T
  0.5007263851764232  0.5014440073305391  0.0953762783577043   T   T   T
  0.2505391504801180  0.9998022546040320  0.0943241847921857   T   T   T
  0.7496461842656285  0.9983095507771704  0.0954099330162392   T   T   T
  0.2505774356768434  0.5003569387802447  0.0944011560497019   T   T   T
  0.7497418913164885  0.5015884846214219  0.0953786559211982   T   T   T
  0.1248563489488089  0.2500074670937939  0.0933061222103081   T   T   T
  0.6252686746046441  0.2498111526586276  0.0948389901812742   T   T   T
  0.1248401493298687  0.7500643017161124  0.0936185307415833   T   T   T
  0.6252612790986921  0.7499445881683041  0.0944215661305942   T   T   T
  0.3757039483158108  0.2502648213294717  0.0946794321684802   T   T   T
  0.8743700038390386  0.2499666102543522  0.0946368182672783   T   T   T
  0.3756403853155011  0.7500366463684691  0.0952109299461225   T   T   T
  0.8742642950052906  0.7500664551763937  0.0953389091842468   T   T   T
  0.1246339069426507  0.9975165092930784  0.1830486091285028   T   T   T
  0.6255012224151235  0.9901062801921902  0.1865276195254928   T   T   T
  0.1243763054250971  0.5026413921346881  0.1832598830992345   T   T   T
  0.6259307760046998  0.5090344522270399  0.1863993880798721   T   T   T
  0.3760036280208863  0.9990213601978677  0.1858486700995202   T   T   T
  0.8738876157713660  0.9984049982146092  0.1861138697804480   T   T   T
  0.3760081337967222  0.5016860437582218  0.1854980332110209   T   T   T
  0.8740206957863779  0.5014676643097509  0.1860715157956949   T   T   T
  0.9977025231090922  0.2499801922764273  0.1837331545659648   T   T   T
  0.5003957424119989  0.2502285078144200  0.1851640313283238   T   T   T
  0.9994961346118835  0.7499968109648341  0.1845045044853431   T   T   T
  0.5028599051222996  0.7498519823028720  0.1883092986246672   T   T   T
  0.2516587827107910  0.2501949402317096  0.1842254668920196   T   T   T
  0.7505625372938900  0.2496941089250581  0.1848784109357988   T   T   T
  0.2499135676780772  0.7501944661070837  0.1846509429519411   T   T   T
  0.7472277555842289  0.7498028698553929  0.1887786485168678   T   T   T
 -0.0004016973639125  0.0022459674854869  0.2743093296572317   T   T   T
  0.5078175591135254  0.9862891829498658  0.2766482312729413   T   T   T
 -0.0004282317192144  0.4978260071081941  0.2742899715723953   T   T   T
  0.5119272246062583  0.5161213322115077  0.2777981633303960   T   T   T
  0.2487000392921643  0.0035713385630802  0.2740838784707812   T   T   T
  0.7448059365802590  0.9868116751148301  0.2768862427379382   T   T   T
  0.2451118355882885  0.4978924994855124  0.2752066818210150   T   T   T
  0.7456670863272019  0.5124741050600168  0.2767214643268414   T   T   T
  0.1242104261736082  0.7521625433897535  0.2737979138033972   T   T   T
  0.3841628164303817  0.2432765376836966  0.2758974820183502   T   T   T
  0.8681910416568164  0.2496050939824412  0.2746899298596289   T   T   T
  0.3716868493419385  0.7596444186860496  0.2758706246909628   T   T   T
  0.8776943108745686  0.7502512239134289  0.2755950191844784   T   T   T
  0.0001375971129324  0.0002494007486279  0.0030762027892706   T   T   T
  0.4998089339009090  0.0003129998784930  0.0031516111849436   T   T   T
  0.0002161047462435  0.4997868137736232  0.0030812715645008   T   T   T
  0.4998179499684139  0.4997297024355754  0.0031308412687965   T   T   T
  0.2499554263978452  0.0002992427693461  0.0031061530821579   T   T   T
  0.7502731989059639  0.0002679875581744  0.0031057932063496   T   T   T
  0.2499491821467563  0.4998014472859110  0.0031135944378292   T   T   T
  0.7502335705028496  0.4997549873115268  0.0031012850134516   T   T   T
  0.1250785486595220  0.2500887276428566  0.0028655807550766   T   T   T
  0.6250446671635475  0.2500039623324504  0.0028916373207898   T   T   T
  0.1250401355963696  0.7499756603845585  0.0027896384352817   T   T   T
  0.6250426933241692  0.7499592969991866  0.0029161691512592   T   T   T
  0.3748888604612640  0.2500410042348220  0.0033623123483502   T   T   T
  0.8752051041611071  0.2499862522041388  0.0033493209860547   T   T   T
  0.3745999688381546  0.7500796403466369  0.0030995956717214   T   T   T
  0.8754573915498721  0.7500634365504698  0.0030908630972875   T   T   T
  0.1248943317473436  0.0008221280011521  0.0946865509878573   T   T   T
  0.6250999800807865  0.0019222226649253  0.0946089886726932   T   T   T
  0.1251012785791652  0.4992509926000793  0.0949254876689803   T   T   T
  0.6249648743016207  0.4977951734086473  0.0947695686975260   T   T   T
  0.3748151602429166  0.0008682062189524  0.0954918075849336   T   T   T
  0.8752798197551407  0.0005094402068708  0.0952918016160285   T   T   T
  0.3748415798744300  0.4994821008715062  0.0953771734337309   T   T   T
  0.8753092679403904  0.4995015224719295  0.0952250889157636   T   T   T
  0.0004496964205587  0.2500300766215811  0.0949963228585972   T   T   T
  0.4999013986979233  0.2503852444340767  0.0955912699722946   T   T   T
  0.0005938978886167  0.7500034108166269  0.0946833252911322   T   T   T
  0.4989514356377037  0.7496473325171468  0.0946535178196225   T   T   T
  0.2495863124622595  0.2504694837145759  0.0952375066799159   T   T   T
  0.7502119592959938  0.2499314818003754  0.0953442997847077   T   T   T
  0.2494013445531085  0.7497157971231394  0.0947555464139506   T   T   T
  0.7510043686070604  0.7499329628951973  0.0945436157434629   T   T   T
  0.0004857381951395  0.0004936872281657  0.1846259169047156   T   T   T
  0.5000481252604717  0.9994799502975591  0.1853444672681624   T   T   T
  0.0003673013593233  0.4994876539622208  0.1845866356740342   T   T   T
  0.4997047696171349  0.5005583979939346  0.1864157281519428   T   T   T
  0.2490195031270145  0.0009959224086637  0.1842789824587371   T   T   T
  0.7502806335958194  0.9991974636206828  0.1853606696121304   T   T   T
  0.2496590272472506  0.4994541703592078  0.1853724850941476   T   T   T
  0.7504797724396709  0.5002816370420763  0.1853066521029283   T   T   T
  0.1241004345230858  0.2500078990084250  0.1860896928291395   T   T   T
  0.6254989433445680  0.2498914305699506  0.1857546418522081   T   T   T
  0.1245087074973015  0.7499819137367245  0.1850042727868675   T   T   T
  0.6250297471409217  0.7494399705508622  0.1804611264448664   T   T   T
  0.3747400802454129  0.2523566648314839  0.1866722729610720   T   T   T
  0.8754199064512636  0.2497692178363651  0.1855344470700357   T   T   T
  0.3724774969729597  0.7486738892056152  0.1854243161947267   T   T   T
  0.8773628138022850  0.7500384758289321  0.1850344791112205   T   T   T
  0.1239560301419633  0.0157390108545117  0.2745322415865005   T   T   T
  0.6258810437663668  0.0351283904786159  0.2758153205104135   T   T   T
  0.1232086080598676  0.4838584195022625  0.2743285722637502   T   T   T
  0.6273283455169915  0.4632880049004663  0.2757637236531171   T   T   T
  0.3710359923443578  0.0060887433983433  0.2764923895962799   T   T   T
  0.8782362977600359  0.0071001662770432  0.2775684687198339   T   T   T
  0.3697433979587693  0.4913759934318742  0.2832916004105231   T   T   T
  0.8781215064392792  0.4923483063295814  0.2775561714626593   T   T   T
  0.0122568682915043  0.2496365971154261  0.2753847757897540   T   T   T
  0.5067564118059601  0.2495907571463560  0.2744962561050791   T   T   T
  0.0030490397670531  0.7501334957670828  0.2772900529877587   T   T   T
  0.4889134169385272  0.7498872775405467  0.2763826398904694   T   T   T
  0.2348685021250284  0.2494514066417486  0.2743741412065783   T   T   T
  0.7453171232901493  0.2489437012697699  0.2749109388835487   T   T   T
  0.2454587545148838  0.7514880640547505  0.2759789824887811   T   T   T
  0.7611121527106836  0.7497837248202239  0.2769005651359814   T   T   T
  0.3702837273937218  0.4912491613506135  0.3693522064691368   T   T   T
 
  0.00000000E+00  0.00000000E+00  0.00000000E+00
  0.00000000E+00  0.00000000E+00  0.00000000E+00
  0.00000000E+00  0.00000000E+00  0.00000000E+00
  0.00000000E+00  0.00000000E+00  0.00000000E+00
  0.00000000E+00  0.00000000E+00  0.00000000E+00
  0.00000000E+00  0.00000000E+00  0.00000000E+00
  0.00000000E+00  0.00000000E+00  0.00000000E+00
  0.00000000E+00  0.00000000E+00  0.00000000E+00
  0.00000000E+00  0.00000000E+00  0.00000000E+00
  0.00000000E+00  0.00000000E+00  0.00000000E+00
  0.00000000E+00  0.00000000E+00  0.00000000E+00
  0.00000000E+00  0.00000000E+00  0.00000000E+00
  0.00000000E+00  0.00000000E+00  0.00000000E+00
  0.00000000E+00  0.00000000E+00  0.00000000E+00
  0.00000000E+00  0.00000000E+00  0.00000000E+00
  0.00000000E+00  0.00000000E+00  0.00000000E+00
  0.00000000E+00  0.00000000E+00  0.00000000E+00
  0.00000000E+00  0.00000000E+00  0.00000000E+00
  0.00000000E+00  0.00000000E+00  0.00000000E+00
  0.00000000E+00  0.00000000E+00  0.00000000E+00
  0.00000000E+00  0.00000000E+00  0.00000000E+00
  0.00000000E+00  0.00000000E+00  0.00000000E+00
  0.00000000E+00  0.00000000E+00  0.00000000E+00
  0.00000000E+00  0.00000000E+00  0.00000000E+00
  0.00000000E+00  0.00000000E+00  0.00000000E+00
  0.00000000E+00  0.00000000E+00  0.00000000E+00
  0.00000000E+00  0.00000000E+00  0.00000000E+00
  0.00000000E+00  0.00000000E+00  0.00000000E+00
  0.00000000E+00  0.00000000E+00  0.00000000E+00
  0.00000000E+00  0.00000000E+00  0.00000000E+00
  0.00000000E+00  0.00000000E+00  0.00000000E+00
  0.00000000E+00  0.00000000E+00  0.00000000E+00
  0.00000000E+00  0.00000000E+00  0.00000000E+00
  0.00000000E+00  0.00000000E+00  0.00000000E+00
  0.00000000E+00  0.00000000E+00  0.00000000E+00
  0.00000000E+00  0.00000000E+00  0.00000000E+00
  0.00000000E+00  0.00000000E+00  0.00000000E+00
  0.00000000E+00  0.00000000E+00  0.00000000E+00
  0.00000000E+00  0.00000000E+00  0.00000000E+00
  0.00000000E+00  0.00000000E+00  0.00000000E+00
  0.00000000E+00  0.00000000E+00  0.00000000E+00
  0.00000000E+00  0.00000000E+00  0.00000000E+00
  0.00000000E+00  0.00000000E+00  0.00000000E+00
  0.00000000E+00  0.00000000E+00  0.00000000E+00
  0.00000000E+00  0.00000000E+00  0.00000000E+00
  0.00000000E+00  0.00000000E+00  0.00000000E+00
  0.00000000E+00  0.00000000E+00  0.00000000E+00
  0.00000000E+00  0.00000000E+00  0.00000000E+00
  0.00000000E+00  0.00000000E+00  0.00000000E+00
  0.00000000E+00  0.00000000E+00  0.00000000E+00
  0.00000000E+00  0.00000000E+00  0.00000000E+00
  0.00000000E+00  0.00000000E+00  0.00000000E+00
  0.00000000E+00  0.00000000E+00  0.00000000E+00
  0.00000000E+00  0.00000000E+00  0.00000000E+00
  0.00000000E+00  0.00000000E+00  0.00000000E+00
  0.00000000E+00  0.00000000E+00  0.00000000E+00
  0.00000000E+00  0.00000000E+00  0.00000000E+00
  0.00000000E+00  0.00000000E+00  0.00000000E+00
  0.00000000E+00  0.00000000E+00  0.00000000E+00
  0.00000000E+00  0.00000000E+00  0.00000000E+00
  0.00000000E+00  0.00000000E+00  0.00000000E+00
  0.00000000E+00  0.00000000E+00  0.00000000E+00
  0.00000000E+00  0.00000000E+00  0.00000000E+00
  0.00000000E+00  0.00000000E+00  0.00000000E+00
  0.00000000E+00  0.00000000E+00  0.00000000E+00
  0.00000000E+00  0.00000000E+00  0.00000000E+00
  0.00000000E+00  0.00000000E+00  0.00000000E+00
  0.00000000E+00  0.00000000E+00  0.00000000E+00
  0.00000000E+00  0.00000000E+00  0.00000000E+00
  0.00000000E+00  0.00000000E+00  0.00000000E+00
  0.00000000E+00  0.00000000E+00  0.00000000E+00
  0.00000000E+00  0.00000000E+00  0.00000000E+00
  0.00000000E+00  0.00000000E+00  0.00000000E+00
  0.00000000E+00  0.00000000E+00  0.00000000E+00
  0.00000000E+00  0.00000000E+00  0.00000000E+00
  0.00000000E+00  0.00000000E+00  0.00000000E+00
  0.00000000E+00  0.00000000E+00  0.00000000E+00
  0.00000000E+00  0.00000000E+00  0.00000000E+00
  0.00000000E+00  0.00000000E+00  0.00000000E+00
  0.00000000E+00  0.00000000E+00  0.00000000E+00
  0.00000000E+00  0.00000000E+00  0.00000000E+00
  0.00000000E+00  0.00000000E+00  0.00000000E+00
  0.00000000E+00  0.00000000E+00  0.00000000E+00
  0.00000000E+00  0.00000000E+00  0.00000000E+00
  0.00000000E+00  0.00000000E+00  0.00000000E+00
  0.00000000E+00  0.00000000E+00  0.00000000E+00
  0.00000000E+00  0.00000000E+00  0.00000000E+00
  0.00000000E+00  0.00000000E+00  0.00000000E+00
  0.00000000E+00  0.00000000E+00  0.00000000E+00
  0.00000000E+00  0.00000000E+00  0.00000000E+00
  0.00000000E+00  0.00000000E+00  0.00000000E+00
  0.00000000E+00  0.00000000E+00  0.00000000E+00
  0.00000000E+00  0.00000000E+00  0.00000000E+00
  0.00000000E+00  0.00000000E+00  0.00000000E+00
  0.00000000E+00  0.00000000E+00  0.00000000E+00
  0.00000000E+00  0.00000000E+00  0.00000000E+00
  0.00000000E+00  0.00000000E+00  0.00000000E+00
  0.00000000E+00  0.00000000E+00  0.00000000E+00
  0.00000000E+00  0.00000000E+00  0.00000000E+00
  0.00000000E+00  0.00000000E+00  0.00000000E+00
  0.00000000E+00  0.00000000E+00  0.00000000E+00
  0.00000000E+00  0.00000000E+00  0.00000000E+00
  0.00000000E+00  0.00000000E+00  0.00000000E+00
  0.00000000E+00  0.00000000E+00  0.00000000E+00
  0.00000000E+00  0.00000000E+00  0.00000000E+00
  0.00000000E+00  0.00000000E+00  0.00000000E+00
  0.00000000E+00  0.00000000E+00  0.00000000E+00
  0.00000000E+00  0.00000000E+00  0.00000000E+00
  0.00000000E+00  0.00000000E+00  0.00000000E+00
  0.00000000E+00  0.00000000E+00  0.00000000E+00
  0.00000000E+00  0.00000000E+00  0.00000000E+00
  0.00000000E+00  0.00000000E+00  0.00000000E+00
  0.00000000E+00  0.00000000E+00  0.00000000E+00
  0.00000000E+00  0.00000000E+00  0.00000000E+00
  0.00000000E+00  0.00000000E+00  0.00000000E+00
  0.00000000E+00  0.00000000E+00  0.00000000E+00
  0.00000000E+00  0.00000000E+00  0.00000000E+00
  0.00000000E+00  0.00000000E+00  0.00000000E+00
  0.00000000E+00  0.00000000E+00  0.00000000E+00
  0.00000000E+00  0.00000000E+00  0.00000000E+00
  0.00000000E+00  0.00000000E+00  0.00000000E+00
  0.00000000E+00  0.00000000E+00  0.00000000E+00
  0.00000000E+00  0.00000000E+00  0.00000000E+00
  0.00000000E+00  0.00000000E+00  0.00000000E+00
  0.00000000E+00  0.00000000E+00  0.00000000E+00
  0.00000000E+00  0.00000000E+00  0.00000000E+00
  0.00000000E+00  0.00000000E+00  0.00000000E+00
  0.00000000E+00  0.00000000E+00  0.00000000E+00
