Al Mg O Pd                              
   1.00000000000000     
    16.8282433949600012    0.0000000000000000    0.0000000000000000
     0.0000000000000000    8.4141216974800006    0.0000000000000000
     0.0000000000000000    0.0000000000000000   23.4141216974799988
   Al   Mg   O    Pd
     2    61    64     1
Selective dynamics
Direct
  0.1246651350144697  0.2493635834082145  0.2671859655378744   T   T   T
  0.6252017691825363  0.2494347200690576  0.2672966688800719   T   T   T
  0.1249972401934848  0.9999194443179276  0.0049097283654706   T   T   T
  0.6250076976771265  0.0002685327159210  0.0052767192890598   T   T   T
  0.1249883013237348  0.5000742370984029  0.0048851157342235   T   T   T
  0.6250373906197149  0.4997269194671310  0.0052429686430860   T   T   T
  0.3754245654167651  0.9998352365201620  0.0054290699157796   T   T   T
  0.8745691077172191  0.9997925731683626  0.0054818304290030   T   T   T
  0.3754192565168905  0.5002079935890895  0.0053982147599426   T   T   T
  0.8745705382387899  0.5002076238824983  0.0054818473237383   T   T   T
  0.9995939143684346  0.2500083433661293  0.0050722001418197   T   T   T
  0.5002239017208449  0.2499891542118931  0.0054637289522713   T   T   T
  0.9996061652491735  0.7499901933468447  0.0051299773228168   T   T   T
  0.4999581195210797  0.7500117049184010  0.0053920134193716   T   T   T
  0.2504024971330588  0.2500150692394503  0.0050846250381623   T   T   T
  0.7497756128018371  0.2500023166659585  0.0054561311578222   T   T   T
  0.2503778817636818  0.7499854350436219  0.0051420429711072   T   T   T
  0.7500517921261869  0.7499993911221172  0.0053856343314182   T   T   T
  0.9993529890863015  0.9996595490573486  0.0944864007124303   T   T   T
  0.5006569769480004  0.9984793546225075  0.0954000771859874   T   T   T
  0.9993379782379226  0.5003404313262461  0.0944695342819519   T   T   T
  0.5007224507747553  0.5015346392738812  0.0952106316558675   T   T   T
  0.2505059821899724  0.9996877505447895  0.0945639980612554   T   T   T
  0.7494804585419248  0.9984567960987801  0.0953677697312422   T   T   T
  0.2504680431068139  0.5003374788294692  0.0944081679738040   T   T   T
  0.7495260315988793  0.5015457525898369  0.0953329871230328   T   T   T
  0.1250179036887746  0.2499011958353130  0.0934302732393261   T   T   T
  0.6249949317845511  0.2498498778113891  0.0948114355840995   T   T   T
  0.1250176194956558  0.7500698255694999  0.0938226609944512   T   T   T
  0.6250061141463837  0.7501160543627243  0.0943952549529350   T   T   T
  0.3755972790789213  0.2498122464754466  0.0946212949763272   T   T   T
  0.8743593890530542  0.2499782429907882  0.0946970195141783   T   T   T
  0.3756322802127930  0.7503149120192439  0.0951787222565858   T   T   T
  0.8743194662452476  0.7500215952703588  0.0953321549059461   T   T   T
  0.1250916346863654  0.9974936348731561  0.1834052727632736   T   T   T
  0.6249556871751065  0.9902347531617446  0.1866172304953573   T   T   T
  0.1249548742759731  0.5023989999368307  0.1835404711683801   T   T   T
  0.6252106448950390  0.5093751007421558  0.1864663063516434   T   T   T
  0.3760138906695594  0.9987423334392146  0.1859059551445145   T   T   T
  0.8739211453104712  0.9985756672764811  0.1861853612106694   T   T   T
  0.3760712562747590  0.5017508746149058  0.1851687812902797   T   T   T
  0.8739416167656363  0.5014269129976009  0.1861185372521410   T   T   T
  0.9980793400806771  0.2499875964550975  0.1839855495879628   T   T   T
  0.4996730020510476  0.2504588675425353  0.1851416046924196   T   T   T
  0.9997605089103669  0.7499956540997418  0.1847070410278465   T   T   T
  0.5027622683930056  0.7497012351829174  0.1885678336251260   T   T   T
  0.2520647429614823  0.2504755853958435  0.1844239187196089   T   T   T
  0.7501187573111011  0.2499457336303532  0.1849149934764762   T   T   T
  0.2503018996114925  0.7497011276385895  0.1850313752126054   T   T   T
  0.7469880634081267  0.7500381849611747  0.1886683605396928   T   T   T
 -0.0000742316488088  0.0023452381035259  0.2744250063872593   T   T   T
  0.5069968491128959  0.9870255135727720  0.2765432519382768   T   T   T
 -0.0000335899210144  0.4975969660553373  0.2743959218891986   T   T   T
  0.5094721532065157  0.5152918633473412  0.2779968529443705   T   T   T
  0.2492218320048990  0.0027817055263484  0.2742783963597338   T   T   T
  0.7441546475040138  0.9871383320031448  0.2766739025674680   T   T   T
  0.2469947846878237  0.4978862610025782  0.2760146582729152   T   T   T
  0.7446785140028497  0.5127124516842937  0.2766146562727066   T   T   T
  0.1245968601501265  0.7510650521798168  0.2739832854424045   T   T   T
  0.3829188826055446  0.2449579930064721  0.2762139171682068   T   T   T
  0.8677297623266498  0.2497792062057859  0.2746009753242722   T   T   T
  0.3723963774831493  0.7570933776904044  0.2763509232438869   T   T   T
  0.8775448209323861  0.7502034235555270  0.2755332228907439   T   T   T
  0.0002024094613826  0.0002426437585877  0.0031722607428736   T   T   T
  0.4996779400508736  0.0002842065284229  0.0030921847928293   T   T   T
  0.0002214207653655  0.4997575790599186  0.0031943683913893   T   T   T
  0.4997299635593566  0.4997173007934043  0.0030326783473628   T   T   T
  0.2498415189256971  0.0002367197754766  0.0032269445919325   T   T   T
  0.7502791704721177  0.0002811423956013  0.0030465149101655   T   T   T
  0.2498024256185492  0.4997647030346215  0.0031559339690487   T   T   T
  0.7502673892335971  0.4997198918918762  0.0030625591945768   T   T   T
  0.1250335586125211  0.2499979706981602  0.0029368131626187   T   T   T
  0.6249677912150555  0.2500055161144574  0.0027810485198324   T   T   T
  0.1250231115008400  0.7499976500443838  0.0029698837243404   T   T   T
  0.6249757258480705  0.7499867347109334  0.0028268847989138   T   T   T
  0.3747169840785983  0.2498982655386787  0.0033837220605252   T   T   T
  0.8752752623294716  0.2500097155334651  0.0033683835924443   T   T   T
  0.3744626039993342  0.7501343086065005  0.0031167380520982   T   T   T
  0.8755276412665344  0.7499912654119576  0.0030910582930191   T   T   T
  0.1250126976768123  0.0007656531872412  0.0950322180673591   T   T   T
  0.6249821608848666  0.0020125501450126  0.0946161226102604   T   T   T
  0.1250617188812018  0.4991988316607836  0.0950777341870662   T   T   T
  0.6250107489073152  0.4979198437658214  0.0946247554304460   T   T   T
  0.3746858075137490  0.0006619716831117  0.0953939915956173   T   T   T
  0.8753135541070339  0.0005043715879455  0.0953740754633557   T   T   T
  0.3746687039205478  0.4994160065277516  0.0952407066177440   T   T   T
  0.8753053950440942  0.4994941496595552  0.0953574309011380   T   T   T
  0.0006090921515795  0.2500111823487196  0.0952169135761983   T   T   T
  0.4997912219886981  0.2501411120146879  0.0954736697742884   T   T   T
  0.0007174718730786  0.7499856283879197  0.0949099333025591   T   T   T
  0.4989576977692359  0.7499081846510498  0.0945716604015594   T   T   T
  0.2494832798403890  0.2501840455806970  0.0953609834745425   T   T   T
  0.7500987269772020  0.2500116473917677  0.0953851764678064   T   T   T
  0.2493286887998805  0.7498630318129604  0.0949940424778897   T   T   T
  0.7509651266521445  0.7499904698199671  0.0945641084712497   T   T   T
  0.0009020438060584  0.0005649649592655  0.1849176279129860   T   T   T
  0.4998784327145116  0.9995285626775654  0.1853500903851908   T   T   T
  0.0007602889039041  0.4994096363512473  0.1848588133019864   T   T   T
  0.4997698653483440  0.5005819101199671  0.1857813481823530   T   T   T
  0.2491726330162395  0.0007460858150701  0.1847354794315749   T   T   T
  0.7500323017865905  0.9995233895080051  0.1854532986258285   T   T   T
  0.2494272500408563  0.4994921298830605  0.1853668037413658   T   T   T
  0.7501762706685170  0.5004463399979079  0.1854015184244210   T   T   T
  0.1247198372422735  0.2499271451385334  0.1865836667648322   T   T   T
  0.6250977976745890  0.2499672423294265  0.1858158046709890   T   T   T
  0.1248390694436957  0.7499753652624656  0.1854159165201461   T   T   T
  0.6249327161153756  0.7498292002023346  0.1804542916201834   T   T   T
  0.3746297246561919  0.2508448117850538  0.1862750002677454   T   T   T
  0.8754581091057764  0.2500119854471924  0.1856476317941142   T   T   T
  0.3726385214419175  0.7494336834508563  0.1852249490377545   T   T   T
  0.8774813703491884  0.7499869327822555  0.1851468319398901   T   T   T
  0.1245770396849888  0.0160204727815559  0.2752703669199481   T   T   T
  0.6254254827806686  0.0356279727966811  0.2761079629488251   T   T   T
  0.1241883058869555  0.4836292294255840  0.2751761224298652   T   T   T
  0.6260781179910155  0.4634592759985281  0.2760565645111683   T   T   T
  0.3713627885997863  0.0060261699839238  0.2774279248804785   T   T   T
  0.8784220899675269  0.0073604534268143  0.2776400041498674   T   T   T
  0.3709935618797683  0.4926358841857585  0.2759135828034692   T   T   T
  0.8783293807402675  0.4925450427449636  0.2776404993389546   T   T   T
  0.0129656645107608  0.2496502193867615  0.2757764236226644   T   T   T
  0.5060176436618379  0.2491039855762976  0.2746098202343192   T   T   T
  0.0034301493036945  0.7501481883777079  0.2776738378201440   T   T   T
  0.4895163713035285  0.7504375568469509  0.2764490038783006   T   T   T
  0.2360833256867499  0.2493537385952682  0.2750616401197427   T   T   T
  0.7449301679734072  0.2494638648112197  0.2750408166390805   T   T   T
  0.2457903600628562  0.7513971531642016  0.2767893875297441   T   T   T
  0.7608461530533169  0.7499998940189083  0.2769323928661610   T   T   T
  0.3714368693734240  0.4904738716937391  0.3636245926119814   T   T   T
 
  0.00000000E+00  0.00000000E+00  0.00000000E+00
  0.00000000E+00  0.00000000E+00  0.00000000E+00
  0.00000000E+00  0.00000000E+00  0.00000000E+00
  0.00000000E+00  0.00000000E+00  0.00000000E+00
  0.00000000E+00  0.00000000E+00  0.00000000E+00
  0.00000000E+00  0.00000000E+00  0.00000000E+00
  0.00000000E+00  0.00000000E+00  0.00000000E+00
  0.00000000E+00  0.00000000E+00  0.00000000E+00
  0.00000000E+00  0.00000000E+00  0.00000000E+00
  0.00000000E+00  0.00000000E+00  0.00000000E+00
  0.00000000E+00  0.00000000E+00  0.00000000E+00
  0.00000000E+00  0.00000000E+00  0.00000000E+00
  0.00000000E+00  0.00000000E+00  0.00000000E+00
  0.00000000E+00  0.00000000E+00  0.00000000E+00
  0.00000000E+00  0.00000000E+00  0.00000000E+00
  0.00000000E+00  0.00000000E+00  0.00000000E+00
  0.00000000E+00  0.00000000E+00  0.00000000E+00
  0.00000000E+00  0.00000000E+00  0.00000000E+00
  0.00000000E+00  0.00000000E+00  0.00000000E+00
  0.00000000E+00  0.00000000E+00  0.00000000E+00
  0.00000000E+00  0.00000000E+00  0.00000000E+00
  0.00000000E+00  0.00000000E+00  0.00000000E+00
  0.00000000E+00  0.00000000E+00  0.00000000E+00
  0.00000000E+00  0.00000000E+00  0.00000000E+00
  0.00000000E+00  0.00000000E+00  0.00000000E+00
  0.00000000E+00  0.00000000E+00  0.00000000E+00
  0.00000000E+00  0.00000000E+00  0.00000000E+00
  0.00000000E+00  0.00000000E+00  0.00000000E+00
  0.00000000E+00  0.00000000E+00  0.00000000E+00
  0.00000000E+00  0.00000000E+00  0.00000000E+00
  0.00000000E+00  0.00000000E+00  0.00000000E+00
  0.00000000E+00  0.00000000E+00  0.00000000E+00
  0.00000000E+00  0.00000000E+00  0.00000000E+00
  0.00000000E+00  0.00000000E+00  0.00000000E+00
  0.00000000E+00  0.00000000E+00  0.00000000E+00
  0.00000000E+00  0.00000000E+00  0.00000000E+00
  0.00000000E+00  0.00000000E+00  0.00000000E+00
  0.00000000E+00  0.00000000E+00  0.00000000E+00
  0.00000000E+00  0.00000000E+00  0.00000000E+00
  0.00000000E+00  0.00000000E+00  0.00000000E+00
  0.00000000E+00  0.00000000E+00  0.00000000E+00
  0.00000000E+00  0.00000000E+00  0.00000000E+00
  0.00000000E+00  0.00000000E+00  0.00000000E+00
  0.00000000E+00  0.00000000E+00  0.00000000E+00
  0.00000000E+00  0.00000000E+00  0.00000000E+00
  0.00000000E+00  0.00000000E+00  0.00000000E+00
  0.00000000E+00  0.00000000E+00  0.00000000E+00
  0.00000000E+00  0.00000000E+00  0.00000000E+00
  0.00000000E+00  0.00000000E+00  0.00000000E+00
  0.00000000E+00  0.00000000E+00  0.00000000E+00
  0.00000000E+00  0.00000000E+00  0.00000000E+00
  0.00000000E+00  0.00000000E+00  0.00000000E+00
  0.00000000E+00  0.00000000E+00  0.00000000E+00
  0.00000000E+00  0.00000000E+00  0.00000000E+00
  0.00000000E+00  0.00000000E+00  0.00000000E+00
  0.00000000E+00  0.00000000E+00  0.00000000E+00
  0.00000000E+00  0.00000000E+00  0.00000000E+00
  0.00000000E+00  0.00000000E+00  0.00000000E+00
  0.00000000E+00  0.00000000E+00  0.00000000E+00
  0.00000000E+00  0.00000000E+00  0.00000000E+00
  0.00000000E+00  0.00000000E+00  0.00000000E+00
  0.00000000E+00  0.00000000E+00  0.00000000E+00
  0.00000000E+00  0.00000000E+00  0.00000000E+00
  0.00000000E+00  0.00000000E+00  0.00000000E+00
  0.00000000E+00  0.00000000E+00  0.00000000E+00
  0.00000000E+00  0.00000000E+00  0.00000000E+00
  0.00000000E+00  0.00000000E+00  0.00000000E+00
  0.00000000E+00  0.00000000E+00  0.00000000E+00
  0.00000000E+00  0.00000000E+00  0.00000000E+00
  0.00000000E+00  0.00000000E+00  0.00000000E+00
  0.00000000E+00  0.00000000E+00  0.00000000E+00
  0.00000000E+00  0.00000000E+00  0.00000000E+00
  0.00000000E+00  0.00000000E+00  0.00000000E+00
  0.00000000E+00  0.00000000E+00  0.00000000E+00
  0.00000000E+00  0.00000000E+00  0.00000000E+00
  0.00000000E+00  0.00000000E+00  0.00000000E+00
  0.00000000E+00  0.00000000E+00  0.00000000E+00
  0.00000000E+00  0.00000000E+00  0.00000000E+00
  0.00000000E+00  0.00000000E+00  0.00000000E+00
  0.00000000E+00  0.00000000E+00  0.00000000E+00
  0.00000000E+00  0.00000000E+00  0.00000000E+00
  0.00000000E+00  0.00000000E+00  0.00000000E+00
  0.00000000E+00  0.00000000E+00  0.00000000E+00
  0.00000000E+00  0.00000000E+00  0.00000000E+00
  0.00000000E+00  0.00000000E+00  0.00000000E+00
  0.00000000E+00  0.00000000E+00  0.00000000E+00
  0.00000000E+00  0.00000000E+00  0.00000000E+00
  0.00000000E+00  0.00000000E+00  0.00000000E+00
  0.00000000E+00  0.00000000E+00  0.00000000E+00
  0.00000000E+00  0.00000000E+00  0.00000000E+00
  0.00000000E+00  0.00000000E+00  0.00000000E+00
  0.00000000E+00  0.00000000E+00  0.00000000E+00
  0.00000000E+00  0.00000000E+00  0.00000000E+00
  0.00000000E+00  0.00000000E+00  0.00000000E+00
  0.00000000E+00  0.00000000E+00  0.00000000E+00
  0.00000000E+00  0.00000000E+00  0.00000000E+00
  0.00000000E+00  0.00000000E+00  0.00000000E+00
  0.00000000E+00  0.00000000E+00  0.00000000E+00
  0.00000000E+00  0.00000000E+00  0.00000000E+00
  0.00000000E+00  0.00000000E+00  0.00000000E+00
  0.00000000E+00  0.00000000E+00  0.00000000E+00
  0.00000000E+00  0.00000000E+00  0.00000000E+00
  0.00000000E+00  0.00000000E+00  0.00000000E+00
  0.00000000E+00  0.00000000E+00  0.00000000E+00
  0.00000000E+00  0.00000000E+00  0.00000000E+00
  0.00000000E+00  0.00000000E+00  0.00000000E+00
  0.00000000E+00  0.00000000E+00  0.00000000E+00
  0.00000000E+00  0.00000000E+00  0.00000000E+00
  0.00000000E+00  0.00000000E+00  0.00000000E+00
  0.00000000E+00  0.00000000E+00  0.00000000E+00
  0.00000000E+00  0.00000000E+00  0.00000000E+00
  0.00000000E+00  0.00000000E+00  0.00000000E+00
  0.00000000E+00  0.00000000E+00  0.00000000E+00
  0.00000000E+00  0.00000000E+00  0.00000000E+00
  0.00000000E+00  0.00000000E+00  0.00000000E+00
  0.00000000E+00  0.00000000E+00  0.00000000E+00
  0.00000000E+00  0.00000000E+00  0.00000000E+00
  0.00000000E+00  0.00000000E+00  0.00000000E+00
  0.00000000E+00  0.00000000E+00  0.00000000E+00
  0.00000000E+00  0.00000000E+00  0.00000000E+00
  0.00000000E+00  0.00000000E+00  0.00000000E+00
  0.00000000E+00  0.00000000E+00  0.00000000E+00
  0.00000000E+00  0.00000000E+00  0.00000000E+00
  0.00000000E+00  0.00000000E+00  0.00000000E+00
  0.00000000E+00  0.00000000E+00  0.00000000E+00
  0.00000000E+00  0.00000000E+00  0.00000000E+00
  0.00000000E+00  0.00000000E+00  0.00000000E+00
  0.00000000E+00  0.00000000E+00  0.00000000E+00
