Al Mg O Pt                              
   1.00000000000000     
    16.8282433949600012    0.0000000000000000    0.0000000000000000
     0.0000000000000000    8.4141216974800006    0.0000000000000000
     0.0000000000000000    0.0000000000000000   23.4141216974799988
   Al   Mg   O    Pt
     2    61    64     1
Selective dynamics
Direct
  0.1238639694825070  0.2491259025549033  0.2669547130063014   T   T   T
  0.6260669836962397  0.2491153572133196  0.2674863963557411   T   T   T
  0.1249755311389812  0.0000047375470229  0.0048693025926732   T   T   T
  0.6250319806475312  0.0002791353468153  0.0054277775642547   T   T   T
  0.1250231811171132  0.4999937047872178  0.0047963999366682   T   T   T
  0.6250238546141864  0.4996740137877788  0.0053485200779551   T   T   T
  0.3754930482648633  0.9999338835201561  0.0054801273367467   T   T   T
  0.8744852403274629  0.9998135455384931  0.0054744231028540   T   T   T
  0.3754767043073534  0.5002115224813938  0.0053449427925755   T   T   T
  0.8745107868109333  0.5002014296912747  0.0054986903175333   T   T   T
  0.9995491510996628  0.2499565339746414  0.0050746545527309   T   T   T
  0.5003216875465640  0.2500221128087679  0.0055728200274794   T   T   T
  0.9995388204870076  0.7500467094082879  0.0050795448823629   T   T   T
  0.5000296381011051  0.7500736850195494  0.0054798251311368   T   T   T
  0.2504369708012154  0.2500660881630998  0.0051350438994176   T   T   T
  0.7496815852229335  0.2499276909159681  0.0055789460480985   T   T   T
  0.2503909481167331  0.7500422354912997  0.0051177887929142   T   T   T
  0.7500119694815577  0.7500634223147683  0.0055068552418609   T   T   T
  0.9992617926088713  0.9996191823840322  0.0942973080896137   T   T   T
  0.5005378388812710  0.9986618292913196  0.0956175724754004   T   T   T
  0.9993045803074568  0.5003435249506201  0.0944000684113926   T   T   T
  0.5007846532136795  0.5015245595978640  0.0953901488967395   T   T   T
  0.2506541208017040  0.9998304631962213  0.0946459291440906   T   T   T
  0.7495333282455998  0.9983316373294986  0.0953813611299526   T   T   T
  0.2504773095843190  0.5004051167112132  0.0945108110267922   T   T   T
  0.7495640044126317  0.5015620412704339  0.0954198728109705   T   T   T
  0.1250405808733078  0.2500469323937517  0.0934491975339128   T   T   T
  0.6249886641490555  0.2499299514449087  0.0949847448539546   T   T   T
  0.1250293036523761  0.7499683374349508  0.0937309418299099   T   T   T
  0.6250127309396813  0.7498861266682145  0.0945180992970758   T   T   T
  0.3756610270714549  0.2497896201535172  0.0948534639554475   T   T   T
  0.8742977111673206  0.2500163376022611  0.0946480388883941   T   T   T
  0.3756030755404525  0.7505788102867990  0.0953008020815675   T   T   T
  0.8742092765522548  0.7499786123220988  0.0953183761526250   T   T   T
  0.1248540274118987  0.9976222768223554  0.1830987494514911   T   T   T
  0.6252710226277742  0.9902120385189249  0.1865469574778830   T   T   T
  0.1247505607930968  0.5025572729701872  0.1834998148665509   T   T   T
  0.6254515910804765  0.5091703652479548  0.1866613148274186   T   T   T
  0.3760029504099479  0.9991370776268453  0.1862931658846613   T   T   T
  0.8738602610050979  0.9984145353931528  0.1860075508044904   T   T   T
  0.3762064545899404  0.5019119049585192  0.1844356737866823   T   T   T
  0.8739803823984361  0.5014179889727320  0.1860384830636934   T   T   T
  0.9978464285954465  0.2500186199775329  0.1837317669439197   T   T   T
  0.5000366341393537  0.2507736624969992  0.1856467639559497   T   T   T
  0.9995805183916324  0.7498770369719092  0.1844578781491003   T   T   T
  0.5026014837741923  0.7497736592235485  0.1887761273937070   T   T   T
  0.2520291714487418  0.2508113991601562  0.1848255234675435   T   T   T
  0.7503106676955617  0.2497600835220929  0.1849098672924788   T   T   T
  0.2502913198862526  0.7497439560146109  0.1851957950692922   T   T   T
  0.7469762481139722  0.7497575068120806  0.1887508228758377   T   T   T
 -0.0004768235435464  0.0021710555726725  0.2740906476572271   T   T   T
  0.5082070311386020  0.9864785785808049  0.2767470582662693   T   T   T
 -0.0003919799624356  0.4978202208347417  0.2742652411073682   T   T   T
  0.5118047452955524  0.5172706091050796  0.2793095512739023   T   T   T
  0.2486227340002035  0.0035021307030619  0.2744003289712113   T   T   T
  0.7448625691921693  0.9867956893215474  0.2766617649259301   T   T   T
  0.2448384561290176  0.4979068731845052  0.2768193993666995   T   T   T
  0.7456457811905827  0.5123371912507362  0.2766710110652696   T   T   T
  0.1241880230673753  0.7524832095691689  0.2737608000137242   T   T   T
  0.3844573032987793  0.2425161981505713  0.2775173421768439   T   T   T
  0.8681502566860517  0.2496064891691648  0.2745317277662488   T   T   T
  0.3720731497182644  0.7599876404103414  0.2771434791607272   T   T   T
  0.8777060124654403  0.7501467715715230  0.2754635114559896   T   T   T
  0.0001429216936094  0.0002465266099558  0.0030808691751725   T   T   T
  0.4997080719255422  0.0003835430334001  0.0032416399751063   T   T   T
  0.0002006729979363  0.4997481218550680  0.0031072929207426   T   T   T
  0.4997073418552689  0.4997192422519564  0.0031377444492460   T   T   T
  0.2499416291145458  0.0003359737608055  0.0032780846061781   T   T   T
  0.7501954637478614  0.0002680222408178  0.0031297997967637   T   T   T
  0.2499366461266305  0.4997770655268374  0.0031624829439655   T   T   T
  0.7501923281068991  0.4997175704524104  0.0031130575748897   T   T   T
  0.1251135701966961  0.2500587573399027  0.0029614281777067   T   T   T
  0.6249265496370400  0.2499745258069822  0.0029516273319184   T   T   T
  0.1250658558448928  0.7499483793339630  0.0028626664433568   T   T   T
  0.6249658617354457  0.7499852640044103  0.0029525609795686   T   T   T
  0.3748109229283761  0.2500739286189893  0.0034292578829186   T   T   T
  0.8751569227094205  0.2500036711117061  0.0033712490923829   T   T   T
  0.3745213379353699  0.7500741451755748  0.0031293247620005   T   T   T
  0.8754187359715205  0.7500048188181755  0.0030937157979999   T   T   T
  0.1250336169575886  0.0008673749157264  0.0948361395147658   T   T   T
  0.6249274505941887  0.0020528866035211  0.0947527766905708   T   T   T
  0.1251551554831183  0.4991793280286579  0.0950217649357488   T   T   T
  0.6248945490305812  0.4978060493952535  0.0947584946985279   T   T   T
  0.3747716754333140  0.0008518959601867  0.0955575623490504   T   T   T
  0.8752537836195259  0.0005006789181752  0.0952708451968559   T   T   T
  0.3747732880918807  0.4995043451690865  0.0953672954922465   T   T   T
  0.8752958995383257  0.4994816053855636  0.0952865993615908   T   T   T
  0.0005626656655423  0.2500274240691254  0.0950721195306295   T   T   T
  0.4997656472548601  0.2504056025062765  0.0957227713625169   T   T   T
  0.0006625119364018  0.7499440102423519  0.0947176348503353   T   T   T
  0.4988442140960552  0.7497969476550109  0.0946708908713183   T   T   T
  0.2496484109422380  0.2504857307628732  0.0954903047638020   T   T   T
  0.7500350457827897  0.2499478178719956  0.0954316562711593   T   T   T
  0.2494805130788212  0.7497565617403681  0.0949735075977607   T   T   T
  0.7508940438941134  0.7499209386714021  0.0945983645864412   T   T   T
  0.0005653951130748  0.0005222285926041  0.1845835657442318   T   T   T
  0.4999603466009379  0.9997524592027724  0.1856341832341466   T   T   T
  0.0006132674264739  0.4994034077181846  0.1846899986243698   T   T   T
  0.4998654772023677  0.5006934462027011  0.1863881380655286   T   T   T
  0.2491285998784747  0.0009576303719680  0.1847554397361421   T   T   T
  0.7502121048607995  0.9992152514019629  0.1853290468055060   T   T   T
  0.2495163313352159  0.4995825507944364  0.1856201258261602   T   T   T
  0.7502620941497230  0.5003167199202315  0.1854037969092440   T   T   T
  0.1243545045658774  0.2501481481800403  0.1863810188056361   T   T   T
  0.6253011945227838  0.2502741508627081  0.1859847302440359   T   T   T
  0.1246835249971389  0.7499673162585947  0.1851986626391560   T   T   T
  0.6248927802762124  0.7495310258457317  0.1805541563504844   T   T   T
  0.3748186524953080  0.2514334123839478  0.1869251815369705   T   T   T
  0.8754321747162349  0.2498179157021388  0.1855219470198730   T   T   T
  0.3726080452022421  0.7495276564694352  0.1855839632817496   T   T   T
  0.8773726668622583  0.7499766375218264  0.1850267956535545   T   T   T
  0.1238482700535039  0.0154369437763389  0.2746387508582527   T   T   T
  0.6261544119232142  0.0350089048103275  0.2758849324367811   T   T   T
  0.1230856652257184  0.4839179029846243  0.2749698188743139   T   T   T
  0.6272320502802222  0.4632861554491584  0.2763501766899358   T   T   T
  0.3708173765523035  0.0058488477892158  0.2775133096646227   T   T   T
  0.8782361765631194  0.0070970163694045  0.2775566386730206   T   T   T
  0.3702825539702931  0.4935789822516653  0.2748649699563591   T   T   T
  0.8781796161413578  0.4922751024315564  0.2775929502057379   T   T   T
  0.0122723099585814  0.2494909708751072  0.2754884846731795   T   T   T
  0.5070387845600589  0.2487321971910724  0.2749589938000877   T   T   T
  0.0030120757905164  0.7501974041923752  0.2773480518762468   T   T   T
  0.4894000897562828  0.7511462106939605  0.2765961670637160   T   T   T
  0.2346453516680118  0.2492514702121829  0.2750415298517679   T   T   T
  0.7453755180949191  0.2490025526314944  0.2749838292945761   T   T   T
  0.2453136757177145  0.7515635641110833  0.2767241454853007   T   T   T
  0.7611120328305789  0.7497162303183296  0.2769497050933322   T   T   T
  0.3714750371808126  0.4862884712873116  0.3584615827985153   T   T   T
 
  0.00000000E+00  0.00000000E+00  0.00000000E+00
  0.00000000E+00  0.00000000E+00  0.00000000E+00
  0.00000000E+00  0.00000000E+00  0.00000000E+00
  0.00000000E+00  0.00000000E+00  0.00000000E+00
  0.00000000E+00  0.00000000E+00  0.00000000E+00
  0.00000000E+00  0.00000000E+00  0.00000000E+00
  0.00000000E+00  0.00000000E+00  0.00000000E+00
  0.00000000E+00  0.00000000E+00  0.00000000E+00
  0.00000000E+00  0.00000000E+00  0.00000000E+00
  0.00000000E+00  0.00000000E+00  0.00000000E+00
  0.00000000E+00  0.00000000E+00  0.00000000E+00
  0.00000000E+00  0.00000000E+00  0.00000000E+00
  0.00000000E+00  0.00000000E+00  0.00000000E+00
  0.00000000E+00  0.00000000E+00  0.00000000E+00
  0.00000000E+00  0.00000000E+00  0.00000000E+00
  0.00000000E+00  0.00000000E+00  0.00000000E+00
  0.00000000E+00  0.00000000E+00  0.00000000E+00
  0.00000000E+00  0.00000000E+00  0.00000000E+00
  0.00000000E+00  0.00000000E+00  0.00000000E+00
  0.00000000E+00  0.00000000E+00  0.00000000E+00
  0.00000000E+00  0.00000000E+00  0.00000000E+00
  0.00000000E+00  0.00000000E+00  0.00000000E+00
  0.00000000E+00  0.00000000E+00  0.00000000E+00
  0.00000000E+00  0.00000000E+00  0.00000000E+00
  0.00000000E+00  0.00000000E+00  0.00000000E+00
  0.00000000E+00  0.00000000E+00  0.00000000E+00
  0.00000000E+00  0.00000000E+00  0.00000000E+00
  0.00000000E+00  0.00000000E+00  0.00000000E+00
  0.00000000E+00  0.00000000E+00  0.00000000E+00
  0.00000000E+00  0.00000000E+00  0.00000000E+00
  0.00000000E+00  0.00000000E+00  0.00000000E+00
  0.00000000E+00  0.00000000E+00  0.00000000E+00
  0.00000000E+00  0.00000000E+00  0.00000000E+00
  0.00000000E+00  0.00000000E+00  0.00000000E+00
  0.00000000E+00  0.00000000E+00  0.00000000E+00
  0.00000000E+00  0.00000000E+00  0.00000000E+00
  0.00000000E+00  0.00000000E+00  0.00000000E+00
  0.00000000E+00  0.00000000E+00  0.00000000E+00
  0.00000000E+00  0.00000000E+00  0.00000000E+00
  0.00000000E+00  0.00000000E+00  0.00000000E+00
  0.00000000E+00  0.00000000E+00  0.00000000E+00
  0.00000000E+00  0.00000000E+00  0.00000000E+00
  0.00000000E+00  0.00000000E+00  0.00000000E+00
  0.00000000E+00  0.00000000E+00  0.00000000E+00
  0.00000000E+00  0.00000000E+00  0.00000000E+00
  0.00000000E+00  0.00000000E+00  0.00000000E+00
  0.00000000E+00  0.00000000E+00  0.00000000E+00
  0.00000000E+00  0.00000000E+00  0.00000000E+00
  0.00000000E+00  0.00000000E+00  0.00000000E+00
  0.00000000E+00  0.00000000E+00  0.00000000E+00
  0.00000000E+00  0.00000000E+00  0.00000000E+00
  0.00000000E+00  0.00000000E+00  0.00000000E+00
  0.00000000E+00  0.00000000E+00  0.00000000E+00
  0.00000000E+00  0.00000000E+00  0.00000000E+00
  0.00000000E+00  0.00000000E+00  0.00000000E+00
  0.00000000E+00  0.00000000E+00  0.00000000E+00
  0.00000000E+00  0.00000000E+00  0.00000000E+00
  0.00000000E+00  0.00000000E+00  0.00000000E+00
  0.00000000E+00  0.00000000E+00  0.00000000E+00
  0.00000000E+00  0.00000000E+00  0.00000000E+00
  0.00000000E+00  0.00000000E+00  0.00000000E+00
  0.00000000E+00  0.00000000E+00  0.00000000E+00
  0.00000000E+00  0.00000000E+00  0.00000000E+00
  0.00000000E+00  0.00000000E+00  0.00000000E+00
  0.00000000E+00  0.00000000E+00  0.00000000E+00
  0.00000000E+00  0.00000000E+00  0.00000000E+00
  0.00000000E+00  0.00000000E+00  0.00000000E+00
  0.00000000E+00  0.00000000E+00  0.00000000E+00
  0.00000000E+00  0.00000000E+00  0.00000000E+00
  0.00000000E+00  0.00000000E+00  0.00000000E+00
  0.00000000E+00  0.00000000E+00  0.00000000E+00
  0.00000000E+00  0.00000000E+00  0.00000000E+00
  0.00000000E+00  0.00000000E+00  0.00000000E+00
  0.00000000E+00  0.00000000E+00  0.00000000E+00
  0.00000000E+00  0.00000000E+00  0.00000000E+00
  0.00000000E+00  0.00000000E+00  0.00000000E+00
  0.00000000E+00  0.00000000E+00  0.00000000E+00
  0.00000000E+00  0.00000000E+00  0.00000000E+00
  0.00000000E+00  0.00000000E+00  0.00000000E+00
  0.00000000E+00  0.00000000E+00  0.00000000E+00
  0.00000000E+00  0.00000000E+00  0.00000000E+00
  0.00000000E+00  0.00000000E+00  0.00000000E+00
  0.00000000E+00  0.00000000E+00  0.00000000E+00
  0.00000000E+00  0.00000000E+00  0.00000000E+00
  0.00000000E+00  0.00000000E+00  0.00000000E+00
  0.00000000E+00  0.00000000E+00  0.00000000E+00
  0.00000000E+00  0.00000000E+00  0.00000000E+00
  0.00000000E+00  0.00000000E+00  0.00000000E+00
  0.00000000E+00  0.00000000E+00  0.00000000E+00
  0.00000000E+00  0.00000000E+00  0.00000000E+00
  0.00000000E+00  0.00000000E+00  0.00000000E+00
  0.00000000E+00  0.00000000E+00  0.00000000E+00
  0.00000000E+00  0.00000000E+00  0.00000000E+00
  0.00000000E+00  0.00000000E+00  0.00000000E+00
  0.00000000E+00  0.00000000E+00  0.00000000E+00
  0.00000000E+00  0.00000000E+00  0.00000000E+00
  0.00000000E+00  0.00000000E+00  0.00000000E+00
  0.00000000E+00  0.00000000E+00  0.00000000E+00
  0.00000000E+00  0.00000000E+00  0.00000000E+00
  0.00000000E+00  0.00000000E+00  0.00000000E+00
  0.00000000E+00  0.00000000E+00  0.00000000E+00
  0.00000000E+00  0.00000000E+00  0.00000000E+00
  0.00000000E+00  0.00000000E+00  0.00000000E+00
  0.00000000E+00  0.00000000E+00  0.00000000E+00
  0.00000000E+00  0.00000000E+00  0.00000000E+00
  0.00000000E+00  0.00000000E+00  0.00000000E+00
  0.00000000E+00  0.00000000E+00  0.00000000E+00
  0.00000000E+00  0.00000000E+00  0.00000000E+00
  0.00000000E+00  0.00000000E+00  0.00000000E+00
  0.00000000E+00  0.00000000E+00  0.00000000E+00
  0.00000000E+00  0.00000000E+00  0.00000000E+00
  0.00000000E+00  0.00000000E+00  0.00000000E+00
  0.00000000E+00  0.00000000E+00  0.00000000E+00
  0.00000000E+00  0.00000000E+00  0.00000000E+00
  0.00000000E+00  0.00000000E+00  0.00000000E+00
  0.00000000E+00  0.00000000E+00  0.00000000E+00
  0.00000000E+00  0.00000000E+00  0.00000000E+00
  0.00000000E+00  0.00000000E+00  0.00000000E+00
  0.00000000E+00  0.00000000E+00  0.00000000E+00
  0.00000000E+00  0.00000000E+00  0.00000000E+00
  0.00000000E+00  0.00000000E+00  0.00000000E+00
  0.00000000E+00  0.00000000E+00  0.00000000E+00
  0.00000000E+00  0.00000000E+00  0.00000000E+00
  0.00000000E+00  0.00000000E+00  0.00000000E+00
  0.00000000E+00  0.00000000E+00  0.00000000E+00
  0.00000000E+00  0.00000000E+00  0.00000000E+00
  0.00000000E+00  0.00000000E+00  0.00000000E+00
  0.00000000E+00  0.00000000E+00  0.00000000E+00
