Al Mg O Ag                              
   1.00000000000000     
    16.8282433949600012    0.0000000000000000    0.0000000000000000
     0.0000000000000000    8.4141216974800006    0.0000000000000000
     0.0000000000000000    0.0000000000000000   23.4141216974799988
   Al   Mg   O    Ag
     2    61    64     1
Selective dynamics
Direct
  0.1246475887841076  0.2497547443560423  0.2671026524928785   T   T   T
  0.6255797164340571  0.2496433459496161  0.2673578510268511   T   T   T
  0.1249259650922362  0.9999457316164962  0.0048119359131817   T   T   T
  0.6250701605635705  0.0002589326169780  0.0053040294198224   T   T   T
  0.1248914963873239  0.5000472598644194  0.0047570712907042   T   T   T
  0.6251107456331406  0.4997255514837950  0.0052547750928786   T   T   T
  0.3754742961942096  0.9998404863004077  0.0053092458733078   T   T   T
  0.8745182076210993  0.9997927955375419  0.0055102343608354   T   T   T
  0.3754783327539852  0.5001797745040207  0.0052922336712969   T   T   T
  0.8745262819974209  0.5002148226581660  0.0054541160528229   T   T   T
  0.9995240410573434  0.2499192811611378  0.0050506166957838   T   T   T
  0.5003760781742965  0.2499501174822318  0.0054083609012346   T   T   T
  0.9995318176115275  0.7500850873302446  0.0050911993797730   T   T   T
  0.5000810778287103  0.7500756711453045  0.0053357946401907   T   T   T
  0.2503392301396749  0.2499487363280866  0.0049541131131836   T   T   T
  0.7497664484577776  0.2499129808137786  0.0054980675520578   T   T   T
  0.2503030646460387  0.7500691375162352  0.0049764621054824   T   T   T
  0.7500594665847722  0.7500888194947505  0.0054517900703106   T   T   T
  0.9992849697014721  0.9996327352507113  0.0944266626288752   T   T   T
  0.5006528468272345  0.9985259289216757  0.0952761353805641   T   T   T
  0.9992046030057488  0.5003549356925383  0.0943890515294958   T   T   T
  0.5007214938045638  0.5015275796905057  0.0952003480516089   T   T   T
  0.2505229453909668  0.9997028303902239  0.0942846983008637   T   T   T
  0.7495137089670474  0.9983976262222530  0.0954021249528507   T   T   T
  0.2504805764975861  0.5003463185895156  0.0942567449266441   T   T   T
  0.7496533369235406  0.5015652063146695  0.0953245766591026   T   T   T
  0.1248344947212048  0.2499319108210024  0.0932802445134739   T   T   T
  0.6251853564368330  0.2498549337636988  0.0947598400243276   T   T   T
  0.1248240009480048  0.7500487885864031  0.0936396125148980   T   T   T
  0.6251717184808009  0.7500635489185898  0.0943671839993414   T   T   T
  0.3756817190503359  0.2500318873050172  0.0944716620599478   T   T   T
  0.8743353314413478  0.2499452112746296  0.0946987337701276   T   T   T
  0.3756563647003069  0.7500456832795744  0.0950108652228825   T   T   T
  0.8742735452934706  0.7500640737670404  0.0953565019696706   T   T   T
  0.1248316346541161  0.9975718507717504  0.1833681007049008   T   T   T
  0.6251753308464629  0.9903144500120583  0.1867032383950297   T   T   T
  0.1247095377652600  0.5024576191007297  0.1832787254224044   T   T   T
  0.6254537960454821  0.5093601886996387  0.1864330776653472   T   T   T
  0.3760595077534459  0.9987090523394351  0.1857178621995289   T   T   T
  0.8738884473130852  0.9985206515076505  0.1861833097386489   T   T   T
  0.3761050093292919  0.5015440299411744  0.1852786617618851   T   T   T
  0.8739625730131296  0.5014349501672274  0.1861423063538273   T   T   T
  0.9979258961269108  0.2499155666633810  0.1839353928963069   T   T   T
  0.5001351785648511  0.2501309832087946  0.1848572206179226   T   T   T
  0.9996094706083902  0.7500279495894296  0.1846302820339958   T   T   T
  0.5029967523052838  0.7499122274532241  0.1882752697863269   T   T   T
  0.2517776447093547  0.2500909904929703  0.1838668350966893   T   T   T
  0.7503127846926141  0.2498237853502983  0.1849083112950023   T   T   T
  0.2500738807225876  0.7500548067739511  0.1844368959785150   T   T   T
  0.7471050923268263  0.7499826190457466  0.1886939986705422   T   T   T
 -0.0000638653764203  0.0023928605087597  0.2744222688211378   T   T   T
  0.5065548728430301  0.9868651578460410  0.2767686923837054   T   T   T
 -0.0001187047438941  0.4975663339908287  0.2743509422593300   T   T   T
  0.5084622115348477  0.5138162286679466  0.2768131830925781   T   T   T
  0.2494975195919482  0.0028746252183608  0.2742526077893097   T   T   T
  0.7442888921303603  0.9869640019038440  0.2768186673626884   T   T   T
  0.2478032629592454  0.4977532208220181  0.2743304208367607   T   T   T
  0.7447111638254552  0.5127983311453107  0.2766998630169377   T   T   T
  0.1247158799121976  0.7507043430625095  0.2739407131901064   T   T   T
  0.3826949243034258  0.2468181837652988  0.2745724490349715   T   T   T
  0.8678400518849018  0.2498035386964087  0.2746603770102909   T   T   T
  0.3721005610250078  0.7542566485354524  0.2751531012905672   T   T   T
  0.8776459424522078  0.7501488806563202  0.2755586746525803   T   T   T
  0.0001496543681990  0.0002359457890132  0.0031336720831452   T   T   T
  0.4997668261037354  0.0002907924065540  0.0030364806822723   T   T   T
  0.0001145304992628  0.4997712157744164  0.0030793071412108   T   T   T
  0.4997922228502394  0.4997366038429110  0.0030309626695941   T   T   T
  0.2498256525239885  0.0002498061501572  0.0030629493137463   T   T   T
  0.7502437504851367  0.0002743239827981  0.0030841272724229   T   T   T
  0.2497960597308929  0.4997587286863653  0.0030522089838719   T   T   T
  0.7502852600352946  0.4997255260467061  0.0030328048808372   T   T   T
  0.1249759606140691  0.2499788784101246  0.0028373912476714   T   T   T
  0.6250240769867138  0.2499625298500250  0.0027836884111902   T   T   T
  0.1249621462975168  0.7500115354479195  0.0028201912229802   T   T   T
  0.6250155680310432  0.7500162548433617  0.0028476376958565   T   T   T
  0.3747883713394535  0.2500048964111103  0.0032518483079937   T   T   T
  0.8752156325189313  0.2499831114299338  0.0033755313940139   T   T   T
  0.3745156367339764  0.7500156165582765  0.0029745815892707   T   T   T
  0.8754720348545475  0.7500216901272508  0.0030978992859478   T   T   T
  0.1249096407428445  0.0007751178961498  0.0948916307956758   T   T   T
  0.6250460348897151  0.0019974702127474  0.0946186801596736   T   T   T
  0.1249348681927549  0.4991935258672536  0.0949094064361925   T   T   T
  0.6250520342334958  0.4978787182428091  0.0946206511717608   T   T   T
  0.3747131628766355  0.0006236274178334  0.0952197557143348   T   T   T
  0.8752818144348053  0.0005203587138521  0.0953674256967624   T   T   T
  0.3747289813725661  0.4994792238752230  0.0950535078075078   T   T   T
  0.8752964493182720  0.4994782073468582  0.0952767531047663   T   T   T
  0.0005321923731650  0.2499458711487819  0.0951427385924769   T   T   T
  0.4999730396308957  0.2500898078865649  0.0953512953547144   T   T   T
  0.0006342351019641  0.7500393683353916  0.0948079252486204   T   T   T
  0.4990519068443952  0.7499319849238952  0.0944858365839928   T   T   T
  0.2493619950747144  0.2501042254437264  0.0950684969840902   T   T   T
  0.7501380340532822  0.2499101452769691  0.0953793765746836   T   T   T
  0.2492205619993272  0.7499374271977517  0.0946929916055638   T   T   T
  0.7509880953421111  0.7500355457031740  0.0945653035862788   T   T   T
  0.0007694326802446  0.0005464735336143  0.1848274086215744   T   T   T
  0.4999898856110589  0.9995123294859368  0.1853599091200681   T   T   T
  0.0006738189097219  0.4993918050540257  0.1847813914549703   T   T   T
  0.4999151241930105  0.5005289851161930  0.1855416319032476   T   T   T
  0.2490473071920883  0.0007149924720075  0.1845302287485548   T   T   T
  0.7500999938110753  0.9994117655973042  0.1854621417223473   T   T   T
  0.2492451313303382  0.4994256745202343  0.1847523688502368   T   T   T
  0.7502658566387786  0.5003770701105127  0.1853861206766209   T   T   T
  0.1246608622824461  0.2499389426704818  0.1864691524287248   T   T   T
  0.6252434057253502  0.2498124978702020  0.1858207213689963   T   T   T
  0.1247639630729465  0.7499630000078997  0.1852929865502702   T   T   T
  0.6250294271184431  0.7497817197671011  0.1804221691584827   T   T   T
  0.3745926983470532  0.2509064625599805  0.1856035801230685   T   T   T
  0.8754503081122311  0.2498332276357710  0.1856161877525837   T   T   T
  0.3724844904477206  0.7495297543332485  0.1848855555558170   T   T   T
  0.8774482942018823  0.7500991168782063  0.1850974922829914   T   T   T
  0.1247585528812666  0.0161430531930985  0.2750653232603794   T   T   T
  0.6251707612439451  0.0360170084532438  0.2761189859321887   T   T   T
  0.1244552133478197  0.4837443333924270  0.2747461307220510   T   T   T
  0.6258961425493846  0.4637189574109331  0.2757971186545178   T   T   T
  0.3713851253809315  0.0067424283098797  0.2767934299025931   T   T   T
  0.8783867362737762  0.0072538754356292  0.2775892164606128   T   T   T
  0.3709870874103369  0.4922972485498510  0.2772416094781368   T   T   T
  0.8783024576460762  0.4924602110956385  0.2776018551816702   T   T   T
  0.0129932180164252  0.2499349273775349  0.2756330424323283   T   T   T
  0.5055645830298849  0.2502270372194663  0.2746614940341640   T   T   T
  0.0034241242175081  0.7499939710229455  0.2774989066454140   T   T   T
  0.4889537942686633  0.7498121558050886  0.2765344806988179   T   T   T
  0.2363338373148073  0.2498886947123490  0.2749490093978381   T   T   T
  0.7449379754426442  0.2494726111826452  0.2750159989107094   T   T   T
  0.2461872552084217  0.7503836954380069  0.2766692854485491   T   T   T
  0.7609545703842115  0.7499614505272874  0.2769058541856307   T   T   T
  0.3720463486863977  0.4929043654884957  0.3792471137326424   T   T   T
 
  0.00000000E+00  0.00000000E+00  0.00000000E+00
  0.00000000E+00  0.00000000E+00  0.00000000E+00
  0.00000000E+00  0.00000000E+00  0.00000000E+00
  0.00000000E+00  0.00000000E+00  0.00000000E+00
  0.00000000E+00  0.00000000E+00  0.00000000E+00
  0.00000000E+00  0.00000000E+00  0.00000000E+00
  0.00000000E+00  0.00000000E+00  0.00000000E+00
  0.00000000E+00  0.00000000E+00  0.00000000E+00
  0.00000000E+00  0.00000000E+00  0.00000000E+00
  0.00000000E+00  0.00000000E+00  0.00000000E+00
  0.00000000E+00  0.00000000E+00  0.00000000E+00
  0.00000000E+00  0.00000000E+00  0.00000000E+00
  0.00000000E+00  0.00000000E+00  0.00000000E+00
  0.00000000E+00  0.00000000E+00  0.00000000E+00
  0.00000000E+00  0.00000000E+00  0.00000000E+00
  0.00000000E+00  0.00000000E+00  0.00000000E+00
  0.00000000E+00  0.00000000E+00  0.00000000E+00
  0.00000000E+00  0.00000000E+00  0.00000000E+00
  0.00000000E+00  0.00000000E+00  0.00000000E+00
  0.00000000E+00  0.00000000E+00  0.00000000E+00
  0.00000000E+00  0.00000000E+00  0.00000000E+00
  0.00000000E+00  0.00000000E+00  0.00000000E+00
  0.00000000E+00  0.00000000E+00  0.00000000E+00
  0.00000000E+00  0.00000000E+00  0.00000000E+00
  0.00000000E+00  0.00000000E+00  0.00000000E+00
  0.00000000E+00  0.00000000E+00  0.00000000E+00
  0.00000000E+00  0.00000000E+00  0.00000000E+00
  0.00000000E+00  0.00000000E+00  0.00000000E+00
  0.00000000E+00  0.00000000E+00  0.00000000E+00
  0.00000000E+00  0.00000000E+00  0.00000000E+00
  0.00000000E+00  0.00000000E+00  0.00000000E+00
  0.00000000E+00  0.00000000E+00  0.00000000E+00
  0.00000000E+00  0.00000000E+00  0.00000000E+00
  0.00000000E+00  0.00000000E+00  0.00000000E+00
  0.00000000E+00  0.00000000E+00  0.00000000E+00
  0.00000000E+00  0.00000000E+00  0.00000000E+00
  0.00000000E+00  0.00000000E+00  0.00000000E+00
  0.00000000E+00  0.00000000E+00  0.00000000E+00
  0.00000000E+00  0.00000000E+00  0.00000000E+00
  0.00000000E+00  0.00000000E+00  0.00000000E+00
  0.00000000E+00  0.00000000E+00  0.00000000E+00
  0.00000000E+00  0.00000000E+00  0.00000000E+00
  0.00000000E+00  0.00000000E+00  0.00000000E+00
  0.00000000E+00  0.00000000E+00  0.00000000E+00
  0.00000000E+00  0.00000000E+00  0.00000000E+00
  0.00000000E+00  0.00000000E+00  0.00000000E+00
  0.00000000E+00  0.00000000E+00  0.00000000E+00
  0.00000000E+00  0.00000000E+00  0.00000000E+00
  0.00000000E+00  0.00000000E+00  0.00000000E+00
  0.00000000E+00  0.00000000E+00  0.00000000E+00
  0.00000000E+00  0.00000000E+00  0.00000000E+00
  0.00000000E+00  0.00000000E+00  0.00000000E+00
  0.00000000E+00  0.00000000E+00  0.00000000E+00
  0.00000000E+00  0.00000000E+00  0.00000000E+00
  0.00000000E+00  0.00000000E+00  0.00000000E+00
  0.00000000E+00  0.00000000E+00  0.00000000E+00
  0.00000000E+00  0.00000000E+00  0.00000000E+00
  0.00000000E+00  0.00000000E+00  0.00000000E+00
  0.00000000E+00  0.00000000E+00  0.00000000E+00
  0.00000000E+00  0.00000000E+00  0.00000000E+00
  0.00000000E+00  0.00000000E+00  0.00000000E+00
  0.00000000E+00  0.00000000E+00  0.00000000E+00
  0.00000000E+00  0.00000000E+00  0.00000000E+00
  0.00000000E+00  0.00000000E+00  0.00000000E+00
  0.00000000E+00  0.00000000E+00  0.00000000E+00
  0.00000000E+00  0.00000000E+00  0.00000000E+00
  0.00000000E+00  0.00000000E+00  0.00000000E+00
  0.00000000E+00  0.00000000E+00  0.00000000E+00
  0.00000000E+00  0.00000000E+00  0.00000000E+00
  0.00000000E+00  0.00000000E+00  0.00000000E+00
  0.00000000E+00  0.00000000E+00  0.00000000E+00
  0.00000000E+00  0.00000000E+00  0.00000000E+00
  0.00000000E+00  0.00000000E+00  0.00000000E+00
  0.00000000E+00  0.00000000E+00  0.00000000E+00
  0.00000000E+00  0.00000000E+00  0.00000000E+00
  0.00000000E+00  0.00000000E+00  0.00000000E+00
  0.00000000E+00  0.00000000E+00  0.00000000E+00
  0.00000000E+00  0.00000000E+00  0.00000000E+00
  0.00000000E+00  0.00000000E+00  0.00000000E+00
  0.00000000E+00  0.00000000E+00  0.00000000E+00
  0.00000000E+00  0.00000000E+00  0.00000000E+00
  0.00000000E+00  0.00000000E+00  0.00000000E+00
  0.00000000E+00  0.00000000E+00  0.00000000E+00
  0.00000000E+00  0.00000000E+00  0.00000000E+00
  0.00000000E+00  0.00000000E+00  0.00000000E+00
  0.00000000E+00  0.00000000E+00  0.00000000E+00
  0.00000000E+00  0.00000000E+00  0.00000000E+00
  0.00000000E+00  0.00000000E+00  0.00000000E+00
  0.00000000E+00  0.00000000E+00  0.00000000E+00
  0.00000000E+00  0.00000000E+00  0.00000000E+00
  0.00000000E+00  0.00000000E+00  0.00000000E+00
  0.00000000E+00  0.00000000E+00  0.00000000E+00
  0.00000000E+00  0.00000000E+00  0.00000000E+00
  0.00000000E+00  0.00000000E+00  0.00000000E+00
  0.00000000E+00  0.00000000E+00  0.00000000E+00
  0.00000000E+00  0.00000000E+00  0.00000000E+00
  0.00000000E+00  0.00000000E+00  0.00000000E+00
  0.00000000E+00  0.00000000E+00  0.00000000E+00
  0.00000000E+00  0.00000000E+00  0.00000000E+00
  0.00000000E+00  0.00000000E+00  0.00000000E+00
  0.00000000E+00  0.00000000E+00  0.00000000E+00
  0.00000000E+00  0.00000000E+00  0.00000000E+00
  0.00000000E+00  0.00000000E+00  0.00000000E+00
  0.00000000E+00  0.00000000E+00  0.00000000E+00
  0.00000000E+00  0.00000000E+00  0.00000000E+00
  0.00000000E+00  0.00000000E+00  0.00000000E+00
  0.00000000E+00  0.00000000E+00  0.00000000E+00
  0.00000000E+00  0.00000000E+00  0.00000000E+00
  0.00000000E+00  0.00000000E+00  0.00000000E+00
  0.00000000E+00  0.00000000E+00  0.00000000E+00
  0.00000000E+00  0.00000000E+00  0.00000000E+00
  0.00000000E+00  0.00000000E+00  0.00000000E+00
  0.00000000E+00  0.00000000E+00  0.00000000E+00
  0.00000000E+00  0.00000000E+00  0.00000000E+00
  0.00000000E+00  0.00000000E+00  0.00000000E+00
  0.00000000E+00  0.00000000E+00  0.00000000E+00
  0.00000000E+00  0.00000000E+00  0.00000000E+00
  0.00000000E+00  0.00000000E+00  0.00000000E+00
  0.00000000E+00  0.00000000E+00  0.00000000E+00
  0.00000000E+00  0.00000000E+00  0.00000000E+00
  0.00000000E+00  0.00000000E+00  0.00000000E+00
  0.00000000E+00  0.00000000E+00  0.00000000E+00
  0.00000000E+00  0.00000000E+00  0.00000000E+00
  0.00000000E+00  0.00000000E+00  0.00000000E+00
  0.00000000E+00  0.00000000E+00  0.00000000E+00
  0.00000000E+00  0.00000000E+00  0.00000000E+00
  0.00000000E+00  0.00000000E+00  0.00000000E+00
  0.00000000E+00  0.00000000E+00  0.00000000E+00
