Al Mg O Ni                              
   1.00000000000000     
    16.8282433949600012    0.0000000000000000    0.0000000000000000
     0.0000000000000000    8.4141216974800006    0.0000000000000000
     0.0000000000000000    0.0000000000000000   23.4141216974799988
   Al   Mg   O    Ni
     2    61    64     1
Selective dynamics
Direct
  0.1237488834833922  0.2491619017271399  0.2669518672472631   T   T   T
  0.6261588465666436  0.2490544214989517  0.2675215056925758   T   T   T
  0.1250497152366925  0.9999936690043798  0.0048646582653744   T   T   T
  0.6249581859277913  0.0002839020117256  0.0054959770131144   T   T   T
  0.1251066214683419  0.5000241748558090  0.0048312811012032   T   T   T
  0.6249275658067666  0.4996568318984034  0.0054485404186368   T   T   T
  0.3755273344127370  0.9999224939223342  0.0056179501776842   T   T   T
  0.8744490671961364  0.9998058301568584  0.0054406830431481   T   T   T
  0.3755053181433640  0.5002174619731471  0.0055518055561448   T   T   T
  0.8744769087470802  0.5001943793566629  0.0054792311229540   T   T   T
  0.9995567682969035  0.2500383655967225  0.0050291606934151   T   T   T
  0.5002562871952119  0.2500842648170393  0.0056825282283140   T   T   T
  0.9995467783123627  0.7499520881329381  0.0050378189435938   T   T   T
  0.4999553812047416  0.7500026281970461  0.0055963704622639   T   T   T
  0.2505402283365891  0.2501274433996001  0.0051838449711727   T   T   T
  0.7496332771085151  0.2499979478332665  0.0055869873322157   T   T   T
  0.2504941946360746  0.7499901320002257  0.0051683823208597   T   T   T
  0.7499578471858617  0.7499647767709224  0.0055040738125323   T   T   T
  0.9992500163681424  0.9996307627047846  0.0942427528686786   T   T   T
  0.5005410248431332  0.9985939333382498  0.0956693355995740   T   T   T
  0.9993001918345155  0.5003354880892880  0.0943230159155859   T   T   T
  0.5006633067325982  0.5015627181791551  0.0956514420723658   T   T   T
  0.2506823561825157  0.9998376728901623  0.0946520319389685   T   T   T
  0.7494793589250800  0.9983313349388021  0.0953712880149052   T   T   T
  0.2506121488452348  0.5003847787305732  0.0946662999377425   T   T   T
  0.7494932752524041  0.5014977641971725  0.0954168438412691   T   T   T
  0.1250513385666889  0.2500725020905936  0.0933898538318499   T   T   T
  0.6249829333919921  0.2499554439686050  0.0950008967557843   T   T   T
  0.1250624222128512  0.7499888549598559  0.0937017721023378   T   T   T
  0.6249303648689825  0.7498696724350701  0.0945741847943615   T   T   T
  0.3756964773955915  0.2500085690539694  0.0950620851541282   T   T   T
  0.8742731273311758  0.2500039699204600  0.0946131569312695   T   T   T
  0.3756480885767179  0.7503272878633249  0.0955459846476639   T   T   T
  0.8741888644993696  0.7499396342539105  0.0952739736758164   T   T   T
  0.1248089862708075  0.9975847254879038  0.1831526842222170   T   T   T
  0.6253097127513424  0.9901885959144868  0.1866244068261084   T   T   T
  0.1246911858420076  0.5025963417640148  0.1834585025189540   T   T   T
  0.6254539492313934  0.5092015941584634  0.1867174857617772   T   T   T
  0.3759911097132786  0.9991291376848298  0.1863529934725444   T   T   T
  0.8738316094424338  0.9983775070455460  0.1859378040063816   T   T   T
  0.3761561085264312  0.5017814627286790  0.1853446346455717   T   T   T
  0.8739072592617044  0.5013800039450829  0.1859966550024914   T   T   T
  0.9978262149507099  0.2500045641842881  0.1836641518003237   T   T   T
  0.5001796353022044  0.2504237533611190  0.1856215336458198   T   T   T
  0.9995757298493370  0.7499277913227722  0.1844104597260173   T   T   T
  0.5028020586742723  0.7499868896133945  0.1888860926101564   T   T   T
  0.2518870753003139  0.2504075278887391  0.1847772984948506   T   T   T
  0.7503482379306633  0.2497519746935003  0.1849078305840251   T   T   T
  0.2501742782818333  0.7500340057898202  0.1851712686577723   T   T   T
  0.7469857138451604  0.7497433348697401  0.1887497984051370   T   T   T
 -0.0005397037843015  0.0020508989756780  0.2739857110814538   T   T   T
  0.5082060753635548  0.9867459658890990  0.2769011222829148   T   T   T
 -0.0004137388902654  0.4979387881685362  0.2742004516437966   T   T   T
  0.5112125819850818  0.5166776016293945  0.2788037827975267   T   T   T
  0.2485626766786670  0.0034739987565783  0.2744675190194835   T   T   T
  0.7449571104189833  0.9867636407336030  0.2766387684420932   T   T   T
  0.2453725909917333  0.4977470679051349  0.2763445703789608   T   T   T
  0.7455315342529837  0.5123589082132893  0.2767206270357657   T   T   T
  0.1240932744940718  0.7522484463852358  0.2737565806340758   T   T   T
  0.3843747450319984  0.2432331654907982  0.2770292584825174   T   T   T
  0.8683028955874647  0.2495607611303411  0.2744907162734725   T   T   T
  0.3721178595857091  0.7591564510920440  0.2768826549126550   T   T   T
  0.8776510952824589  0.7500250306772436  0.2754149353612284   T   T   T
  0.0001444850491366  0.0002496402164596  0.0030401200991498   T   T   T
  0.4996888609531988  0.0003558148214668  0.0033248535500116   T   T   T
  0.0001988294613502  0.4997342709556968  0.0030936298785005   T   T   T
  0.4996859724033572  0.4997228102032452  0.0032809506531333   T   T   T
  0.2499894465635285  0.0003348058298028  0.0033187514025506   T   T   T
  0.7501580353359851  0.0002467269683822  0.0031402289572844   T   T   T
  0.2500062018209921  0.4998023089559889  0.0032908163402418   T   T   T
  0.7501436287092031  0.4997109386744822  0.0031631639800893   T   T   T
  0.1251304700273183  0.2500679541657547  0.0029364289421601   T   T   T
  0.6248980359183942  0.2499957540262764  0.0030006145491613   T   T   T
  0.1251059223919143  0.7499561135416875  0.0028639341571365   T   T   T
  0.6249165203851959  0.7499533495003035  0.0030185275318554   T   T   T
  0.3748249330862465  0.2500878791635374  0.0036093648256644   T   T   T
  0.8751465678154821  0.2500037361052003  0.0033555766011489   T   T   T
  0.3745546051738547  0.7500471439871209  0.0032916155213453   T   T   T
  0.8753873000220130  0.7499913775596633  0.0030882484824042   T   T   T
  0.1250308176460138  0.0008613153036296  0.0948541776360499   T   T   T
  0.6249203749506286  0.0020538500261563  0.0948096559047312   T   T   T
  0.1251683944469800  0.4992230854524354  0.0950444432387261   T   T   T
  0.6248547602863512  0.4978190879024085  0.0948474619191030   T   T   T
  0.3747734252649636  0.0008345080733910  0.0957014745642562   T   T   T
  0.8752351382910772  0.0004734421279568  0.0952093358582577   T   T   T
  0.3748019350502045  0.4995058725464213  0.0956341604918554   T   T   T
  0.8752637773589038  0.4994621052578950  0.0952903868175607   T   T   T
  0.0005643992682168  0.2500411270620992  0.0950324886552874   T   T   T
  0.4997989634126287  0.2503190911080151  0.0958334549776409   T   T   T
  0.0006661526396456  0.7499308162721323  0.0946968382442459   T   T   T
  0.4988588575915681  0.7498567048994059  0.0948307737261957   T   T   T
  0.2496144030599954  0.2503659801624039  0.0955367896891781   T   T   T
  0.7500390176799550  0.2499676998060279  0.0954441214690352   T   T   T
  0.2494651653896967  0.7498554800581694  0.0950547501876996   T   T   T
  0.7508750700184104  0.7498587839694143  0.0945989887858005   T   T   T
  0.0005055544961105  0.0005260504168291  0.1845291020335302   T   T   T
  0.5000477012386488  0.9997520059866598  0.1856758988208551   T   T   T
  0.0004726670801134  0.4994045367434291  0.1846232286281382   T   T   T
  0.4999164327326629  0.5006987678157485  0.1865570270175451   T   T   T
  0.2490262519488189  0.0009591683923552  0.1847829641973923   T   T   T
  0.7502295366861936  0.9992427496190619  0.1853357623252859   T   T   T
  0.2494034852071444  0.4994842896842512  0.1857039598978475   T   T   T
  0.7503209783420743  0.5002848489198506  0.1854107174801315   T   T   T
  0.1242229427223243  0.2501360566611791  0.1863400584307150   T   T   T
  0.6254890829062113  0.2502232468351078  0.1860211651599552   T   T   T
  0.1246084228326752  0.7499961149917874  0.1851718226356919   T   T   T
  0.6249827491763612  0.7496354509779778  0.1805941491993591   T   T   T
  0.3747750446355383  0.2513724822617687  0.1869875222490422   T   T   T
  0.8754201054633672  0.2499052078204998  0.1854920395584033   T   T   T
  0.3725278143321334  0.7494821763658605  0.1857207283652405   T   T   T
  0.8773580224882185  0.7498390282513033  0.1849966296490035   T   T   T
  0.1237049700307971  0.0154618652315524  0.2747052838982825   T   T   T
  0.6263310987023117  0.0350136308348150  0.2759914224545701   T   T   T
  0.1231022621635219  0.4839367271178339  0.2749191134483559   T   T   T
  0.6270691782533521  0.4633242952895902  0.2764054651631748   T   T   T
  0.3708546949265739  0.0060904821469236  0.2775232816199869   T   T   T
  0.8781789272796686  0.0070760064400403  0.2775222816273241   T   T   T
  0.3705863778327653  0.4932564795598162  0.2769577055616659   T   T   T
  0.8781984920447322  0.4923981533202408  0.2775679441291637   T   T   T
  0.0120742140997788  0.2494540067973406  0.2754794229456833   T   T   T
  0.5071219083681745  0.2483535528019170  0.2750510797636994   T   T   T
  0.0030006052017537  0.7501973395943338  0.2772990093415568   T   T   T
  0.4895368025509299  0.7511357959611263  0.2767819922428812   T   T   T
  0.2344954742477251  0.2492366623140427  0.2751985463053452   T   T   T
  0.7454569731423289  0.2491255438027509  0.2750342788173483   T   T   T
  0.2451695645815427  0.7517401388079823  0.2768391460626757   T   T   T
  0.7611199645289731  0.7496154566587110  0.2769599053552869   T   T   T
  0.3723993557218304  0.4884535449647810  0.3530152792775701   T   T   T
 
  0.00000000E+00  0.00000000E+00  0.00000000E+00
  0.00000000E+00  0.00000000E+00  0.00000000E+00
  0.00000000E+00  0.00000000E+00  0.00000000E+00
  0.00000000E+00  0.00000000E+00  0.00000000E+00
  0.00000000E+00  0.00000000E+00  0.00000000E+00
  0.00000000E+00  0.00000000E+00  0.00000000E+00
  0.00000000E+00  0.00000000E+00  0.00000000E+00
  0.00000000E+00  0.00000000E+00  0.00000000E+00
  0.00000000E+00  0.00000000E+00  0.00000000E+00
  0.00000000E+00  0.00000000E+00  0.00000000E+00
  0.00000000E+00  0.00000000E+00  0.00000000E+00
  0.00000000E+00  0.00000000E+00  0.00000000E+00
  0.00000000E+00  0.00000000E+00  0.00000000E+00
  0.00000000E+00  0.00000000E+00  0.00000000E+00
  0.00000000E+00  0.00000000E+00  0.00000000E+00
  0.00000000E+00  0.00000000E+00  0.00000000E+00
  0.00000000E+00  0.00000000E+00  0.00000000E+00
  0.00000000E+00  0.00000000E+00  0.00000000E+00
  0.00000000E+00  0.00000000E+00  0.00000000E+00
  0.00000000E+00  0.00000000E+00  0.00000000E+00
  0.00000000E+00  0.00000000E+00  0.00000000E+00
  0.00000000E+00  0.00000000E+00  0.00000000E+00
  0.00000000E+00  0.00000000E+00  0.00000000E+00
  0.00000000E+00  0.00000000E+00  0.00000000E+00
  0.00000000E+00  0.00000000E+00  0.00000000E+00
  0.00000000E+00  0.00000000E+00  0.00000000E+00
  0.00000000E+00  0.00000000E+00  0.00000000E+00
  0.00000000E+00  0.00000000E+00  0.00000000E+00
  0.00000000E+00  0.00000000E+00  0.00000000E+00
  0.00000000E+00  0.00000000E+00  0.00000000E+00
  0.00000000E+00  0.00000000E+00  0.00000000E+00
  0.00000000E+00  0.00000000E+00  0.00000000E+00
  0.00000000E+00  0.00000000E+00  0.00000000E+00
  0.00000000E+00  0.00000000E+00  0.00000000E+00
  0.00000000E+00  0.00000000E+00  0.00000000E+00
  0.00000000E+00  0.00000000E+00  0.00000000E+00
  0.00000000E+00  0.00000000E+00  0.00000000E+00
  0.00000000E+00  0.00000000E+00  0.00000000E+00
  0.00000000E+00  0.00000000E+00  0.00000000E+00
  0.00000000E+00  0.00000000E+00  0.00000000E+00
  0.00000000E+00  0.00000000E+00  0.00000000E+00
  0.00000000E+00  0.00000000E+00  0.00000000E+00
  0.00000000E+00  0.00000000E+00  0.00000000E+00
  0.00000000E+00  0.00000000E+00  0.00000000E+00
  0.00000000E+00  0.00000000E+00  0.00000000E+00
  0.00000000E+00  0.00000000E+00  0.00000000E+00
  0.00000000E+00  0.00000000E+00  0.00000000E+00
  0.00000000E+00  0.00000000E+00  0.00000000E+00
  0.00000000E+00  0.00000000E+00  0.00000000E+00
  0.00000000E+00  0.00000000E+00  0.00000000E+00
  0.00000000E+00  0.00000000E+00  0.00000000E+00
  0.00000000E+00  0.00000000E+00  0.00000000E+00
  0.00000000E+00  0.00000000E+00  0.00000000E+00
  0.00000000E+00  0.00000000E+00  0.00000000E+00
  0.00000000E+00  0.00000000E+00  0.00000000E+00
  0.00000000E+00  0.00000000E+00  0.00000000E+00
  0.00000000E+00  0.00000000E+00  0.00000000E+00
  0.00000000E+00  0.00000000E+00  0.00000000E+00
  0.00000000E+00  0.00000000E+00  0.00000000E+00
  0.00000000E+00  0.00000000E+00  0.00000000E+00
  0.00000000E+00  0.00000000E+00  0.00000000E+00
  0.00000000E+00  0.00000000E+00  0.00000000E+00
  0.00000000E+00  0.00000000E+00  0.00000000E+00
  0.00000000E+00  0.00000000E+00  0.00000000E+00
  0.00000000E+00  0.00000000E+00  0.00000000E+00
  0.00000000E+00  0.00000000E+00  0.00000000E+00
  0.00000000E+00  0.00000000E+00  0.00000000E+00
  0.00000000E+00  0.00000000E+00  0.00000000E+00
  0.00000000E+00  0.00000000E+00  0.00000000E+00
  0.00000000E+00  0.00000000E+00  0.00000000E+00
  0.00000000E+00  0.00000000E+00  0.00000000E+00
  0.00000000E+00  0.00000000E+00  0.00000000E+00
  0.00000000E+00  0.00000000E+00  0.00000000E+00
  0.00000000E+00  0.00000000E+00  0.00000000E+00
  0.00000000E+00  0.00000000E+00  0.00000000E+00
  0.00000000E+00  0.00000000E+00  0.00000000E+00
  0.00000000E+00  0.00000000E+00  0.00000000E+00
  0.00000000E+00  0.00000000E+00  0.00000000E+00
  0.00000000E+00  0.00000000E+00  0.00000000E+00
  0.00000000E+00  0.00000000E+00  0.00000000E+00
  0.00000000E+00  0.00000000E+00  0.00000000E+00
  0.00000000E+00  0.00000000E+00  0.00000000E+00
  0.00000000E+00  0.00000000E+00  0.00000000E+00
  0.00000000E+00  0.00000000E+00  0.00000000E+00
  0.00000000E+00  0.00000000E+00  0.00000000E+00
  0.00000000E+00  0.00000000E+00  0.00000000E+00
  0.00000000E+00  0.00000000E+00  0.00000000E+00
  0.00000000E+00  0.00000000E+00  0.00000000E+00
  0.00000000E+00  0.00000000E+00  0.00000000E+00
  0.00000000E+00  0.00000000E+00  0.00000000E+00
  0.00000000E+00  0.00000000E+00  0.00000000E+00
  0.00000000E+00  0.00000000E+00  0.00000000E+00
  0.00000000E+00  0.00000000E+00  0.00000000E+00
  0.00000000E+00  0.00000000E+00  0.00000000E+00
  0.00000000E+00  0.00000000E+00  0.00000000E+00
  0.00000000E+00  0.00000000E+00  0.00000000E+00
  0.00000000E+00  0.00000000E+00  0.00000000E+00
  0.00000000E+00  0.00000000E+00  0.00000000E+00
  0.00000000E+00  0.00000000E+00  0.00000000E+00
  0.00000000E+00  0.00000000E+00  0.00000000E+00
  0.00000000E+00  0.00000000E+00  0.00000000E+00
  0.00000000E+00  0.00000000E+00  0.00000000E+00
  0.00000000E+00  0.00000000E+00  0.00000000E+00
  0.00000000E+00  0.00000000E+00  0.00000000E+00
  0.00000000E+00  0.00000000E+00  0.00000000E+00
  0.00000000E+00  0.00000000E+00  0.00000000E+00
  0.00000000E+00  0.00000000E+00  0.00000000E+00
  0.00000000E+00  0.00000000E+00  0.00000000E+00
  0.00000000E+00  0.00000000E+00  0.00000000E+00
  0.00000000E+00  0.00000000E+00  0.00000000E+00
  0.00000000E+00  0.00000000E+00  0.00000000E+00
  0.00000000E+00  0.00000000E+00  0.00000000E+00
  0.00000000E+00  0.00000000E+00  0.00000000E+00
  0.00000000E+00  0.00000000E+00  0.00000000E+00
  0.00000000E+00  0.00000000E+00  0.00000000E+00
  0.00000000E+00  0.00000000E+00  0.00000000E+00
  0.00000000E+00  0.00000000E+00  0.00000000E+00
  0.00000000E+00  0.00000000E+00  0.00000000E+00
  0.00000000E+00  0.00000000E+00  0.00000000E+00
  0.00000000E+00  0.00000000E+00  0.00000000E+00
  0.00000000E+00  0.00000000E+00  0.00000000E+00
  0.00000000E+00  0.00000000E+00  0.00000000E+00
  0.00000000E+00  0.00000000E+00  0.00000000E+00
  0.00000000E+00  0.00000000E+00  0.00000000E+00
  0.00000000E+00  0.00000000E+00  0.00000000E+00
  0.00000000E+00  0.00000000E+00  0.00000000E+00
  0.00000000E+00  0.00000000E+00  0.00000000E+00
  0.00000000E+00  0.00000000E+00  0.00000000E+00
