Al Mg O Fe                              
   1.00000000000000     
    16.8282433949600012    0.0000000000000000    0.0000000000000000
     0.0000000000000000    8.4141216974800006    0.0000000000000000
     0.0000000000000000    0.0000000000000000   23.4141216974799988
   Al   Mg   O    Fe
     2    61    64     1
Selective dynamics
Direct
  0.1240374437650562  0.2490637953277595  0.2670162435528717   T   T   T
  0.6260449726125289  0.2490531752560584  0.2673217202208403   T   T   T
  0.1249207009799363  0.9999471418887064  0.0048510208374792   T   T   T
  0.6250752119421717  0.0002425598863049  0.0053212745786112   T   T   T
  0.1249808208726260  0.5000257846696198  0.0048433812001065   T   T   T
  0.6250445910092943  0.4996955970154071  0.0053091024262941   T   T   T
  0.3754597826590430  0.9998900376118826  0.0054362963965538   T   T   T
  0.8745246478531025  0.9997883713461178  0.0055027184222563   T   T   T
  0.3754583760209843  0.5002025606879472  0.0053188205689749   T   T   T
  0.8745395845450118  0.5002043879139751  0.0054867167779390   T   T   T
  0.9995293045043708  0.2499513191903888  0.0050719761630584   T   T   T
  0.5003057616582890  0.2500290471408291  0.0054962112294802   T   T   T
  0.9995338480282980  0.7500363030734779  0.0051061970106545   T   T   T
  0.5000139140722959  0.7499972971235372  0.0054110960414328   T   T   T
  0.2503887422593180  0.2500567306627800  0.0050582023324969   T   T   T
  0.7497736131753748  0.2499353063132979  0.0055104217216221   T   T   T
  0.2503507328164643  0.7499760588737868  0.0050784580474157   T   T   T
  0.7500650485892421  0.7500485907299332  0.0054524246953090   T   T   T
  0.9992562336593819  0.9996170158712188  0.0944324306922611   T   T   T
  0.5006606510205475  0.9986113288798304  0.0954114542100187   T   T   T
  0.9992572261206618  0.5003430133415644  0.0944471643529947   T   T   T
  0.5006847426006068  0.5014942485536911  0.0953464208069027   T   T   T
  0.2504922508634209  0.9997799153830192  0.0944608535187564   T   T   T
  0.7495516428820057  0.9983737830576540  0.0954082954769928   T   T   T
  0.2505070019949173  0.5003717610640183  0.0944622508562219   T   T   T
  0.7496481102410386  0.5015485054728215  0.0953550876603585   T   T   T
  0.1249339932258206  0.2499699513251549  0.0934169174838595   T   T   T
  0.6251033484999805  0.2498010639742535  0.0948590505968539   T   T   T
  0.1249166530437123  0.7499900829257424  0.0937395617122333   T   T   T
  0.6251172105109425  0.7500139079594378  0.0944123024115563   T   T   T
  0.3756258455514964  0.2501251561606620  0.0946774620012847   T   T   T
  0.8743372746382220  0.2499604402005217  0.0946906679073303   T   T   T
  0.3755799502690965  0.7501330837295522  0.0952015154711452   T   T   T
  0.8742697979277275  0.7500310033682484  0.0953588834255342   T   T   T
  0.1248120136760987  0.9975554045225380  0.1831924053221688   T   T   T
  0.6252552812835589  0.9901853043920066  0.1865599068480556   T   T   T
  0.1246004340235885  0.5024915819276138  0.1834340036119635   T   T   T
  0.6257130093115402  0.5091082788061178  0.1863694489287908   T   T   T
  0.3759714933108548  0.9988820883947698  0.1857909602566653   T   T   T
  0.8738857725578506  0.9984698815246941  0.1861821785625777   T   T   T
  0.3760535351078925  0.5017980079156688  0.1854643220924942   T   T   T
  0.8739943542651966  0.5014286932903393  0.1860996951924299   T   T   T
  0.9978553449237935  0.2499333127791599  0.1838794840204928   T   T   T
  0.5000346872973430  0.2506148179047318  0.1853051240481391   T   T   T
  0.9995633420266956  0.7499625070385044  0.1846154168009952   T   T   T
  0.5027196445701162  0.7497624712847143  0.1884394325030030   T   T   T
  0.2518739908779216  0.2505339708045724  0.1844712249891285   T   T   T
  0.7503854088081251  0.2497474232252730  0.1849034282555619   T   T   T
  0.2500972476996100  0.7499122587426139  0.1849514838279734   T   T   T
  0.7471019583943151  0.7499307741899226  0.1887564354185160   T   T   T
  0.9996569344364717  0.0023383258942927  0.2743952536437577   T   T   T
  0.5079399336558239  0.9865194436798709  0.2767044068136745   T   T   T
  0.9996483580040229  0.4976083107421031  0.2743940315140463   T   T   T
  0.5123513557743712  0.5167318623570306  0.2783897416542765   T   T   T
  0.2486122475994941  0.0033315308242477  0.2742651013969473   T   T   T
  0.7445403517365964  0.9868382938126010  0.2768431858013906   T   T   T
  0.2446957218972030  0.4980617089265722  0.2759437129690390   T   T   T
  0.7455429492792817  0.5125975908923085  0.2767189909749367   T   T   T
  0.1241662330115714  0.7522205402810588  0.2739375143290135   T   T   T
  0.3838973414029749  0.2415797500786508  0.2764036828245541   T   T   T
  0.8679383583434810  0.2495426541106164  0.2746807665888680   T   T   T
  0.3720078477061151  0.7610608707246742  0.2764176053316865   T   T   T
  0.8776563674151667  0.7503485033391007  0.2755897638520848   T   T   T
  0.0001601734836068  0.0002337283908109  0.0031129131279444   T   T   T
  0.4997145197861602  0.0003112824101050  0.0031555329733258   T   T   T
  0.0002255412686221  0.4997504329367863  0.0031423835818435   T   T   T
  0.4997161995520444  0.4997186770148742  0.0030769527673400   T   T   T
  0.2498833821314926  0.0002723847607230  0.0032001093933633   T   T   T
  0.7502254156564344  0.0002604319388582  0.0030676615203958   T   T   T
  0.2498857426974788  0.4997644368341802  0.0031085715631616   T   T   T
  0.7502027051063140  0.4997162726032836  0.0030743365066570   T   T   T
  0.1250719207208029  0.2500212614098273  0.0029150025876416   T   T   T
  0.6249376668009428  0.2499719059452568  0.0028528107447225   T   T   T
  0.1250390056177569  0.7499550294502754  0.0028772062450016   T   T   T
  0.6249487393131136  0.7499644631502299  0.0028829752751124   T   T   T
  0.3747841929595996  0.2499987042093949  0.0033659887374356   T   T   T
  0.8752064311833393  0.2499999813880528  0.0033427067707814   T   T   T
  0.3745071197771082  0.7500914222736216  0.0031074419152988   T   T   T
  0.8754635908563508  0.7499908954302268  0.0030727915052417   T   T   T
  0.1249711149152223  0.0007714506935885  0.0948375711529181   T   T   T
  0.6249783567464476  0.0019454421931083  0.0946186473770572   T   T   T
  0.1251714202261595  0.4991960212295578  0.0950434404085642   T   T   T
  0.6249007071943358  0.4978423842345785  0.0947049512881185   T   T   T
  0.3747224099472293  0.0008203860114106  0.0954905199838144   T   T   T
  0.8752745289852327  0.0004995674262867  0.0953207979919535   T   T   T
  0.3747294736418746  0.4994522540372680  0.0953911232689521   T   T   T
  0.8752987998996243  0.4994773776262871  0.0952530915904959   T   T   T
  0.0005340159350539  0.2499979733808385  0.0950958636980064   T   T   T
  0.4997550711221705  0.2503858160990573  0.0956038236641988   T   T   T
  0.0006552632498180  0.7499605188217414  0.0947746743863637   T   T   T
  0.4988749971615467  0.7497521668314721  0.0946391793859039   T   T   T
  0.2496089234205762  0.2504640746525333  0.0953816448711523   T   T   T
  0.7501053952416634  0.2499394178136383  0.0953495877417969   T   T   T
  0.2494084428139831  0.7497030656305262  0.0949396470544735   T   T   T
  0.7509293750241419  0.7499632902704239  0.0945459838721521   T   T   T
  0.0007178792328516  0.0005042103438879  0.1847247963018263   T   T   T
  0.4999001020551003  0.9995417750718011  0.1853991862859914   T   T   T
  0.0005912403765430  0.4994013527978658  0.1847129954054437   T   T   T
  0.4996649404524361  0.5006996557685865  0.1863460182191781   T   T   T
  0.2491202621097536  0.0009233708687014  0.1845276655329079   T   T   T
  0.7501101053094130  0.9992865412318559  0.1853525407772113   T   T   T
  0.2496539121054987  0.4995503167441613  0.1856705829163885   T   T   T
  0.7503469261394830  0.5003529642033449  0.1852991943763585   T   T   T
  0.1244764679136522  0.2500038444072630  0.1863464225715617   T   T   T
  0.6252710297448871  0.2499614993971256  0.1857728885780229   T   T   T
  0.1247088471464475  0.7499463217221549  0.1852100954970678   T   T   T
  0.6248918596444308  0.7495778095277632  0.1804547523943732   T   T   T
  0.3746910150199192  0.2519015655987482  0.1868070640523767   T   T   T
  0.8754263607920082  0.2498323486237606  0.1855592119390123   T   T   T
  0.3725469464295405  0.7489399104732795  0.1855330800210784   T   T   T
  0.8774136548586311  0.7500330336750939  0.1850461697479679   T   T   T
  0.1241912959733001  0.0157783536667452  0.2748109142828615   T   T   T
  0.6257606210171270  0.0352538030709985  0.2758669454558058   T   T   T
  0.1233105948427892  0.4836988557182514  0.2747251269693948   T   T   T
  0.6273350109494308  0.4632544627394750  0.2758228102970633   T   T   T
  0.3710063172522470  0.0055973827233764  0.2767870975387806   T   T   T
  0.8783115300982339  0.0071433747335801  0.2775447330438334   T   T   T
  0.3701444810767196  0.4921464769431740  0.2807018645247525   T   T   T
  0.8781650452409431  0.4923522284885368  0.2775539347238661   T   T   T
  0.0125579744358153  0.2495591841947615  0.2754998938992050   T   T   T
  0.5065442479475057  0.2493148619895298  0.2746132023425786   T   T   T
  0.0031241363588550  0.7501844006771687  0.2774014685554755   T   T   T
  0.4891169263563101  0.7503383412755069  0.2764651146442483   T   T   T
  0.2353343055026831  0.2494665586120160  0.2747591340233685   T   T   T
  0.7451605041167474  0.2488491255163525  0.2749195883210554   T   T   T
  0.2455428008880691  0.7514167530656201  0.2764441006595029   T   T   T
  0.7610096007622982  0.7499053553827608  0.2768489808673308   T   T   T
  0.3720823573060045  0.4905014296193808  0.3617431276129960   T   T   T
 
  0.00000000E+00  0.00000000E+00  0.00000000E+00
  0.00000000E+00  0.00000000E+00  0.00000000E+00
  0.00000000E+00  0.00000000E+00  0.00000000E+00
  0.00000000E+00  0.00000000E+00  0.00000000E+00
  0.00000000E+00  0.00000000E+00  0.00000000E+00
  0.00000000E+00  0.00000000E+00  0.00000000E+00
  0.00000000E+00  0.00000000E+00  0.00000000E+00
  0.00000000E+00  0.00000000E+00  0.00000000E+00
  0.00000000E+00  0.00000000E+00  0.00000000E+00
  0.00000000E+00  0.00000000E+00  0.00000000E+00
  0.00000000E+00  0.00000000E+00  0.00000000E+00
  0.00000000E+00  0.00000000E+00  0.00000000E+00
  0.00000000E+00  0.00000000E+00  0.00000000E+00
  0.00000000E+00  0.00000000E+00  0.00000000E+00
  0.00000000E+00  0.00000000E+00  0.00000000E+00
  0.00000000E+00  0.00000000E+00  0.00000000E+00
  0.00000000E+00  0.00000000E+00  0.00000000E+00
  0.00000000E+00  0.00000000E+00  0.00000000E+00
  0.00000000E+00  0.00000000E+00  0.00000000E+00
  0.00000000E+00  0.00000000E+00  0.00000000E+00
  0.00000000E+00  0.00000000E+00  0.00000000E+00
  0.00000000E+00  0.00000000E+00  0.00000000E+00
  0.00000000E+00  0.00000000E+00  0.00000000E+00
  0.00000000E+00  0.00000000E+00  0.00000000E+00
  0.00000000E+00  0.00000000E+00  0.00000000E+00
  0.00000000E+00  0.00000000E+00  0.00000000E+00
  0.00000000E+00  0.00000000E+00  0.00000000E+00
  0.00000000E+00  0.00000000E+00  0.00000000E+00
  0.00000000E+00  0.00000000E+00  0.00000000E+00
  0.00000000E+00  0.00000000E+00  0.00000000E+00
  0.00000000E+00  0.00000000E+00  0.00000000E+00
  0.00000000E+00  0.00000000E+00  0.00000000E+00
  0.00000000E+00  0.00000000E+00  0.00000000E+00
  0.00000000E+00  0.00000000E+00  0.00000000E+00
  0.00000000E+00  0.00000000E+00  0.00000000E+00
  0.00000000E+00  0.00000000E+00  0.00000000E+00
  0.00000000E+00  0.00000000E+00  0.00000000E+00
  0.00000000E+00  0.00000000E+00  0.00000000E+00
  0.00000000E+00  0.00000000E+00  0.00000000E+00
  0.00000000E+00  0.00000000E+00  0.00000000E+00
  0.00000000E+00  0.00000000E+00  0.00000000E+00
  0.00000000E+00  0.00000000E+00  0.00000000E+00
  0.00000000E+00  0.00000000E+00  0.00000000E+00
  0.00000000E+00  0.00000000E+00  0.00000000E+00
  0.00000000E+00  0.00000000E+00  0.00000000E+00
  0.00000000E+00  0.00000000E+00  0.00000000E+00
  0.00000000E+00  0.00000000E+00  0.00000000E+00
  0.00000000E+00  0.00000000E+00  0.00000000E+00
  0.00000000E+00  0.00000000E+00  0.00000000E+00
  0.00000000E+00  0.00000000E+00  0.00000000E+00
  0.00000000E+00  0.00000000E+00  0.00000000E+00
  0.00000000E+00  0.00000000E+00  0.00000000E+00
  0.00000000E+00  0.00000000E+00  0.00000000E+00
  0.00000000E+00  0.00000000E+00  0.00000000E+00
  0.00000000E+00  0.00000000E+00  0.00000000E+00
  0.00000000E+00  0.00000000E+00  0.00000000E+00
  0.00000000E+00  0.00000000E+00  0.00000000E+00
  0.00000000E+00  0.00000000E+00  0.00000000E+00
  0.00000000E+00  0.00000000E+00  0.00000000E+00
  0.00000000E+00  0.00000000E+00  0.00000000E+00
  0.00000000E+00  0.00000000E+00  0.00000000E+00
  0.00000000E+00  0.00000000E+00  0.00000000E+00
  0.00000000E+00  0.00000000E+00  0.00000000E+00
  0.00000000E+00  0.00000000E+00  0.00000000E+00
  0.00000000E+00  0.00000000E+00  0.00000000E+00
  0.00000000E+00  0.00000000E+00  0.00000000E+00
  0.00000000E+00  0.00000000E+00  0.00000000E+00
  0.00000000E+00  0.00000000E+00  0.00000000E+00
  0.00000000E+00  0.00000000E+00  0.00000000E+00
  0.00000000E+00  0.00000000E+00  0.00000000E+00
  0.00000000E+00  0.00000000E+00  0.00000000E+00
  0.00000000E+00  0.00000000E+00  0.00000000E+00
  0.00000000E+00  0.00000000E+00  0.00000000E+00
  0.00000000E+00  0.00000000E+00  0.00000000E+00
  0.00000000E+00  0.00000000E+00  0.00000000E+00
  0.00000000E+00  0.00000000E+00  0.00000000E+00
  0.00000000E+00  0.00000000E+00  0.00000000E+00
  0.00000000E+00  0.00000000E+00  0.00000000E+00
  0.00000000E+00  0.00000000E+00  0.00000000E+00
  0.00000000E+00  0.00000000E+00  0.00000000E+00
  0.00000000E+00  0.00000000E+00  0.00000000E+00
  0.00000000E+00  0.00000000E+00  0.00000000E+00
  0.00000000E+00  0.00000000E+00  0.00000000E+00
  0.00000000E+00  0.00000000E+00  0.00000000E+00
  0.00000000E+00  0.00000000E+00  0.00000000E+00
  0.00000000E+00  0.00000000E+00  0.00000000E+00
  0.00000000E+00  0.00000000E+00  0.00000000E+00
  0.00000000E+00  0.00000000E+00  0.00000000E+00
  0.00000000E+00  0.00000000E+00  0.00000000E+00
  0.00000000E+00  0.00000000E+00  0.00000000E+00
  0.00000000E+00  0.00000000E+00  0.00000000E+00
  0.00000000E+00  0.00000000E+00  0.00000000E+00
  0.00000000E+00  0.00000000E+00  0.00000000E+00
  0.00000000E+00  0.00000000E+00  0.00000000E+00
  0.00000000E+00  0.00000000E+00  0.00000000E+00
  0.00000000E+00  0.00000000E+00  0.00000000E+00
  0.00000000E+00  0.00000000E+00  0.00000000E+00
  0.00000000E+00  0.00000000E+00  0.00000000E+00
  0.00000000E+00  0.00000000E+00  0.00000000E+00
  0.00000000E+00  0.00000000E+00  0.00000000E+00
  0.00000000E+00  0.00000000E+00  0.00000000E+00
  0.00000000E+00  0.00000000E+00  0.00000000E+00
  0.00000000E+00  0.00000000E+00  0.00000000E+00
  0.00000000E+00  0.00000000E+00  0.00000000E+00
  0.00000000E+00  0.00000000E+00  0.00000000E+00
  0.00000000E+00  0.00000000E+00  0.00000000E+00
  0.00000000E+00  0.00000000E+00  0.00000000E+00
  0.00000000E+00  0.00000000E+00  0.00000000E+00
  0.00000000E+00  0.00000000E+00  0.00000000E+00
  0.00000000E+00  0.00000000E+00  0.00000000E+00
  0.00000000E+00  0.00000000E+00  0.00000000E+00
  0.00000000E+00  0.00000000E+00  0.00000000E+00
  0.00000000E+00  0.00000000E+00  0.00000000E+00
  0.00000000E+00  0.00000000E+00  0.00000000E+00
  0.00000000E+00  0.00000000E+00  0.00000000E+00
  0.00000000E+00  0.00000000E+00  0.00000000E+00
  0.00000000E+00  0.00000000E+00  0.00000000E+00
  0.00000000E+00  0.00000000E+00  0.00000000E+00
  0.00000000E+00  0.00000000E+00  0.00000000E+00
  0.00000000E+00  0.00000000E+00  0.00000000E+00
  0.00000000E+00  0.00000000E+00  0.00000000E+00
  0.00000000E+00  0.00000000E+00  0.00000000E+00
  0.00000000E+00  0.00000000E+00  0.00000000E+00
  0.00000000E+00  0.00000000E+00  0.00000000E+00
  0.00000000E+00  0.00000000E+00  0.00000000E+00
  0.00000000E+00  0.00000000E+00  0.00000000E+00
  0.00000000E+00  0.00000000E+00  0.00000000E+00
  0.00000000E+00  0.00000000E+00  0.00000000E+00
