Al Mg O Cu                              
   1.00000000000000     
    16.8282433949600012    0.0000000000000000    0.0000000000000000
     0.0000000000000000    8.4141216974800006    0.0000000000000000
     0.0000000000000000    0.0000000000000000   23.4141216974799988
   Al   Mg   O    Cu
     2    61    64     1
Selective dynamics
Direct
  0.1245135983298285  0.2492691977400469  0.2671143648376984   T   T   T
  0.6256137645434120  0.2494925484939436  0.2673623609068788   T   T   T
  0.1249856866625324  0.9999401080277300  0.0048839892897086   T   T   T
  0.6250213287304311  0.0002517803396980  0.0053132760638194   T   T   T
  0.1249687042163886  0.5000501720167442  0.0048693862815655   T   T   T
  0.6250652265589455  0.4997384266406145  0.0052836621806586   T   T   T
  0.3754412338899292  0.9998641498730486  0.0054455223959794   T   T   T
  0.8745459005888535  0.9997980641432586  0.0055094712859059   T   T   T
  0.3754413876172925  0.5001924785075547  0.0053949079341877   T   T   T
  0.8745489348696552  0.5002044762071349  0.0055046661664438   T   T   T
  0.9995689035875833  0.2499987403545714  0.0050964823644313   T   T   T
  0.5002622232194903  0.2499542130655477  0.0054998132341102   T   T   T
  0.9995906699920462  0.7500008844244281  0.0051249318333056   T   T   T
  0.4999942931215118  0.7500538294929542  0.0054222478579435   T   T   T
  0.2504002272785725  0.2499789161886184  0.0050911638070826   T   T   T
  0.7497610390342740  0.2499888744786163  0.0054982774382649   T   T   T
  0.2503564815227115  0.7500246511230282  0.0051145358635549   T   T   T
  0.7500463100149475  0.7500132809057816  0.0054236608090823   T   T   T
  0.9993252902979798  0.9996493487005744  0.0944947591374609   T   T   T
  0.5006674915739524  0.9985288877809070  0.0954203769143768   T   T   T
  0.9993123818224618  0.5003467821888199  0.0944527560069130   T   T   T
  0.5006554789456755  0.5015197066185996  0.0952862220666035   T   T   T
  0.2505032680140723  0.9997146773062341  0.0945139219386495   T   T   T
  0.7494962383237114  0.9984382423539031  0.0954192897272214   T   T   T
  0.2505305659582415  0.5003285235123672  0.0944238181771195   T   T   T
  0.7495754577609756  0.5015554825929250  0.0953415056268740   T   T   T
  0.1249991200972695  0.2499359714158881  0.0934298175484572   T   T   T
  0.6250164796397778  0.2498281778094477  0.0948383393462976   T   T   T
  0.1249927680305924  0.7500233643989611  0.0937743786780982   T   T   T
  0.6250305867915735  0.7501047637062396  0.0944542116481033   T   T   T
  0.3756295816072652  0.2500312077612584  0.0946392604182690   T   T   T
  0.8743377974535975  0.2499657505717650  0.0947280592308642   T   T   T
  0.3756085777655099  0.7501180903009075  0.0951588915064837   T   T   T
  0.8743176293553711  0.7500386998852143  0.0953633661252475   T   T   T
  0.1250139066159808  0.9974793868794021  0.1833439009732211   T   T   T
  0.6250419427158085  0.9901886925082746  0.1866401815559156   T   T   T
  0.1248473707959864  0.5024497996049964  0.1834635632427171   T   T   T
  0.6254358606652909  0.5092670453707926  0.1863994042812912   T   T   T
  0.3759678344847963  0.9988154069323792  0.1858046051526354   T   T   T
  0.8739143958692490  0.9985758764512072  0.1862266805581777   T   T   T
  0.3760672219218640  0.5017120284601311  0.1854361561461378   T   T   T
  0.8739595786621253  0.5014234741517530  0.1861329285195344   T   T   T
  0.9980030679084207  0.2499058207501481  0.1839824068208455   T   T   T
  0.4998591268900658  0.2504518921351493  0.1852104639898694   T   T   T
  0.9997134611315486  0.7500541765840590  0.1847034326094117   T   T   T
  0.5027378293998229  0.7497558752127850  0.1884723444883985   T   T   T
  0.2519720711253998  0.2503746982762051  0.1843493089531305   T   T   T
  0.7502043105056492  0.2498546592801358  0.1849164088511672   T   T   T
  0.2501863431150940  0.7498225357318561  0.1849182736904971   T   T   T
  0.7470443746395020  0.7500781384634460  0.1887210714215663   T   T   T
 -0.0001201985153705  0.0023948175613687  0.2744599171490519   T   T   T
  0.5073479766758562  0.9866695992122514  0.2768208181440193   T   T   T
 -0.0000910780068467  0.4975285095828211  0.2744393176979579   T   T   T
  0.5103105184980092  0.5154485750781171  0.2777595763753885   T   T   T
  0.2489743454667574  0.0029156814071011  0.2743769254297709   T   T   T
  0.7442524570032935  0.9869197767116442  0.2768135661581274   T   T   T
  0.2465281251824661  0.4979005780352487  0.2755654261962006   T   T   T
  0.7449571764339887  0.5128396061161402  0.2767397522915977   T   T   T
  0.1244480508928684  0.7514596883082276  0.2740179360519898   T   T   T
  0.3830820091771573  0.2442416153083780  0.2757774565747992   T   T   T
  0.8676810396915319  0.2496651013751056  0.2746955379063663   T   T   T
  0.3721742926144804  0.7580439038161935  0.2760321604992127   T   T   T
  0.8776017936423817  0.7503271301321007  0.2755877055239676   T   T   T
  0.0001938893449318  0.0002546090416401  0.0031497687154347   T   T   T
  0.4996997667710693  0.0002882827177919  0.0031449592845565   T   T   T
  0.0002176035302734  0.4997456736021205  0.0031736611616377   T   T   T
  0.4997340336248137  0.4997217004468503  0.0030542249041570   T   T   T
  0.2498720681610835  0.0002468853645137  0.0032264175790401   T   T   T
  0.7502348880122370  0.0002766352117866  0.0030695818372339   T   T   T
  0.2498470729138987  0.4997523610380413  0.0031152777477167   T   T   T
  0.7502298955061819  0.4997249237266801  0.0030788997705468   T   T   T
  0.1250648786305512  0.2499884768197738  0.0029386674886798   T   T   T
  0.6249361518985578  0.2499855346015976  0.0028265871738638   T   T   T
  0.1250499146932774  0.7500010570563097  0.0029205663884541   T   T   T
  0.6249456926518959  0.7499940148469982  0.0028681171573567   T   T   T
  0.3747558281127130  0.2499205567730897  0.0033902161390890   T   T   T
  0.8752355170442780  0.2500169903093321  0.0033787837410653   T   T   T
  0.3744921015980653  0.7501331434538520  0.0031157675322997   T   T   T
  0.8754970713544579  0.7499849517560150  0.0030856762662279   T   T   T
  0.1250268435389671  0.0007451457065938  0.0949555859864686   T   T   T
  0.6249643408403160  0.0019530471795762  0.0946555940146264   T   T   T
  0.1251214726757519  0.4992042063279341  0.0950415957923709   T   T   T
  0.6249715410686565  0.4979301711071702  0.0946666775243032   T   T   T
  0.3747017446539888  0.0007123282903086  0.0954244543168497   T   T   T
  0.8752905061235873  0.0005090061512362  0.0953667321191839   T   T   T
  0.3746996684403934  0.4994159323676674  0.0952799741097706   T   T   T
  0.8752903671529493  0.4994932728683967  0.0953202120910402   T   T   T
  0.0005867413478472  0.2499967459368319  0.0951848757852713   T   T   T
  0.4997948085316783  0.2501815378184341  0.0955388424455350   T   T   T
  0.0007294661665913  0.7499924201344588  0.0948635310664443   T   T   T
  0.4989389849174289  0.7498979169243628  0.0946124181810876   T   T   T
  0.2495449330178769  0.2502247227280109  0.0953555478940734   T   T   T
  0.7500711429915360  0.2499838174871788  0.0953872718084696   T   T   T
  0.2493565226210369  0.7498401218459178  0.0949527392818290   T   T   T
  0.7509276872004021  0.7500056999896968  0.0945825476468800   T   T   T
  0.0008849076189262  0.0005593238701732  0.1848357668324382   T   T   T
  0.4998655310717837  0.9994884397872038  0.1854584680290266   T   T   T
  0.0007032678936996  0.4993886411140613  0.1847933825366878   T   T   T
  0.4997034933412436  0.5006660634801207  0.1860073522423971   T   T   T
  0.2491735191797323  0.0007623276582943  0.1846595758906056   T   T   T
  0.7500183363895901  0.9994885840791552  0.1854375968262101   T   T   T
  0.2495365022993626  0.4994989895033877  0.1854215954504383   T   T   T
  0.7502662114719246  0.5003994963851613  0.1853603292541044   T   T   T
  0.1247368931399565  0.2499104199900821  0.1864513294160057   T   T   T
  0.6251237628745683  0.2498854791284315  0.1858234924476598   T   T   T
  0.1248550684859291  0.7499579217066303  0.1853293165663698   T   T   T
  0.6248800089125692  0.7497714018321123  0.1805163909546571   T   T   T
  0.3746662943364630  0.2512116887329373  0.1863906750558145   T   T   T
  0.8754165822055525  0.2499770591859674  0.1856370329745902   T   T   T
  0.3726084943620441  0.7492233163473198  0.1853132271038244   T   T   T
  0.8774742609301337  0.7500151092617200  0.1851094327501922   T   T   T
  0.1245311493951373  0.0158170872220326  0.2750380755975711   T   T   T
  0.6254940316039023  0.0354649725786568  0.2760118848769113   T   T   T
  0.1240872482966928  0.4836747231625699  0.2749007932245791   T   T   T
  0.6264716687035013  0.4634446058592658  0.2758774514513659   T   T   T
  0.3711568668800575  0.0061394542907894  0.2771461151424408   T   T   T
  0.8783824610827637  0.0073336841350378  0.2775818241442586   T   T   T
  0.3704994044349093  0.4918150719387049  0.2786335593526664   T   T   T
  0.8782733066818009  0.4924687038661356  0.2775879753874614   T   T   T
  0.0129699319858998  0.2495977134079645  0.2756304058486047   T   T   T
  0.5060286024670183  0.2496066335295146  0.2748190832436312   T   T   T
  0.0033460428775248  0.7502084809349165  0.2775085895679444   T   T   T
  0.4891614204803162  0.7500087687319271  0.2766330972339406   T   T   T
  0.2359620266269188  0.2495681335014360  0.2750284553973725   T   T   T
  0.7449116940140805  0.2491296332121752  0.2750307062266584   T   T   T
  0.2458509068997972  0.7510817840688364  0.2767472925331436   T   T   T
  0.7609269081992149  0.7500107268336157  0.2768759006244566   T   T   T
  0.3714507080020791  0.4916115870257492  0.3621670754748083   T   T   T
 
  0.00000000E+00  0.00000000E+00  0.00000000E+00
  0.00000000E+00  0.00000000E+00  0.00000000E+00
  0.00000000E+00  0.00000000E+00  0.00000000E+00
  0.00000000E+00  0.00000000E+00  0.00000000E+00
  0.00000000E+00  0.00000000E+00  0.00000000E+00
  0.00000000E+00  0.00000000E+00  0.00000000E+00
  0.00000000E+00  0.00000000E+00  0.00000000E+00
  0.00000000E+00  0.00000000E+00  0.00000000E+00
  0.00000000E+00  0.00000000E+00  0.00000000E+00
  0.00000000E+00  0.00000000E+00  0.00000000E+00
  0.00000000E+00  0.00000000E+00  0.00000000E+00
  0.00000000E+00  0.00000000E+00  0.00000000E+00
  0.00000000E+00  0.00000000E+00  0.00000000E+00
  0.00000000E+00  0.00000000E+00  0.00000000E+00
  0.00000000E+00  0.00000000E+00  0.00000000E+00
  0.00000000E+00  0.00000000E+00  0.00000000E+00
  0.00000000E+00  0.00000000E+00  0.00000000E+00
  0.00000000E+00  0.00000000E+00  0.00000000E+00
  0.00000000E+00  0.00000000E+00  0.00000000E+00
  0.00000000E+00  0.00000000E+00  0.00000000E+00
  0.00000000E+00  0.00000000E+00  0.00000000E+00
  0.00000000E+00  0.00000000E+00  0.00000000E+00
  0.00000000E+00  0.00000000E+00  0.00000000E+00
  0.00000000E+00  0.00000000E+00  0.00000000E+00
  0.00000000E+00  0.00000000E+00  0.00000000E+00
  0.00000000E+00  0.00000000E+00  0.00000000E+00
  0.00000000E+00  0.00000000E+00  0.00000000E+00
  0.00000000E+00  0.00000000E+00  0.00000000E+00
  0.00000000E+00  0.00000000E+00  0.00000000E+00
  0.00000000E+00  0.00000000E+00  0.00000000E+00
  0.00000000E+00  0.00000000E+00  0.00000000E+00
  0.00000000E+00  0.00000000E+00  0.00000000E+00
  0.00000000E+00  0.00000000E+00  0.00000000E+00
  0.00000000E+00  0.00000000E+00  0.00000000E+00
  0.00000000E+00  0.00000000E+00  0.00000000E+00
  0.00000000E+00  0.00000000E+00  0.00000000E+00
  0.00000000E+00  0.00000000E+00  0.00000000E+00
  0.00000000E+00  0.00000000E+00  0.00000000E+00
  0.00000000E+00  0.00000000E+00  0.00000000E+00
  0.00000000E+00  0.00000000E+00  0.00000000E+00
  0.00000000E+00  0.00000000E+00  0.00000000E+00
  0.00000000E+00  0.00000000E+00  0.00000000E+00
  0.00000000E+00  0.00000000E+00  0.00000000E+00
  0.00000000E+00  0.00000000E+00  0.00000000E+00
  0.00000000E+00  0.00000000E+00  0.00000000E+00
  0.00000000E+00  0.00000000E+00  0.00000000E+00
  0.00000000E+00  0.00000000E+00  0.00000000E+00
  0.00000000E+00  0.00000000E+00  0.00000000E+00
  0.00000000E+00  0.00000000E+00  0.00000000E+00
  0.00000000E+00  0.00000000E+00  0.00000000E+00
  0.00000000E+00  0.00000000E+00  0.00000000E+00
  0.00000000E+00  0.00000000E+00  0.00000000E+00
  0.00000000E+00  0.00000000E+00  0.00000000E+00
  0.00000000E+00  0.00000000E+00  0.00000000E+00
  0.00000000E+00  0.00000000E+00  0.00000000E+00
  0.00000000E+00  0.00000000E+00  0.00000000E+00
  0.00000000E+00  0.00000000E+00  0.00000000E+00
  0.00000000E+00  0.00000000E+00  0.00000000E+00
  0.00000000E+00  0.00000000E+00  0.00000000E+00
  0.00000000E+00  0.00000000E+00  0.00000000E+00
  0.00000000E+00  0.00000000E+00  0.00000000E+00
  0.00000000E+00  0.00000000E+00  0.00000000E+00
  0.00000000E+00  0.00000000E+00  0.00000000E+00
  0.00000000E+00  0.00000000E+00  0.00000000E+00
  0.00000000E+00  0.00000000E+00  0.00000000E+00
  0.00000000E+00  0.00000000E+00  0.00000000E+00
  0.00000000E+00  0.00000000E+00  0.00000000E+00
  0.00000000E+00  0.00000000E+00  0.00000000E+00
  0.00000000E+00  0.00000000E+00  0.00000000E+00
  0.00000000E+00  0.00000000E+00  0.00000000E+00
  0.00000000E+00  0.00000000E+00  0.00000000E+00
  0.00000000E+00  0.00000000E+00  0.00000000E+00
  0.00000000E+00  0.00000000E+00  0.00000000E+00
  0.00000000E+00  0.00000000E+00  0.00000000E+00
  0.00000000E+00  0.00000000E+00  0.00000000E+00
  0.00000000E+00  0.00000000E+00  0.00000000E+00
  0.00000000E+00  0.00000000E+00  0.00000000E+00
  0.00000000E+00  0.00000000E+00  0.00000000E+00
  0.00000000E+00  0.00000000E+00  0.00000000E+00
  0.00000000E+00  0.00000000E+00  0.00000000E+00
  0.00000000E+00  0.00000000E+00  0.00000000E+00
  0.00000000E+00  0.00000000E+00  0.00000000E+00
  0.00000000E+00  0.00000000E+00  0.00000000E+00
  0.00000000E+00  0.00000000E+00  0.00000000E+00
  0.00000000E+00  0.00000000E+00  0.00000000E+00
  0.00000000E+00  0.00000000E+00  0.00000000E+00
  0.00000000E+00  0.00000000E+00  0.00000000E+00
  0.00000000E+00  0.00000000E+00  0.00000000E+00
  0.00000000E+00  0.00000000E+00  0.00000000E+00
  0.00000000E+00  0.00000000E+00  0.00000000E+00
  0.00000000E+00  0.00000000E+00  0.00000000E+00
  0.00000000E+00  0.00000000E+00  0.00000000E+00
  0.00000000E+00  0.00000000E+00  0.00000000E+00
  0.00000000E+00  0.00000000E+00  0.00000000E+00
  0.00000000E+00  0.00000000E+00  0.00000000E+00
  0.00000000E+00  0.00000000E+00  0.00000000E+00
  0.00000000E+00  0.00000000E+00  0.00000000E+00
  0.00000000E+00  0.00000000E+00  0.00000000E+00
  0.00000000E+00  0.00000000E+00  0.00000000E+00
  0.00000000E+00  0.00000000E+00  0.00000000E+00
  0.00000000E+00  0.00000000E+00  0.00000000E+00
  0.00000000E+00  0.00000000E+00  0.00000000E+00
  0.00000000E+00  0.00000000E+00  0.00000000E+00
  0.00000000E+00  0.00000000E+00  0.00000000E+00
  0.00000000E+00  0.00000000E+00  0.00000000E+00
  0.00000000E+00  0.00000000E+00  0.00000000E+00
  0.00000000E+00  0.00000000E+00  0.00000000E+00
  0.00000000E+00  0.00000000E+00  0.00000000E+00
  0.00000000E+00  0.00000000E+00  0.00000000E+00
  0.00000000E+00  0.00000000E+00  0.00000000E+00
  0.00000000E+00  0.00000000E+00  0.00000000E+00
  0.00000000E+00  0.00000000E+00  0.00000000E+00
  0.00000000E+00  0.00000000E+00  0.00000000E+00
  0.00000000E+00  0.00000000E+00  0.00000000E+00
  0.00000000E+00  0.00000000E+00  0.00000000E+00
  0.00000000E+00  0.00000000E+00  0.00000000E+00
  0.00000000E+00  0.00000000E+00  0.00000000E+00
  0.00000000E+00  0.00000000E+00  0.00000000E+00
  0.00000000E+00  0.00000000E+00  0.00000000E+00
  0.00000000E+00  0.00000000E+00  0.00000000E+00
  0.00000000E+00  0.00000000E+00  0.00000000E+00
  0.00000000E+00  0.00000000E+00  0.00000000E+00
  0.00000000E+00  0.00000000E+00  0.00000000E+00
  0.00000000E+00  0.00000000E+00  0.00000000E+00
  0.00000000E+00  0.00000000E+00  0.00000000E+00
  0.00000000E+00  0.00000000E+00  0.00000000E+00
  0.00000000E+00  0.00000000E+00  0.00000000E+00
  0.00000000E+00  0.00000000E+00  0.00000000E+00
