Al Mg O Au                              
   1.00000000000000     
    16.8282433949600012    0.0000000000000000    0.0000000000000000
     0.0000000000000000    8.4141216974800006    0.0000000000000000
     0.0000000000000000    0.0000000000000000   23.4141216974799988
   Al   Mg   O    Au
     2    61    64     1
Selective dynamics
Direct
  0.1245585690343445  0.2495217922997723  0.2671776180953534   T   T   T
  0.6255208190558188  0.2495776831915927  0.2673775616123251   T   T   T
  0.1249766703375486  0.9999392392140566  0.0048636070940953   T   T   T
  0.6250301672279054  0.0002623526299177  0.0053045241756230   T   T   T
  0.1248702413107279  0.5000533501101508  0.0048079466312783   T   T   T
  0.6251571130855671  0.4997292526316794  0.0052317422135340   T   T   T
  0.3754451994095089  0.9998666223265179  0.0053288932307780   T   T   T
  0.8745393083602384  0.9997894243863235  0.0055189413857739   T   T   T
  0.3754524447442639  0.5001822974425849  0.0053565388959842   T   T   T
  0.8745440004638104  0.5002117522384286  0.0054964428745683   T   T   T
  0.9995661345687523  0.2499779986916757  0.0050945068923459   T   T   T
  0.5003250410582717  0.2498741544420290  0.0054696108281024   T   T   T
  0.9995788875529217  0.7500263095475387  0.0051325707432292   T   T   T
  0.5000496252711000  0.7501456947858636  0.0053876948196996   T   T   T
  0.2503498654447924  0.2498804845638381  0.0050548263083880   T   T   T
  0.7497584518548276  0.2499665350147589  0.0055080247967293   T   T   T
  0.2503054439658844  0.7501299388134713  0.0050789474083210   T   T   T
  0.7500526318687509  0.7500349960355238  0.0054422292917210   T   T   T
  0.9992979455336146  0.9996366829012474  0.0944970993310088   T   T   T
  0.5007027189391700  0.9985466131805733  0.0953675883918089   T   T   T
  0.9992499339060827  0.5003580440412033  0.0944241174609500   T   T   T
  0.5007872276279673  0.5015231168549308  0.0951258461843469   T   T   T
  0.2504787133434278  0.9997212909085963  0.0944406458638143   T   T   T
  0.7495191484209677  0.9984318875401569  0.0954279260916527   T   T   T
  0.2504131492031129  0.5003374482647517  0.0942580660236185   T   T   T
  0.7496405757159478  0.5015555409950075  0.0953194384676079   T   T   T
  0.1249403331513064  0.2499163290893180  0.0933913247793777   T   T   T
  0.6250810676983962  0.2498101573922771  0.0948191991398555   T   T   T
  0.1249186041155730  0.7500499729583611  0.0937369418936009   T   T   T
  0.6250983760318608  0.7501280885797246  0.0944219197257685   T   T   T
  0.3756462314107797  0.2499122395940390  0.0944487922048181   T   T   T
  0.8743376355512368  0.2499529413787328  0.0947438558114354   T   T   T
  0.3756148450191613  0.7502571996794488  0.0949368598831388   T   T   T
  0.8743048541533839  0.7500550388518741  0.0953779604577925   T   T   T
  0.1249143870884316  0.9975542717157759  0.1833881584566729   T   T   T
  0.6251166902071418  0.9902641514381173  0.1866621434081472   T   T   T
  0.1247505748174150  0.5024491562867103  0.1833855237179730   T   T   T
  0.6254432658324645  0.5092799245495329  0.1863884883636577   T   T   T
  0.3760221689776890  0.9987957449597370  0.1857578270871358   T   T   T
  0.8739108618494629  0.9985781649121873  0.1862201366961923   T   T   T
  0.3761627098040439  0.5017564602882557  0.1845672629294074   T   T   T
  0.8739687853343837  0.5014100215045133  0.1861430943837701   T   T   T
  0.9979649343590238  0.2498448395602407  0.1840076743102891   T   T   T
  0.4999793652580595  0.2504649139395934  0.1850641623210028   T   T   T
  0.9996586097082235  0.7501127833889565  0.1846871668989132   T   T   T
  0.5028415951813725  0.7497377917155171  0.1883358623806527   T   T   T
  0.2519214730917664  0.2503811107828912  0.1841448547063828   T   T   T
  0.7502533183075069  0.2497983701007600  0.1849172312859435   T   T   T
  0.2501406133387576  0.7498582680168603  0.1847194038557804   T   T   T
  0.7470622103111381  0.7501028523918313  0.1887177455301010   T   T   T
 -0.0000986946819571  0.0024577763586403  0.2744566555335752   T   T   T
  0.5070386771580585  0.9866509518679234  0.2768395119232254   T   T   T
 -0.0000944040581803  0.4974745274082444  0.2744418080084387   T   T   T
  0.5096264668975223  0.5149186796946449  0.2775080535793911   T   T   T
  0.2492561523548618  0.0029040932449679  0.2743989780731043   T   T   T
  0.7442796389513188  0.9869289008087764  0.2768114790579235   T   T   T
  0.2469766176122405  0.4980150997609758  0.2751154444517744   T   T   T
  0.7448820918821129  0.5128076875987440  0.2767354896655932   T   T   T
  0.1246100716721298  0.7512158476189283  0.2740231735661965   T   T   T
  0.3829644401844777  0.2452323289966891  0.2753920660170293   T   T   T
  0.8677462915920187  0.2497022719476130  0.2746858240336872   T   T   T
  0.3721637182206914  0.7565394407204310  0.2757122987471690   T   T   T
  0.8776156065726447  0.7502948652153626  0.2755828865776846   T   T   T
  0.0001929896764080  0.0002517498956812  0.0031490672937807   T   T   T
  0.4997205035241269  0.0002940579579157  0.0030862721204167   T   T   T
  0.0001642944423104  0.4997501733974923  0.0031260901131243   T   T   T
  0.4997789249763213  0.4997273317439512  0.0029913369411002   T   T   T
  0.2498498587604567  0.0002478631940547  0.0031663877983241   T   T   T
  0.7502337035723055  0.0002794329220075  0.0030688122235798   T   T   T
  0.2497951440847044  0.4997573460612651  0.0030492664468274   T   T   T
  0.7502746241200413  0.4997216309846828  0.0030379240710239   T   T   T
  0.1250458971098997  0.2499810606158106  0.0029029032033454   T   T   T
  0.6249576387412441  0.2499709826260714  0.0027970265955280   T   T   T
  0.1250325063773389  0.7500106443066001  0.0028939922744657   T   T   T
  0.6249605733960750  0.7500048354642377  0.0028466141858477   T   T   T
  0.3747604296672039  0.2499419634285099  0.0032732355877997   T   T   T
  0.8752384007242031  0.2500065623551305  0.0033738698024721   T   T   T
  0.3744907949752104  0.7501018194890821  0.0029989860023905   T   T   T
  0.8754959317348885  0.7499932501818787  0.0030870142589019   T   T   T
  0.1249911630069842  0.0007591932825749  0.0949398734023750   T   T   T
  0.6249981037053994  0.0019644096889720  0.0946311878179538   T   T   T
  0.1249504923883499  0.4991975777262695  0.0949489570449886   T   T   T
  0.6250989014293236  0.4979159103106987  0.0945784344921617   T   T   T
  0.3746940102214799  0.0006577084469637  0.0952356572442027   T   T   T
  0.8752933446713376  0.0005171914473116  0.0953604361259693   T   T   T
  0.3746904134302402  0.4994428427606538  0.0949284148839097   T   T   T
  0.8753003706000620  0.4994828219310782  0.0952957541796261   T   T   T
  0.0005899207768359  0.2499549476762472  0.0951712131439861   T   T   T
  0.4999186318851677  0.2500535087510992  0.0953896839999532   T   T   T
  0.0007079892871704  0.7500323573909317  0.0948519473590912   T   T   T
  0.4990392691273199  0.7500216258786960  0.0944751016675070   T   T   T
  0.2494128830552969  0.2500606037971940  0.0951979703603673   T   T   T
  0.7500881539039337  0.2499408283339612  0.0953796463372992   T   T   T
  0.2492435551250347  0.7500101429054902  0.0948019924714965   T   T   T
  0.7509432984029630  0.7500434508185372  0.0945698565165358   T   T   T
  0.0008744716776890  0.0005322143953385  0.1848302758623206   T   T   T
  0.4999295034206693  0.9995169665695257  0.1854148836621698   T   T   T
  0.0007130772706732  0.4994080812510248  0.1848103443749608   T   T   T
  0.4997675982631401  0.5006380410380372  0.1856638993853163   T   T   T
  0.2491222004760099  0.0007560931433524  0.1846269357095633   T   T   T
  0.7500322488536768  0.9994598681835010  0.1854308595730208   T   T   T
  0.2494401373028871  0.4994817968474876  0.1850298561407714   T   T   T
  0.7502623463620749  0.5003908063138570  0.1853684519652434   T   T   T
  0.1247323652370298  0.2499106526728838  0.1864954032622132   T   T   T
  0.6251750102328872  0.2498326650312594  0.1858177667646766   T   T   T
  0.1247984515164856  0.7499780946429997  0.1853306034325240   T   T   T
  0.6249609114572575  0.7497975414652653  0.1804615739406207   T   T   T
  0.3746360287692934  0.2511259245665320  0.1859326963245211   T   T   T
  0.8754358050470279  0.2499389193321044  0.1856245075858159   T   T   T
  0.3725590517020494  0.7493845897858243  0.1850110041356386   T   T   T
  0.8774792246911843  0.7500463904144187  0.1851092406539799   T   T   T
  0.1246952758622121  0.0159981824047302  0.2750828385923609   T   T   T
  0.6253427312461302  0.0357834798614697  0.2760380801348783   T   T   T
  0.1242963280906799  0.4836808287504116  0.2748558852477109   T   T   T
  0.6262472334793912  0.4636344536642086  0.2758239983560967   T   T   T
  0.3712362248321986  0.0065269235683555  0.2769787100725326   T   T   T
  0.8783763588875886  0.0072658116281220  0.2775779466325051   T   T   T
  0.3706723349016909  0.4921182034590446  0.2763271180725640   T   T   T
  0.8782946365347687  0.4924849992859353  0.2775846416174718   T   T   T
  0.0130335258874243  0.2497743312981037  0.2756384082975278   T   T   T
  0.5057784472104264  0.2500720044990043  0.2746559449270037   T   T   T
  0.0033764415998692  0.7501175155323447  0.2775162265634723   T   T   T
  0.4890420202451126  0.7500001767741183  0.2763876992835552   T   T   T
  0.2362393642634452  0.2499031444413302  0.2749516109634235   T   T   T
  0.7449180631747047  0.2492615066588864  0.2750039860919425   T   T   T
  0.2460700824177907  0.7505913063845610  0.2766224206696066   T   T   T
  0.7609303497878399  0.7499832401670782  0.2768721941653643   T   T   T
  0.3710697108392097  0.4904301271854509  0.3733267915080439   T   T   T
 
  0.00000000E+00  0.00000000E+00  0.00000000E+00
  0.00000000E+00  0.00000000E+00  0.00000000E+00
  0.00000000E+00  0.00000000E+00  0.00000000E+00
  0.00000000E+00  0.00000000E+00  0.00000000E+00
  0.00000000E+00  0.00000000E+00  0.00000000E+00
  0.00000000E+00  0.00000000E+00  0.00000000E+00
  0.00000000E+00  0.00000000E+00  0.00000000E+00
  0.00000000E+00  0.00000000E+00  0.00000000E+00
  0.00000000E+00  0.00000000E+00  0.00000000E+00
  0.00000000E+00  0.00000000E+00  0.00000000E+00
  0.00000000E+00  0.00000000E+00  0.00000000E+00
  0.00000000E+00  0.00000000E+00  0.00000000E+00
  0.00000000E+00  0.00000000E+00  0.00000000E+00
  0.00000000E+00  0.00000000E+00  0.00000000E+00
  0.00000000E+00  0.00000000E+00  0.00000000E+00
  0.00000000E+00  0.00000000E+00  0.00000000E+00
  0.00000000E+00  0.00000000E+00  0.00000000E+00
  0.00000000E+00  0.00000000E+00  0.00000000E+00
  0.00000000E+00  0.00000000E+00  0.00000000E+00
  0.00000000E+00  0.00000000E+00  0.00000000E+00
  0.00000000E+00  0.00000000E+00  0.00000000E+00
  0.00000000E+00  0.00000000E+00  0.00000000E+00
  0.00000000E+00  0.00000000E+00  0.00000000E+00
  0.00000000E+00  0.00000000E+00  0.00000000E+00
  0.00000000E+00  0.00000000E+00  0.00000000E+00
  0.00000000E+00  0.00000000E+00  0.00000000E+00
  0.00000000E+00  0.00000000E+00  0.00000000E+00
  0.00000000E+00  0.00000000E+00  0.00000000E+00
  0.00000000E+00  0.00000000E+00  0.00000000E+00
  0.00000000E+00  0.00000000E+00  0.00000000E+00
  0.00000000E+00  0.00000000E+00  0.00000000E+00
  0.00000000E+00  0.00000000E+00  0.00000000E+00
  0.00000000E+00  0.00000000E+00  0.00000000E+00
  0.00000000E+00  0.00000000E+00  0.00000000E+00
  0.00000000E+00  0.00000000E+00  0.00000000E+00
  0.00000000E+00  0.00000000E+00  0.00000000E+00
  0.00000000E+00  0.00000000E+00  0.00000000E+00
  0.00000000E+00  0.00000000E+00  0.00000000E+00
  0.00000000E+00  0.00000000E+00  0.00000000E+00
  0.00000000E+00  0.00000000E+00  0.00000000E+00
  0.00000000E+00  0.00000000E+00  0.00000000E+00
  0.00000000E+00  0.00000000E+00  0.00000000E+00
  0.00000000E+00  0.00000000E+00  0.00000000E+00
  0.00000000E+00  0.00000000E+00  0.00000000E+00
  0.00000000E+00  0.00000000E+00  0.00000000E+00
  0.00000000E+00  0.00000000E+00  0.00000000E+00
  0.00000000E+00  0.00000000E+00  0.00000000E+00
  0.00000000E+00  0.00000000E+00  0.00000000E+00
  0.00000000E+00  0.00000000E+00  0.00000000E+00
  0.00000000E+00  0.00000000E+00  0.00000000E+00
  0.00000000E+00  0.00000000E+00  0.00000000E+00
  0.00000000E+00  0.00000000E+00  0.00000000E+00
  0.00000000E+00  0.00000000E+00  0.00000000E+00
  0.00000000E+00  0.00000000E+00  0.00000000E+00
  0.00000000E+00  0.00000000E+00  0.00000000E+00
  0.00000000E+00  0.00000000E+00  0.00000000E+00
  0.00000000E+00  0.00000000E+00  0.00000000E+00
  0.00000000E+00  0.00000000E+00  0.00000000E+00
  0.00000000E+00  0.00000000E+00  0.00000000E+00
  0.00000000E+00  0.00000000E+00  0.00000000E+00
  0.00000000E+00  0.00000000E+00  0.00000000E+00
  0.00000000E+00  0.00000000E+00  0.00000000E+00
  0.00000000E+00  0.00000000E+00  0.00000000E+00
  0.00000000E+00  0.00000000E+00  0.00000000E+00
  0.00000000E+00  0.00000000E+00  0.00000000E+00
  0.00000000E+00  0.00000000E+00  0.00000000E+00
  0.00000000E+00  0.00000000E+00  0.00000000E+00
  0.00000000E+00  0.00000000E+00  0.00000000E+00
  0.00000000E+00  0.00000000E+00  0.00000000E+00
  0.00000000E+00  0.00000000E+00  0.00000000E+00
  0.00000000E+00  0.00000000E+00  0.00000000E+00
  0.00000000E+00  0.00000000E+00  0.00000000E+00
  0.00000000E+00  0.00000000E+00  0.00000000E+00
  0.00000000E+00  0.00000000E+00  0.00000000E+00
  0.00000000E+00  0.00000000E+00  0.00000000E+00
  0.00000000E+00  0.00000000E+00  0.00000000E+00
  0.00000000E+00  0.00000000E+00  0.00000000E+00
  0.00000000E+00  0.00000000E+00  0.00000000E+00
  0.00000000E+00  0.00000000E+00  0.00000000E+00
  0.00000000E+00  0.00000000E+00  0.00000000E+00
  0.00000000E+00  0.00000000E+00  0.00000000E+00
  0.00000000E+00  0.00000000E+00  0.00000000E+00
  0.00000000E+00  0.00000000E+00  0.00000000E+00
  0.00000000E+00  0.00000000E+00  0.00000000E+00
  0.00000000E+00  0.00000000E+00  0.00000000E+00
  0.00000000E+00  0.00000000E+00  0.00000000E+00
  0.00000000E+00  0.00000000E+00  0.00000000E+00
  0.00000000E+00  0.00000000E+00  0.00000000E+00
  0.00000000E+00  0.00000000E+00  0.00000000E+00
  0.00000000E+00  0.00000000E+00  0.00000000E+00
  0.00000000E+00  0.00000000E+00  0.00000000E+00
  0.00000000E+00  0.00000000E+00  0.00000000E+00
  0.00000000E+00  0.00000000E+00  0.00000000E+00
  0.00000000E+00  0.00000000E+00  0.00000000E+00
  0.00000000E+00  0.00000000E+00  0.00000000E+00
  0.00000000E+00  0.00000000E+00  0.00000000E+00
  0.00000000E+00  0.00000000E+00  0.00000000E+00
  0.00000000E+00  0.00000000E+00  0.00000000E+00
  0.00000000E+00  0.00000000E+00  0.00000000E+00
  0.00000000E+00  0.00000000E+00  0.00000000E+00
  0.00000000E+00  0.00000000E+00  0.00000000E+00
  0.00000000E+00  0.00000000E+00  0.00000000E+00
  0.00000000E+00  0.00000000E+00  0.00000000E+00
  0.00000000E+00  0.00000000E+00  0.00000000E+00
  0.00000000E+00  0.00000000E+00  0.00000000E+00
  0.00000000E+00  0.00000000E+00  0.00000000E+00
  0.00000000E+00  0.00000000E+00  0.00000000E+00
  0.00000000E+00  0.00000000E+00  0.00000000E+00
  0.00000000E+00  0.00000000E+00  0.00000000E+00
  0.00000000E+00  0.00000000E+00  0.00000000E+00
  0.00000000E+00  0.00000000E+00  0.00000000E+00
  0.00000000E+00  0.00000000E+00  0.00000000E+00
  0.00000000E+00  0.00000000E+00  0.00000000E+00
  0.00000000E+00  0.00000000E+00  0.00000000E+00
  0.00000000E+00  0.00000000E+00  0.00000000E+00
  0.00000000E+00  0.00000000E+00  0.00000000E+00
  0.00000000E+00  0.00000000E+00  0.00000000E+00
  0.00000000E+00  0.00000000E+00  0.00000000E+00
  0.00000000E+00  0.00000000E+00  0.00000000E+00
  0.00000000E+00  0.00000000E+00  0.00000000E+00
  0.00000000E+00  0.00000000E+00  0.00000000E+00
  0.00000000E+00  0.00000000E+00  0.00000000E+00
  0.00000000E+00  0.00000000E+00  0.00000000E+00
  0.00000000E+00  0.00000000E+00  0.00000000E+00
  0.00000000E+00  0.00000000E+00  0.00000000E+00
  0.00000000E+00  0.00000000E+00  0.00000000E+00
  0.00000000E+00  0.00000000E+00  0.00000000E+00
  0.00000000E+00  0.00000000E+00  0.00000000E+00
