Al Mg O Co                              
   1.00000000000000     
    16.8282433949600012    0.0000000000000000    0.0000000000000000
     0.0000000000000000    8.4141216974800006    0.0000000000000000
     0.0000000000000000    0.0000000000000000   23.4141216974799988
   Al   Mg   O    Co
     2    61    64     1
Selective dynamics
Direct
  0.1239936056980817  0.2489493132613220  0.2669489579104887   T   T   T
  0.6260981346804683  0.2489194347503478  0.2673224964631437   T   T   T
  0.1249532698875221  0.9999503353659761  0.0048535239924002   T   T   T
  0.6250516935468829  0.0002376810372948  0.0053356045572409   T   T   T
  0.1249746844774774  0.5000255060297134  0.0048489952739423   T   T   T
  0.6250638118478101  0.4997260144680389  0.0053163124297990   T   T   T
  0.3754536934630801  0.9999151188411379  0.0054642164542023   T   T   T
  0.8745206218537087  0.9998011220578727  0.0055157683352628   T   T   T
  0.3754554864100920  0.5001724619757946  0.0053492116459714   T   T   T
  0.8745326499747939  0.5002058737807327  0.0055026068214642   T   T   T
  0.9995431980256956  0.2499683183162006  0.0050985707641445   T   T   T
  0.5002889477738017  0.2499729590879459  0.0055294582967753   T   T   T
  0.9995639605209975  0.7500317291103771  0.0051120615836221   T   T   T
  0.5000107583420391  0.7500518524139916  0.0054371005891971   T   T   T
  0.2504043756855295  0.2499993869332247  0.0051049126182427   T   T   T
  0.7497519973093171  0.2499522615411842  0.0055286617249111   T   T   T
  0.2503454891915087  0.7500181011825315  0.0051018219034867   T   T   T
  0.7500494589526008  0.7500516455726993  0.0054612818277231   T   T   T
  0.9992677330482983  0.9996229321790540  0.0944498265319285   T   T   T
  0.5006557614174977  0.9986298031905999  0.0954283120413392   T   T   T
  0.9992910972578304  0.5003545212096382  0.0944277306136646   T   T   T
  0.5006240443647868  0.5014535490605184  0.0953556029899353   T   T   T
  0.2505062942553803  0.9997568945663445  0.0945004492888445   T   T   T
  0.7495512521856371  0.9983973439669551  0.0954328303198216   T   T   T
  0.2505374184882568  0.5003349782345976  0.0944970251603362   T   T   T
  0.7496539493621414  0.5015615154957702  0.0953310171599082   T   T   T
  0.1249816103561945  0.2499773145213806  0.0934510367602035   T   T   T
  0.6250676539741183  0.2497818432516226  0.0948601019668327   T   T   T
  0.1249635590976289  0.7499368101808394  0.0937325873038520   T   T   T
  0.6250995201461070  0.7500385982064277  0.0944330300953116   T   T   T
  0.3756305240775068  0.2501577890755575  0.0947014618307479   T   T   T
  0.8743246940951620  0.2499488774299905  0.0947046069016653   T   T   T
  0.3755444421060865  0.7500488044336076  0.0951900801412895   T   T   T
  0.8742948422695694  0.7500636884346292  0.0953638036817321   T   T   T
  0.1248553874017488  0.9974607100552707  0.1831338644588774   T   T   T
  0.6252699602351225  0.9900664071595953  0.1865120634483580   T   T   T
  0.1247483683446367  0.5024492388367091  0.1834628081438887   T   T   T
  0.6257127916969281  0.5090734794254584  0.1863101087966267   T   T   T
  0.3759515714357659  0.9989912800110144  0.1858805682899811   T   T   T
  0.8739061413158143  0.9985080721722283  0.1861868199194610   T   T   T
  0.3759992080452448  0.5017072788869216  0.1856315057851232   T   T   T
  0.8740186170057631  0.5014367108723479  0.1860698614395199   T   T   T
  0.9978451953527145  0.2498481272668126  0.1838537783245629   T   T   T
  0.5000022867132059  0.2507089624714023  0.1853329057572628   T   T   T
  0.9995813862880579  0.7500232698268791  0.1845940162995759   T   T   T
  0.5026191888067536  0.7496148656024144  0.1882593846218618   T   T   T
  0.2519899405075829  0.2506969472384957  0.1845819613788211   T   T   T
  0.7503776270208760  0.2496975076297339  0.1848788875564606   T   T   T
  0.2501645531994219  0.7496671323553133  0.1850336407192585   T   T   T
  0.7471011302774840  0.7500296430476633  0.1887612305791481   T   T   T
 -0.0003446495428990  0.0023286567417597  0.2743712894190717   T   T   T
  0.5082584614070662  0.9863894225660351  0.2765785797759734   T   T   T
 -0.0002949863091167  0.4975021718246260  0.2743726927897994   T   T   T
  0.5124269917037848  0.5173057037429430  0.2782861662434226   T   T   T
  0.2486015774253884  0.0033759029424602  0.2742049531120759   T   T   T
  0.7446056765591575  0.9867632952507384  0.2768271141829958   T   T   T
  0.2449371402344428  0.4980239520494121  0.2762650573710968   T   T   T
  0.7456794850254315  0.5126422759487006  0.2766979837719102   T   T   T
  0.1240772423755648  0.7523949881122746  0.2738458265534119   T   T   T
  0.3843824870953459  0.2423710392017577  0.2765414443531586   T   T   T
  0.8678569578324650  0.2494564672587556  0.2746824618653268   T   T   T
  0.3722199828081759  0.7606216120612834  0.2764576117157730   T   T   T
  0.8776856684585832  0.7504748050595839  0.2755730080050395   T   T   T
  0.0001598023259499  0.0002521129334339  0.0031173485831492   T   T   T
  0.4997290138988233  0.0002966136937354  0.0031937815834054   T   T   T
  0.0002120745982214  0.4997464432910991  0.0031454977523712   T   T   T
  0.4997183334033081  0.4997312713467315  0.0030695874001726   T   T   T
  0.2498937065859829  0.0002583754986348  0.0032321775689204   T   T   T
  0.7502007566210466  0.0002687875527605  0.0030841640540646   T   T   T
  0.2499110181806131  0.4997564296331341  0.0030833198900628   T   T   T
  0.7501910341896718  0.4997330860704123  0.0030888146581572   T   T   T
  0.1250987727195746  0.2499966259342703  0.0029400256769812   T   T   T
  0.6249161309793312  0.2499638228586307  0.0028741396349230   T   T   T
  0.1250660270880553  0.7499800480840358  0.0028803046396262   T   T   T
  0.6249251728131419  0.7499902513687632  0.0029073587364364   T   T   T
  0.3747988807607319  0.2499941041417285  0.0033743932480172   T   T   T
  0.8751874796886470  0.2500208642301989  0.0033612257532117   T   T   T
  0.3745199963243508  0.7500926234315278  0.0031144125973830   T   T   T
  0.8754584027210183  0.7499841995655847  0.0030752033435750   T   T   T
  0.1249995084389491  0.0007062705501700  0.0948221882127418   T   T   T
  0.6249675802788494  0.0018852661465587  0.0946427304369688   T   T   T
  0.1251790908366895  0.4992089693479855  0.0950212370514460   T   T   T
  0.6249209617808843  0.4978823332058966  0.0947002763781063   T   T   T
  0.3747355243844282  0.0008002579240294  0.0954709260100349   T   T   T
  0.8752604217649701  0.0005085802962795  0.0953425529166651   T   T   T
  0.3747312585027014  0.4994014193831224  0.0954335143620769   T   T   T
  0.8752825867451457  0.4994934781203139  0.0952607797029144   T   T   T
  0.0005102015230918  0.2499917395495837  0.0950954517575565   T   T   T
  0.4997639917622362  0.2503616253412500  0.0956109354972793   T   T   T
  0.0006761285456008  0.7499792621920973  0.0947814724903378   T   T   T
  0.4988845639206616  0.7497519045361639  0.0946409615523439   T   T   T
  0.2496621089392894  0.2504413735647656  0.0954281286240140   T   T   T
  0.7500886167324617  0.2499459641057409  0.0953654819013944   T   T   T
  0.2494247925406779  0.7496712745428807  0.0949662282298702   T   T   T
  0.7509143115672311  0.7499979019640254  0.0945782567194350   T   T   T
  0.0007355760880648  0.0004614479423265  0.1846966633360858   T   T   T
  0.4999349921261600  0.9994900360540844  0.1854149044615887   T   T   T
  0.0005991891545246  0.4994000028501169  0.1847130882728266   T   T   T
  0.4996910742738849  0.5006904743926927  0.1863706361063911   T   T   T
  0.2491497910799559  0.0008752614906548  0.1845086644991779   T   T   T
  0.7501050667052983  0.9993061258453489  0.1853571347343141   T   T   T
  0.2496247025695467  0.4995580307709980  0.1857430126616278   T   T   T
  0.7503856494492143  0.5003510776727187  0.1853055187142293   T   T   T
  0.1244587855103233  0.2498793699063212  0.1862670236971959   T   T   T
  0.6252829970743504  0.2498382261036110  0.1857719953753747   T   T   T
  0.1247126208496809  0.7499180123636351  0.1851520308765192   T   T   T
  0.6248691313187638  0.7495394128734528  0.1804790005208343   T   T   T
  0.3748107553187423  0.2516255129645003  0.1868381284152104   T   T   T
  0.8754032504703309  0.2498737835342486  0.1855776626824414   T   T   T
  0.3726374864873216  0.7490568598003953  0.1855582419530391   T   T   T
  0.8774342520489751  0.7500443448412636  0.1850654677055874   T   T   T
  0.1240409401099048  0.0154599503215348  0.2747245752367452   T   T   T
  0.6259636589570114  0.0351508558851245  0.2758422472874474   T   T   T
  0.1234180481350797  0.4837093014036962  0.2747511610463853   T   T   T
  0.6274019445987630  0.4633018998017339  0.2758598135977073   T   T   T
  0.3710249803686423  0.0061850423879099  0.2771173905124125   T   T   T
  0.8783171017915234  0.0071414390708684  0.2775580775415032   T   T   T
  0.3701168947650604  0.4917119824710603  0.2801492272420226   T   T   T
  0.8781499691864799  0.4923288097713855  0.2775713829023858   T   T   T
  0.0125505260239527  0.2495100496512173  0.2754574510414829   T   T   T
  0.5068184415755332  0.2493369778738508  0.2747858690463962   T   T   T
  0.0030531511386423  0.7501814898483176  0.2773787026704562   T   T   T
  0.4893005008254623  0.7504000991563432  0.2764066898256424   T   T   T
  0.2350724024375913  0.2494020474900507  0.2748594220241909   T   T   T
  0.7451545294777924  0.2486703803455430  0.2749356209482715   T   T   T
  0.2455672202985669  0.7515932378799763  0.2765306474054411   T   T   T
  0.7610610926092387  0.7499093894457419  0.2768763252231092   T   T   T
  0.3695598938511570  0.4911759569582256  0.3607826293260670   T   T   T
 
  0.00000000E+00  0.00000000E+00  0.00000000E+00
  0.00000000E+00  0.00000000E+00  0.00000000E+00
  0.00000000E+00  0.00000000E+00  0.00000000E+00
  0.00000000E+00  0.00000000E+00  0.00000000E+00
  0.00000000E+00  0.00000000E+00  0.00000000E+00
  0.00000000E+00  0.00000000E+00  0.00000000E+00
  0.00000000E+00  0.00000000E+00  0.00000000E+00
  0.00000000E+00  0.00000000E+00  0.00000000E+00
  0.00000000E+00  0.00000000E+00  0.00000000E+00
  0.00000000E+00  0.00000000E+00  0.00000000E+00
  0.00000000E+00  0.00000000E+00  0.00000000E+00
  0.00000000E+00  0.00000000E+00  0.00000000E+00
  0.00000000E+00  0.00000000E+00  0.00000000E+00
  0.00000000E+00  0.00000000E+00  0.00000000E+00
  0.00000000E+00  0.00000000E+00  0.00000000E+00
  0.00000000E+00  0.00000000E+00  0.00000000E+00
  0.00000000E+00  0.00000000E+00  0.00000000E+00
  0.00000000E+00  0.00000000E+00  0.00000000E+00
  0.00000000E+00  0.00000000E+00  0.00000000E+00
  0.00000000E+00  0.00000000E+00  0.00000000E+00
  0.00000000E+00  0.00000000E+00  0.00000000E+00
  0.00000000E+00  0.00000000E+00  0.00000000E+00
  0.00000000E+00  0.00000000E+00  0.00000000E+00
  0.00000000E+00  0.00000000E+00  0.00000000E+00
  0.00000000E+00  0.00000000E+00  0.00000000E+00
  0.00000000E+00  0.00000000E+00  0.00000000E+00
  0.00000000E+00  0.00000000E+00  0.00000000E+00
  0.00000000E+00  0.00000000E+00  0.00000000E+00
  0.00000000E+00  0.00000000E+00  0.00000000E+00
  0.00000000E+00  0.00000000E+00  0.00000000E+00
  0.00000000E+00  0.00000000E+00  0.00000000E+00
  0.00000000E+00  0.00000000E+00  0.00000000E+00
  0.00000000E+00  0.00000000E+00  0.00000000E+00
  0.00000000E+00  0.00000000E+00  0.00000000E+00
  0.00000000E+00  0.00000000E+00  0.00000000E+00
  0.00000000E+00  0.00000000E+00  0.00000000E+00
  0.00000000E+00  0.00000000E+00  0.00000000E+00
  0.00000000E+00  0.00000000E+00  0.00000000E+00
  0.00000000E+00  0.00000000E+00  0.00000000E+00
  0.00000000E+00  0.00000000E+00  0.00000000E+00
  0.00000000E+00  0.00000000E+00  0.00000000E+00
  0.00000000E+00  0.00000000E+00  0.00000000E+00
  0.00000000E+00  0.00000000E+00  0.00000000E+00
  0.00000000E+00  0.00000000E+00  0.00000000E+00
  0.00000000E+00  0.00000000E+00  0.00000000E+00
  0.00000000E+00  0.00000000E+00  0.00000000E+00
  0.00000000E+00  0.00000000E+00  0.00000000E+00
  0.00000000E+00  0.00000000E+00  0.00000000E+00
  0.00000000E+00  0.00000000E+00  0.00000000E+00
  0.00000000E+00  0.00000000E+00  0.00000000E+00
  0.00000000E+00  0.00000000E+00  0.00000000E+00
  0.00000000E+00  0.00000000E+00  0.00000000E+00
  0.00000000E+00  0.00000000E+00  0.00000000E+00
  0.00000000E+00  0.00000000E+00  0.00000000E+00
  0.00000000E+00  0.00000000E+00  0.00000000E+00
  0.00000000E+00  0.00000000E+00  0.00000000E+00
  0.00000000E+00  0.00000000E+00  0.00000000E+00
  0.00000000E+00  0.00000000E+00  0.00000000E+00
  0.00000000E+00  0.00000000E+00  0.00000000E+00
  0.00000000E+00  0.00000000E+00  0.00000000E+00
  0.00000000E+00  0.00000000E+00  0.00000000E+00
  0.00000000E+00  0.00000000E+00  0.00000000E+00
  0.00000000E+00  0.00000000E+00  0.00000000E+00
  0.00000000E+00  0.00000000E+00  0.00000000E+00
  0.00000000E+00  0.00000000E+00  0.00000000E+00
  0.00000000E+00  0.00000000E+00  0.00000000E+00
  0.00000000E+00  0.00000000E+00  0.00000000E+00
  0.00000000E+00  0.00000000E+00  0.00000000E+00
  0.00000000E+00  0.00000000E+00  0.00000000E+00
  0.00000000E+00  0.00000000E+00  0.00000000E+00
  0.00000000E+00  0.00000000E+00  0.00000000E+00
  0.00000000E+00  0.00000000E+00  0.00000000E+00
  0.00000000E+00  0.00000000E+00  0.00000000E+00
  0.00000000E+00  0.00000000E+00  0.00000000E+00
  0.00000000E+00  0.00000000E+00  0.00000000E+00
  0.00000000E+00  0.00000000E+00  0.00000000E+00
  0.00000000E+00  0.00000000E+00  0.00000000E+00
  0.00000000E+00  0.00000000E+00  0.00000000E+00
  0.00000000E+00  0.00000000E+00  0.00000000E+00
  0.00000000E+00  0.00000000E+00  0.00000000E+00
  0.00000000E+00  0.00000000E+00  0.00000000E+00
  0.00000000E+00  0.00000000E+00  0.00000000E+00
  0.00000000E+00  0.00000000E+00  0.00000000E+00
  0.00000000E+00  0.00000000E+00  0.00000000E+00
  0.00000000E+00  0.00000000E+00  0.00000000E+00
  0.00000000E+00  0.00000000E+00  0.00000000E+00
  0.00000000E+00  0.00000000E+00  0.00000000E+00
  0.00000000E+00  0.00000000E+00  0.00000000E+00
  0.00000000E+00  0.00000000E+00  0.00000000E+00
  0.00000000E+00  0.00000000E+00  0.00000000E+00
  0.00000000E+00  0.00000000E+00  0.00000000E+00
  0.00000000E+00  0.00000000E+00  0.00000000E+00
  0.00000000E+00  0.00000000E+00  0.00000000E+00
  0.00000000E+00  0.00000000E+00  0.00000000E+00
  0.00000000E+00  0.00000000E+00  0.00000000E+00
  0.00000000E+00  0.00000000E+00  0.00000000E+00
  0.00000000E+00  0.00000000E+00  0.00000000E+00
  0.00000000E+00  0.00000000E+00  0.00000000E+00
  0.00000000E+00  0.00000000E+00  0.00000000E+00
  0.00000000E+00  0.00000000E+00  0.00000000E+00
  0.00000000E+00  0.00000000E+00  0.00000000E+00
  0.00000000E+00  0.00000000E+00  0.00000000E+00
  0.00000000E+00  0.00000000E+00  0.00000000E+00
  0.00000000E+00  0.00000000E+00  0.00000000E+00
  0.00000000E+00  0.00000000E+00  0.00000000E+00
  0.00000000E+00  0.00000000E+00  0.00000000E+00
  0.00000000E+00  0.00000000E+00  0.00000000E+00
  0.00000000E+00  0.00000000E+00  0.00000000E+00
  0.00000000E+00  0.00000000E+00  0.00000000E+00
  0.00000000E+00  0.00000000E+00  0.00000000E+00
  0.00000000E+00  0.00000000E+00  0.00000000E+00
  0.00000000E+00  0.00000000E+00  0.00000000E+00
  0.00000000E+00  0.00000000E+00  0.00000000E+00
  0.00000000E+00  0.00000000E+00  0.00000000E+00
  0.00000000E+00  0.00000000E+00  0.00000000E+00
  0.00000000E+00  0.00000000E+00  0.00000000E+00
  0.00000000E+00  0.00000000E+00  0.00000000E+00
  0.00000000E+00  0.00000000E+00  0.00000000E+00
  0.00000000E+00  0.00000000E+00  0.00000000E+00
  0.00000000E+00  0.00000000E+00  0.00000000E+00
  0.00000000E+00  0.00000000E+00  0.00000000E+00
  0.00000000E+00  0.00000000E+00  0.00000000E+00
  0.00000000E+00  0.00000000E+00  0.00000000E+00
  0.00000000E+00  0.00000000E+00  0.00000000E+00
  0.00000000E+00  0.00000000E+00  0.00000000E+00
  0.00000000E+00  0.00000000E+00  0.00000000E+00
  0.00000000E+00  0.00000000E+00  0.00000000E+00
  0.00000000E+00  0.00000000E+00  0.00000000E+00
