Al Mg O Ru                              
   1.00000000000000     
    16.8282433949600012    0.0000000000000000    0.0000000000000000
     0.0000000000000000    8.4141216974800006    0.0000000000000000
     0.0000000000000000    0.0000000000000000   23.4141216974799988
   Al   Mg   O    Ru
     2    61    64     1
Selective dynamics
Direct
  0.1231534092019152  0.2490962805318430  0.2667870151949331   T   T   T
  0.6266541688823295  0.2484576316460037  0.2673693493861124   T   T   T
  0.1250129621494143  0.0000277220868194  0.0047677714015850   T   T   T
  0.6249983821264449  0.0002031189522739  0.0054695941370313   T   T   T
  0.1250997504290534  0.5000298556265902  0.0047575531754941   T   T   T
  0.6249393386128286  0.4996187454390296  0.0054479979609608   T   T   T
  0.3755587252461867  0.9999414530420478  0.0055829663622052   T   T   T
  0.8744200506743249  0.9997902089093117  0.0054091082303925   T   T   T
  0.3755306119045412  0.5002323106092531  0.0055389379321820   T   T   T
  0.8744659173642531  0.5002112319408245  0.0054031081817774   T   T   T
  0.9995164670493903  0.2500442033951581  0.0049607072938821   T   T   T
  0.5002911831551490  0.2501345924313520  0.0056761718511252   T   T   T
  0.9994773379345324  0.7499406125501089  0.0049510515403328   T   T   T
  0.4999649505445238  0.7498792682679960  0.0055746016939345   T   T   T
  0.2505710231978361  0.2502670210149390  0.0051481131748181   T   T   T
  0.7496621616560990  0.2499596773166028  0.0055616114715832   T   T   T
  0.2505073995392745  0.7499280026371513  0.0051056639876145   T   T   T
  0.7499649812529550  0.7499446906096294  0.0054836182908537   T   T   T
  0.9991674890611904  0.9996136417664804  0.0941311586593670   T   T   T
  0.5005873780271979  0.9984963132452965  0.0956503962853053   T   T   T
  0.9992124913064452  0.5003427250014505  0.0942087337199077   T   T   T
  0.5006842044064781  0.5014528282384138  0.0956870267127430   T   T   T
  0.2506415403957323  0.0000133696272591  0.0945727887541672   T   T   T
  0.7495444688419544  0.9982078795989722  0.0953229530849249   T   T   T
  0.2506245184992619  0.5004095682887587  0.0946355027492774   T   T   T
  0.7495978389360552  0.5014324822896569  0.0953609749251207   T   T   T
  0.1250194191721863  0.2501143841428629  0.0933175988580176   T   T   T
  0.6250887785339563  0.2497894695248928  0.0949655078046343   T   T   T
  0.1249710333672496  0.7500460415503013  0.0935896157705811   T   T   T
  0.6249792771392317  0.7497447841991185  0.0945717368583938   T   T   T
  0.3757199810030051  0.2501793875790953  0.0950908852783593   T   T   T
  0.8742830659112605  0.2499522359873551  0.0945277537221313   T   T   T
  0.3756412768408531  0.7502750043295268  0.0955297148347524   T   T   T
  0.8741550781056046  0.7499407643549756  0.0952037441235596   T   T   T
  0.1246577134295350  0.9976989693380423  0.1829101390942442   T   T   T
  0.6254803965695104  0.9898635927495053  0.1865126139868563   T   T   T
  0.1243669586758054  0.5027310619232050  0.1832822881690566   T   T   T
  0.6258443330368344  0.5088486273300955  0.1865839235557394   T   T   T
  0.3759726441079037  0.9992836491957462  0.1862528811641239   T   T   T
  0.8738302804210588  0.9982498846257563  0.1858286741817883   T   T   T
  0.3761123491730918  0.5019330631724874  0.1856997762131532   T   T   T
  0.8739442918507122  0.5013133956792730  0.1858532216078470   T   T   T
  0.9976901683419201  0.2500152913737950  0.1835184822638284   T   T   T
  0.5003635308716088  0.2504456430995002  0.1856323381193389   T   T   T
  0.9994358328378486  0.7499147448415843  0.1842449751636178   T   T   T
  0.5026650853316574  0.7495675344071627  0.1888585998324386   T   T   T
  0.2519241598321041  0.2507705800287863  0.1848383133826512   T   T   T
  0.7505893382047973  0.2495128201484170  0.1848075188424612   T   T   T
  0.2500131035368664  0.7502223632047695  0.1850494451817023   T   T   T
  0.7470874895991477  0.7495288411269588  0.1887579316398645   T   T   T
 -0.0007315270566019  0.0020189095897462  0.2738602669044911   T   T   T
  0.5085473525987232  0.9864252348215961  0.2768081166333548   T   T   T
 -0.0006672889401214  0.4980610681389795  0.2740584141834242   T   T   T
  0.5132688966986927  0.5172258764133416  0.2791306866945788   T   T   T
  0.2482986808654079  0.0038068028881808  0.2742465922110791   T   T   T
  0.7452693245351132  0.9865853103082916  0.2766097040053323   T   T   T
  0.2437676491153546  0.4981711495000551  0.2762055879723391   T   T   T
  0.7462738236801080  0.5119862192467225  0.2766222882519572   T   T   T
  0.1237791752889800  0.7529728615660473  0.2734809680028965   T   T   T
  0.3850980463800834  0.2419870159828182  0.2772963556760801   T   T   T
  0.8686060032718861  0.2492476811779703  0.2744249897334944   T   T   T
  0.3715948932944710  0.7609026678985011  0.2768836527579004   T   T   T
  0.8776990607760012  0.7501295275674680  0.2753651737890266   T   T   T
  0.0000815751182951  0.0002544463692321  0.0029578210305005   T   T   T
  0.4997232350686436  0.0003449416819434  0.0033093548737418   T   T   T
  0.0001757122208847  0.4997226012358568  0.0030107220425847   T   T   T
  0.4997555284066524  0.4996649066685028  0.0032829679457090   T   T   T
  0.2500126238546535  0.0003857208967232  0.0032408956632861   T   T   T
  0.7501674811796842  0.0002056673793311  0.0031202159150311   T   T   T
  0.2499965113128267  0.4998206732744097  0.0032608089639425   T   T   T
  0.7501271914454529  0.4996896212325250  0.0031434360425352   T   T   T
  0.1251124931363842  0.2501137097856275  0.0028625007809973   T   T   T
  0.6249318959788429  0.2499521243892507  0.0030046090451529   T   T   T
  0.1250657469951006  0.7499569999223593  0.0027691822612539   T   T   T
  0.6249395559603149  0.7498777388628028  0.0030049890783758   T   T   T
  0.3748851700683069  0.2500609943693488  0.0035837137735902   T   T   T
  0.8751241784898791  0.2499602670893980  0.0033010730569145   T   T   T
  0.3745917240708613  0.7501157410565370  0.0032571401680345   T   T   T
  0.8753290952330858  0.7500301094406430  0.0030416023515079   T   T   T
  0.1249391986950802  0.0009452638696581  0.0946943020277055   T   T   T
  0.6249612274792764  0.0018821418741875  0.0947659725564931   T   T   T
  0.1250893756285676  0.4992345251345122  0.0949417957510659   T   T   T
  0.6249096173211771  0.4976820636489462  0.0948666387555384   T   T   T
  0.3748180588056098  0.0009378907146633  0.0957094874094298   T   T   T
  0.8752179349481655  0.0004277174560565  0.0951118062704768   T   T   T
  0.3748474318118334  0.4995347752715253  0.0957089659804212   T   T   T
  0.8752653464729533  0.4994382652271012  0.0951758619637318   T   T   T
  0.0005011986201778  0.2500551168430875  0.0949091442506648   T   T   T
  0.4998558773894634  0.2503159529293413  0.0958887883430557   T   T   T
  0.0005636834474275  0.7499157005921177  0.0945563514669240   T   T   T
  0.4988678058962707  0.7496614342877157  0.0948554141110416   T   T   T
  0.2496394428250882  0.2505600817654863  0.0955246405277663   T   T   T
  0.7501021372046689  0.2498709115624128  0.0953618057308172   T   T   T
  0.2494447528641699  0.7498790166979867  0.0949770271466579   T   T   T
  0.7508739085418606  0.7497397883353838  0.0945529147040704   T   T   T
  0.0003585312220309  0.0005184943943310  0.1844059358884978   T   T   T
  0.5001126054936652  0.9993267709746760  0.1856717211215115   T   T   T
  0.0002213306738701  0.4994345195495182  0.1844462885266314   T   T   T
  0.5000783135472879  0.5006084522072262  0.1868166634025342   T   T   T
  0.2489138182719489  0.0014468191593693  0.1845840168209388   T   T   T
  0.7503333984834083  0.9989571508755829  0.1852320610665162   T   T   T
  0.2491880375366733  0.4996013126170298  0.1856838261159536   T   T   T
  0.7505599805987750  0.5000924330767812  0.1852805275931050   T   T   T
  0.1240141158549136  0.2502041941283205  0.1861965007316792   T   T   T
  0.6257786637315421  0.2499363774710264  0.1858579446432920   T   T   T
  0.1243308749765526  0.7501699444409622  0.1848959101961774   T   T   T
  0.6249752487690109  0.7492981865256522  0.1806321867589513   T   T   T
  0.3748913902536071  0.2516449472780367  0.1871675768372170   T   T   T
  0.8754311013671164  0.2497741962819132  0.1853913256895211   T   T   T
  0.3725149513156854  0.7495211632195924  0.1856844149008195   T   T   T
  0.8773149108635960  0.7497408050472852  0.1849208353602399   T   T   T
  0.1233879635742019  0.0156328755638840  0.2744386571475206   T   T   T
  0.6266268988019897  0.0343582504321461  0.2758488995269927   T   T   T
  0.1223814529632158  0.4840428209774997  0.2745965874681385   T   T   T
  0.6280525686393781  0.4629024421491886  0.2762067056188521   T   T   T
  0.3707208392818160  0.0060876617185561  0.2771331959294549   T   T   T
  0.8781774212948076  0.0068026674785951  0.2774827720929228   T   T   T
  0.3692028174879005  0.4931279811565101  0.2773482153158588   T   T   T
  0.8780599493349306  0.4922621353846626  0.2775133018217260   T   T   T
  0.0116750189188691  0.2493432687407851  0.2753694177428411   T   T   T
  0.5077782617752961  0.2480058854865698  0.2746888430243808   T   T   T
  0.0028258994061044  0.7502743640751004  0.2771653768038727   T   T   T
  0.4892726980719208  0.7505251188788974  0.2770171253015434   T   T   T
  0.2340043616758889  0.2495279956795446  0.2752442721149764   T   T   T
  0.7457984425494035  0.2483776904102156  0.2749190047139443   T   T   T
  0.2446148956778184  0.7523950209232430  0.2761051699574650   T   T   T
  0.7612451900328325  0.7494297229219360  0.2769420423939882   T   T   T
  0.3734333949670662  0.4920680011915411  0.3613637192712177   T   T   T
 
  0.00000000E+00  0.00000000E+00  0.00000000E+00
  0.00000000E+00  0.00000000E+00  0.00000000E+00
  0.00000000E+00  0.00000000E+00  0.00000000E+00
  0.00000000E+00  0.00000000E+00  0.00000000E+00
  0.00000000E+00  0.00000000E+00  0.00000000E+00
  0.00000000E+00  0.00000000E+00  0.00000000E+00
  0.00000000E+00  0.00000000E+00  0.00000000E+00
  0.00000000E+00  0.00000000E+00  0.00000000E+00
  0.00000000E+00  0.00000000E+00  0.00000000E+00
  0.00000000E+00  0.00000000E+00  0.00000000E+00
  0.00000000E+00  0.00000000E+00  0.00000000E+00
  0.00000000E+00  0.00000000E+00  0.00000000E+00
  0.00000000E+00  0.00000000E+00  0.00000000E+00
  0.00000000E+00  0.00000000E+00  0.00000000E+00
  0.00000000E+00  0.00000000E+00  0.00000000E+00
  0.00000000E+00  0.00000000E+00  0.00000000E+00
  0.00000000E+00  0.00000000E+00  0.00000000E+00
  0.00000000E+00  0.00000000E+00  0.00000000E+00
  0.00000000E+00  0.00000000E+00  0.00000000E+00
  0.00000000E+00  0.00000000E+00  0.00000000E+00
  0.00000000E+00  0.00000000E+00  0.00000000E+00
  0.00000000E+00  0.00000000E+00  0.00000000E+00
  0.00000000E+00  0.00000000E+00  0.00000000E+00
  0.00000000E+00  0.00000000E+00  0.00000000E+00
  0.00000000E+00  0.00000000E+00  0.00000000E+00
  0.00000000E+00  0.00000000E+00  0.00000000E+00
  0.00000000E+00  0.00000000E+00  0.00000000E+00
  0.00000000E+00  0.00000000E+00  0.00000000E+00
  0.00000000E+00  0.00000000E+00  0.00000000E+00
  0.00000000E+00  0.00000000E+00  0.00000000E+00
  0.00000000E+00  0.00000000E+00  0.00000000E+00
  0.00000000E+00  0.00000000E+00  0.00000000E+00
  0.00000000E+00  0.00000000E+00  0.00000000E+00
  0.00000000E+00  0.00000000E+00  0.00000000E+00
  0.00000000E+00  0.00000000E+00  0.00000000E+00
  0.00000000E+00  0.00000000E+00  0.00000000E+00
  0.00000000E+00  0.00000000E+00  0.00000000E+00
  0.00000000E+00  0.00000000E+00  0.00000000E+00
  0.00000000E+00  0.00000000E+00  0.00000000E+00
  0.00000000E+00  0.00000000E+00  0.00000000E+00
  0.00000000E+00  0.00000000E+00  0.00000000E+00
  0.00000000E+00  0.00000000E+00  0.00000000E+00
  0.00000000E+00  0.00000000E+00  0.00000000E+00
  0.00000000E+00  0.00000000E+00  0.00000000E+00
  0.00000000E+00  0.00000000E+00  0.00000000E+00
  0.00000000E+00  0.00000000E+00  0.00000000E+00
  0.00000000E+00  0.00000000E+00  0.00000000E+00
  0.00000000E+00  0.00000000E+00  0.00000000E+00
  0.00000000E+00  0.00000000E+00  0.00000000E+00
  0.00000000E+00  0.00000000E+00  0.00000000E+00
  0.00000000E+00  0.00000000E+00  0.00000000E+00
  0.00000000E+00  0.00000000E+00  0.00000000E+00
  0.00000000E+00  0.00000000E+00  0.00000000E+00
  0.00000000E+00  0.00000000E+00  0.00000000E+00
  0.00000000E+00  0.00000000E+00  0.00000000E+00
  0.00000000E+00  0.00000000E+00  0.00000000E+00
  0.00000000E+00  0.00000000E+00  0.00000000E+00
  0.00000000E+00  0.00000000E+00  0.00000000E+00
  0.00000000E+00  0.00000000E+00  0.00000000E+00
  0.00000000E+00  0.00000000E+00  0.00000000E+00
  0.00000000E+00  0.00000000E+00  0.00000000E+00
  0.00000000E+00  0.00000000E+00  0.00000000E+00
  0.00000000E+00  0.00000000E+00  0.00000000E+00
  0.00000000E+00  0.00000000E+00  0.00000000E+00
  0.00000000E+00  0.00000000E+00  0.00000000E+00
  0.00000000E+00  0.00000000E+00  0.00000000E+00
  0.00000000E+00  0.00000000E+00  0.00000000E+00
  0.00000000E+00  0.00000000E+00  0.00000000E+00
  0.00000000E+00  0.00000000E+00  0.00000000E+00
  0.00000000E+00  0.00000000E+00  0.00000000E+00
  0.00000000E+00  0.00000000E+00  0.00000000E+00
  0.00000000E+00  0.00000000E+00  0.00000000E+00
  0.00000000E+00  0.00000000E+00  0.00000000E+00
  0.00000000E+00  0.00000000E+00  0.00000000E+00
  0.00000000E+00  0.00000000E+00  0.00000000E+00
  0.00000000E+00  0.00000000E+00  0.00000000E+00
  0.00000000E+00  0.00000000E+00  0.00000000E+00
  0.00000000E+00  0.00000000E+00  0.00000000E+00
  0.00000000E+00  0.00000000E+00  0.00000000E+00
  0.00000000E+00  0.00000000E+00  0.00000000E+00
  0.00000000E+00  0.00000000E+00  0.00000000E+00
  0.00000000E+00  0.00000000E+00  0.00000000E+00
  0.00000000E+00  0.00000000E+00  0.00000000E+00
  0.00000000E+00  0.00000000E+00  0.00000000E+00
  0.00000000E+00  0.00000000E+00  0.00000000E+00
  0.00000000E+00  0.00000000E+00  0.00000000E+00
  0.00000000E+00  0.00000000E+00  0.00000000E+00
  0.00000000E+00  0.00000000E+00  0.00000000E+00
  0.00000000E+00  0.00000000E+00  0.00000000E+00
  0.00000000E+00  0.00000000E+00  0.00000000E+00
  0.00000000E+00  0.00000000E+00  0.00000000E+00
  0.00000000E+00  0.00000000E+00  0.00000000E+00
  0.00000000E+00  0.00000000E+00  0.00000000E+00
  0.00000000E+00  0.00000000E+00  0.00000000E+00
  0.00000000E+00  0.00000000E+00  0.00000000E+00
  0.00000000E+00  0.00000000E+00  0.00000000E+00
  0.00000000E+00  0.00000000E+00  0.00000000E+00
  0.00000000E+00  0.00000000E+00  0.00000000E+00
  0.00000000E+00  0.00000000E+00  0.00000000E+00
  0.00000000E+00  0.00000000E+00  0.00000000E+00
  0.00000000E+00  0.00000000E+00  0.00000000E+00
  0.00000000E+00  0.00000000E+00  0.00000000E+00
  0.00000000E+00  0.00000000E+00  0.00000000E+00
  0.00000000E+00  0.00000000E+00  0.00000000E+00
  0.00000000E+00  0.00000000E+00  0.00000000E+00
  0.00000000E+00  0.00000000E+00  0.00000000E+00
  0.00000000E+00  0.00000000E+00  0.00000000E+00
  0.00000000E+00  0.00000000E+00  0.00000000E+00
  0.00000000E+00  0.00000000E+00  0.00000000E+00
  0.00000000E+00  0.00000000E+00  0.00000000E+00
  0.00000000E+00  0.00000000E+00  0.00000000E+00
  0.00000000E+00  0.00000000E+00  0.00000000E+00
  0.00000000E+00  0.00000000E+00  0.00000000E+00
  0.00000000E+00  0.00000000E+00  0.00000000E+00
  0.00000000E+00  0.00000000E+00  0.00000000E+00
  0.00000000E+00  0.00000000E+00  0.00000000E+00
  0.00000000E+00  0.00000000E+00  0.00000000E+00
  0.00000000E+00  0.00000000E+00  0.00000000E+00
  0.00000000E+00  0.00000000E+00  0.00000000E+00
  0.00000000E+00  0.00000000E+00  0.00000000E+00
  0.00000000E+00  0.00000000E+00  0.00000000E+00
  0.00000000E+00  0.00000000E+00  0.00000000E+00
  0.00000000E+00  0.00000000E+00  0.00000000E+00
  0.00000000E+00  0.00000000E+00  0.00000000E+00
  0.00000000E+00  0.00000000E+00  0.00000000E+00
  0.00000000E+00  0.00000000E+00  0.00000000E+00
  0.00000000E+00  0.00000000E+00  0.00000000E+00
  0.00000000E+00  0.00000000E+00  0.00000000E+00
