Al Mg O Ir                              
   1.00000000000000     
    16.8282433949600012    0.0000000000000000    0.0000000000000000
     0.0000000000000000    8.4141216974800006    0.0000000000000000
     0.0000000000000000    0.0000000000000000   23.4141216974799988
   Al   Mg   O    Ir
     2    61    64     1
Selective dynamics
Direct
  0.1242411211346586  0.2491561920865800  0.2671578609328455   T   T   T
  0.6257497248276390  0.2490668056403079  0.2673762027299389   T   T   T
  0.1249982946649989  0.9999344718556447  0.0048777456742499   T   T   T
  0.6249968700947871  0.0002320885391889  0.0053210981834658   T   T   T
  0.1249357764779401  0.5000340323151142  0.0048722141893327   T   T   T
  0.6250962901741737  0.4997078961003670  0.0052910702269823   T   T   T
  0.3754320033931287  0.9999016766659959  0.0054539684855925   T   T   T
  0.8745278170048481  0.9997774677699111  0.0055052062647533   T   T   T
  0.3754351229272290  0.5001610282032197  0.0053903611689917   T   T   T
  0.8745359706089830  0.5001986521282592  0.0055018587477653   T   T   T
  0.9995784325777488  0.2499948244124004  0.0051009446075583   T   T   T
  0.5002518894729887  0.2498673172182106  0.0055512301669107   T   T   T
  0.9995858249153017  0.7499842879661512  0.0051236180512174   T   T   T
  0.4999926970393342  0.7500900974020706  0.0054401163183396   T   T   T
  0.2503984170024043  0.2499291973721397  0.0051398229356834   T   T   T
  0.7497323280186322  0.2499792861781226  0.0055109903109625   T   T   T
  0.2503391802459700  0.7500814687693932  0.0051628396678129   T   T   T
  0.7500203491831994  0.7499985273509214  0.0054435041891133   T   T   T
  0.9992880687073944  0.9996433915811954  0.0944768723245587   T   T   T
  0.5006195206487323  0.9985449357913558  0.0954852387792666   T   T   T
  0.9993651081345606  0.5003245757979703  0.0944350661970447   T   T   T
  0.5007265624436117  0.5013928974717217  0.0952632422396475   T   T   T
  0.2505403271734646  0.9997986498698519  0.0945893835491644   T   T   T
  0.7495093410700500  0.9984137885760876  0.0954246200261770   T   T   T
  0.2504484549620353  0.5003416855377421  0.0944360303157567   T   T   T
  0.7495327070910082  0.5015441269204134  0.0953378255928758   T   T   T
  0.1250784764186561  0.2500144618369831  0.0934937664279818   T   T   T
  0.6249374861658709  0.2498083765645617  0.0948937492595589   T   T   T
  0.1250283123773926  0.7499242438075715  0.0937717222118339   T   T   T
  0.6249865436256522  0.7499909391347858  0.0944848093064578   T   T   T
  0.3756302364021685  0.2498628022881197  0.0946498437589169   T   T   T
  0.8743285501839951  0.2499312534883867  0.0946988933460293   T   T   T
  0.3755655974643116  0.7503640619611848  0.0951230941817993   T   T   T
  0.8742866496959869  0.7500539545786908  0.0953467232271087   T   T   T
  0.1249573459272481  0.9976621288468727  0.1832117142677260   T   T   T
  0.6250982754650525  0.9900187082027206  0.1865185073646956   T   T   T
  0.1249186634541347  0.5023787292200674  0.1835325326202361   T   T   T
  0.6252869524893349  0.5091090570292537  0.1865078994030926   T   T   T
  0.3759675491781197  0.9989061267371403  0.1860269347146379   T   T   T
  0.8739166895119483  0.9985381615678448  0.1861860435437545   T   T   T
  0.3762111762912256  0.5019548147144329  0.1847258529396024   T   T   T
  0.8739791094045753  0.5014183194102307  0.1860807862874296   T   T   T
  0.9979578088548203  0.2498511833317315  0.1839086079746259   T   T   T
  0.4997169575696221  0.2509138256791075  0.1854374482161700   T   T   T
  0.9996169207335565  0.7500738187159710  0.1845977636088592   T   T   T
  0.5024616099562554  0.7491093382031752  0.1885186543507516   T   T   T
  0.2521605814643235  0.2510532301568077  0.1846697065029326   T   T   T
  0.7502524535497277  0.2497331645121260  0.1848733391330110   T   T   T
  0.2503377099072837  0.7494661695725063  0.1851222848766151   T   T   T
  0.7469590363734555  0.7500421877494191  0.1887401386642396   T   T   T
 -0.0002826906816834  0.0023815472528225  0.2743649858062387   T   T   T
  0.5077494903410650  0.9868009501107757  0.2766338452176521   T   T   T
 -0.0002052401555720  0.4975293260984228  0.2743983677493234   T   T   T
  0.5115133203547106  0.5157684498048810  0.2791238624841349   T   T   T
  0.2487788376681492  0.0031641476629981  0.2742276367653342   T   T   T
  0.7444992516225304  0.9868073980017733  0.2767288424652166   T   T   T
  0.2453363620492538  0.4982158938723096  0.2766805740178443   T   T   T
  0.7452788352605239  0.5125555512032081  0.2766448135504216   T   T   T
  0.1242058986150897  0.7521572866123855  0.2738579531786610   T   T   T
  0.3837842087347443  0.2424814630649090  0.2769779624282109   T   T   T
  0.8678202759105024  0.2495046220026224  0.2746408819099776   T   T   T
  0.3719110086395752  0.7597338714615259  0.2769767421967641   T   T   T
  0.8776285070191177  0.7504341899800703  0.2755548362062467   T   T   T
  0.0001628091955107  0.0002377129467690  0.0031552873813876   T   T   T
  0.4997252836705564  0.0002427888496325  0.0031553922910609   T   T   T
  0.0001906941767265  0.4997327525363436  0.0031770383433916   T   T   T
  0.4997231921479472  0.4997118610663368  0.0030164476243722   T   T   T
  0.2498410303519741  0.0002709871601066  0.0032548177281687   T   T   T
  0.7502275027635283  0.0002643195800058  0.0030876017319510   T   T   T
  0.2498449430845441  0.4997332733477483  0.0030737923141409   T   T   T
  0.7502406080577240  0.4997137390336532  0.0030873214005256   T   T   T
  0.1250774943188402  0.2499695658680777  0.0029613540183610   T   T   T
  0.6249281497140778  0.2499408488517144  0.0028501813811598   T   T   T
  0.1250351136084353  0.7499984199804631  0.0029309651763328   T   T   T
  0.6249350617277543  0.7499860858037531  0.0028924897504919   T   T   T
  0.3747459795668586  0.2499822992551755  0.0033379956666634   T   T   T
  0.8752188269013489  0.2500079549378789  0.0033833032064013   T   T   T
  0.3744858812901071  0.7500813588590096  0.0030773570241600   T   T   T
  0.8754732556070099  0.7499663723301671  0.0030946532955154   T   T   T
  0.1249880501709647  0.0007486624230327  0.0949104751397794   T   T   T
  0.6249765026062598  0.0018367593110668  0.0946664458562615   T   T   T
  0.1250441427730717  0.4991986799471013  0.0950418472433556   T   T   T
  0.6250387713264342  0.4979084554102228  0.0946450742513790   T   T   T
  0.3747034225242812  0.0007445094633858  0.0954093550518746   T   T   T
  0.8752758850278283  0.0004985288083309  0.0953746151723548   T   T   T
  0.3746797896724444  0.4994037837465359  0.0953074306832860   T   T   T
  0.8752860950734305  0.4994795153691841  0.0953311533762791   T   T   T
  0.0005545375484975  0.2499765500632860  0.0951690117798460   T   T   T
  0.4997722428071088  0.2501539439334406  0.0955899121327429   T   T   T
  0.0006680007097645  0.7499836642000307  0.0948473854935055   T   T   T
  0.4989317774623779  0.7498147728429642  0.0945700438906993   T   T   T
  0.2495831969743433  0.2503450514894628  0.0954498251527807   T   T   T
  0.7501042278806955  0.2499397204725913  0.0954006628325561   T   T   T
  0.2493616082278242  0.7498219267649224  0.0950111360802513   T   T   T
  0.7509042838984846  0.7500045492126141  0.0946264374511156   T   T   T
  0.0008175560347155  0.0004942164749333  0.1847620776987961   T   T   T
  0.4998998663041399  0.9991695045394604  0.1855931255497033   T   T   T
  0.0007090109807127  0.4994228267096874  0.1848090023859735   T   T   T
  0.4997309757918572  0.5006401821664903  0.1861071863476911   T   T   T
  0.2491388832103048  0.0009184024739143  0.1846859915529284   T   T   T
  0.7500681739863106  0.9993086001340074  0.1853877769924638   T   T   T
  0.2494661367802558  0.4996574948093838  0.1855363596755808   T   T   T
  0.7502604282044768  0.5003661398329522  0.1853891813056024   T   T   T
  0.1246540964130409  0.2499736234244637  0.1865073288717196   T   T   T
  0.6251184375794258  0.2497100990311743  0.1859016369732951   T   T   T
  0.1247638673260344  0.7499947153720499  0.1852631983322306   T   T   T
  0.6247821845406454  0.7496158980806240  0.1805759156956813   T   T   T
  0.3747699449851676  0.2510510389260710  0.1865923125413814   T   T   T
  0.8754371114845001  0.2499678639254384  0.1856059222762635   T   T   T
  0.3727499528699068  0.7494726503094012  0.1854453277576280   T   T   T
  0.8774493518549925  0.7499732228124717  0.1851038948914034   T   T   T
  0.1241427965374234  0.0157172155387472  0.2749022782680532   T   T   T
  0.6258395758899065  0.0352092546430216  0.2759112262076726   T   T   T
  0.1235904958833443  0.4836676327422589  0.2750321589889078   T   T   T
  0.6269817261199804  0.4629199307385763  0.2760545785217642   T   T   T
  0.3709604678621562  0.0060444549013304  0.2774146678872473   T   T   T
  0.8783362737838571  0.0071974715958062  0.2776097940193382   T   T   T
  0.3698778169749101  0.4920844465687320  0.2749547874430903   T   T   T
  0.8782018470923005  0.4923718526383609  0.2776110620087137   T   T   T
  0.0125976265763583  0.2496413564940436  0.2756063888201473   T   T   T
  0.5065452806270941  0.2486741544383261  0.2748554959574832   T   T   T
  0.0030814943267456  0.7501931195812678  0.2775053135971050   T   T   T
  0.4891202500977290  0.7500935281920450  0.2769542477944226   T   T   T
  0.2354030865842561  0.2495923343763361  0.2752750046683991   T   T   T
  0.7450713434236722  0.2488000545737337  0.2749537107061495   T   T   T
  0.2453898492106466  0.7515208084330525  0.2767435790502221   T   T   T
  0.7610026676599047  0.7498776821321224  0.2769252013366405   T   T   T
  0.3734565950009263  0.4939601599229801  0.3599243484250769   T   T   T
 
  0.00000000E+00  0.00000000E+00  0.00000000E+00
  0.00000000E+00  0.00000000E+00  0.00000000E+00
  0.00000000E+00  0.00000000E+00  0.00000000E+00
  0.00000000E+00  0.00000000E+00  0.00000000E+00
  0.00000000E+00  0.00000000E+00  0.00000000E+00
  0.00000000E+00  0.00000000E+00  0.00000000E+00
  0.00000000E+00  0.00000000E+00  0.00000000E+00
  0.00000000E+00  0.00000000E+00  0.00000000E+00
  0.00000000E+00  0.00000000E+00  0.00000000E+00
  0.00000000E+00  0.00000000E+00  0.00000000E+00
  0.00000000E+00  0.00000000E+00  0.00000000E+00
  0.00000000E+00  0.00000000E+00  0.00000000E+00
  0.00000000E+00  0.00000000E+00  0.00000000E+00
  0.00000000E+00  0.00000000E+00  0.00000000E+00
  0.00000000E+00  0.00000000E+00  0.00000000E+00
  0.00000000E+00  0.00000000E+00  0.00000000E+00
  0.00000000E+00  0.00000000E+00  0.00000000E+00
  0.00000000E+00  0.00000000E+00  0.00000000E+00
  0.00000000E+00  0.00000000E+00  0.00000000E+00
  0.00000000E+00  0.00000000E+00  0.00000000E+00
  0.00000000E+00  0.00000000E+00  0.00000000E+00
  0.00000000E+00  0.00000000E+00  0.00000000E+00
  0.00000000E+00  0.00000000E+00  0.00000000E+00
  0.00000000E+00  0.00000000E+00  0.00000000E+00
  0.00000000E+00  0.00000000E+00  0.00000000E+00
  0.00000000E+00  0.00000000E+00  0.00000000E+00
  0.00000000E+00  0.00000000E+00  0.00000000E+00
  0.00000000E+00  0.00000000E+00  0.00000000E+00
  0.00000000E+00  0.00000000E+00  0.00000000E+00
  0.00000000E+00  0.00000000E+00  0.00000000E+00
  0.00000000E+00  0.00000000E+00  0.00000000E+00
  0.00000000E+00  0.00000000E+00  0.00000000E+00
  0.00000000E+00  0.00000000E+00  0.00000000E+00
  0.00000000E+00  0.00000000E+00  0.00000000E+00
  0.00000000E+00  0.00000000E+00  0.00000000E+00
  0.00000000E+00  0.00000000E+00  0.00000000E+00
  0.00000000E+00  0.00000000E+00  0.00000000E+00
  0.00000000E+00  0.00000000E+00  0.00000000E+00
  0.00000000E+00  0.00000000E+00  0.00000000E+00
  0.00000000E+00  0.00000000E+00  0.00000000E+00
  0.00000000E+00  0.00000000E+00  0.00000000E+00
  0.00000000E+00  0.00000000E+00  0.00000000E+00
  0.00000000E+00  0.00000000E+00  0.00000000E+00
  0.00000000E+00  0.00000000E+00  0.00000000E+00
  0.00000000E+00  0.00000000E+00  0.00000000E+00
  0.00000000E+00  0.00000000E+00  0.00000000E+00
  0.00000000E+00  0.00000000E+00  0.00000000E+00
  0.00000000E+00  0.00000000E+00  0.00000000E+00
  0.00000000E+00  0.00000000E+00  0.00000000E+00
  0.00000000E+00  0.00000000E+00  0.00000000E+00
  0.00000000E+00  0.00000000E+00  0.00000000E+00
  0.00000000E+00  0.00000000E+00  0.00000000E+00
  0.00000000E+00  0.00000000E+00  0.00000000E+00
  0.00000000E+00  0.00000000E+00  0.00000000E+00
  0.00000000E+00  0.00000000E+00  0.00000000E+00
  0.00000000E+00  0.00000000E+00  0.00000000E+00
  0.00000000E+00  0.00000000E+00  0.00000000E+00
  0.00000000E+00  0.00000000E+00  0.00000000E+00
  0.00000000E+00  0.00000000E+00  0.00000000E+00
  0.00000000E+00  0.00000000E+00  0.00000000E+00
  0.00000000E+00  0.00000000E+00  0.00000000E+00
  0.00000000E+00  0.00000000E+00  0.00000000E+00
  0.00000000E+00  0.00000000E+00  0.00000000E+00
  0.00000000E+00  0.00000000E+00  0.00000000E+00
  0.00000000E+00  0.00000000E+00  0.00000000E+00
  0.00000000E+00  0.00000000E+00  0.00000000E+00
  0.00000000E+00  0.00000000E+00  0.00000000E+00
  0.00000000E+00  0.00000000E+00  0.00000000E+00
  0.00000000E+00  0.00000000E+00  0.00000000E+00
  0.00000000E+00  0.00000000E+00  0.00000000E+00
  0.00000000E+00  0.00000000E+00  0.00000000E+00
  0.00000000E+00  0.00000000E+00  0.00000000E+00
  0.00000000E+00  0.00000000E+00  0.00000000E+00
  0.00000000E+00  0.00000000E+00  0.00000000E+00
  0.00000000E+00  0.00000000E+00  0.00000000E+00
  0.00000000E+00  0.00000000E+00  0.00000000E+00
  0.00000000E+00  0.00000000E+00  0.00000000E+00
  0.00000000E+00  0.00000000E+00  0.00000000E+00
  0.00000000E+00  0.00000000E+00  0.00000000E+00
  0.00000000E+00  0.00000000E+00  0.00000000E+00
  0.00000000E+00  0.00000000E+00  0.00000000E+00
  0.00000000E+00  0.00000000E+00  0.00000000E+00
  0.00000000E+00  0.00000000E+00  0.00000000E+00
  0.00000000E+00  0.00000000E+00  0.00000000E+00
  0.00000000E+00  0.00000000E+00  0.00000000E+00
  0.00000000E+00  0.00000000E+00  0.00000000E+00
  0.00000000E+00  0.00000000E+00  0.00000000E+00
  0.00000000E+00  0.00000000E+00  0.00000000E+00
  0.00000000E+00  0.00000000E+00  0.00000000E+00
  0.00000000E+00  0.00000000E+00  0.00000000E+00
  0.00000000E+00  0.00000000E+00  0.00000000E+00
  0.00000000E+00  0.00000000E+00  0.00000000E+00
  0.00000000E+00  0.00000000E+00  0.00000000E+00
  0.00000000E+00  0.00000000E+00  0.00000000E+00
  0.00000000E+00  0.00000000E+00  0.00000000E+00
  0.00000000E+00  0.00000000E+00  0.00000000E+00
  0.00000000E+00  0.00000000E+00  0.00000000E+00
  0.00000000E+00  0.00000000E+00  0.00000000E+00
  0.00000000E+00  0.00000000E+00  0.00000000E+00
  0.00000000E+00  0.00000000E+00  0.00000000E+00
  0.00000000E+00  0.00000000E+00  0.00000000E+00
  0.00000000E+00  0.00000000E+00  0.00000000E+00
  0.00000000E+00  0.00000000E+00  0.00000000E+00
  0.00000000E+00  0.00000000E+00  0.00000000E+00
  0.00000000E+00  0.00000000E+00  0.00000000E+00
  0.00000000E+00  0.00000000E+00  0.00000000E+00
  0.00000000E+00  0.00000000E+00  0.00000000E+00
  0.00000000E+00  0.00000000E+00  0.00000000E+00
  0.00000000E+00  0.00000000E+00  0.00000000E+00
  0.00000000E+00  0.00000000E+00  0.00000000E+00
  0.00000000E+00  0.00000000E+00  0.00000000E+00
  0.00000000E+00  0.00000000E+00  0.00000000E+00
  0.00000000E+00  0.00000000E+00  0.00000000E+00
  0.00000000E+00  0.00000000E+00  0.00000000E+00
  0.00000000E+00  0.00000000E+00  0.00000000E+00
  0.00000000E+00  0.00000000E+00  0.00000000E+00
  0.00000000E+00  0.00000000E+00  0.00000000E+00
  0.00000000E+00  0.00000000E+00  0.00000000E+00
  0.00000000E+00  0.00000000E+00  0.00000000E+00
  0.00000000E+00  0.00000000E+00  0.00000000E+00
  0.00000000E+00  0.00000000E+00  0.00000000E+00
  0.00000000E+00  0.00000000E+00  0.00000000E+00
  0.00000000E+00  0.00000000E+00  0.00000000E+00
  0.00000000E+00  0.00000000E+00  0.00000000E+00
  0.00000000E+00  0.00000000E+00  0.00000000E+00
  0.00000000E+00  0.00000000E+00  0.00000000E+00
  0.00000000E+00  0.00000000E+00  0.00000000E+00
  0.00000000E+00  0.00000000E+00  0.00000000E+00
