Al Mg O                                 
   1.00000000000000     
    16.8282433949600012    0.0000000000000000    0.0000000000000000
     0.0000000000000000    8.4141216974800006    0.0000000000000000
     0.0000000000000000    0.0000000000000000   23.4141216974799988
   Al   Mg   O 
     2    61    64
Selective dynamics
Direct
  0.1250000000000000  0.2500000000000000  0.2677015999943496   T   T   T
  0.6250000000000000  0.2500000000000000  0.2671681543409928   T   T   T
  0.1250000000000000  0.9998059412016245  0.0049305062786438   T   T   T
  0.6250000000000000  0.0003498793327280  0.0051615806224590   T   T   T
  0.1250000000000000  0.5001940587983755  0.0049305062786438   T   T   T
  0.6250000000000000  0.4996501206672719  0.0051615806224590   T   T   T
  0.3754074044367504  0.9997222107323654  0.0054152355278652   T   T   T
  0.8745925955632494  0.9997222107323654  0.0054152355278652   T   T   T
  0.3754074044367504  0.5002777892676346  0.0054152355278652   T   T   T
  0.8745925955632494  0.5002777892676346  0.0054152355278652   T   T   T
  0.9996856955320252  0.2500000000000000  0.0050057757734802   T   T   T
  0.5001929946486863  0.2500000000000000  0.0053587614845748   T   T   T
  0.9996527374481023  0.7500000000000000  0.0051938463208476   T   T   T
  0.4998995510390203  0.7500000000000000  0.0052946086875230   T   T   T
  0.2503143044679750  0.2500000000000000  0.0050057757734802   T   T   T
  0.7498070053513137  0.2500000000000000  0.0053587614845748   T   T   T
  0.2503472625518977  0.7500000000000000  0.0051938463208476   T   T   T
  0.7501004489609797  0.7500000000000000  0.0052946086875230   T   T   T
  0.9993388795487678  0.9996346583412613  0.0945726788882807   T   T   T
  0.5004713689929894  0.9985382206101162  0.0952819522894372   T   T   T
  0.9993388795487678  0.5003653416587387  0.0945726788882807   T   T   T
  0.5004713689929894  0.5014617793898838  0.0952819522894372   T   T   T
  0.2506611204512325  0.9996346583412613  0.0945726788882807   T   T   T
  0.7495286310070106  0.9985382206101162  0.0952819522894372   T   T   T
  0.2506611204512325  0.5003653416587387  0.0945726788882807   T   T   T
  0.7495286310070106  0.5014617793898838  0.0952819522894372   T   T   T
  0.1250000000000000  0.2500000000000000  0.0933758955479205   T   T   T
  0.6250000000000000  0.2500000000000000  0.0947391168387640   T   T   T
  0.1250000000000000  0.7500000000000000  0.0939719162815294   T   T   T
  0.6250000000000000  0.7500000000000000  0.0940677543762581   T   T   T
  0.3755204394234487  0.2500000000000000  0.0946269416671524   T   T   T
  0.8744795605765515  0.2500000000000000  0.0946269416671524   T   T   T
  0.3757055309116591  0.7500000000000000  0.0953470697869843   T   T   T
  0.8742944690883410  0.7500000000000000  0.0953470697869843   T   T   T
  0.1250000000000000  0.9976245711871732  0.1837908854069548   T   T   T
  0.6250000000000000  0.9906277786639566  0.1864219462391481   T   T   T
  0.1250000000000000  0.5023754288128268  0.1837908854069548   T   T   T
  0.6250000000000000  0.5093722213360434  0.1864219462391481   T   T   T
  0.3761982455281486  0.9984492886060827  0.1861913866067016   T   T   T
  0.8738017544718517  0.9984492886060827  0.1861913866067016   T   T   T
  0.3761982455281486  0.5015507113939173  0.1861913866067016   T   T   T
  0.8738017544718517  0.5015507113939173  0.1861913866067016   T   T   T
  0.9981023109222344  0.2500000000000000  0.1841241402124850   T   T   T
  0.4997367778066536  0.2500000000000000  0.1848483685303099   T   T   T
  0.9997695094124666  0.7500000000000000  0.1848273649049500   T   T   T
  0.5031584935073077  0.7500000000000000  0.1885568357988707   T   T   T
  0.2518976890777655  0.2500000000000000  0.1841241402124850   T   T   T
  0.7502632221933463  0.2500000000000000  0.1848483685303099   T   T   T
  0.2502304905875334  0.7500000000000000  0.1848273649049500   T   T   T
  0.7468415064926923  0.7500000000000000  0.1885568357988707   T   T   T
  0.0000023547225889  0.0023939299360502  0.2745639283869174   T   T   T
  0.5060001728916821 -0.0128299465883637  0.2766487916625066   T   T   T
  0.0000023547225889  0.4976060700639497  0.2745639283869174   T   T   T
  0.5060001728916821  0.5128299465883638  0.2766487916625066   T   T   T
  0.2499976452774110  0.0023939299360502  0.2745639283869174   T   T   T
  0.7439998271083179 -0.0128299465883637  0.2766487916625066   T   T   T
  0.2499976452774110  0.4976060700639497  0.2745639283869174   T   T   T
  0.7439998271083179  0.5128299465883638  0.2766487916625066   T   T   T
  0.1250000000000000  0.7500000000000000  0.2744279512146636   T   T   T
  0.3820813959964877  0.2500000000000000  0.2745895630407134   T   T   T
  0.8679186040035124  0.2500000000000000  0.2745895630407134   T   T   T
  0.3726000190970378  0.7500000000000000  0.2755328435941038   T   T   T
  0.8773999809029625  0.7500000000000000  0.2755328435941038   T   T   T
  0.0002549668817771  0.0001872642534103  0.0031889841299811   T   T   T
  0.4996457606235098  0.0003429131808755  0.0029589937407620   T   T   T
  0.0002549668817771  0.4998127357465897  0.0031889841299811   T   T   T
  0.4996457606235098  0.4996570868191244  0.0029589937407620   T   T   T
  0.2497450331182229  0.0001872642534103  0.0031889841299811   T   T   T
  0.7503542393764902  0.0003429131808755  0.0029589937407620   T   T   T
  0.2497450331182229  0.4998127357465897  0.0031889841299811   T   T   T
  0.7503542393764902  0.4996570868191244  0.0029589937407620   T   T   T
  0.1250000000000000  0.2500000000000000  0.0029068953603706   T   T   T
  0.6250000000000000  0.2500000000000000  0.0026690020827141   T   T   T
  0.1250000000000000  0.7500000000000000  0.0031049462363974   T   T   T
  0.6250000000000000  0.7500000000000000  0.0027942527393365   T   T   T
  0.3746281351889619  0.2500000000000000  0.0032385424436383   T   T   T
  0.8753718648110382  0.2500000000000000  0.0032385424436383   T   T   T
  0.3743515184077346  0.7500000000000000  0.0030712775998418   T   T   T
  0.8756484815922654  0.7500000000000000  0.0030712775998418   T   T   T
  0.1250000000000000  0.0007608144864154  0.0952142124311417   T   T   T
  0.6250000000000000  0.0021945937278865  0.0944629899314880   T   T   T
  0.1250000000000000  0.4992391855135846  0.0952142124311417   T   T   T
  0.6250000000000000  0.4978054062721136  0.0944629899314880   T   T   T
  0.3746812141380759  0.0004962342251288  0.0953449406514314   T   T   T
  0.8753187858619242  0.0004962342251288  0.0953449406514314   T   T   T
  0.3746812141380759  0.4995037657748712  0.0953449406514314   T   T   T
  0.8753187858619242  0.4995037657748712  0.0953449406514314   T   T   T
  0.0007593695603265  0.2500000000000000  0.0952636298270173   T   T   T
  0.4998139818900458  0.2500000000000000  0.0953470224887214   T   T   T
  0.0007642505436795  0.7500000000000000  0.0949896316759916   T   T   T
  0.4990093250026569  0.7500000000000000  0.0944785411712157   T   T   T
  0.2492406304396735  0.2500000000000000  0.0952636298270173   T   T   T
  0.7501860181099543  0.2500000000000000  0.0953470224887214   T   T   T
  0.2492357494563205  0.7500000000000000  0.0949896316759916   T   T   T
  0.7509906749973431  0.7500000000000000  0.0944785411712157   T   T   T
  0.0009059440942625  0.0005247737627997  0.1850424797271669   T   T   T
  0.4999628931521153 -0.0004787066163872  0.1853690513616916   T   T   T
  0.0009059440942625  0.4994752262372001  0.1850424797271669   T   T   T
  0.4999628931521153  0.5004787066163872  0.1853690513616916   T   T   T
  0.2490940559057375  0.0005247737627997  0.1850424797271669   T   T   T
  0.7500371068478846 -0.0004787066163872  0.1853690513616916   T   T   T
  0.2490940559057375  0.4994752262372001  0.1850424797271669   T   T   T
  0.7500371068478846  0.5004787066163872  0.1853690513616916   T   T   T
  0.1250000000000000  0.2500000000000000  0.1870424457856571   T   T   T
  0.6250000000000000  0.2500000000000000  0.1857594100433129   T   T   T
  0.1250000000000000  0.7500000000000000  0.1858359859362113   T   T   T
  0.6250000000000000  0.7500000000000000  0.1801559758431334   T   T   T
  0.3744170176062002  0.2500000000000000  0.1856470038696260   T   T   T
  0.8755829823937997  0.2500000000000000  0.1856470038696260   T   T   T
  0.3725788012122402  0.7500000000000000  0.1851184754429669   T   T   T
  0.8774211987877597  0.7500000000000000  0.1851184754429669   T   T   T
  0.1249999747830017  0.0167590957644823  0.2756752832688252   T   T   T
  0.6249999747830017  0.0363325713426871  0.2761000787999421   T   T   T
  0.1249999747830017  0.4832409042355177  0.2756752832688252   T   T   T
  0.6249999747830017  0.4636674286573128  0.2761000787999421   T   T   T
  0.3716803171704073  0.0071857541911441  0.2776240260009289   T   T   T
  0.8783196323955962  0.0071857541911441  0.2776240260009289   T   T   T
  0.3716803171704073  0.4928142458088559  0.2776240260009289   T   T   T
  0.8783196323955962  0.4928142458088559  0.2776240260009289   T   T   T
  0.0129310353607432  0.2500000000000000  0.2759099180596649   T   T   T
  0.5050575051945936  0.2500000000000000  0.2748178184662110   T   T   T
  0.0035776813565577  0.7500000000000000  0.2778750056771805   T   T   T
  0.4893416982954551  0.7500000000000000  0.2768867890676618   T   T   T
  0.2370689646392568  0.2500000000000000  0.2759099180596649   T   T   T
  0.7449424948054064  0.2500000000000000  0.2748178184662110   T   T   T
  0.2464223186434423  0.7500000000000000  0.2778750056771805   T   T   T
  0.7606583017045448  0.7500000000000000  0.2768867890676618   T   T   T
 
  0.00000000E+00  0.00000000E+00  0.00000000E+00
  0.00000000E+00  0.00000000E+00  0.00000000E+00
  0.00000000E+00  0.00000000E+00  0.00000000E+00
  0.00000000E+00  0.00000000E+00  0.00000000E+00
  0.00000000E+00  0.00000000E+00  0.00000000E+00
  0.00000000E+00  0.00000000E+00  0.00000000E+00
  0.00000000E+00  0.00000000E+00  0.00000000E+00
  0.00000000E+00  0.00000000E+00  0.00000000E+00
  0.00000000E+00  0.00000000E+00  0.00000000E+00
  0.00000000E+00  0.00000000E+00  0.00000000E+00
  0.00000000E+00  0.00000000E+00  0.00000000E+00
  0.00000000E+00  0.00000000E+00  0.00000000E+00
  0.00000000E+00  0.00000000E+00  0.00000000E+00
  0.00000000E+00  0.00000000E+00  0.00000000E+00
  0.00000000E+00  0.00000000E+00  0.00000000E+00
  0.00000000E+00  0.00000000E+00  0.00000000E+00
  0.00000000E+00  0.00000000E+00  0.00000000E+00
  0.00000000E+00  0.00000000E+00  0.00000000E+00
  0.00000000E+00  0.00000000E+00  0.00000000E+00
  0.00000000E+00  0.00000000E+00  0.00000000E+00
  0.00000000E+00  0.00000000E+00  0.00000000E+00
  0.00000000E+00  0.00000000E+00  0.00000000E+00
  0.00000000E+00  0.00000000E+00  0.00000000E+00
  0.00000000E+00  0.00000000E+00  0.00000000E+00
  0.00000000E+00  0.00000000E+00  0.00000000E+00
  0.00000000E+00  0.00000000E+00  0.00000000E+00
  0.00000000E+00  0.00000000E+00  0.00000000E+00
  0.00000000E+00  0.00000000E+00  0.00000000E+00
  0.00000000E+00  0.00000000E+00  0.00000000E+00
  0.00000000E+00  0.00000000E+00  0.00000000E+00
  0.00000000E+00  0.00000000E+00  0.00000000E+00
  0.00000000E+00  0.00000000E+00  0.00000000E+00
  0.00000000E+00  0.00000000E+00  0.00000000E+00
  0.00000000E+00  0.00000000E+00  0.00000000E+00
  0.00000000E+00  0.00000000E+00  0.00000000E+00
  0.00000000E+00  0.00000000E+00  0.00000000E+00
  0.00000000E+00  0.00000000E+00  0.00000000E+00
  0.00000000E+00  0.00000000E+00  0.00000000E+00
  0.00000000E+00  0.00000000E+00  0.00000000E+00
  0.00000000E+00  0.00000000E+00  0.00000000E+00
  0.00000000E+00  0.00000000E+00  0.00000000E+00
  0.00000000E+00  0.00000000E+00  0.00000000E+00
  0.00000000E+00  0.00000000E+00  0.00000000E+00
  0.00000000E+00  0.00000000E+00  0.00000000E+00
  0.00000000E+00  0.00000000E+00  0.00000000E+00
  0.00000000E+00  0.00000000E+00  0.00000000E+00
  0.00000000E+00  0.00000000E+00  0.00000000E+00
  0.00000000E+00  0.00000000E+00  0.00000000E+00
  0.00000000E+00  0.00000000E+00  0.00000000E+00
  0.00000000E+00  0.00000000E+00  0.00000000E+00
  0.00000000E+00  0.00000000E+00  0.00000000E+00
  0.00000000E+00  0.00000000E+00  0.00000000E+00
  0.00000000E+00  0.00000000E+00  0.00000000E+00
  0.00000000E+00  0.00000000E+00  0.00000000E+00
  0.00000000E+00  0.00000000E+00  0.00000000E+00
  0.00000000E+00  0.00000000E+00  0.00000000E+00
  0.00000000E+00  0.00000000E+00  0.00000000E+00
  0.00000000E+00  0.00000000E+00  0.00000000E+00
  0.00000000E+00  0.00000000E+00  0.00000000E+00
  0.00000000E+00  0.00000000E+00  0.00000000E+00
  0.00000000E+00  0.00000000E+00  0.00000000E+00
  0.00000000E+00  0.00000000E+00  0.00000000E+00
  0.00000000E+00  0.00000000E+00  0.00000000E+00
  0.00000000E+00  0.00000000E+00  0.00000000E+00
  0.00000000E+00  0.00000000E+00  0.00000000E+00
  0.00000000E+00  0.00000000E+00  0.00000000E+00
  0.00000000E+00  0.00000000E+00  0.00000000E+00
  0.00000000E+00  0.00000000E+00  0.00000000E+00
  0.00000000E+00  0.00000000E+00  0.00000000E+00
  0.00000000E+00  0.00000000E+00  0.00000000E+00
  0.00000000E+00  0.00000000E+00  0.00000000E+00
  0.00000000E+00  0.00000000E+00  0.00000000E+00
  0.00000000E+00  0.00000000E+00  0.00000000E+00
  0.00000000E+00  0.00000000E+00  0.00000000E+00
  0.00000000E+00  0.00000000E+00  0.00000000E+00
  0.00000000E+00  0.00000000E+00  0.00000000E+00
  0.00000000E+00  0.00000000E+00  0.00000000E+00
  0.00000000E+00  0.00000000E+00  0.00000000E+00
  0.00000000E+00  0.00000000E+00  0.00000000E+00
  0.00000000E+00  0.00000000E+00  0.00000000E+00
  0.00000000E+00  0.00000000E+00  0.00000000E+00
  0.00000000E+00  0.00000000E+00  0.00000000E+00
  0.00000000E+00  0.00000000E+00  0.00000000E+00
  0.00000000E+00  0.00000000E+00  0.00000000E+00
  0.00000000E+00  0.00000000E+00  0.00000000E+00
  0.00000000E+00  0.00000000E+00  0.00000000E+00
  0.00000000E+00  0.00000000E+00  0.00000000E+00
  0.00000000E+00  0.00000000E+00  0.00000000E+00
  0.00000000E+00  0.00000000E+00  0.00000000E+00
  0.00000000E+00  0.00000000E+00  0.00000000E+00
  0.00000000E+00  0.00000000E+00  0.00000000E+00
  0.00000000E+00  0.00000000E+00  0.00000000E+00
  0.00000000E+00  0.00000000E+00  0.00000000E+00
  0.00000000E+00  0.00000000E+00  0.00000000E+00
  0.00000000E+00  0.00000000E+00  0.00000000E+00
  0.00000000E+00  0.00000000E+00  0.00000000E+00
  0.00000000E+00  0.00000000E+00  0.00000000E+00
  0.00000000E+00  0.00000000E+00  0.00000000E+00
  0.00000000E+00  0.00000000E+00  0.00000000E+00
  0.00000000E+00  0.00000000E+00  0.00000000E+00
  0.00000000E+00  0.00000000E+00  0.00000000E+00
  0.00000000E+00  0.00000000E+00  0.00000000E+00
  0.00000000E+00  0.00000000E+00  0.00000000E+00
  0.00000000E+00  0.00000000E+00  0.00000000E+00
  0.00000000E+00  0.00000000E+00  0.00000000E+00
  0.00000000E+00  0.00000000E+00  0.00000000E+00
  0.00000000E+00  0.00000000E+00  0.00000000E+00
  0.00000000E+00  0.00000000E+00  0.00000000E+00
  0.00000000E+00  0.00000000E+00  0.00000000E+00
  0.00000000E+00  0.00000000E+00  0.00000000E+00
  0.00000000E+00  0.00000000E+00  0.00000000E+00
  0.00000000E+00  0.00000000E+00  0.00000000E+00
  0.00000000E+00  0.00000000E+00  0.00000000E+00
  0.00000000E+00  0.00000000E+00  0.00000000E+00
  0.00000000E+00  0.00000000E+00  0.00000000E+00
  0.00000000E+00  0.00000000E+00  0.00000000E+00
  0.00000000E+00  0.00000000E+00  0.00000000E+00
  0.00000000E+00  0.00000000E+00  0.00000000E+00
  0.00000000E+00  0.00000000E+00  0.00000000E+00
  0.00000000E+00  0.00000000E+00  0.00000000E+00
  0.00000000E+00  0.00000000E+00  0.00000000E+00
  0.00000000E+00  0.00000000E+00  0.00000000E+00
  0.00000000E+00  0.00000000E+00  0.00000000E+00
  0.00000000E+00  0.00000000E+00  0.00000000E+00
  0.00000000E+00  0.00000000E+00  0.00000000E+00
  0.00000000E+00  0.00000000E+00  0.00000000E+00
  0.00000000E+00  0.00000000E+00  0.00000000E+00
