Mo Mg O                                 
   1.00000000000000     
     8.4141216974800006    0.0000000000000000    0.0000000000000000
     0.0000000000000000    8.4141216974800006    0.0000000000000000
     0.0000000000000000    0.0000000000000000   23.4141216974799988
   Mo   Mg   O 
     1    32    32
Selective dynamics
Direct
  0.7499999182285109  0.4999999686635093  0.3706491295896824   T   T   T
  0.2500000022083313  0.0000000022083313  0.0055240453518163   T   T   T
  0.2500000002329088  0.4999999985434727  0.0054313417798745   T   T   T
  0.7499999985434727  0.0000000002329088  0.0054313417798745   T   T   T
  0.7500000008846968  0.5000000008846968  0.0052766255160966   T   T   T
  0.0000125378068846  0.2499874634751547  0.0055312462831342   T   T   T
  0.0000125363384983  0.7500125363384984  0.0055312483258735   T   T   T
  0.4999874615062692  0.2499874615062692  0.0055312440902572   T   T   T
  0.4999874634751547  0.7500125378068847  0.0055312462831342   T   T   T
  0.0000249164169584  0.0000000012354846  0.0950926992608976   T   T   T
  0.0000225968363937  0.4999999993644550  0.0949624053348612   T   T   T
  0.4999750831269015  0.0000000030307277  0.0950926989316606   T   T   T
  0.4999774058038625  0.4999999990584030  0.0949624039815046   T   T   T
  0.2500000030307277  0.2499750831269016  0.0950926989316606   T   T   T
  0.2500000012354846  0.7500249164169587  0.0950926992608976   T   T   T
  0.7499999990584030  0.2499774058038625  0.0949624039815046   T   T   T
  0.7499999993644550  0.7500225968363937  0.0949624053348612   T   T   T
  0.2500000011685373  0.0000000011685373  0.1850502277007447   T   T   T
  0.2499999997794475  0.4999999978117700  0.1855090447145578   T   T   T
  0.7499999978117700  0.9999999997794475  0.1855090447145578   T   T   T
  0.7499999982918979  0.4999999982918979  0.1842436762475323   T   T   T
 -0.0003806674308204  0.2503806649800235  0.1859450695098533   T   T   T
 -0.0003806699672803  0.7496193300327196  0.1859450693482332   T   T   T
  0.5003806667017183  0.2503806667017183  0.1859450682254762   T   T   T
  0.5003806649800235  0.7496193325691796  0.1859450695098533   T   T   T
  0.0018972378606087  0.9999999987446557  0.2749110667366845   T   T   T
  0.0097490652317607  0.5000000005019558  0.2770738817869067   T   T   T
  0.4981027583147812  0.9999999988863593  0.2749110656374393   T   T   T
  0.4902509317711061  0.4999999957829004  0.2770738818807339   T   T   T
  0.2499999988863593  0.2481027583147813  0.2749110656374393   T   T   T
  0.2499999987446557  0.7518972378606087  0.2749110667366845   T   T   T
  0.7499999957829004  0.2402509317711061  0.2770738818807339   T   T   T
  0.7500000005019558  0.7597490652317607  0.2770738817869067   T   T   T
  0.9999173207678489  0.0000000028798794  0.0033825913891946   T   T   T
  0.0001017758644935  0.5000000061926642  0.0032051172986137   T   T   T
  0.5000826735770125  0.0000000041083581  0.0033825915347279   T   T   T
  0.4998982208190126  0.5000000016057626  0.0032051137369045   T   T   T
  0.2500000041083581  0.2500826735770126  0.0033825915347279   T   T   T
  0.2500000028798794  0.7499173207678489  0.0033825913891946   T   T   T
  0.7500000016057626  0.2498982208190127  0.0032051137369045   T   T   T
  0.7500000061926642  0.7501017758644937  0.0032051172986137   T   T   T
  0.2499999927605643  0.9999999927605643  0.0950593512317662   T   T   T
  0.2499999981237835  0.5000000006226202  0.0954351879419546   T   T   T
  0.7500000006226202  0.9999999981237835  0.0954351879419546   T   T   T
  0.7499999893211395  0.4999999893211395  0.0950898380952276   T   T   T
  0.9995017705353173  0.2504982274433377  0.0953063657009128   T   T   T
  0.9995017679585056  0.7495017679585056  0.0953063671352215   T   T   T
  0.5004982321881006  0.2504982321881005  0.0953063644116117   T   T   T
  0.5004982274433378  0.7495017705353173  0.0953063657009128   T   T   T
  0.9994903557662940  0.9999999904925829  0.1848121385781246   T   T   T
  0.9975439466982764  0.4999999992296082  0.1862882333717231   T   T   T
  0.5005096308886547  0.9999999976094216  0.1848121350558932   T   T   T
  0.5024560510519748  0.5000000067295858  0.1862882309715098   T   T   T
  0.2499999976094216  0.2505096308886547  0.1848120434368928   T   T   T
  0.2499999904925829  0.7494903557662940  0.1848120469591242   T   T   T
  0.7500000067295858  0.2524560510519751  0.1862881393525094   T   T   T
  0.7499999992296082  0.7475439466982764  0.1862881417527227   T   T   T
  0.2499999720542476  0.0000000224892460  0.2762717460291361   T   T   T
  0.2499999815345859  0.5000000218732481  0.2764339164538582   T   T   T
  0.7499999714382497  0.0000000319695843  0.2764339164538582   T   T   T
  0.7499999671782973  0.5000000176132957  0.2844152560753994   T   T   T
  0.0011793055210867  0.2488206998939098  0.2758800095987579   T   T   T
  0.0011793013845627  0.7511793013845627  0.2758800150390781   T   T   T
  0.4988206830579549  0.2488206830579549  0.2758800144683133   T   T   T
  0.4988206998939098  0.7511793055210938  0.2758800095987579   T   T   T
 
  0.00000000E+00  0.00000000E+00  0.00000000E+00
  0.00000000E+00  0.00000000E+00  0.00000000E+00
  0.00000000E+00  0.00000000E+00  0.00000000E+00
  0.00000000E+00  0.00000000E+00  0.00000000E+00
  0.00000000E+00  0.00000000E+00  0.00000000E+00
  0.00000000E+00  0.00000000E+00  0.00000000E+00
  0.00000000E+00  0.00000000E+00  0.00000000E+00
  0.00000000E+00  0.00000000E+00  0.00000000E+00
  0.00000000E+00  0.00000000E+00  0.00000000E+00
  0.00000000E+00  0.00000000E+00  0.00000000E+00
  0.00000000E+00  0.00000000E+00  0.00000000E+00
  0.00000000E+00  0.00000000E+00  0.00000000E+00
  0.00000000E+00  0.00000000E+00  0.00000000E+00
  0.00000000E+00  0.00000000E+00  0.00000000E+00
  0.00000000E+00  0.00000000E+00  0.00000000E+00
  0.00000000E+00  0.00000000E+00  0.00000000E+00
  0.00000000E+00  0.00000000E+00  0.00000000E+00
  0.00000000E+00  0.00000000E+00  0.00000000E+00
  0.00000000E+00  0.00000000E+00  0.00000000E+00
  0.00000000E+00  0.00000000E+00  0.00000000E+00
  0.00000000E+00  0.00000000E+00  0.00000000E+00
  0.00000000E+00  0.00000000E+00  0.00000000E+00
  0.00000000E+00  0.00000000E+00  0.00000000E+00
  0.00000000E+00  0.00000000E+00  0.00000000E+00
  0.00000000E+00  0.00000000E+00  0.00000000E+00
  0.00000000E+00  0.00000000E+00  0.00000000E+00
  0.00000000E+00  0.00000000E+00  0.00000000E+00
  0.00000000E+00  0.00000000E+00  0.00000000E+00
  0.00000000E+00  0.00000000E+00  0.00000000E+00
  0.00000000E+00  0.00000000E+00  0.00000000E+00
  0.00000000E+00  0.00000000E+00  0.00000000E+00
  0.00000000E+00  0.00000000E+00  0.00000000E+00
  0.00000000E+00  0.00000000E+00  0.00000000E+00
  0.00000000E+00  0.00000000E+00  0.00000000E+00
  0.00000000E+00  0.00000000E+00  0.00000000E+00
  0.00000000E+00  0.00000000E+00  0.00000000E+00
  0.00000000E+00  0.00000000E+00  0.00000000E+00
  0.00000000E+00  0.00000000E+00  0.00000000E+00
  0.00000000E+00  0.00000000E+00  0.00000000E+00
  0.00000000E+00  0.00000000E+00  0.00000000E+00
  0.00000000E+00  0.00000000E+00  0.00000000E+00
  0.00000000E+00  0.00000000E+00  0.00000000E+00
  0.00000000E+00  0.00000000E+00  0.00000000E+00
  0.00000000E+00  0.00000000E+00  0.00000000E+00
  0.00000000E+00  0.00000000E+00  0.00000000E+00
  0.00000000E+00  0.00000000E+00  0.00000000E+00
  0.00000000E+00  0.00000000E+00  0.00000000E+00
  0.00000000E+00  0.00000000E+00  0.00000000E+00
  0.00000000E+00  0.00000000E+00  0.00000000E+00
  0.00000000E+00  0.00000000E+00  0.00000000E+00
  0.00000000E+00  0.00000000E+00  0.00000000E+00
  0.00000000E+00  0.00000000E+00  0.00000000E+00
  0.00000000E+00  0.00000000E+00  0.00000000E+00
  0.00000000E+00  0.00000000E+00  0.00000000E+00
  0.00000000E+00  0.00000000E+00  0.00000000E+00
  0.00000000E+00  0.00000000E+00  0.00000000E+00
  0.00000000E+00  0.00000000E+00  0.00000000E+00
  0.00000000E+00  0.00000000E+00  0.00000000E+00
  0.00000000E+00  0.00000000E+00  0.00000000E+00
  0.00000000E+00  0.00000000E+00  0.00000000E+00
  0.00000000E+00  0.00000000E+00  0.00000000E+00
  0.00000000E+00  0.00000000E+00  0.00000000E+00
  0.00000000E+00  0.00000000E+00  0.00000000E+00
  0.00000000E+00  0.00000000E+00  0.00000000E+00
  0.00000000E+00  0.00000000E+00  0.00000000E+00
