Cu Mg O                                 
   1.00000000000000     
     8.4141216974800006    0.0000000000000000    0.0000000000000000
     0.0000000000000000    8.4141216974800006    0.0000000000000000
     0.0000000000000000    0.0000000000000000   23.4141216974799988
   Cu   Mg   O 
     1    32    32
Selective dynamics
Direct
  0.7499999765338926  0.5000000269688910  0.3633809472651207   T   T   T
  0.2500000060876676  0.0000000060876677  0.0054702829815001   T   T   T
  0.2499999968737514  0.4999999946712860  0.0054823192503213   T   T   T
  0.7499999946712859 -0.0000000031262486  0.0054823192503213   T   T   T
  0.7499999967788477  0.4999999967788475  0.0053897248124858   T   T   T
  0.0000031316296414  0.2499968864151919  0.0054975342153218   T   T   T
  0.0000031196859835  0.7500031196859835  0.0054975396288642   T   T   T
  0.4999968812053373  0.2499968812053372  0.0054975340762631   T   T   T
  0.4999968864151919  0.7500031316296416  0.0054975342153218   T   T   T
 -0.0001042398083333  0.0000000069912562  0.0949417156852641   T   T   T
  0.0001027468015601  0.4999999789353355  0.0949857779790023   T   T   T
  0.5001042241896394  0.0000000038539421  0.0949417235929686   T   T   T
  0.4998972317939580  0.4999999883160474  0.0949857772265085   T   T   T
  0.2500000038539421  0.2501042241896394  0.0949417235929686   T   T   T
  0.2500000069912562  0.7498957601916667  0.0949417156852641   T   T   T
  0.7499999883160474  0.2498972317939581  0.0949857772265085   T   T   T
  0.7499999789353355  0.7501027468015600  0.0949857779790023   T   T   T
  0.2500000083939106  0.0000000083939106  0.1853602445350564   T   T   T
  0.2499999897826098  0.4999999757598362  0.1855132421207230   T   T   T
  0.7499999757598362 -0.0000000102173902  0.1855132421207230   T   T   T
  0.7499999782701612  0.4999999782701611  0.1845655682342142   T   T   T
 -0.0002490687000698  0.2502490469160967  0.1857105800151698   T   T   T
 -0.0002490478020570  0.7497509521979431  0.1857105702768230   T   T   T
  0.5002490373891680  0.2502490373891680  0.1857105848251515   T   T   T
  0.5002490469160966  0.7497509312999301  0.1857105800151698   T   T   T
  0.0008535303385520  0.0000000654663908  0.2750888507055232   T   T   T
  0.0054177899144448  0.5000000177927726  0.2761296439824446   T   T   T
  0.4991464941468127 -0.0000000515178593  0.2750888595110558   T   T   T
  0.4945821602418314  0.4999999630391481  0.2761296500166787   T   T   T
  0.2499999484821407  0.2491464941468126  0.2750888595110558   T   T   T
  0.2500000654663908  0.7508535303385522  0.2750888507055232   T   T   T
  0.7499999630391483  0.2445821602418314  0.2761296500166787   T   T   T
  0.7500000177927726  0.7554177899144450  0.2761296439824446   T   T   T
  0.9999519383979948 -0.0000000097233294  0.0033114493034264   T   T   T
 -0.0000467590448910  0.5000000016385470  0.0032816072949477   T   T   T
  0.5000480479989420 -0.0000000017764469  0.0033114370049896   T   T   T
  0.5000467856533214  0.4999999865151545  0.0032816100037200   T   T   T
  0.2499999982235531  0.2500480479989421  0.0033114370049896   T   T   T
  0.2499999902766707  0.7499519383979948  0.0033114493034264   T   T   T
  0.7499999865151544  0.2500467856533213  0.0032816100037200   T   T   T
  0.7500000016385470  0.7499532409551091  0.0032816072949477   T   T   T
  0.2499999890954069 -0.0000000109045931  0.0951363441269279   T   T   T
  0.2499999889986524  0.5000000053154594  0.0953923442177650   T   T   T
  0.7500000053154594 -0.0000000110013475  0.0953923442177650   T   T   T
  0.7500000189010519  0.5000000189010518  0.0950984344080679   T   T   T
  0.9997596725666102  0.2502403153802816  0.0952698160196095   T   T   T
  0.9997596568193765  0.7497596568193765  0.0952698381951746   T   T   T
  0.5002403079458101  0.2502403079458100  0.0952698245512270   T   T   T
  0.5002403153802816  0.7497596725666102  0.0952698160196095   T   T   T
  0.9996335139771857  0.0000000344392095  0.1850269017286808   T   T   T
  0.9987159619756554  0.4999999703175658  0.1857918087450461   T   T   T
  0.5003664812784370 -0.0000000740654288  0.1850269061355433   T   T   T
  0.5012840022543813  0.5000000296794068  0.1857918041824196   T   T   T
  0.2499999259345712  0.2503664812784370  0.1850268145165429   T   T   T
  0.2500000344392095  0.7496335139771857  0.1850268101096804   T   T   T
  0.7500000296794068  0.2512840022543813  0.1857917125634192   T   T   T
  0.7499999703175657  0.7487159619756554  0.1857917171260458   T   T   T
  0.2500000105200224  0.0000000609550207  0.2764864769011953   T   T   T
  0.2499999839951035  0.5000000049132569  0.2767005745332233   T   T   T
  0.7499999544782585  0.0000000344301019  0.2767005745332233   T   T   T
  0.7500000326199543  0.5000000830549527  0.2790808356011767   T   T   T
  0.0000693597237107  0.2499306637521947  0.2764880991867211   T   T   T
  0.0000693341445062  0.7500693341445062  0.2764880879310662   T   T   T
  0.4999307236661509  0.2499307236661509  0.2764881070165590   T   T   T
  0.4999306637521946  0.7500693597237107  0.2764880991867211   T   T   T
 
  0.00000000E+00  0.00000000E+00  0.00000000E+00
  0.00000000E+00  0.00000000E+00  0.00000000E+00
  0.00000000E+00  0.00000000E+00  0.00000000E+00
  0.00000000E+00  0.00000000E+00  0.00000000E+00
  0.00000000E+00  0.00000000E+00  0.00000000E+00
  0.00000000E+00  0.00000000E+00  0.00000000E+00
  0.00000000E+00  0.00000000E+00  0.00000000E+00
  0.00000000E+00  0.00000000E+00  0.00000000E+00
  0.00000000E+00  0.00000000E+00  0.00000000E+00
  0.00000000E+00  0.00000000E+00  0.00000000E+00
  0.00000000E+00  0.00000000E+00  0.00000000E+00
  0.00000000E+00  0.00000000E+00  0.00000000E+00
  0.00000000E+00  0.00000000E+00  0.00000000E+00
  0.00000000E+00  0.00000000E+00  0.00000000E+00
  0.00000000E+00  0.00000000E+00  0.00000000E+00
  0.00000000E+00  0.00000000E+00  0.00000000E+00
  0.00000000E+00  0.00000000E+00  0.00000000E+00
  0.00000000E+00  0.00000000E+00  0.00000000E+00
  0.00000000E+00  0.00000000E+00  0.00000000E+00
  0.00000000E+00  0.00000000E+00  0.00000000E+00
  0.00000000E+00  0.00000000E+00  0.00000000E+00
  0.00000000E+00  0.00000000E+00  0.00000000E+00
  0.00000000E+00  0.00000000E+00  0.00000000E+00
  0.00000000E+00  0.00000000E+00  0.00000000E+00
  0.00000000E+00  0.00000000E+00  0.00000000E+00
  0.00000000E+00  0.00000000E+00  0.00000000E+00
  0.00000000E+00  0.00000000E+00  0.00000000E+00
  0.00000000E+00  0.00000000E+00  0.00000000E+00
  0.00000000E+00  0.00000000E+00  0.00000000E+00
  0.00000000E+00  0.00000000E+00  0.00000000E+00
  0.00000000E+00  0.00000000E+00  0.00000000E+00
  0.00000000E+00  0.00000000E+00  0.00000000E+00
  0.00000000E+00  0.00000000E+00  0.00000000E+00
  0.00000000E+00  0.00000000E+00  0.00000000E+00
  0.00000000E+00  0.00000000E+00  0.00000000E+00
  0.00000000E+00  0.00000000E+00  0.00000000E+00
  0.00000000E+00  0.00000000E+00  0.00000000E+00
  0.00000000E+00  0.00000000E+00  0.00000000E+00
  0.00000000E+00  0.00000000E+00  0.00000000E+00
  0.00000000E+00  0.00000000E+00  0.00000000E+00
  0.00000000E+00  0.00000000E+00  0.00000000E+00
  0.00000000E+00  0.00000000E+00  0.00000000E+00
  0.00000000E+00  0.00000000E+00  0.00000000E+00
  0.00000000E+00  0.00000000E+00  0.00000000E+00
  0.00000000E+00  0.00000000E+00  0.00000000E+00
  0.00000000E+00  0.00000000E+00  0.00000000E+00
  0.00000000E+00  0.00000000E+00  0.00000000E+00
  0.00000000E+00  0.00000000E+00  0.00000000E+00
  0.00000000E+00  0.00000000E+00  0.00000000E+00
  0.00000000E+00  0.00000000E+00  0.00000000E+00
  0.00000000E+00  0.00000000E+00  0.00000000E+00
  0.00000000E+00  0.00000000E+00  0.00000000E+00
  0.00000000E+00  0.00000000E+00  0.00000000E+00
  0.00000000E+00  0.00000000E+00  0.00000000E+00
  0.00000000E+00  0.00000000E+00  0.00000000E+00
  0.00000000E+00  0.00000000E+00  0.00000000E+00
  0.00000000E+00  0.00000000E+00  0.00000000E+00
  0.00000000E+00  0.00000000E+00  0.00000000E+00
  0.00000000E+00  0.00000000E+00  0.00000000E+00
  0.00000000E+00  0.00000000E+00  0.00000000E+00
  0.00000000E+00  0.00000000E+00  0.00000000E+00
  0.00000000E+00  0.00000000E+00  0.00000000E+00
  0.00000000E+00  0.00000000E+00  0.00000000E+00
  0.00000000E+00  0.00000000E+00  0.00000000E+00
  0.00000000E+00  0.00000000E+00  0.00000000E+00
