Nb Mg O                                 
   1.00000000000000     
     8.4141216974800006    0.0000000000000000    0.0000000000000000
     0.0000000000000000    8.4141216974800006    0.0000000000000000
     0.0000000000000000    0.0000000000000000   23.4141216974799988
   Nb   Mg   O 
     1    32    32
Selective dynamics
Direct
  0.7499999353946072  0.4999999858296054  0.3754840143326351   T   T   T
  0.2500000031483433  0.0000000031483433  0.0055053156023071   T   T   T
  0.2500000019735570  0.4999999977140832  0.0055050156389021   T   T   T
  0.7499999977140832  0.0000000019735570  0.0055050156389021   T   T   T
  0.7499999961866127  0.4999999961866127  0.0054142570474321   T   T   T
 -0.0000478073603321  0.2500478070899744  0.0055093625641571   T   T   T
 -0.0000478053757420  0.7499521946242578  0.0055093612414072   T   T   T
  0.5000478047094038  0.2500478047094039  0.0055093637448355   T   T   T
  0.5000478070899744  0.7499521926396679  0.0055093625641571   T   T   T
  0.0000477976409638  0.0000000021646999  0.0950088131777008   T   T   T
 -0.0000583922891761  0.4999999966552278  0.0950758243956102   T   T   T
  0.4999522023341874  0.0000000012954669  0.0950088155990917   T   T   T
  0.5000583886407429  0.4999999974494446  0.0950758264115900   T   T   T
  0.2500000012954668  0.2499522023341874  0.0950088155990917   T   T   T
  0.2500000021646998  0.7500477976409639  0.0950088131777008   T   T   T
  0.7499999974494447  0.2500583886407426  0.0950758264115900   T   T   T
  0.7499999966552278  0.7499416077108240  0.0950758243956102   T   T   T
  0.2499999991434979 -0.0000000008565021  0.1854041663351933   T   T   T
  0.2499999963724928  0.4999999980212154  0.1854274051837780   T   T   T
  0.7499999980212154 -0.0000000036275072  0.1854274051837780   T   T   T
  0.7499999933282734  0.4999999933282734  0.1851946086505476   T   T   T
 -0.0002701860003331  0.2502701858523680  0.1857601947268021   T   T   T
 -0.0002701883659745  0.7497298116340254  0.1857601936310559   T   T   T
  0.5002701873145318  0.2502701873145317  0.1857601962432869   T   T   T
  0.5002701858523679  0.7497298139996669  0.1857601947268021   T   T   T
  0.0011524471258015 -0.0000000050113502  0.2750507454906058   T   T   T
  0.0064541272728770  0.5000000023057163  0.2760477387102059   T   T   T
  0.4988475496292207 -0.0000000047585305  0.2750507490768198   T   T   T
  0.4935458596622677  0.5000000079118051  0.2760477421566278   T   T   T
  0.2499999952414695  0.2488475496292207  0.2750507490768198   T   T   T
  0.2499999949886498  0.7511524471258015  0.2750507454906058   T   T   T
  0.7500000079118052  0.2435458596622677  0.2760477421566278   T   T   T
  0.7500000023057163  0.7564541272728770  0.2760477387102059   T   T   T
  0.9999224805668373 -0.0000000030533165  0.0033262066415610   T   T   T
  0.0000421478776480  0.4999999981752437  0.0033178598914289   T   T   T
  0.5000775210491942  0.0000000068919241  0.0033262088258052   T   T   T
  0.4999578469165291  0.4999999998735770  0.0033178580805338   T   T   T
  0.2500000068919241  0.2500775210491942  0.0033262088258052   T   T   T
  0.2499999969466835  0.7499224805668373  0.0033262066415610   T   T   T
  0.7499999998735770  0.2499578469165291  0.0033178580805338   T   T   T
  0.7499999981752438  0.7500421478776479  0.0033178598914289   T   T   T
  0.2499999962672959 -0.0000000037327041  0.0951334909486694   T   T   T
  0.2500000015642899  0.4999999974303008  0.0954317912570554   T   T   T
  0.7499999974303009  0.0000000015642899  0.0954317912570554   T   T   T
  0.7499999959614448  0.4999999959614448  0.0951719901354643   T   T   T
  0.9996661047317248  0.2503339000684563  0.0952833800875637   T   T   T
  0.9996660909504248  0.7496660909504248  0.0952833790105934   T   T   T
  0.5003338976356397  0.2503338976356398  0.0952833771380776   T   T   T
  0.5003339000684561  0.7496661047317248  0.0952833800875637   T   T   T
  0.9996162183422996 -0.0000000076097851  0.1849679034547256   T   T   T
  0.9984591838381216  0.4999999852588913  0.1858702438157409   T   T   T
  0.5003837860253619 -0.0000000043886223  0.1849679079555384   T   T   T
  0.5015408264584721  0.4999999993826102  0.1858702390041709   T   T   T
  0.2499999956113777  0.2503837860253619  0.1849678163365380   T   T   T
  0.2499999923902149  0.7496162183422996  0.1849678118357252   T   T   T
  0.7499999993826102  0.2515408264584721  0.1858701473851705   T   T   T
  0.7499999852588913  0.7484591838381216  0.1858701521967405   T   T   T
  0.2499999614511587  0.0000000118861571  0.2767201041539873   T   T   T
  0.2499999822106696  0.5000000332734370  0.2764620224737950   T   T   T
  0.7499999828384386  0.0000000326456680  0.2764620224737950   T   T   T
  0.7499999732711593  0.5000000237061577  0.2811693589893606   T   T   T
  0.0008010329035377  0.2491989597145097  0.2762598178025170   T   T   T
  0.0008010316176877  0.7508010316176877  0.2762598211278279   T   T   T
  0.4991989564273403  0.2491989564273402  0.2762598186446904   T   T   T
  0.4991989597145096  0.7508010329035378  0.2762598178025170   T   T   T
 
  0.00000000E+00  0.00000000E+00  0.00000000E+00
  0.00000000E+00  0.00000000E+00  0.00000000E+00
  0.00000000E+00  0.00000000E+00  0.00000000E+00
  0.00000000E+00  0.00000000E+00  0.00000000E+00
  0.00000000E+00  0.00000000E+00  0.00000000E+00
  0.00000000E+00  0.00000000E+00  0.00000000E+00
  0.00000000E+00  0.00000000E+00  0.00000000E+00
  0.00000000E+00  0.00000000E+00  0.00000000E+00
  0.00000000E+00  0.00000000E+00  0.00000000E+00
  0.00000000E+00  0.00000000E+00  0.00000000E+00
  0.00000000E+00  0.00000000E+00  0.00000000E+00
  0.00000000E+00  0.00000000E+00  0.00000000E+00
  0.00000000E+00  0.00000000E+00  0.00000000E+00
  0.00000000E+00  0.00000000E+00  0.00000000E+00
  0.00000000E+00  0.00000000E+00  0.00000000E+00
  0.00000000E+00  0.00000000E+00  0.00000000E+00
  0.00000000E+00  0.00000000E+00  0.00000000E+00
  0.00000000E+00  0.00000000E+00  0.00000000E+00
  0.00000000E+00  0.00000000E+00  0.00000000E+00
  0.00000000E+00  0.00000000E+00  0.00000000E+00
  0.00000000E+00  0.00000000E+00  0.00000000E+00
  0.00000000E+00  0.00000000E+00  0.00000000E+00
  0.00000000E+00  0.00000000E+00  0.00000000E+00
  0.00000000E+00  0.00000000E+00  0.00000000E+00
  0.00000000E+00  0.00000000E+00  0.00000000E+00
  0.00000000E+00  0.00000000E+00  0.00000000E+00
  0.00000000E+00  0.00000000E+00  0.00000000E+00
  0.00000000E+00  0.00000000E+00  0.00000000E+00
  0.00000000E+00  0.00000000E+00  0.00000000E+00
  0.00000000E+00  0.00000000E+00  0.00000000E+00
  0.00000000E+00  0.00000000E+00  0.00000000E+00
  0.00000000E+00  0.00000000E+00  0.00000000E+00
  0.00000000E+00  0.00000000E+00  0.00000000E+00
  0.00000000E+00  0.00000000E+00  0.00000000E+00
  0.00000000E+00  0.00000000E+00  0.00000000E+00
  0.00000000E+00  0.00000000E+00  0.00000000E+00
  0.00000000E+00  0.00000000E+00  0.00000000E+00
  0.00000000E+00  0.00000000E+00  0.00000000E+00
  0.00000000E+00  0.00000000E+00  0.00000000E+00
  0.00000000E+00  0.00000000E+00  0.00000000E+00
  0.00000000E+00  0.00000000E+00  0.00000000E+00
  0.00000000E+00  0.00000000E+00  0.00000000E+00
  0.00000000E+00  0.00000000E+00  0.00000000E+00
  0.00000000E+00  0.00000000E+00  0.00000000E+00
  0.00000000E+00  0.00000000E+00  0.00000000E+00
  0.00000000E+00  0.00000000E+00  0.00000000E+00
  0.00000000E+00  0.00000000E+00  0.00000000E+00
  0.00000000E+00  0.00000000E+00  0.00000000E+00
  0.00000000E+00  0.00000000E+00  0.00000000E+00
  0.00000000E+00  0.00000000E+00  0.00000000E+00
  0.00000000E+00  0.00000000E+00  0.00000000E+00
  0.00000000E+00  0.00000000E+00  0.00000000E+00
  0.00000000E+00  0.00000000E+00  0.00000000E+00
  0.00000000E+00  0.00000000E+00  0.00000000E+00
  0.00000000E+00  0.00000000E+00  0.00000000E+00
  0.00000000E+00  0.00000000E+00  0.00000000E+00
  0.00000000E+00  0.00000000E+00  0.00000000E+00
  0.00000000E+00  0.00000000E+00  0.00000000E+00
  0.00000000E+00  0.00000000E+00  0.00000000E+00
  0.00000000E+00  0.00000000E+00  0.00000000E+00
  0.00000000E+00  0.00000000E+00  0.00000000E+00
  0.00000000E+00  0.00000000E+00  0.00000000E+00
  0.00000000E+00  0.00000000E+00  0.00000000E+00
  0.00000000E+00  0.00000000E+00  0.00000000E+00
  0.00000000E+00  0.00000000E+00  0.00000000E+00
