Au Mg O                                 
   1.00000000000000     
     8.4141216974800006    0.0000000000000000    0.0000000000000000
     0.0000000000000000    8.4141216974800006    0.0000000000000000
     0.0000000000000000    0.0000000000000000   23.4141216974799988
   Au   Mg   O 
     1    32    32
Selective dynamics
Direct
  0.7499999413985675  0.4999999918335660  0.3744279786897116   T   T   T
  0.2499999979305239 -0.0000000020694760  0.0055179826147421   T   T   T
  0.2499999932100777  0.4999999992692917  0.0054696878115175   T   T   T
  0.7499999992692916 -0.0000000067899222  0.0054696878115175   T   T   T
  0.7499999934113760  0.4999999934113758  0.0054146990356977   T   T   T
 -0.0000589615854888  0.2500589523167055  0.0055202506715826   T   T   T
 -0.0000589650910510  0.7499410349089489  0.0055202549433517   T   T   T
  0.5000589600668175  0.2500589600668175  0.0055202498013123   T   T   T
  0.5000589523167055  0.7499410384145111  0.0055202506715826   T   T   T
  0.0000397300657083 -0.0000000053733997  0.0951004563314624   T   T   T
  0.0003178141227715  0.4999999940092819  0.0949580608937850   T   T   T
  0.4999602685182703 -0.0000000007431650  0.0951004558286162   T   T   T
  0.4996821770081269  0.5000000042401327  0.0949580580199236   T   T   T
  0.2499999992568349  0.2499602685182703  0.0951004558286162   T   T   T
  0.2499999946266002  0.7500397300657082  0.0951004563314624   T   T   T
  0.7500000042401328  0.2496821770081270  0.0949580580199236   T   T   T
  0.7499999940092819  0.7503178141227714  0.0949580608937850   T   T   T
  0.2500000021839810  0.0000000021839810  0.1854508320433051   T   T   T
  0.2499999982463231  0.4999999999450389  0.1856372073661553   T   T   T
  0.7499999999450387 -0.0000000017536769  0.1856372073661553   T   T   T
  0.7499999996846970  0.4999999996846969  0.1842485730070608   T   T   T
 -0.0003109183912044  0.2503109119873014  0.1859119304238250   T   T   T
 -0.0003109217618269  0.7496890782381730  0.1859119338898475   T   T   T
  0.5003109200515873  0.2503109200515872  0.1859119300075443   T   T   T
  0.5003109119873015  0.7496890816087958  0.1859119304238250   T   T   T
  0.0008757442411774 -0.0000000079302365  0.2752278292375160   T   T   T
  0.0051752923071056  0.5000000025337179  0.2762557739317676   T   T   T
  0.4991242662760718  0.0000000075863072  0.2752278293836263   T   T   T
  0.4948247128921652  0.5000000069234576  0.2762557723099042   T   T   T
  0.2500000075863072  0.2491242662760720  0.2752278293836263   T   T   T
  0.2499999920697635  0.7508757442411772  0.2752278292375160   T   T   T
  0.7500000069234575  0.2448247128921653  0.2762557723099042   T   T   T
  0.7500000025337178  0.7551752923071057  0.2762557739317676   T   T   T
  0.9999292733504377 -0.0000000123086595  0.0033468324923997   T   T   T
  0.0001179206220066  0.4999999947781592  0.0033136624718039   T   T   T
  0.5000707136167262  0.0000000059980762  0.0033468304278434   T   T   T
  0.4998820649101700  0.5000000004974551  0.0033136599524997   T   T   T
  0.2500000059980762  0.2500707136167264  0.0033468304278434   T   T   T
  0.2499999876913404  0.7499292733504377  0.0033468324923997   T   T   T
  0.7500000004974549  0.2498820649101700  0.0033136599524997   T   T   T
  0.7499999947781589  0.7501179206220064  0.0033136624718039   T   T   T
  0.2499999999722952 -0.0000000000277048  0.0952720325567556   T   T   T
  0.2500000005721811  0.5000000001852832  0.0954080025707813   T   T   T
  0.7500000001852833  0.0000000005721811  0.0954080025707813   T   T   T
  0.7499999961535471  0.4999999961535470  0.0951370922531951   T   T   T
  0.9997731045446318  0.2502268775643219  0.0953597114637934   T   T   T
  0.9997731013828562  0.7497731013828562  0.0953597059892293   T   T   T
  0.5002268910523803  0.2502268910523803  0.0953597011148821   T   T   T
  0.5002268775643218  0.7497731045446318  0.0953597114637934   T   T   T
  0.9996372401815313 -0.0000000029079289  0.1852362239018661   T   T   T
  0.9990058670528540  0.4999999947395756  0.1856753929123311   T   T   T
  0.5003627685914324 -0.0000000053028563  0.1852362181283722   T   T   T
  0.5009941379929757  0.4999999978104613  0.1856753999089656   T   T   T
  0.2499999946971437  0.2503627685914325  0.1852361265093718   T   T   T
  0.2499999970920712  0.7496372401815313  0.1852361322828657   T   T   T
  0.7499999978104612  0.2509941379929755  0.1856753082899652   T   T   T
  0.7499999947395757  0.7490058670528540  0.1856753012933307   T   T   T
  0.2499999678610560  0.0000000182960544  0.2766848927590264   T   T   T
  0.2499999759509101  0.5000000317966071  0.2770433922322047   T   T   T
  0.7499999813616087  0.0000000263859085  0.2770433922322047   T   T   T
  0.7499999873488180  0.5000000377838165  0.2766974440530576   T   T   T
  0.0002233079723951  0.2497766946277958  0.2767923945057755   T   T   T
  0.0002233088534054  0.7502233088534053  0.2767923969239682   T   T   T
  0.4997766832488951  0.2497766832488952  0.2767923957827021   T   T   T
  0.4997766946277958  0.7502233079723952  0.2767923945057755   T   T   T
 
  0.00000000E+00  0.00000000E+00  0.00000000E+00
  0.00000000E+00  0.00000000E+00  0.00000000E+00
  0.00000000E+00  0.00000000E+00  0.00000000E+00
  0.00000000E+00  0.00000000E+00  0.00000000E+00
  0.00000000E+00  0.00000000E+00  0.00000000E+00
  0.00000000E+00  0.00000000E+00  0.00000000E+00
  0.00000000E+00  0.00000000E+00  0.00000000E+00
  0.00000000E+00  0.00000000E+00  0.00000000E+00
  0.00000000E+00  0.00000000E+00  0.00000000E+00
  0.00000000E+00  0.00000000E+00  0.00000000E+00
  0.00000000E+00  0.00000000E+00  0.00000000E+00
  0.00000000E+00  0.00000000E+00  0.00000000E+00
  0.00000000E+00  0.00000000E+00  0.00000000E+00
  0.00000000E+00  0.00000000E+00  0.00000000E+00
  0.00000000E+00  0.00000000E+00  0.00000000E+00
  0.00000000E+00  0.00000000E+00  0.00000000E+00
  0.00000000E+00  0.00000000E+00  0.00000000E+00
  0.00000000E+00  0.00000000E+00  0.00000000E+00
  0.00000000E+00  0.00000000E+00  0.00000000E+00
  0.00000000E+00  0.00000000E+00  0.00000000E+00
  0.00000000E+00  0.00000000E+00  0.00000000E+00
  0.00000000E+00  0.00000000E+00  0.00000000E+00
  0.00000000E+00  0.00000000E+00  0.00000000E+00
  0.00000000E+00  0.00000000E+00  0.00000000E+00
  0.00000000E+00  0.00000000E+00  0.00000000E+00
  0.00000000E+00  0.00000000E+00  0.00000000E+00
  0.00000000E+00  0.00000000E+00  0.00000000E+00
  0.00000000E+00  0.00000000E+00  0.00000000E+00
  0.00000000E+00  0.00000000E+00  0.00000000E+00
  0.00000000E+00  0.00000000E+00  0.00000000E+00
  0.00000000E+00  0.00000000E+00  0.00000000E+00
  0.00000000E+00  0.00000000E+00  0.00000000E+00
  0.00000000E+00  0.00000000E+00  0.00000000E+00
  0.00000000E+00  0.00000000E+00  0.00000000E+00
  0.00000000E+00  0.00000000E+00  0.00000000E+00
  0.00000000E+00  0.00000000E+00  0.00000000E+00
  0.00000000E+00  0.00000000E+00  0.00000000E+00
  0.00000000E+00  0.00000000E+00  0.00000000E+00
  0.00000000E+00  0.00000000E+00  0.00000000E+00
  0.00000000E+00  0.00000000E+00  0.00000000E+00
  0.00000000E+00  0.00000000E+00  0.00000000E+00
  0.00000000E+00  0.00000000E+00  0.00000000E+00
  0.00000000E+00  0.00000000E+00  0.00000000E+00
  0.00000000E+00  0.00000000E+00  0.00000000E+00
  0.00000000E+00  0.00000000E+00  0.00000000E+00
  0.00000000E+00  0.00000000E+00  0.00000000E+00
  0.00000000E+00  0.00000000E+00  0.00000000E+00
  0.00000000E+00  0.00000000E+00  0.00000000E+00
  0.00000000E+00  0.00000000E+00  0.00000000E+00
  0.00000000E+00  0.00000000E+00  0.00000000E+00
  0.00000000E+00  0.00000000E+00  0.00000000E+00
  0.00000000E+00  0.00000000E+00  0.00000000E+00
  0.00000000E+00  0.00000000E+00  0.00000000E+00
  0.00000000E+00  0.00000000E+00  0.00000000E+00
  0.00000000E+00  0.00000000E+00  0.00000000E+00
  0.00000000E+00  0.00000000E+00  0.00000000E+00
  0.00000000E+00  0.00000000E+00  0.00000000E+00
  0.00000000E+00  0.00000000E+00  0.00000000E+00
  0.00000000E+00  0.00000000E+00  0.00000000E+00
  0.00000000E+00  0.00000000E+00  0.00000000E+00
  0.00000000E+00  0.00000000E+00  0.00000000E+00
  0.00000000E+00  0.00000000E+00  0.00000000E+00
  0.00000000E+00  0.00000000E+00  0.00000000E+00
  0.00000000E+00  0.00000000E+00  0.00000000E+00
  0.00000000E+00  0.00000000E+00  0.00000000E+00
