Fe Mg O                                 
   1.00000000000000     
     8.4141216974800006    0.0000000000000000    0.0000000000000000
     0.0000000000000000    8.4141216974800006    0.0000000000000000
     0.0000000000000000    0.0000000000000000   23.4141216974799988
   Fe   Mg   O 
     1    32    32
Selective dynamics
Direct
  0.7499999495650016  0.5000000000000000  0.3616428624426059   T   T   T
  0.2500000000000000 -0.0000000000000000  0.0055134968940810   T   T   T
  0.2500000000000000  0.5000000000000000  0.0054610816030833   T   T   T
  0.7500000000000000 -0.0000000000000000  0.0054610816030833   T   T   T
  0.7500000000000000  0.5000000000000000  0.0053917688371383   T   T   T
  0.0000311364980751  0.2499688635019250  0.0055292884659680   T   T   T
  0.0000311364980751  0.7500311364980751  0.0055292884659680   T   T   T
  0.4999688635019250  0.2499688635019250  0.0055292884659680   T   T   T
  0.4999688635019250  0.7500311364980751  0.0055292884659680   T   T   T
  0.0002313243291469 -0.0000000000000000  0.0950650383690402   T   T   T
  0.0001372430332324  0.5000000000000000  0.0948975944454338   T   T   T
  0.4997686756708531 -0.0000000000000000  0.0950650383690402   T   T   T
  0.4998627569667675  0.5000000000000000  0.0948975944454338   T   T   T
  0.2500000000000000  0.2497686756708531  0.0950650383690402   T   T   T
  0.2500000000000000  0.7502313243291469  0.0950650383690402   T   T   T
  0.7500000000000000  0.2498627569667676  0.0948975944454338   T   T   T
  0.7500000000000000  0.7501372430332323  0.0948975944454338   T   T   T
  0.2500000000000000 -0.0000000000000000  0.1854390029843330   T   T   T
  0.2500000000000000  0.5000000000000000  0.1852028497547861   T   T   T
  0.7500000000000000 -0.0000000000000000  0.1852028497547861   T   T   T
  0.7500000000000000  0.5000000000000000  0.1844020471148857   T   T   T
 -0.0000298630061396  0.2500298630061396  0.1856714086634856   T   T   T
 -0.0000298630061396  0.7499701369938604  0.1856714086634856   T   T   T
  0.5000298630061396  0.2500298630061396  0.1856714086634856   T   T   T
  0.5000298630061396  0.7499701369938604  0.1856714086634856   T   T   T
  0.0016861780777393 -0.0000000000000000  0.2751189764115723   T   T   T
  0.0087849791879050  0.5000000000000000  0.2759985230116682   T   T   T
  0.4983138219222606 -0.0000000000000000  0.2751189764115723   T   T   T
  0.4912150208120951  0.5000000000000000  0.2759985230116682   T   T   T
  0.2500000000000000  0.2483138219222607  0.2751189764115723   T   T   T
  0.2500000000000000  0.7516861780777394  0.2751189764115723   T   T   T
  0.7500000000000000  0.2412150208120950  0.2759985230116682   T   T   T
  0.7500000000000000  0.7587849791879050  0.2759985230116682   T   T   T
 -0.0000060986265292 -0.0000000000000000  0.0033322778448485   T   T   T
  0.0000655693893617  0.5000000000000000  0.0032712137154396   T   T   T
  0.5000060986265292 -0.0000000000000000  0.0033322778448485   T   T   T
  0.4999344306106384  0.5000000000000000  0.0032712137154396   T   T   T
  0.2500000000000000  0.2500060986265292  0.0033322778448485   T   T   T
  0.2500000000000000  0.7499939013734708  0.0033322778448485   T   T   T
  0.7500000000000000  0.2499344306106383  0.0032712137154396   T   T   T
  0.7500000000000000  0.7500655693893615  0.0032712137154396   T   T   T
  0.2500000000000000 -0.0000000000000000  0.0951762870687567   T   T   T
  0.2500000000000000  0.5000000000000000  0.0952768316328322   T   T   T
  0.7500000000000000 -0.0000000000000000  0.0952768316328322   T   T   T
  0.7500000000000000  0.5000000000000000  0.0950415412313395   T   T   T
 -0.0002055817538885  0.2502055817538886  0.0952168425313727   T   T   T
 -0.0002055817538885  0.7497944182461115  0.0952168425313727   T   T   T
  0.5002055817538885  0.2502055817538886  0.0952168425313727   T   T   T
  0.5002055817538885  0.7497944182461115  0.0952168425313727   T   T   T
 -0.0001272880996172 -0.0000000000000000  0.1849547936699019   T   T   T
 -0.0014555567860379  0.5000000000000000  0.1856805761335222   T   T   T
  0.5001272880996170 -0.0000000000000000  0.1849547936699019   T   T   T
  0.5014555567860379  0.5000000000000000  0.1856805761335222   T   T   T
  0.2500000000000000  0.2501272880996173  0.1849547020509015   T   T   T
  0.2500000000000000  0.7498727119003830  0.1849547020509015   T   T   T
  0.7500000000000000  0.2514555567860379  0.1856804845145218   T   T   T
  0.7500000000000000  0.7485444432139621  0.1856804845145218   T   T   T
  0.2499999495650016 -0.0000000000000000  0.2769109460184867   T   T   T
  0.2499999495650016  0.5000000000000000  0.2762715020803453   T   T   T
  0.7499999495650016 -0.0000000000000000  0.2762715020803453   T   T   T
  0.7499999495650016  0.5000000000000000  0.2798864969774387   T   T   T
  0.0007896798728964  0.2492103201271036  0.2760237644314399   T   T   T
  0.0007896798728964  0.7507896798728965  0.2760237644314399   T   T   T
  0.4992103201271035  0.2492103201271036  0.2760237644314399   T   T   T
  0.4992103201271035  0.7507896798728965  0.2760237644314399   T   T   T
 
  0.00000000E+00  0.00000000E+00  0.00000000E+00
  0.00000000E+00  0.00000000E+00  0.00000000E+00
  0.00000000E+00  0.00000000E+00  0.00000000E+00
  0.00000000E+00  0.00000000E+00  0.00000000E+00
  0.00000000E+00  0.00000000E+00  0.00000000E+00
  0.00000000E+00  0.00000000E+00  0.00000000E+00
  0.00000000E+00  0.00000000E+00  0.00000000E+00
  0.00000000E+00  0.00000000E+00  0.00000000E+00
  0.00000000E+00  0.00000000E+00  0.00000000E+00
  0.00000000E+00  0.00000000E+00  0.00000000E+00
  0.00000000E+00  0.00000000E+00  0.00000000E+00
  0.00000000E+00  0.00000000E+00  0.00000000E+00
  0.00000000E+00  0.00000000E+00  0.00000000E+00
  0.00000000E+00  0.00000000E+00  0.00000000E+00
  0.00000000E+00  0.00000000E+00  0.00000000E+00
  0.00000000E+00  0.00000000E+00  0.00000000E+00
  0.00000000E+00  0.00000000E+00  0.00000000E+00
  0.00000000E+00  0.00000000E+00  0.00000000E+00
  0.00000000E+00  0.00000000E+00  0.00000000E+00
  0.00000000E+00  0.00000000E+00  0.00000000E+00
  0.00000000E+00  0.00000000E+00  0.00000000E+00
  0.00000000E+00  0.00000000E+00  0.00000000E+00
  0.00000000E+00  0.00000000E+00  0.00000000E+00
  0.00000000E+00  0.00000000E+00  0.00000000E+00
  0.00000000E+00  0.00000000E+00  0.00000000E+00
  0.00000000E+00  0.00000000E+00  0.00000000E+00
  0.00000000E+00  0.00000000E+00  0.00000000E+00
  0.00000000E+00  0.00000000E+00  0.00000000E+00
  0.00000000E+00  0.00000000E+00  0.00000000E+00
  0.00000000E+00  0.00000000E+00  0.00000000E+00
  0.00000000E+00  0.00000000E+00  0.00000000E+00
  0.00000000E+00  0.00000000E+00  0.00000000E+00
  0.00000000E+00  0.00000000E+00  0.00000000E+00
  0.00000000E+00  0.00000000E+00  0.00000000E+00
  0.00000000E+00  0.00000000E+00  0.00000000E+00
  0.00000000E+00  0.00000000E+00  0.00000000E+00
  0.00000000E+00  0.00000000E+00  0.00000000E+00
  0.00000000E+00  0.00000000E+00  0.00000000E+00
  0.00000000E+00  0.00000000E+00  0.00000000E+00
  0.00000000E+00  0.00000000E+00  0.00000000E+00
  0.00000000E+00  0.00000000E+00  0.00000000E+00
  0.00000000E+00  0.00000000E+00  0.00000000E+00
  0.00000000E+00  0.00000000E+00  0.00000000E+00
  0.00000000E+00  0.00000000E+00  0.00000000E+00
  0.00000000E+00  0.00000000E+00  0.00000000E+00
  0.00000000E+00  0.00000000E+00  0.00000000E+00
  0.00000000E+00  0.00000000E+00  0.00000000E+00
  0.00000000E+00  0.00000000E+00  0.00000000E+00
  0.00000000E+00  0.00000000E+00  0.00000000E+00
  0.00000000E+00  0.00000000E+00  0.00000000E+00
  0.00000000E+00  0.00000000E+00  0.00000000E+00
  0.00000000E+00  0.00000000E+00  0.00000000E+00
  0.00000000E+00  0.00000000E+00  0.00000000E+00
  0.00000000E+00  0.00000000E+00  0.00000000E+00
  0.00000000E+00  0.00000000E+00  0.00000000E+00
  0.00000000E+00  0.00000000E+00  0.00000000E+00
  0.00000000E+00  0.00000000E+00  0.00000000E+00
  0.00000000E+00  0.00000000E+00  0.00000000E+00
  0.00000000E+00  0.00000000E+00  0.00000000E+00
  0.00000000E+00  0.00000000E+00  0.00000000E+00
  0.00000000E+00  0.00000000E+00  0.00000000E+00
  0.00000000E+00  0.00000000E+00  0.00000000E+00
  0.00000000E+00  0.00000000E+00  0.00000000E+00
  0.00000000E+00  0.00000000E+00  0.00000000E+00
  0.00000000E+00  0.00000000E+00  0.00000000E+00
