Zn Mg O                                 
   1.00000000000000     
     8.4141216974800006    0.0000000000000000    0.0000000000000000
     0.0000000000000000    8.4141216974800006    0.0000000000000000
     0.0000000000000000    0.0000000000000000   23.4141216974799988
   Zn   Mg   O 
     1    32    32
Selective dynamics
Direct
  0.7499998750051826  0.4999999254401808  0.3956080622926806   T   T   T
  0.2500000054923705  0.0000000054923704  0.0053706097807710   T   T   T
  0.2500000024977794  0.5000000189464022  0.0053295139259070   T   T   T
  0.7500000189464021  0.0000000024977794  0.0053295139259070   T   T   T
  0.7500000056733251  0.5000000056733251  0.0051159809066784   T   T   T
 -0.0001363721198723  0.2501363815200794  0.0053036809377866   T   T   T
 -0.0001363868152834  0.7498636131847167  0.0053036782370317   T   T   T
  0.5001363826686482  0.2501363826686481  0.0053036699700749   T   T   T
  0.5001363815200792  0.7498636278801277  0.0053036809377866   T   T   T
 -0.0001308406193395  0.0000000092599069  0.0948164618470803   T   T   T
 -0.0000523705802233  0.4999999972616455  0.0948250799522060   T   T   T
  0.5001308703544682 -0.0000000002398389  0.0948164596830648   T   T   T
  0.5000523900214841  0.5000000229644971  0.0948250736806348   T   T   T
  0.2499999997601612  0.2501308703544682  0.0948164596830648   T   T   T
  0.2500000092599068  0.7498691593806606  0.0948164618470803   T   T   T
  0.7500000229644972  0.2500523900214842  0.0948250736806348   T   T   T
  0.7499999972616457  0.7499476294197769  0.0948250799522060   T   T   T
  0.2499999801876533 -0.0000000198123467  0.1854113190580077   T   T   T
  0.2499999949252580  0.5000000119444453  0.1852364969524121   T   T   T
  0.7500000119444453 -0.0000000050747421  0.1852364969524121   T   T   T
  0.7500000011936525  0.5000000011936527  0.1851736456222896   T   T   T
 -0.0001292456121936  0.2501292719745075  0.1853601239929756   T   T   T
 -0.0001292791477183  0.7498707208522818  0.1853601240811383   T   T   T
  0.5001292601570936  0.2501292601570938  0.1853601277901769   T   T   T
  0.5001292719745076  0.7498707543878066  0.1853601239929756   T   T   T
  0.0002272386323686 -0.0000000170842380  0.2748264553329572   T   T   T
  0.0016772054535705  0.4999999955567273  0.2747140618546032   T   T   T
  0.4997727306539543 -0.0000000054268452  0.2748264556121665   T   T   T
  0.4983227828016001  0.4999999965068899  0.2747140689918925   T   T   T
  0.2499999945731547  0.2497727306539542  0.2748264556121665   T   T   T
  0.2499999829157620  0.7502272386323684  0.2748264553329572   T   T   T
  0.7499999965068899  0.2483227828016002  0.2747140689918925   T   T   T
  0.7499999955567270  0.7516772054535703  0.2747140618546032   T   T   T
 -0.0000359161024687 -0.0000000014856254  0.0031445893184292   T   T   T
  0.0001868485516785  0.4999999916039227  0.0030998399928912   T   T   T
  0.5000358941090003  0.0000000115662784  0.0031445853999185   T   T   T
  0.4998131515418522  0.4999999653791935  0.0030998345620935   T   T   T
  0.2500000115662783  0.2500358941090000  0.0031445853999185   T   T   T
  0.2499999985143746  0.7499640838975314  0.0031445893184292   T   T   T
  0.7499999653791933  0.2498131515418522  0.0030998345620935   T   T   T
  0.7499999916039227  0.7501868485516787  0.0030998399928912   T   T   T
  0.2499999824948096 -0.0000000175051905  0.0950645567543451   T   T   T
  0.2499999622385471  0.4999999768566352  0.0951011439007515   T   T   T
  0.7499999768566351 -0.0000000377614529  0.0951011439007515   T   T   T
  0.7500000080237406  0.5000000080237408  0.0950088742007118   T   T   T
 -0.0001043397105367  0.2501043150975861  0.0950142500459921   T   T   T
 -0.0001043048996779  0.7498956951003222  0.0950142542240634   T   T   T
  0.5001043201632509  0.2501043201632509  0.0950142757831610   T   T   T
  0.5001043150975858  0.7498956602894632  0.0950142500459921   T   T   T
 -0.0000924403456720  0.0000000045376042  0.1849968779054421   T   T   T
 -0.0001946202396920  0.5000000381529947  0.1849453760899832   T   T   T
  0.5000924194249262 -0.0000000033399709  0.1849968675292367   T   T   T
  0.5001945888393468  0.5000000355148400  0.1849453643447787   T   T   T
  0.2499999966600292  0.2500924194249262  0.1849967759102363   T   T   T
  0.2500000045376042  0.7499075596543279  0.1849967862864418   T   T   T
  0.7500000355148397  0.2501945888393469  0.1849452727257783   T   T   T
  0.7500000381529948  0.7498053797603081  0.1849452844709828   T   T   T
  0.2499999819632824  0.0000000323982808  0.2768596301642337   T   T   T
  0.2499999800136062  0.5000000006637525  0.2767364404646284   T   T   T
  0.7499999502287540  0.0000000304486045  0.2767364404646284   T   T   T
  0.7499999428504602  0.4999999932854586  0.2771215666811356   T   T   T
  0.0000267934357193  0.2499732285838667  0.2767583963315991   T   T   T
  0.0000268184363477  0.7500268184363479  0.2767583801994898   T   T   T
  0.4999732503324515  0.2499732503324516  0.2767584087771748   T   T   T
  0.4999732285838668  0.7500267934357192  0.2767583963315991   T   T   T
 
  0.00000000E+00  0.00000000E+00  0.00000000E+00
  0.00000000E+00  0.00000000E+00  0.00000000E+00
  0.00000000E+00  0.00000000E+00  0.00000000E+00
  0.00000000E+00  0.00000000E+00  0.00000000E+00
  0.00000000E+00  0.00000000E+00  0.00000000E+00
  0.00000000E+00  0.00000000E+00  0.00000000E+00
  0.00000000E+00  0.00000000E+00  0.00000000E+00
  0.00000000E+00  0.00000000E+00  0.00000000E+00
  0.00000000E+00  0.00000000E+00  0.00000000E+00
  0.00000000E+00  0.00000000E+00  0.00000000E+00
  0.00000000E+00  0.00000000E+00  0.00000000E+00
  0.00000000E+00  0.00000000E+00  0.00000000E+00
  0.00000000E+00  0.00000000E+00  0.00000000E+00
  0.00000000E+00  0.00000000E+00  0.00000000E+00
  0.00000000E+00  0.00000000E+00  0.00000000E+00
  0.00000000E+00  0.00000000E+00  0.00000000E+00
  0.00000000E+00  0.00000000E+00  0.00000000E+00
  0.00000000E+00  0.00000000E+00  0.00000000E+00
  0.00000000E+00  0.00000000E+00  0.00000000E+00
  0.00000000E+00  0.00000000E+00  0.00000000E+00
  0.00000000E+00  0.00000000E+00  0.00000000E+00
  0.00000000E+00  0.00000000E+00  0.00000000E+00
  0.00000000E+00  0.00000000E+00  0.00000000E+00
  0.00000000E+00  0.00000000E+00  0.00000000E+00
  0.00000000E+00  0.00000000E+00  0.00000000E+00
  0.00000000E+00  0.00000000E+00  0.00000000E+00
  0.00000000E+00  0.00000000E+00  0.00000000E+00
  0.00000000E+00  0.00000000E+00  0.00000000E+00
  0.00000000E+00  0.00000000E+00  0.00000000E+00
  0.00000000E+00  0.00000000E+00  0.00000000E+00
  0.00000000E+00  0.00000000E+00  0.00000000E+00
  0.00000000E+00  0.00000000E+00  0.00000000E+00
  0.00000000E+00  0.00000000E+00  0.00000000E+00
  0.00000000E+00  0.00000000E+00  0.00000000E+00
  0.00000000E+00  0.00000000E+00  0.00000000E+00
  0.00000000E+00  0.00000000E+00  0.00000000E+00
  0.00000000E+00  0.00000000E+00  0.00000000E+00
  0.00000000E+00  0.00000000E+00  0.00000000E+00
  0.00000000E+00  0.00000000E+00  0.00000000E+00
  0.00000000E+00  0.00000000E+00  0.00000000E+00
  0.00000000E+00  0.00000000E+00  0.00000000E+00
  0.00000000E+00  0.00000000E+00  0.00000000E+00
  0.00000000E+00  0.00000000E+00  0.00000000E+00
  0.00000000E+00  0.00000000E+00  0.00000000E+00
  0.00000000E+00  0.00000000E+00  0.00000000E+00
  0.00000000E+00  0.00000000E+00  0.00000000E+00
  0.00000000E+00  0.00000000E+00  0.00000000E+00
  0.00000000E+00  0.00000000E+00  0.00000000E+00
  0.00000000E+00  0.00000000E+00  0.00000000E+00
  0.00000000E+00  0.00000000E+00  0.00000000E+00
  0.00000000E+00  0.00000000E+00  0.00000000E+00
  0.00000000E+00  0.00000000E+00  0.00000000E+00
  0.00000000E+00  0.00000000E+00  0.00000000E+00
  0.00000000E+00  0.00000000E+00  0.00000000E+00
  0.00000000E+00  0.00000000E+00  0.00000000E+00
  0.00000000E+00  0.00000000E+00  0.00000000E+00
  0.00000000E+00  0.00000000E+00  0.00000000E+00
  0.00000000E+00  0.00000000E+00  0.00000000E+00
  0.00000000E+00  0.00000000E+00  0.00000000E+00
  0.00000000E+00  0.00000000E+00  0.00000000E+00
  0.00000000E+00  0.00000000E+00  0.00000000E+00
  0.00000000E+00  0.00000000E+00  0.00000000E+00
  0.00000000E+00  0.00000000E+00  0.00000000E+00
  0.00000000E+00  0.00000000E+00  0.00000000E+00
  0.00000000E+00  0.00000000E+00  0.00000000E+00
