Co Mg O                                 
   1.00000000000000     
     8.4141216974800006    0.0000000000000000    0.0000000000000000
     0.0000000000000000    8.4141216974800006    0.0000000000000000
     0.0000000000000000    0.0000000000000000   23.4141216974799988
   Co   Mg   O 
     1    32    32
Selective dynamics
Direct
  0.7496496499855512  0.4996497004205496  0.3625600660241453   T   T   T
  0.2499902795363742 -0.0000097204636258  0.0055352921354205   T   T   T
  0.2499979943128758  0.4999942067809781  0.0055126186801307   T   T   T
  0.7499942067809782 -0.0000020056871242  0.0055126186801307   T   T   T
  0.7499927043644328  0.4999927043644325  0.0054360222736482   T   T   T
 -0.0000035097277713  0.2499840839137806  0.0055537929500349   T   T   T
  0.0000042219107157  0.7500042219107156  0.0055529267384816   T   T   T
  0.4999839045823238  0.2499839045823238  0.0055512871118412   T   T   T
  0.4999840839137806  0.7499964902722286  0.0055537929500349   T   T   T
  0.0000367413394043  0.0000236187139681  0.0949985422869559   T   T   T
  0.0000509794789797  0.4999942799870509  0.0949535768489312   T   T   T
  0.4999452485952538 -0.0000484640973331  0.0949995032729363   T   T   T
  0.4999599246116034  0.4999955923277423  0.0949604406633569   T   T   T
  0.2499515359026669  0.2499452485952537  0.0949995032729363   T   T   T
  0.2500236187139682  0.7500367413394042  0.0949985422869559   T   T   T
  0.7499955923277422  0.2499599246116033  0.0949604406633569   T   T   T
  0.7499942799870507  0.7500509794789797  0.0949535768489312   T   T   T
  0.2499903948158178 -0.0000096051841822  0.1853119825183406   T   T   T
  0.2500567337971121  0.4999855460784173  0.1852606467958278   T   T   T
  0.7499855460784172  0.0000567337971121  0.1852606467958278   T   T   T
  0.7500192738100941  0.5000192738100941  0.1846009878614441   T   T   T
  0.9998394345492476  0.2501260202009019  0.1856230939148127   T   T   T
  0.0000720027215535  0.7500720027215534  0.1855808833053064   T   T   T
  0.4999693946973842  0.2499693946973842  0.1855915208281297   T   T   T
  0.5001260202009020  0.7498394345492476  0.1856230939148127   T   T   T
  0.0011740504041269 -0.0000088220754353  0.2750423145655158   T   T   T
  0.0069038647539431  0.5003475755436103  0.2757730446603552   T   T   T
  0.4988424095726736  0.0000498109508082  0.2750375628367580   T   T   T
  0.4931257323255510  0.4997461682577664  0.2757979171371971   T   T   T
  0.2500498109508082  0.2488424095726736  0.2750375628367580   T   T   T
  0.2499911779245648  0.7511740504041269  0.2750423145655158   T   T   T
  0.7497461682577663  0.2431257323255510  0.2757979171371971   T   T   T
  0.7503475755436103  0.7569038647539431  0.2757730446603552   T   T   T
  0.9999638597403361 -0.0000076222563378  0.0033788990781209   T   T   T
 -0.0000041052393840  0.4999983674409096  0.0033324670409365   T   T   T
  0.5000223645246785 -0.0000062600412398  0.0033802448648503   T   T   T
  0.4999954744207936  0.4999864931991012  0.0033320204219665   T   T   T
  0.2499937399587602  0.2500223645246786  0.0033802448648503   T   T   T
  0.2499923777436622  0.7499638597403361  0.0033788990781209   T   T   T
  0.7499864931991012  0.2499954744207936  0.0033320204219665   T   T   T
  0.7499983674409093  0.7499958947606160  0.0033324670409365   T   T   T
  0.2499907628081287 -0.0000092371918713  0.0951541062224643   T   T   T
  0.2500172999585347  0.4999913727994327  0.0953036871182176   T   T   T
  0.7499913727994325  0.0000172999585348  0.0953036871182176   T   T   T
  0.7499948253849502  0.4999948253849504  0.0951859486102387   T   T   T
  0.9997519375861139  0.2502194311975018  0.0952702489463985   T   T   T
  0.9998052409857815  0.7498052409857815  0.0952750757388123   T   T   T
  0.5001886373591654  0.2501886373591655  0.0952797624085635   T   T   T
  0.5002194311975019  0.7497519375861139  0.0952702489463985   T   T   T
  0.9998119977695522  0.0002060602714283  0.1849665730238181   T   T   T
  0.9989627747805901  0.5000286314009078  0.1855536112657839   T   T   T
  0.5001645836014705 -0.0002145722234379  0.1849626929727327   T   T   T
  0.5011217491538456  0.5000045547879677  0.1855740572346495   T   T   T
  0.2497854277765622  0.2501645836014704  0.1849626013537323   T   T   T
  0.2502060602714283  0.7498119977695522  0.1849664814048177   T   T   T
  0.7500045547879678  0.2511217491538454  0.1855739656156492   T   T   T
  0.7500286314009077  0.7489627747805901  0.1855535196467835   T   T   T
  0.2500187606018975  0.0000188110368959  0.2766971580552331   T   T   T
  0.2500159329511547  0.5000023919633241  0.2764038878565879   T   T   T
  0.7500023415283256  0.0000159833861530  0.2764038878565879   T   T   T
  0.7500150917386584  0.5000151421736568  0.2788084152127691   T   T   T
  0.0000843023481036  0.2499352799027480  0.2765442551294706   T   T   T
  0.0007209365063787  0.7507209365063787  0.2759758539932445   T   T   T
  0.4994221958174482  0.2494221958174483  0.2759872103432469   T   T   T
  0.4999352799027479  0.7500843023481035  0.2765442551294706   T   T   T
 
  0.00000000E+00  0.00000000E+00  0.00000000E+00
  0.00000000E+00  0.00000000E+00  0.00000000E+00
  0.00000000E+00  0.00000000E+00  0.00000000E+00
  0.00000000E+00  0.00000000E+00  0.00000000E+00
  0.00000000E+00  0.00000000E+00  0.00000000E+00
  0.00000000E+00  0.00000000E+00  0.00000000E+00
  0.00000000E+00  0.00000000E+00  0.00000000E+00
  0.00000000E+00  0.00000000E+00  0.00000000E+00
  0.00000000E+00  0.00000000E+00  0.00000000E+00
  0.00000000E+00  0.00000000E+00  0.00000000E+00
  0.00000000E+00  0.00000000E+00  0.00000000E+00
  0.00000000E+00  0.00000000E+00  0.00000000E+00
  0.00000000E+00  0.00000000E+00  0.00000000E+00
  0.00000000E+00  0.00000000E+00  0.00000000E+00
  0.00000000E+00  0.00000000E+00  0.00000000E+00
  0.00000000E+00  0.00000000E+00  0.00000000E+00
  0.00000000E+00  0.00000000E+00  0.00000000E+00
  0.00000000E+00  0.00000000E+00  0.00000000E+00
  0.00000000E+00  0.00000000E+00  0.00000000E+00
  0.00000000E+00  0.00000000E+00  0.00000000E+00
  0.00000000E+00  0.00000000E+00  0.00000000E+00
  0.00000000E+00  0.00000000E+00  0.00000000E+00
  0.00000000E+00  0.00000000E+00  0.00000000E+00
  0.00000000E+00  0.00000000E+00  0.00000000E+00
  0.00000000E+00  0.00000000E+00  0.00000000E+00
  0.00000000E+00  0.00000000E+00  0.00000000E+00
  0.00000000E+00  0.00000000E+00  0.00000000E+00
  0.00000000E+00  0.00000000E+00  0.00000000E+00
  0.00000000E+00  0.00000000E+00  0.00000000E+00
  0.00000000E+00  0.00000000E+00  0.00000000E+00
  0.00000000E+00  0.00000000E+00  0.00000000E+00
  0.00000000E+00  0.00000000E+00  0.00000000E+00
  0.00000000E+00  0.00000000E+00  0.00000000E+00
  0.00000000E+00  0.00000000E+00  0.00000000E+00
  0.00000000E+00  0.00000000E+00  0.00000000E+00
  0.00000000E+00  0.00000000E+00  0.00000000E+00
  0.00000000E+00  0.00000000E+00  0.00000000E+00
  0.00000000E+00  0.00000000E+00  0.00000000E+00
  0.00000000E+00  0.00000000E+00  0.00000000E+00
  0.00000000E+00  0.00000000E+00  0.00000000E+00
  0.00000000E+00  0.00000000E+00  0.00000000E+00
  0.00000000E+00  0.00000000E+00  0.00000000E+00
  0.00000000E+00  0.00000000E+00  0.00000000E+00
  0.00000000E+00  0.00000000E+00  0.00000000E+00
  0.00000000E+00  0.00000000E+00  0.00000000E+00
  0.00000000E+00  0.00000000E+00  0.00000000E+00
  0.00000000E+00  0.00000000E+00  0.00000000E+00
  0.00000000E+00  0.00000000E+00  0.00000000E+00
  0.00000000E+00  0.00000000E+00  0.00000000E+00
  0.00000000E+00  0.00000000E+00  0.00000000E+00
  0.00000000E+00  0.00000000E+00  0.00000000E+00
  0.00000000E+00  0.00000000E+00  0.00000000E+00
  0.00000000E+00  0.00000000E+00  0.00000000E+00
  0.00000000E+00  0.00000000E+00  0.00000000E+00
  0.00000000E+00  0.00000000E+00  0.00000000E+00
  0.00000000E+00  0.00000000E+00  0.00000000E+00
  0.00000000E+00  0.00000000E+00  0.00000000E+00
  0.00000000E+00  0.00000000E+00  0.00000000E+00
  0.00000000E+00  0.00000000E+00  0.00000000E+00
  0.00000000E+00  0.00000000E+00  0.00000000E+00
  0.00000000E+00  0.00000000E+00  0.00000000E+00
  0.00000000E+00  0.00000000E+00  0.00000000E+00
  0.00000000E+00  0.00000000E+00  0.00000000E+00
  0.00000000E+00  0.00000000E+00  0.00000000E+00
  0.00000000E+00  0.00000000E+00  0.00000000E+00
