Mg O Ru                                 
   1.00000000000000     
     8.4141216974800006    0.0000000000000000    0.0000000000000000
     0.0000000000000000    8.4141216974800006    0.0000000000000000
     0.0000000000000000    0.0000000000000000   23.4141216974799988
   Mg   O    Ru
    32    32     1
Selective dynamics
Direct
  0.2500000000000000  0.0000000000000000  0.0055211299638737   T   T   T
  0.2500000000000000  0.5000000000000000  0.0054574497122552   T   T   T
  0.7500000000000000  0.0000000000000000  0.0054574497122552   T   T   T
  0.7500000000000000  0.5000000000000000  0.0053887996145362   T   T   T
  0.0000014282013509  0.2499985717986492  0.0055630421939480   T   T   T
  0.0000014282013509  0.7500014282013510  0.0055630421939480   T   T   T
  0.4999985717986491  0.2499985717986492  0.0055630421939480   T   T   T
  0.4999985717986491  0.7500014282013510  0.0055630421939480   T   T   T
  0.0002442993630029  0.0000000000000000  0.0950621758997515   T   T   T
  0.0002681298726323  0.5000000000000000  0.0949186283541667   T   T   T
  0.4997557006369971  0.0000000000000000  0.0950621758997515   T   T   T
  0.4997318701273676  0.5000000000000000  0.0949186283541667   T   T   T
  0.2500000000000000  0.2497557006369971  0.0950621758997515   T   T   T
  0.2500000000000000  0.7502442993630030  0.0950621758997515   T   T   T
  0.7500000000000000  0.2497318701273677  0.0949186283541667   T   T   T
  0.7500000000000000  0.7502681298726321  0.0949186283541667   T   T   T
  0.2500000000000000  0.0000000000000000  0.1855604865707634   T   T   T
  0.2500000000000000  0.5000000000000000  0.1853492098991219   T   T   T
  0.7500000000000000  0.0000000000000000  0.1853492098991219   T   T   T
  0.7500000000000000  0.5000000000000000  0.1841762448862246   T   T   T
 -0.0002714496294963  0.2502714496294963  0.1857894064036665   T   T   T
 -0.0002714496294963  0.7497285503705036  0.1857894064036665   T   T   T
  0.5002714496294964  0.2502714496294963  0.1857894064036665   T   T   T
  0.5002714496294964  0.7497285503705036  0.1857894064036665   T   T   T
  0.0016180526740699  0.0000000000000000  0.2749833954038312   T   T   T
  0.0087811363271271  0.5000000000000000  0.2766026448033356   T   T   T
  0.4983819473259302  0.0000000000000000  0.2749833954038312   T   T   T
  0.4912188636728729  0.5000000000000000  0.2766026448033356   T   T   T
  0.2500000000000000  0.2483819473259301  0.2749833954038312   T   T   T
  0.2500000000000000  0.7516180526740700  0.2749833954038312   T   T   T
  0.7500000000000000  0.2412188636728730  0.2766026448033356   T   T   T
  0.7500000000000000  0.7587811363271271  0.2766026448033356   T   T   T
 -0.0000514721088493  0.0000000000000000  0.0033221135143812   T   T   T
  0.0001040978567817  0.5000000000000000  0.0032989081073074   T   T   T
  0.5000514721088493  0.0000000000000000  0.0033221135143812   T   T   T
  0.4998959021432183  0.5000000000000000  0.0032989081073074   T   T   T
  0.2500000000000000  0.2500514721088493  0.0033221135143812   T   T   T
  0.2500000000000000  0.7499485278911507  0.0033221135143812   T   T   T
  0.7500000000000000  0.2498959021432182  0.0032989081073074   T   T   T
  0.7500000000000000  0.7501040978567817  0.0032989081073074   T   T   T
  0.2500000000000000  0.0000000000000000  0.0952098231170553   T   T   T
  0.2500000000000000  0.5000000000000000  0.0953646222846673   T   T   T
  0.7500000000000000  0.0000000000000000  0.0953646222846673   T   T   T
  0.7500000000000000  0.5000000000000000  0.0949659502974408   T   T   T
 -0.0002316007847980  0.2502316007847979  0.0952747172925666   T   T   T
 -0.0002316007847980  0.7497683992152020  0.0952747172925666   T   T   T
  0.5002316007847980  0.2502316007847979  0.0952747172925666   T   T   T
  0.5002316007847980  0.7497683992152020  0.0952747172925666   T   T   T
 -0.0002552629757370  0.0000000000000000  0.1850168378735048   T   T   T
 -0.0014752965155595  0.5000000000000000  0.1857760086272970   T   T   T
  0.5002552629757370  0.0000000000000000  0.1850168378735048   T   T   T
  0.5014752965155594  0.5000000000000000  0.1857760086272970   T   T   T
  0.2500000000000000  0.2502552629757370  0.1850167462545044   T   T   T
  0.2500000000000000  0.7497447370242630  0.1850167462545044   T   T   T
  0.7500000000000000  0.2514752965155595  0.1857759170082966   T   T   T
  0.7500000000000000  0.7485247034844406  0.1857759170082966   T   T   T
  0.2499999495650016  0.0000000000000000  0.2772064376308289   T   T   T
  0.2499999495650016  0.5000000000000000  0.2766003860080016   T   T   T
  0.7499999495650016  0.0000000000000000  0.2766003860080016   T   T   T
  0.7499999495650016  0.5000000000000000  0.2780246609388692   T   T   T
  0.0012140931658946  0.2487859068341055  0.2760237850358297   T   T   T
  0.0012140931658946  0.7512140931658947  0.2760237850358297   T   T   T
  0.4987859068341053  0.2487859068341055  0.2760237850358297   T   T   T
  0.4987859068341053  0.7512140931658947  0.2760237850358297   T   T   T
  0.7499999495650016  0.5000000000000000  0.3625904817449014   T   T   T
 
  0.00000000E+00  0.00000000E+00  0.00000000E+00
  0.00000000E+00  0.00000000E+00  0.00000000E+00
  0.00000000E+00  0.00000000E+00  0.00000000E+00
  0.00000000E+00  0.00000000E+00  0.00000000E+00
  0.00000000E+00  0.00000000E+00  0.00000000E+00
  0.00000000E+00  0.00000000E+00  0.00000000E+00
  0.00000000E+00  0.00000000E+00  0.00000000E+00
  0.00000000E+00  0.00000000E+00  0.00000000E+00
  0.00000000E+00  0.00000000E+00  0.00000000E+00
  0.00000000E+00  0.00000000E+00  0.00000000E+00
  0.00000000E+00  0.00000000E+00  0.00000000E+00
  0.00000000E+00  0.00000000E+00  0.00000000E+00
  0.00000000E+00  0.00000000E+00  0.00000000E+00
  0.00000000E+00  0.00000000E+00  0.00000000E+00
  0.00000000E+00  0.00000000E+00  0.00000000E+00
  0.00000000E+00  0.00000000E+00  0.00000000E+00
  0.00000000E+00  0.00000000E+00  0.00000000E+00
  0.00000000E+00  0.00000000E+00  0.00000000E+00
  0.00000000E+00  0.00000000E+00  0.00000000E+00
  0.00000000E+00  0.00000000E+00  0.00000000E+00
  0.00000000E+00  0.00000000E+00  0.00000000E+00
  0.00000000E+00  0.00000000E+00  0.00000000E+00
  0.00000000E+00  0.00000000E+00  0.00000000E+00
  0.00000000E+00  0.00000000E+00  0.00000000E+00
  0.00000000E+00  0.00000000E+00  0.00000000E+00
  0.00000000E+00  0.00000000E+00  0.00000000E+00
  0.00000000E+00  0.00000000E+00  0.00000000E+00
  0.00000000E+00  0.00000000E+00  0.00000000E+00
  0.00000000E+00  0.00000000E+00  0.00000000E+00
  0.00000000E+00  0.00000000E+00  0.00000000E+00
  0.00000000E+00  0.00000000E+00  0.00000000E+00
  0.00000000E+00  0.00000000E+00  0.00000000E+00
  0.00000000E+00  0.00000000E+00  0.00000000E+00
  0.00000000E+00  0.00000000E+00  0.00000000E+00
  0.00000000E+00  0.00000000E+00  0.00000000E+00
  0.00000000E+00  0.00000000E+00  0.00000000E+00
  0.00000000E+00  0.00000000E+00  0.00000000E+00
  0.00000000E+00  0.00000000E+00  0.00000000E+00
  0.00000000E+00  0.00000000E+00  0.00000000E+00
  0.00000000E+00  0.00000000E+00  0.00000000E+00
  0.00000000E+00  0.00000000E+00  0.00000000E+00
  0.00000000E+00  0.00000000E+00  0.00000000E+00
  0.00000000E+00  0.00000000E+00  0.00000000E+00
  0.00000000E+00  0.00000000E+00  0.00000000E+00
  0.00000000E+00  0.00000000E+00  0.00000000E+00
  0.00000000E+00  0.00000000E+00  0.00000000E+00
  0.00000000E+00  0.00000000E+00  0.00000000E+00
  0.00000000E+00  0.00000000E+00  0.00000000E+00
  0.00000000E+00  0.00000000E+00  0.00000000E+00
  0.00000000E+00  0.00000000E+00  0.00000000E+00
  0.00000000E+00  0.00000000E+00  0.00000000E+00
  0.00000000E+00  0.00000000E+00  0.00000000E+00
  0.00000000E+00  0.00000000E+00  0.00000000E+00
  0.00000000E+00  0.00000000E+00  0.00000000E+00
  0.00000000E+00  0.00000000E+00  0.00000000E+00
  0.00000000E+00  0.00000000E+00  0.00000000E+00
  0.00000000E+00  0.00000000E+00  0.00000000E+00
  0.00000000E+00  0.00000000E+00  0.00000000E+00
  0.00000000E+00  0.00000000E+00  0.00000000E+00
  0.00000000E+00  0.00000000E+00  0.00000000E+00
  0.00000000E+00  0.00000000E+00  0.00000000E+00
  0.00000000E+00  0.00000000E+00  0.00000000E+00
  0.00000000E+00  0.00000000E+00  0.00000000E+00
  0.00000000E+00  0.00000000E+00  0.00000000E+00
  0.00000000E+00  0.00000000E+00  0.00000000E+00
