Ag Mg O                                 
   1.00000000000000     
     8.4141216974800006    0.0000000000000000    0.0000000000000000
     0.0000000000000000    8.4141216974800006    0.0000000000000000
     0.0000000000000000    0.0000000000000000   23.4141216974799988
   Ag   Mg   O 
     1    32    32
Selective dynamics
Direct
  0.7499999495650016  0.5000000000000000  0.3819565982747562   T   T   T
  0.2500000000000000 -0.0000000000000000  0.0055158303663774   T   T   T
  0.2500000000000000  0.5000000000000000  0.0054844691966822   T   T   T
  0.7500000000000000 -0.0000000000000000  0.0054844691966822   T   T   T
  0.7500000000000000  0.5000000000000000  0.0054505769538004   T   T   T
  0.0000250049507987  0.2499749950492013  0.0055147496650137   T   T   T
  0.0000250049507987  0.7500250049507987  0.0055147496650137   T   T   T
  0.4999749950492013  0.2499749950492013  0.0055147496650137   T   T   T
  0.4999749950492013  0.7500250049507987  0.0055147496650137   T   T   T
  0.0001007743049186 -0.0000000000000000  0.0950388736538631   T   T   T
  0.0001107642797970  0.5000000000000000  0.0949283437147554   T   T   T
  0.4998992256950813 -0.0000000000000000  0.0950388736538631   T   T   T
  0.4998892357202030  0.5000000000000000  0.0949283437147554   T   T   T
  0.2500000000000000  0.2498992256950814  0.0950388736538631   T   T   T
  0.2500000000000000  0.7501007743049184  0.0950388736538631   T   T   T
  0.7500000000000000  0.2498892357202031  0.0949283437147554   T   T   T
  0.7500000000000000  0.7501107642797968  0.0949283437147554   T   T   T
  0.2500000000000000 -0.0000000000000000  0.1856737636572590   T   T   T
  0.2500000000000000  0.5000000000000000  0.1855452790727885   T   T   T
  0.7500000000000000 -0.0000000000000000  0.1855452790727885   T   T   T
  0.7500000000000000  0.5000000000000000  0.1849649153454422   T   T   T
 -0.0000257873332936  0.2500257873332937  0.1856233982853348   T   T   T
 -0.0000257873332936  0.7499742126667065  0.1856233982853348   T   T   T
  0.5000257873332935  0.2500257873332937  0.1856233982853348   T   T   T
  0.5000257873332935  0.7499742126667065  0.1856233982853348   T   T   T
  0.0005510329302569 -0.0000000000000000  0.2752464961467073   T   T   T
  0.0034008992764648  0.5000000000000000  0.2754600319795648   T   T   T
  0.4994489670697431 -0.0000000000000000  0.2752464961467073   T   T   T
  0.4965991007235352  0.5000000000000000  0.2754600319795648   T   T   T
  0.2500000000000000  0.2494489670697431  0.2752464961467073   T   T   T
  0.2500000000000000  0.7505510329302569  0.2752464961467073   T   T   T
  0.7500000000000000  0.2465991007235352  0.2754600319795648   T   T   T
  0.7500000000000000  0.7534008992764648  0.2754600319795648   T   T   T
 -0.0000071747633418 -0.0000000000000000  0.0033244159433121   T   T   T
  0.0000319847502506  0.5000000000000000  0.0032926111455606   T   T   T
  0.5000071747633417 -0.0000000000000000  0.0033244159433121   T   T   T
  0.4999680152497495  0.5000000000000000  0.0032926111455606   T   T   T
  0.2500000000000000  0.2500071747633418  0.0033244159433121   T   T   T
  0.2500000000000000  0.7499928252366583  0.0033244159433121   T   T   T
  0.7500000000000000  0.2499680152497494  0.0032926111455606   T   T   T
  0.7500000000000000  0.7500319847502505  0.0032926111455606   T   T   T
  0.2500000000000000 -0.0000000000000000  0.0952804428373554   T   T   T
  0.2500000000000000  0.5000000000000000  0.0953193859627482   T   T   T
  0.7500000000000000 -0.0000000000000000  0.0953193859627482   T   T   T
  0.7500000000000000  0.5000000000000000  0.0951626938935868   T   T   T
 -0.0000812283918028  0.2500812283918029  0.0952539003139389   T   T   T
 -0.0000812283918028  0.7499187716081973  0.0952539003139389   T   T   T
  0.5000812283918027  0.2500812283918029  0.0952539003139389   T   T   T
  0.5000812283918027  0.7499187716081973  0.0952539003139389   T   T   T
 -0.0000959352706006 -0.0000000000000000  0.1851977024914529   T   T   T
 -0.0006927413611595  0.5000000000000000  0.1854301510470507   T   T   T
  0.5000959352706007 -0.0000000000000000  0.1851977024914529   T   T   T
  0.5006927413611596  0.5000000000000000  0.1854301510470507   T   T   T
  0.2500000000000000  0.2500959352706008  0.1851976108724525   T   T   T
  0.2500000000000000  0.7499040647293993  0.1851976108724525   T   T   T
  0.7500000000000000  0.2506927413611595  0.1854300594280503   T   T   T
  0.7500000000000000  0.7493072586388404  0.1854300594280503   T   T   T
  0.2499999495650016 -0.0000000000000000  0.2770209377524439   T   T   T
  0.2499999495650016  0.5000000000000000  0.2767523059076058   T   T   T
  0.7499999495650016 -0.0000000000000000  0.2767523059076058   T   T   T
  0.7499999495650016  0.5000000000000000  0.2777955859044449   T   T   T
  0.0001647616125183  0.2498352383874816  0.2768097899366491   T   T   T
  0.0001647616125183  0.7501647616125184  0.2768097899366491   T   T   T
  0.4998352383874817  0.2498352383874816  0.2768097899366491   T   T   T
  0.4998352383874817  0.7501647616125184  0.2768097899366491   T   T   T
 
  0.00000000E+00  0.00000000E+00  0.00000000E+00
  0.00000000E+00  0.00000000E+00  0.00000000E+00
  0.00000000E+00  0.00000000E+00  0.00000000E+00
  0.00000000E+00  0.00000000E+00  0.00000000E+00
  0.00000000E+00  0.00000000E+00  0.00000000E+00
  0.00000000E+00  0.00000000E+00  0.00000000E+00
  0.00000000E+00  0.00000000E+00  0.00000000E+00
  0.00000000E+00  0.00000000E+00  0.00000000E+00
  0.00000000E+00  0.00000000E+00  0.00000000E+00
  0.00000000E+00  0.00000000E+00  0.00000000E+00
  0.00000000E+00  0.00000000E+00  0.00000000E+00
  0.00000000E+00  0.00000000E+00  0.00000000E+00
  0.00000000E+00  0.00000000E+00  0.00000000E+00
  0.00000000E+00  0.00000000E+00  0.00000000E+00
  0.00000000E+00  0.00000000E+00  0.00000000E+00
  0.00000000E+00  0.00000000E+00  0.00000000E+00
  0.00000000E+00  0.00000000E+00  0.00000000E+00
  0.00000000E+00  0.00000000E+00  0.00000000E+00
  0.00000000E+00  0.00000000E+00  0.00000000E+00
  0.00000000E+00  0.00000000E+00  0.00000000E+00
  0.00000000E+00  0.00000000E+00  0.00000000E+00
  0.00000000E+00  0.00000000E+00  0.00000000E+00
  0.00000000E+00  0.00000000E+00  0.00000000E+00
  0.00000000E+00  0.00000000E+00  0.00000000E+00
  0.00000000E+00  0.00000000E+00  0.00000000E+00
  0.00000000E+00  0.00000000E+00  0.00000000E+00
  0.00000000E+00  0.00000000E+00  0.00000000E+00
  0.00000000E+00  0.00000000E+00  0.00000000E+00
  0.00000000E+00  0.00000000E+00  0.00000000E+00
  0.00000000E+00  0.00000000E+00  0.00000000E+00
  0.00000000E+00  0.00000000E+00  0.00000000E+00
  0.00000000E+00  0.00000000E+00  0.00000000E+00
  0.00000000E+00  0.00000000E+00  0.00000000E+00
  0.00000000E+00  0.00000000E+00  0.00000000E+00
  0.00000000E+00  0.00000000E+00  0.00000000E+00
  0.00000000E+00  0.00000000E+00  0.00000000E+00
  0.00000000E+00  0.00000000E+00  0.00000000E+00
  0.00000000E+00  0.00000000E+00  0.00000000E+00
  0.00000000E+00  0.00000000E+00  0.00000000E+00
  0.00000000E+00  0.00000000E+00  0.00000000E+00
  0.00000000E+00  0.00000000E+00  0.00000000E+00
  0.00000000E+00  0.00000000E+00  0.00000000E+00
  0.00000000E+00  0.00000000E+00  0.00000000E+00
  0.00000000E+00  0.00000000E+00  0.00000000E+00
  0.00000000E+00  0.00000000E+00  0.00000000E+00
  0.00000000E+00  0.00000000E+00  0.00000000E+00
  0.00000000E+00  0.00000000E+00  0.00000000E+00
  0.00000000E+00  0.00000000E+00  0.00000000E+00
  0.00000000E+00  0.00000000E+00  0.00000000E+00
  0.00000000E+00  0.00000000E+00  0.00000000E+00
  0.00000000E+00  0.00000000E+00  0.00000000E+00
  0.00000000E+00  0.00000000E+00  0.00000000E+00
  0.00000000E+00  0.00000000E+00  0.00000000E+00
  0.00000000E+00  0.00000000E+00  0.00000000E+00
  0.00000000E+00  0.00000000E+00  0.00000000E+00
  0.00000000E+00  0.00000000E+00  0.00000000E+00
  0.00000000E+00  0.00000000E+00  0.00000000E+00
  0.00000000E+00  0.00000000E+00  0.00000000E+00
  0.00000000E+00  0.00000000E+00  0.00000000E+00
  0.00000000E+00  0.00000000E+00  0.00000000E+00
  0.00000000E+00  0.00000000E+00  0.00000000E+00
  0.00000000E+00  0.00000000E+00  0.00000000E+00
  0.00000000E+00  0.00000000E+00  0.00000000E+00
  0.00000000E+00  0.00000000E+00  0.00000000E+00
  0.00000000E+00  0.00000000E+00  0.00000000E+00
