Mg Mn O                                 
   1.00000000000000     
     8.4141216974800006    0.0000000000000000    0.0000000000000000
     0.0000000000000000    8.4141216974800006    0.0000000000000000
     0.0000000000000000    0.0000000000000000   23.4141216974799988
   Mg   Mn   O 
    32     1    32
Selective dynamics
Direct
  0.2500279257699474  0.0000279257699474  0.0055225772692655   T   T   T
  0.2500382068515680  0.5000270333271093  0.0054991109265599   T   T   T
  0.7500270333271093  0.0000382068515680  0.0054991109265599   T   T   T
  0.7500222832864984  0.5000222832864984  0.0054242455548532   T   T   T
  0.0000440374181936  0.2499996987922375  0.0055416003840206   T   T   T
  0.0000524361474541  0.7500524361474541  0.0055409891700761   T   T   T
  0.5000092536048513  0.2500092536048513  0.0055385239077867   T   T   T
  0.4999996987922375  0.7500440374181936  0.0055416003840206   T   T   T
  0.0001125635025264  0.0000158778197526  0.0949960423965178   T   T   T
  0.0000432899074972  0.5000355357212911  0.0949331979523692   T   T   T
  0.4999454308806803  0.0000127667213786  0.0950047710752585   T   T   T
  0.5000616243854168  0.5000312174512070  0.0949401261841797   T   T   T
  0.2500127667213786  0.2499454308806804  0.0950047710752585   T   T   T
  0.2500158778197527  0.7501125635025263  0.0949960423965178   T   T   T
  0.7500312174512070  0.2500616243854168  0.0949401261841797   T   T   T
  0.7500355357212911  0.7500432899074972  0.0949331979523692   T   T   T
  0.2500537187910996  0.0000537187910996  0.1853946204279359   T   T   T
  0.2502238405592266  0.4999944270314298  0.1852940716488226   T   T   T
  0.7499944270314298  0.0002238405592265  0.1852940716488226   T   T   T
  0.7500284731193647  0.5000284731193647  0.1846515254158975   T   T   T
  0.0000856396587494  0.2498867328016427  0.1856482253890994   T   T   T
  0.0001998588142610  0.7501998588142610  0.1856273770373382   T   T   T
  0.4999579782026816  0.2499579782026815  0.1856656774005365   T   T   T
  0.4998867328016427  0.7500856396587493  0.1856482253890994   T   T   T
  0.0012951860314348  0.0000654469620979  0.2751687213458120   T   T   T
  0.0073940864408292  0.5001132245091280  0.2755948694828205   T   T   T
  0.4987590824315993  0.0000205044073620  0.2751496998770696   T   T   T
  0.4926566730381632  0.5000551287162934  0.2758499026206932   T   T   T
  0.2500205044073620  0.2487590824315993  0.2751496998770696   T   T   T
  0.2500654469620979  0.7512951860314346  0.2751687213458120   T   T   T
  0.7500551287162935  0.2426566730381633  0.2758499026206932   T   T   T
  0.7501132245091281  0.7573940864408293  0.2755948694828205   T   T   T
  0.7468958373792836  0.4968958878142817  0.3696330195379106   T   T   T
 -0.0000117831591376  0.0000273214049292  0.0033557358142696   T   T   T
  0.0000309854661148  0.5000226441008190  0.0033097455562896   T   T   T
  0.5000644801881853  0.0000235701043856  0.0033590477561912   T   T   T
  0.5000288673185552  0.5000255707788840  0.0033094923733925   T   T   T
  0.2500235701043856  0.2500644801881853  0.0033590477561912   T   T   T
  0.2500273214049291  0.7499882168408624  0.0033557358142696   T   T   T
  0.7500255707788840  0.2500288673185552  0.0033094923733925   T   T   T
  0.7500226441008190  0.7500309854661148  0.0033097455562896   T   T   T
  0.2500249032243137  0.0000249032243138  0.0951450221024733   T   T   T
  0.2500887855153536  0.5000289503522383  0.0953445013613841   T   T   T
  0.7500289503522383  0.0000887855153536  0.0953445013613841   T   T   T
  0.7500168642251194  0.5000168642251194  0.0951747563825732   T   T   T
  0.9997539746129098  0.2502583318430383  0.0952711166629008   T   T   T
  0.9997950584795802  0.7497950584795802  0.0952572165656672   T   T   T
  0.5002917501992022  0.2502917501992023  0.0952728554449346   T   T   T
  0.5002583318430384  0.7497539746129098  0.0952711166629008   T   T   T
  0.9997560018304632  0.0000264339721659  0.1849152313341415   T   T   T
  0.9984468088414196  0.5000720383657508  0.1856589015371977   T   T   T
  0.5002915966051580  0.0000207012680585  0.1848990113610193   T   T   T
  0.5017852301626810  0.5000386280856860  0.1857621500916582   T   T   T
  0.2500207012680584  0.2502915966051579  0.1848989197420189   T   T   T
  0.2500264339721659  0.7497560018304632  0.1849151397151411   T   T   T
  0.7500386280856859  0.2517852301626809  0.1857620584726578   T   T   T
  0.7500720383657508  0.7484468088414196  0.1856588099181973   T   T   T
  0.2500405697174914  0.0000406201524898  0.2766693857088766   T   T   T
  0.2500569439368420  0.5000324984607797  0.2762551530923240   T   T   T
  0.7500324480257814  0.0000569943718404  0.2762551530923240   T   T   T
  0.7504831675032841  0.5004832179382825  0.2825746409569714   T   T   T
  0.0005122548711832  0.2496411137793757  0.2760282983172251   T   T   T
  0.0005619309473462  0.7505619309473461  0.2760713869777129   T   T   T
  0.4995985847755740  0.2495985847755741  0.2760248539047797   T   T   T
  0.4996411137793757  0.7505122548711832  0.2760282983172251   T   T   T
 
  0.00000000E+00  0.00000000E+00  0.00000000E+00
  0.00000000E+00  0.00000000E+00  0.00000000E+00
  0.00000000E+00  0.00000000E+00  0.00000000E+00
  0.00000000E+00  0.00000000E+00  0.00000000E+00
  0.00000000E+00  0.00000000E+00  0.00000000E+00
  0.00000000E+00  0.00000000E+00  0.00000000E+00
  0.00000000E+00  0.00000000E+00  0.00000000E+00
  0.00000000E+00  0.00000000E+00  0.00000000E+00
  0.00000000E+00  0.00000000E+00  0.00000000E+00
  0.00000000E+00  0.00000000E+00  0.00000000E+00
  0.00000000E+00  0.00000000E+00  0.00000000E+00
  0.00000000E+00  0.00000000E+00  0.00000000E+00
  0.00000000E+00  0.00000000E+00  0.00000000E+00
  0.00000000E+00  0.00000000E+00  0.00000000E+00
  0.00000000E+00  0.00000000E+00  0.00000000E+00
  0.00000000E+00  0.00000000E+00  0.00000000E+00
  0.00000000E+00  0.00000000E+00  0.00000000E+00
  0.00000000E+00  0.00000000E+00  0.00000000E+00
  0.00000000E+00  0.00000000E+00  0.00000000E+00
  0.00000000E+00  0.00000000E+00  0.00000000E+00
  0.00000000E+00  0.00000000E+00  0.00000000E+00
  0.00000000E+00  0.00000000E+00  0.00000000E+00
  0.00000000E+00  0.00000000E+00  0.00000000E+00
  0.00000000E+00  0.00000000E+00  0.00000000E+00
  0.00000000E+00  0.00000000E+00  0.00000000E+00
  0.00000000E+00  0.00000000E+00  0.00000000E+00
  0.00000000E+00  0.00000000E+00  0.00000000E+00
  0.00000000E+00  0.00000000E+00  0.00000000E+00
  0.00000000E+00  0.00000000E+00  0.00000000E+00
  0.00000000E+00  0.00000000E+00  0.00000000E+00
  0.00000000E+00  0.00000000E+00  0.00000000E+00
  0.00000000E+00  0.00000000E+00  0.00000000E+00
  0.00000000E+00  0.00000000E+00  0.00000000E+00
  0.00000000E+00  0.00000000E+00  0.00000000E+00
  0.00000000E+00  0.00000000E+00  0.00000000E+00
  0.00000000E+00  0.00000000E+00  0.00000000E+00
  0.00000000E+00  0.00000000E+00  0.00000000E+00
  0.00000000E+00  0.00000000E+00  0.00000000E+00
  0.00000000E+00  0.00000000E+00  0.00000000E+00
  0.00000000E+00  0.00000000E+00  0.00000000E+00
  0.00000000E+00  0.00000000E+00  0.00000000E+00
  0.00000000E+00  0.00000000E+00  0.00000000E+00
  0.00000000E+00  0.00000000E+00  0.00000000E+00
  0.00000000E+00  0.00000000E+00  0.00000000E+00
  0.00000000E+00  0.00000000E+00  0.00000000E+00
  0.00000000E+00  0.00000000E+00  0.00000000E+00
  0.00000000E+00  0.00000000E+00  0.00000000E+00
  0.00000000E+00  0.00000000E+00  0.00000000E+00
  0.00000000E+00  0.00000000E+00  0.00000000E+00
  0.00000000E+00  0.00000000E+00  0.00000000E+00
  0.00000000E+00  0.00000000E+00  0.00000000E+00
  0.00000000E+00  0.00000000E+00  0.00000000E+00
  0.00000000E+00  0.00000000E+00  0.00000000E+00
  0.00000000E+00  0.00000000E+00  0.00000000E+00
  0.00000000E+00  0.00000000E+00  0.00000000E+00
  0.00000000E+00  0.00000000E+00  0.00000000E+00
  0.00000000E+00  0.00000000E+00  0.00000000E+00
  0.00000000E+00  0.00000000E+00  0.00000000E+00
  0.00000000E+00  0.00000000E+00  0.00000000E+00
  0.00000000E+00  0.00000000E+00  0.00000000E+00
  0.00000000E+00  0.00000000E+00  0.00000000E+00
  0.00000000E+00  0.00000000E+00  0.00000000E+00
  0.00000000E+00  0.00000000E+00  0.00000000E+00
  0.00000000E+00  0.00000000E+00  0.00000000E+00
  0.00000000E+00  0.00000000E+00  0.00000000E+00
