Mg O                                    
   1.00000000000000     
     8.4141216974800006    0.0000000000000000    0.0000000000000000
     0.0000000000000000    8.4141216974800006    0.0000000000000000
     0.0000000000000000    0.0000000000000000   23.4141216974799988
   Mg   O 
    32    32
Selective dynamics
Direct
  0.2500000000000000  0.0000000000000000  0.0054321940905291   T   T   T
  0.2500000000000000  0.5000000000000000  0.0054321940905291   T   T   T
  0.7500000000000000  0.0000000000000000  0.0054321940905291   T   T   T
  0.7500000000000000  0.5000000000000000  0.0054321940905291   T   T   T
  0.0000000000000000  0.2500000000000000  0.0055664164724741   T   T   T
  0.0000000000000000  0.7500000000000000  0.0055664164724741   T   T   T
  0.5000000000000000  0.2500000000000000  0.0055664164724741   T   T   T
  0.5000000000000000  0.7500000000000000  0.0055664164724741   T   T   T
  0.0000000000000000  0.0000000000000000  0.0949831140570249   T   T   T
  0.0000000000000000  0.5000000000000000  0.0949831140570249   T   T   T
  0.5000000000000000  0.0000000000000000  0.0949831140570249   T   T   T
  0.5000000000000000  0.5000000000000000  0.0949831140570249   T   T   T
  0.2500000000000000  0.2500000000000000  0.0949831140570249   T   T   T
  0.2500000000000000  0.7500000000000000  0.0949831140570249   T   T   T
  0.7500000000000000  0.2500000000000000  0.0949831140570249   T   T   T
  0.7500000000000000  0.7500000000000000  0.0949831140570249   T   T   T
  0.2500000000000000  0.0000000000000000  0.1853478208279372   T   T   T
  0.2500000000000000  0.5000000000000000  0.1853478208279372   T   T   T
  0.7500000000000000  0.0000000000000000  0.1853478208279372   T   T   T
  0.7500000000000000  0.5000000000000000  0.1853478208279372   T   T   T
  0.0000000000000000  0.2500000000000000  0.1856702037999560   T   T   T
  0.0000000000000000  0.7500000000000000  0.1856702037999560   T   T   T
  0.5000000000000000  0.2500000000000000  0.1856702037999560   T   T   T
  0.5000000000000000  0.7500000000000000  0.1856702037999560   T   T   T
  0.0000000000000000  0.0000000000000000  0.2750032996417394   T   T   T
  0.0000000000000000  0.5000000000000000  0.2750032996417394   T   T   T
  0.5000000000000000  0.0000000000000000  0.2750032996417394   T   T   T
  0.5000000000000000  0.5000000000000000  0.2750032996417394   T   T   T
  0.2500000000000000  0.2500000000000000  0.2750032996417394   T   T   T
  0.2500000000000000  0.7500000000000000  0.2750032996417394   T   T   T
  0.7500000000000000  0.2500000000000000  0.2750032996417394   T   T   T
  0.7500000000000000  0.7500000000000000  0.2750032996417394   T   T   T
  0.0000000000000000  0.0000000000000000  0.0033343975655676   T   T   T
  0.0000000000000000  0.5000000000000000  0.0033343975655676   T   T   T
  0.5000000000000000  0.0000000000000000  0.0033343975655676   T   T   T
  0.5000000000000000  0.5000000000000000  0.0033343975655676   T   T   T
  0.2500000000000000  0.2500000000000000  0.0033343975655676   T   T   T
  0.2500000000000000  0.7500000000000000  0.0033343975655676   T   T   T
  0.7500000000000000  0.2500000000000000  0.0033343975655676   T   T   T
  0.7500000000000000  0.7500000000000000  0.0033343975655676   T   T   T
  0.2500000000000000  0.0000000000000000  0.0951593522306350   T   T   T
  0.2500000000000000  0.5000000000000000  0.0951593522306350   T   T   T
  0.7500000000000000  0.0000000000000000  0.0951593522306350   T   T   T
  0.7500000000000000  0.5000000000000000  0.0951593522306350   T   T   T
  0.0000000000000000  0.2500000000000000  0.0952930703562046   T   T   T
  0.0000000000000000  0.7500000000000000  0.0952930703562046   T   T   T
  0.5000000000000000  0.2500000000000000  0.0952930703562046   T   T   T
  0.5000000000000000  0.7500000000000000  0.0952930703562046   T   T   T
  0.0000000000000000  0.0000000000000000  0.1851663466110897   T   T   T
  0.0000000000000000  0.5000000000000000  0.1851663466110897   T   T   T
  0.5000000000000000  0.0000000000000000  0.1851663466110897   T   T   T
  0.5000000000000000  0.5000000000000000  0.1851663466110897   T   T   T
  0.2500000000000000  0.2500000000000000  0.1851662549920894   T   T   T
  0.2500000000000000  0.7500000000000000  0.1851662549920894   T   T   T
  0.7500000000000000  0.2500000000000000  0.1851662549920894   T   T   T
  0.7500000000000000  0.7500000000000000  0.1851662549920894   T   T   T
  0.2499999495650016 -0.0000000000000000  0.2774629316451871   T   T   T
  0.2499999495650016  0.5000000000000000  0.2774629316451871   T   T   T
  0.7499999495650016 -0.0000000000000000  0.2774629316451871   T   T   T
  0.7499999495650016  0.5000000000000000  0.2774629316451871   T   T   T
  0.0000000000000000  0.2500000000000000  0.2769828271022153   T   T   T
  0.0000000000000000  0.7500000000000000  0.2769828271022153   T   T   T
  0.5000000000000000  0.2500000000000000  0.2769828271022153   T   T   T
  0.5000000000000000  0.7500000000000000  0.2769828271022153   T   T   T
 
  0.00000000E+00  0.00000000E+00  0.00000000E+00
  0.00000000E+00  0.00000000E+00  0.00000000E+00
  0.00000000E+00  0.00000000E+00  0.00000000E+00
  0.00000000E+00  0.00000000E+00  0.00000000E+00
  0.00000000E+00  0.00000000E+00  0.00000000E+00
  0.00000000E+00  0.00000000E+00  0.00000000E+00
  0.00000000E+00  0.00000000E+00  0.00000000E+00
  0.00000000E+00  0.00000000E+00  0.00000000E+00
  0.00000000E+00  0.00000000E+00  0.00000000E+00
  0.00000000E+00  0.00000000E+00  0.00000000E+00
  0.00000000E+00  0.00000000E+00  0.00000000E+00
  0.00000000E+00  0.00000000E+00  0.00000000E+00
  0.00000000E+00  0.00000000E+00  0.00000000E+00
  0.00000000E+00  0.00000000E+00  0.00000000E+00
  0.00000000E+00  0.00000000E+00  0.00000000E+00
  0.00000000E+00  0.00000000E+00  0.00000000E+00
  0.00000000E+00  0.00000000E+00  0.00000000E+00
  0.00000000E+00  0.00000000E+00  0.00000000E+00
  0.00000000E+00  0.00000000E+00  0.00000000E+00
  0.00000000E+00  0.00000000E+00  0.00000000E+00
  0.00000000E+00  0.00000000E+00  0.00000000E+00
  0.00000000E+00  0.00000000E+00  0.00000000E+00
  0.00000000E+00  0.00000000E+00  0.00000000E+00
  0.00000000E+00  0.00000000E+00  0.00000000E+00
  0.00000000E+00  0.00000000E+00  0.00000000E+00
  0.00000000E+00  0.00000000E+00  0.00000000E+00
  0.00000000E+00  0.00000000E+00  0.00000000E+00
  0.00000000E+00  0.00000000E+00  0.00000000E+00
  0.00000000E+00  0.00000000E+00  0.00000000E+00
  0.00000000E+00  0.00000000E+00  0.00000000E+00
  0.00000000E+00  0.00000000E+00  0.00000000E+00
  0.00000000E+00  0.00000000E+00  0.00000000E+00
  0.00000000E+00  0.00000000E+00  0.00000000E+00
  0.00000000E+00  0.00000000E+00  0.00000000E+00
  0.00000000E+00  0.00000000E+00  0.00000000E+00
  0.00000000E+00  0.00000000E+00  0.00000000E+00
  0.00000000E+00  0.00000000E+00  0.00000000E+00
  0.00000000E+00  0.00000000E+00  0.00000000E+00
  0.00000000E+00  0.00000000E+00  0.00000000E+00
  0.00000000E+00  0.00000000E+00  0.00000000E+00
  0.00000000E+00  0.00000000E+00  0.00000000E+00
  0.00000000E+00  0.00000000E+00  0.00000000E+00
  0.00000000E+00  0.00000000E+00  0.00000000E+00
  0.00000000E+00  0.00000000E+00  0.00000000E+00
  0.00000000E+00  0.00000000E+00  0.00000000E+00
  0.00000000E+00  0.00000000E+00  0.00000000E+00
  0.00000000E+00  0.00000000E+00  0.00000000E+00
  0.00000000E+00  0.00000000E+00  0.00000000E+00
  0.00000000E+00  0.00000000E+00  0.00000000E+00
  0.00000000E+00  0.00000000E+00  0.00000000E+00
  0.00000000E+00  0.00000000E+00  0.00000000E+00
  0.00000000E+00  0.00000000E+00  0.00000000E+00
  0.00000000E+00  0.00000000E+00  0.00000000E+00
  0.00000000E+00  0.00000000E+00  0.00000000E+00
  0.00000000E+00  0.00000000E+00  0.00000000E+00
  0.00000000E+00  0.00000000E+00  0.00000000E+00
  0.00000000E+00  0.00000000E+00  0.00000000E+00
  0.00000000E+00  0.00000000E+00  0.00000000E+00
  0.00000000E+00  0.00000000E+00  0.00000000E+00
  0.00000000E+00  0.00000000E+00  0.00000000E+00
  0.00000000E+00  0.00000000E+00  0.00000000E+00
  0.00000000E+00  0.00000000E+00  0.00000000E+00
  0.00000000E+00  0.00000000E+00  0.00000000E+00
  0.00000000E+00  0.00000000E+00  0.00000000E+00
