Mg O Pd                                 
   1.00000000000000     
     8.4141216974800006    0.0000000000000000    0.0000000000000000
     0.0000000000000000    8.4141216974800006    0.0000000000000000
     0.0000000000000000    0.0000000000000000   23.4141216974799988
   Mg   O    Pd
    32    32     1
Selective dynamics
Direct
  0.2500000000000000 -0.0000000000000000  0.0054251957344176   T   T   T
  0.2500000000000000  0.5000000000000000  0.0054790570105228   T   T   T
  0.7500000000000000 -0.0000000000000000  0.0054790570105228   T   T   T
  0.7500000000000000  0.5000000000000000  0.0055292700414632   T   T   T
  0.0000082496296248  0.2499917503703752  0.0055599899016382   T   T   T
  0.0000082496296248  0.7500082496296250  0.0055599899016382   T   T   T
  0.4999917503703751  0.2499917503703752  0.0055599899016382   T   T   T
  0.4999917503703751  0.7500082496296250  0.0055599899016382   T   T   T
 -0.0002355628304894 -0.0000000000000000  0.0949299780087345   T   T   T
 -0.0001780411260600  0.5000000000000000  0.0950606974068974   T   T   T
  0.5002355628304894 -0.0000000000000000  0.0949299780087345   T   T   T
  0.5001780411260599  0.5000000000000000  0.0950606974068974   T   T   T
  0.2500000000000000  0.2502355628304894  0.0949299780087345   T   T   T
  0.2500000000000000  0.7497644371695106  0.0949299780087345   T   T   T
  0.7500000000000000  0.2501780411260600  0.0950606974068974   T   T   T
  0.7500000000000000  0.7498219588739402  0.0950606974068974   T   T   T
  0.2500000000000000 -0.0000000000000000  0.1845087317333942   T   T   T
  0.2500000000000000  0.5000000000000000  0.1854832418982383   T   T   T
  0.7500000000000000 -0.0000000000000000  0.1854832418982383   T   T   T
  0.7500000000000000  0.5000000000000000  0.1855333278310755   T   T   T
  0.0002635706194794  0.2497364293805206  0.1856999306331120   T   T   T
  0.0002635706194794  0.7502635706194793  0.1856999306331120   T   T   T
  0.4997364293805207  0.2497364293805206  0.1856999306331120   T   T   T
  0.4997364293805207  0.7502635706194793  0.1856999306331120   T   T   T
 -0.0053923557742944 -0.0000000000000000  0.2761959061989028   T   T   T
 -0.0010591405359301  0.5000000000000000  0.2749536479025179   T   T   T
  0.5053923557742944 -0.0000000000000000  0.2761959061989028   T   T   T
  0.5010591405359301  0.5000000000000000  0.2749536479025179   T   T   T
  0.2500000000000000  0.2553923557742945  0.2761959061989028   T   T   T
  0.2500000000000000  0.7446076442257056  0.2761959061989028   T   T   T
  0.7500000000000000  0.2510591405359301  0.2749536479025179   T   T   T
  0.7500000000000000  0.7489408594640699  0.2749536479025179   T   T   T
 -0.0000917791709734 -0.0000000000000000  0.0032863973919856   T   T   T
  0.0000254221205197  0.5000000000000000  0.0033087425531007   T   T   T
  0.5000917791709735 -0.0000000000000000  0.0032863973919856   T   T   T
  0.4999745778794804  0.5000000000000000  0.0033087425531007   T   T   T
  0.2500000000000000  0.2500917791709734  0.0032863973919856   T   T   T
  0.2500000000000000  0.7499082208290265  0.0032863973919856   T   T   T
  0.7500000000000000  0.2499745778794803  0.0033087425531007   T   T   T
  0.7500000000000000  0.7500254221205196  0.0033087425531007   T   T   T
  0.2500000000000000 -0.0000000000000000  0.0950775551463015   T   T   T
  0.2500000000000000  0.5000000000000000  0.0953142846158487   T   T   T
  0.7500000000000000 -0.0000000000000000  0.0953142846158487   T   T   T
  0.7500000000000000  0.5000000000000000  0.0952351765619747   T   T   T
  0.0001665709104058  0.2498334290895942  0.0952596832476677   T   T   T
  0.0001665709104058  0.7501665709104058  0.0952596832476677   T   T   T
  0.4998334290895942  0.2498334290895942  0.0952596832476677   T   T   T
  0.4998334290895942  0.7501665709104058  0.0952596832476677   T   T   T
  0.0008529314170198 -0.0000000000000000  0.1855982062821063   T   T   T
  0.0001606316174236  0.5000000000000000  0.1851296538213826   T   T   T
  0.4991470685829802 -0.0000000000000000  0.1855982062821063   T   T   T
  0.4998393683825764  0.5000000000000000  0.1851296538213826   T   T   T
  0.2500000000000000  0.2491470685829802  0.1855981146631059   T   T   T
  0.2500000000000000  0.7508529314170198  0.1855981146631059   T   T   T
  0.7500000000000000  0.2498393683825764  0.1851295622023822   T   T   T
  0.7500000000000000  0.7501606316174236  0.1851295622023822   T   T   T
  0.2499999495650016 -0.0000000000000000  0.2762702715190956   T   T   T
  0.2499999495650016  0.5000000000000000  0.2769348850795920   T   T   T
  0.7499999495650016 -0.0000000000000000  0.2769348850795920   T   T   T
  0.7499999495650016  0.5000000000000000  0.2771811465187007   T   T   T
 -0.0008746308154925  0.2508746308154925  0.2764156674440025   T   T   T
 -0.0008746308154925  0.7491253691845075  0.2764156674440025   T   T   T
  0.5008746308154925  0.2508746308154925  0.2764156674440025   T   T   T
  0.5008746308154925  0.7491253691845075  0.2764156674440025   T   T   T
  0.2499999495650016 -0.0000000000000000  0.3646255675119098   T   T   T
 
  0.00000000E+00  0.00000000E+00  0.00000000E+00
  0.00000000E+00  0.00000000E+00  0.00000000E+00
  0.00000000E+00  0.00000000E+00  0.00000000E+00
  0.00000000E+00  0.00000000E+00  0.00000000E+00
  0.00000000E+00  0.00000000E+00  0.00000000E+00
  0.00000000E+00  0.00000000E+00  0.00000000E+00
  0.00000000E+00  0.00000000E+00  0.00000000E+00
  0.00000000E+00  0.00000000E+00  0.00000000E+00
  0.00000000E+00  0.00000000E+00  0.00000000E+00
  0.00000000E+00  0.00000000E+00  0.00000000E+00
  0.00000000E+00  0.00000000E+00  0.00000000E+00
  0.00000000E+00  0.00000000E+00  0.00000000E+00
  0.00000000E+00  0.00000000E+00  0.00000000E+00
  0.00000000E+00  0.00000000E+00  0.00000000E+00
  0.00000000E+00  0.00000000E+00  0.00000000E+00
  0.00000000E+00  0.00000000E+00  0.00000000E+00
  0.00000000E+00  0.00000000E+00  0.00000000E+00
  0.00000000E+00  0.00000000E+00  0.00000000E+00
  0.00000000E+00  0.00000000E+00  0.00000000E+00
  0.00000000E+00  0.00000000E+00  0.00000000E+00
  0.00000000E+00  0.00000000E+00  0.00000000E+00
  0.00000000E+00  0.00000000E+00  0.00000000E+00
  0.00000000E+00  0.00000000E+00  0.00000000E+00
  0.00000000E+00  0.00000000E+00  0.00000000E+00
  0.00000000E+00  0.00000000E+00  0.00000000E+00
  0.00000000E+00  0.00000000E+00  0.00000000E+00
  0.00000000E+00  0.00000000E+00  0.00000000E+00
  0.00000000E+00  0.00000000E+00  0.00000000E+00
  0.00000000E+00  0.00000000E+00  0.00000000E+00
  0.00000000E+00  0.00000000E+00  0.00000000E+00
  0.00000000E+00  0.00000000E+00  0.00000000E+00
  0.00000000E+00  0.00000000E+00  0.00000000E+00
  0.00000000E+00  0.00000000E+00  0.00000000E+00
  0.00000000E+00  0.00000000E+00  0.00000000E+00
  0.00000000E+00  0.00000000E+00  0.00000000E+00
  0.00000000E+00  0.00000000E+00  0.00000000E+00
  0.00000000E+00  0.00000000E+00  0.00000000E+00
  0.00000000E+00  0.00000000E+00  0.00000000E+00
  0.00000000E+00  0.00000000E+00  0.00000000E+00
  0.00000000E+00  0.00000000E+00  0.00000000E+00
  0.00000000E+00  0.00000000E+00  0.00000000E+00
  0.00000000E+00  0.00000000E+00  0.00000000E+00
  0.00000000E+00  0.00000000E+00  0.00000000E+00
  0.00000000E+00  0.00000000E+00  0.00000000E+00
  0.00000000E+00  0.00000000E+00  0.00000000E+00
  0.00000000E+00  0.00000000E+00  0.00000000E+00
  0.00000000E+00  0.00000000E+00  0.00000000E+00
  0.00000000E+00  0.00000000E+00  0.00000000E+00
  0.00000000E+00  0.00000000E+00  0.00000000E+00
  0.00000000E+00  0.00000000E+00  0.00000000E+00
  0.00000000E+00  0.00000000E+00  0.00000000E+00
  0.00000000E+00  0.00000000E+00  0.00000000E+00
  0.00000000E+00  0.00000000E+00  0.00000000E+00
  0.00000000E+00  0.00000000E+00  0.00000000E+00
  0.00000000E+00  0.00000000E+00  0.00000000E+00
  0.00000000E+00  0.00000000E+00  0.00000000E+00
  0.00000000E+00  0.00000000E+00  0.00000000E+00
  0.00000000E+00  0.00000000E+00  0.00000000E+00
  0.00000000E+00  0.00000000E+00  0.00000000E+00
  0.00000000E+00  0.00000000E+00  0.00000000E+00
  0.00000000E+00  0.00000000E+00  0.00000000E+00
  0.00000000E+00  0.00000000E+00  0.00000000E+00
  0.00000000E+00  0.00000000E+00  0.00000000E+00
  0.00000000E+00  0.00000000E+00  0.00000000E+00
  0.00000000E+00  0.00000000E+00  0.00000000E+00
