Mg Ni O                                 
   1.00000000000000     
     8.4141216974800006    0.0000000000000000    0.0000000000000000
     0.0000000000000000    8.4141216974800006    0.0000000000000000
     0.0000000000000000    0.0000000000000000   23.4141216974799988
   Mg   Ni   O 
    32     1    32
Selective dynamics
Direct
  0.2500000000000000  0.0000000000000000  0.0058193180497968   T   T   T
  0.2500000000000000  0.5000000000000000  0.0057293661366170   T   T   T
  0.7500000000000000  0.0000000000000000  0.0057293661366170   T   T   T
  0.7500000000000000  0.5000000000000000  0.0057150395717733   T   T   T
 -0.0000103895180559  0.2500103895180559  0.0058436873827779   T   T   T
 -0.0000103895180559  0.7499896104819442  0.0058436873827779   T   T   T
  0.5000103895180559  0.2500103895180559  0.0058436873827779   T   T   T
  0.5000103895180559  0.7499896104819442  0.0058436873827779   T   T   T
 -0.0000387137888523  0.0000000000000000  0.0953863962891966   T   T   T
  0.0000991834826128  0.5000000000000000  0.0953738512795992   T   T   T
  0.5000387137888523  0.0000000000000000  0.0953863962891966   T   T   T
  0.4999008165173872  0.5000000000000000  0.0953738512795992   T   T   T
  0.2500000000000000  0.2500387137888522  0.0953863962891966   T   T   T
  0.2500000000000000  0.7499612862111477  0.0953863962891966   T   T   T
  0.7500000000000000  0.2499008165173873  0.0953738512795992   T   T   T
  0.7500000000000000  0.7500991834826128  0.0953738512795992   T   T   T
  0.2500000000000000  0.0000000000000000  0.1855771335558967   T   T   T
  0.2500000000000000  0.5000000000000000  0.1858639491932037   T   T   T
  0.7500000000000000  0.0000000000000000  0.1858639491932037   T   T   T
  0.7500000000000000  0.5000000000000000  0.1849351487947338   T   T   T
 -0.0002220730288487  0.2502220730288487  0.1862024378376086   T   T   T
 -0.0002220730288487  0.7497779269711514  0.1862024378376086   T   T   T
  0.5002220730288487  0.2502220730288487  0.1862024378376086   T   T   T
  0.5002220730288487  0.7497779269711514  0.1862024378376086   T   T   T
  0.0015919069373652  0.0000000000000000  0.2752147058285544   T   T   T
  0.0071989234568607  0.5000000000000000  0.2771390102360904   T   T   T
  0.4984080930626348  0.0000000000000000  0.2752147058285544   T   T   T
  0.4928010765431392  0.5000000000000000  0.2771390102360904   T   T   T
  0.2500000000000000  0.2484080930626349  0.2752147058285544   T   T   T
  0.2500000000000000  0.7515919069373654  0.2752147058285544   T   T   T
  0.7500000000000000  0.2428010765431393  0.2771390102360904   T   T   T
  0.7500000000000000  0.7571989234568607  0.2771390102360904   T   T   T
  0.7499999495650016  0.5000000000000000  0.3541351960879617   T   T   T
 -0.0000486582037187  0.0000000000000000  0.0036611099142207   T   T   T
 -0.0000490197286557  0.5000000000000000  0.0036115591385124   T   T   T
  0.5000486582037185  0.0000000000000000  0.0036611099142207   T   T   T
  0.5000490197286559  0.5000000000000000  0.0036115591385124   T   T   T
  0.2500000000000000  0.2500486582037187  0.0036611099142207   T   T   T
  0.2500000000000000  0.7499513417962815  0.0036611099142207   T   T   T
  0.7500000000000000  0.2500490197286557  0.0036115591385124   T   T   T
  0.7500000000000000  0.7499509802713440  0.0036115591385124   T   T   T
  0.2500000000000000  0.0000000000000000  0.0954961177344829   T   T   T
  0.2500000000000000  0.5000000000000000  0.0956566904806895   T   T   T
  0.7500000000000000  0.0000000000000000  0.0956566904806895   T   T   T
  0.7500000000000000  0.5000000000000000  0.0955958347651942   T   T   T
 -0.0002905507351809  0.2502905507351809  0.0956036354932617   T   T   T
 -0.0002905507351809  0.7497094492648194  0.0956036354932617   T   T   T
  0.5002905507351806  0.2502905507351809  0.0956036354932617   T   T   T
  0.5002905507351806  0.7497094492648194  0.0956036354932617   T   T   T
 -0.0003463303117466  0.0000000000000000  0.1852715019745634   T   T   T
 -0.0011759316655861  0.5000000000000000  0.1862550435632588   T   T   T
  0.5003463303117467  0.0000000000000000  0.1852715019745634   T   T   T
  0.5011759316655862  0.5000000000000000  0.1862550435632588   T   T   T
  0.2500000000000000  0.2503463303117466  0.1852714103555630   T   T   T
  0.2500000000000000  0.7496536696882533  0.1852714103555630   T   T   T
  0.7500000000000000  0.2511759316655860  0.1862549519442584   T   T   T
  0.7500000000000000  0.7488240683344138  0.1862549519442584   T   T   T
  0.2499999495650016  0.0000000000000000  0.2769092493805645   T   T   T
  0.2499999495650016  0.5000000000000000  0.2773488521632104   T   T   T
  0.7499999495650016  0.0000000000000000  0.2773488521632104   T   T   T
  0.7499999495650016  0.5000000000000000  0.2777430085484028   T   T   T
  0.0012545369759482  0.2487454630240518  0.2767852289017758   T   T   T
  0.0012545369759482  0.7512545369759479  0.2767852289017758   T   T   T
  0.4987454630240517  0.2487454630240518  0.2767852289017758   T   T   T
  0.4987454630240517  0.7512545369759479  0.2767852289017758   T   T   T
 
  0.00000000E+00  0.00000000E+00  0.00000000E+00
  0.00000000E+00  0.00000000E+00  0.00000000E+00
  0.00000000E+00  0.00000000E+00  0.00000000E+00
  0.00000000E+00  0.00000000E+00  0.00000000E+00
  0.00000000E+00  0.00000000E+00  0.00000000E+00
  0.00000000E+00  0.00000000E+00  0.00000000E+00
  0.00000000E+00  0.00000000E+00  0.00000000E+00
  0.00000000E+00  0.00000000E+00  0.00000000E+00
  0.00000000E+00  0.00000000E+00  0.00000000E+00
  0.00000000E+00  0.00000000E+00  0.00000000E+00
  0.00000000E+00  0.00000000E+00  0.00000000E+00
  0.00000000E+00  0.00000000E+00  0.00000000E+00
  0.00000000E+00  0.00000000E+00  0.00000000E+00
  0.00000000E+00  0.00000000E+00  0.00000000E+00
  0.00000000E+00  0.00000000E+00  0.00000000E+00
  0.00000000E+00  0.00000000E+00  0.00000000E+00
  0.00000000E+00  0.00000000E+00  0.00000000E+00
  0.00000000E+00  0.00000000E+00  0.00000000E+00
  0.00000000E+00  0.00000000E+00  0.00000000E+00
  0.00000000E+00  0.00000000E+00  0.00000000E+00
  0.00000000E+00  0.00000000E+00  0.00000000E+00
  0.00000000E+00  0.00000000E+00  0.00000000E+00
  0.00000000E+00  0.00000000E+00  0.00000000E+00
  0.00000000E+00  0.00000000E+00  0.00000000E+00
  0.00000000E+00  0.00000000E+00  0.00000000E+00
  0.00000000E+00  0.00000000E+00  0.00000000E+00
  0.00000000E+00  0.00000000E+00  0.00000000E+00
  0.00000000E+00  0.00000000E+00  0.00000000E+00
  0.00000000E+00  0.00000000E+00  0.00000000E+00
  0.00000000E+00  0.00000000E+00  0.00000000E+00
  0.00000000E+00  0.00000000E+00  0.00000000E+00
  0.00000000E+00  0.00000000E+00  0.00000000E+00
  0.00000000E+00  0.00000000E+00  0.00000000E+00
  0.00000000E+00  0.00000000E+00  0.00000000E+00
  0.00000000E+00  0.00000000E+00  0.00000000E+00
  0.00000000E+00  0.00000000E+00  0.00000000E+00
  0.00000000E+00  0.00000000E+00  0.00000000E+00
  0.00000000E+00  0.00000000E+00  0.00000000E+00
  0.00000000E+00  0.00000000E+00  0.00000000E+00
  0.00000000E+00  0.00000000E+00  0.00000000E+00
  0.00000000E+00  0.00000000E+00  0.00000000E+00
  0.00000000E+00  0.00000000E+00  0.00000000E+00
  0.00000000E+00  0.00000000E+00  0.00000000E+00
  0.00000000E+00  0.00000000E+00  0.00000000E+00
  0.00000000E+00  0.00000000E+00  0.00000000E+00
  0.00000000E+00  0.00000000E+00  0.00000000E+00
  0.00000000E+00  0.00000000E+00  0.00000000E+00
  0.00000000E+00  0.00000000E+00  0.00000000E+00
  0.00000000E+00  0.00000000E+00  0.00000000E+00
  0.00000000E+00  0.00000000E+00  0.00000000E+00
  0.00000000E+00  0.00000000E+00  0.00000000E+00
  0.00000000E+00  0.00000000E+00  0.00000000E+00
  0.00000000E+00  0.00000000E+00  0.00000000E+00
  0.00000000E+00  0.00000000E+00  0.00000000E+00
  0.00000000E+00  0.00000000E+00  0.00000000E+00
  0.00000000E+00  0.00000000E+00  0.00000000E+00
  0.00000000E+00  0.00000000E+00  0.00000000E+00
  0.00000000E+00  0.00000000E+00  0.00000000E+00
  0.00000000E+00  0.00000000E+00  0.00000000E+00
  0.00000000E+00  0.00000000E+00  0.00000000E+00
  0.00000000E+00  0.00000000E+00  0.00000000E+00
  0.00000000E+00  0.00000000E+00  0.00000000E+00
  0.00000000E+00  0.00000000E+00  0.00000000E+00
  0.00000000E+00  0.00000000E+00  0.00000000E+00
  0.00000000E+00  0.00000000E+00  0.00000000E+00
