Cr Mg O                                 
   1.00000000000000     
     8.4141216974800006    0.0000000000000000    0.0000000000000000
     0.0000000000000000    8.4141216974800006    0.0000000000000000
     0.0000000000000000    0.0000000000000000   23.4141216974799988
   Cr   Mg   O 
     1    32    32
Selective dynamics
Direct
  0.7499999353084376  0.4999999857434358  0.3798714794805089   T   T   T
  0.2499999989173912 -0.0000000010826088  0.0054824542489377   T   T   T
  0.2499999990485748  0.5000000000406403  0.0054897180205577   T   T   T
  0.7500000000406404 -0.0000000009514252  0.0054897180205577   T   T   T
  0.7500000002611928  0.5000000002611931  0.0054371252445168   T   T   T
  0.0000121616182299  0.2499878390870895  0.0055053991930080   T   T   T
  0.0000121618507386  0.7500121618507386  0.0055054005669552   T   T   T
  0.4999878392117115  0.2499878392117116  0.0055053986150295   T   T   T
  0.4999878390870896  0.7500121616182299  0.0055053991930080   T   T   T
 -0.0000438348279888  0.0000000013004225  0.0949422695259359   T   T   T
 -0.0001449570103008  0.4999999994091472  0.0949772158489487   T   T   T
  0.5000438342718672  0.0000000002902744  0.0949422698503326   T   T   T
  0.5001449572716709  0.5000000020344315  0.0949772160789716   T   T   T
  0.2500000002902744  0.2500438342718670  0.0949422698503326   T   T   T
  0.2500000013004224  0.7499561651720112  0.0949422695259359   T   T   T
  0.7500000020344316  0.2501449572716709  0.0949772160789716   T   T   T
  0.7499999994091472  0.7498550429896993  0.0949772158489487   T   T   T
  0.2500000001947068  0.0000000001947067  0.1853998244658720   T   T   T
  0.2499999983409302  0.4999999940264348  0.1854258031761763   T   T   T
  0.7499999940264349 -0.0000000016590698  0.1854258031761763   T   T   T
  0.7500000004927847  0.5000000004927847  0.1854529605840351   T   T   T
 -0.0000011167734813  0.2500011175230748  0.1855846639678023   T   T   T
 -0.0000011214956007  0.7499988785043995  0.1855846646325257   T   T   T
  0.5000011168130146  0.2500011168130145  0.1855846631528465   T   T   T
  0.5000011175230746  0.7499988832265186  0.1855846639678023   T   T   T
  0.0005980836695215 -0.0000000067382630  0.2751341512801234   T   T   T
  0.0039468913589541  0.4999999944962532  0.2753614632161612   T   T   T
  0.4994019049632082 -0.0000000038739185  0.2751341510937839   T   T   T
  0.4960531027406297  0.4999999972407377  0.2753614632129667   T   T   T
  0.2499999961260816  0.2494019049632082  0.2751341510937839   T   T   T
  0.2499999932617370  0.7505980836695215  0.2751341512801234   T   T   T
  0.7499999972407375  0.2460531027406297  0.2753614632129667   T   T   T
  0.7499999944962530  0.7539468913589543  0.2753614632161612   T   T   T
 -0.0000221889241488  0.0000000038003153  0.0033183732212821   T   T   T
 -0.0000291692611964  0.4999999958652001  0.0032821009174104   T   T   T
  0.5000221835426747 -0.0000000017914483  0.0033183740207049   T   T   T
  0.5000291718258094  0.4999999986069735  0.0032820965459834   T   T   T
  0.2499999982085517  0.2500221835426747  0.0033183740207049   T   T   T
  0.2500000038003152  0.7499778110758512  0.0033183732212821   T   T   T
  0.7499999986069736  0.2500291718258093  0.0032820965459834   T   T   T
  0.7499999958652002  0.7499708307388036  0.0032821009174104   T   T   T
  0.2500000017402388  0.0000000017402389  0.0951505522474979   T   T   T
  0.2499999991327380  0.5000000001389926  0.0953137783397847   T   T   T
  0.7500000001389928 -0.0000000008672620  0.0953137783397847   T   T   T
  0.7500000001600545  0.5000000001600545  0.0952544646318687   T   T   T
  0.9998335541623953  0.2501664446447632  0.0952556950977431   T   T   T
  0.9998335611296059  0.7498335611296059  0.0952556855879774   T   T   T
  0.5001664435586413  0.2501664435586414  0.0952556900129927   T   T   T
  0.5001664446447631  0.7498335541623953  0.0952556950977431   T   T   T
  0.9997966070972115 -0.0000000027982332  0.1850232073538665   T   T   T
  0.9990147456978423  0.4999999974855068  0.1855602750997645   T   T   T
  0.5002033948242393  0.0000000035036605  0.1850232070656913   T   T   T
  0.5009852544355770  0.4999999992788692  0.1855602748648530   T   T   T
  0.2500000035036605  0.2502033948242393  0.1850231154466909   T   T   T
  0.2499999972017668  0.7497966070972115  0.1850231157348661   T   T   T
  0.7499999992788692  0.2509852544355771  0.1855601832458527   T   T   T
  0.7499999974855067  0.7490147456978423  0.1855601834807641   T   T   T
  0.2499999646518649  0.0000000150868633  0.2766858614863377   T   T   T
  0.2499999592627498  0.5000000284165689  0.2765942653794438   T   T   T
  0.7499999779815705  0.0000000096977483  0.2765942653794438   T   T   T
  0.7499999707122978  0.5000000211472962  0.2801701544040464   T   T   T
  0.0001913824476845  0.2498086151729731  0.2766077306536142   T   T   T
  0.0001913796498973  0.7501913796498972  0.2766077291282497   T   T   T
  0.4998086090271707  0.2498086090271707  0.2766077272820076   T   T   T
  0.4998086151729730  0.7501913824476847  0.2766077306536142   T   T   T
 
  0.00000000E+00  0.00000000E+00  0.00000000E+00
  0.00000000E+00  0.00000000E+00  0.00000000E+00
  0.00000000E+00  0.00000000E+00  0.00000000E+00
  0.00000000E+00  0.00000000E+00  0.00000000E+00
  0.00000000E+00  0.00000000E+00  0.00000000E+00
  0.00000000E+00  0.00000000E+00  0.00000000E+00
  0.00000000E+00  0.00000000E+00  0.00000000E+00
  0.00000000E+00  0.00000000E+00  0.00000000E+00
  0.00000000E+00  0.00000000E+00  0.00000000E+00
  0.00000000E+00  0.00000000E+00  0.00000000E+00
  0.00000000E+00  0.00000000E+00  0.00000000E+00
  0.00000000E+00  0.00000000E+00  0.00000000E+00
  0.00000000E+00  0.00000000E+00  0.00000000E+00
  0.00000000E+00  0.00000000E+00  0.00000000E+00
  0.00000000E+00  0.00000000E+00  0.00000000E+00
  0.00000000E+00  0.00000000E+00  0.00000000E+00
  0.00000000E+00  0.00000000E+00  0.00000000E+00
  0.00000000E+00  0.00000000E+00  0.00000000E+00
  0.00000000E+00  0.00000000E+00  0.00000000E+00
  0.00000000E+00  0.00000000E+00  0.00000000E+00
  0.00000000E+00  0.00000000E+00  0.00000000E+00
  0.00000000E+00  0.00000000E+00  0.00000000E+00
  0.00000000E+00  0.00000000E+00  0.00000000E+00
  0.00000000E+00  0.00000000E+00  0.00000000E+00
  0.00000000E+00  0.00000000E+00  0.00000000E+00
  0.00000000E+00  0.00000000E+00  0.00000000E+00
  0.00000000E+00  0.00000000E+00  0.00000000E+00
  0.00000000E+00  0.00000000E+00  0.00000000E+00
  0.00000000E+00  0.00000000E+00  0.00000000E+00
  0.00000000E+00  0.00000000E+00  0.00000000E+00
  0.00000000E+00  0.00000000E+00  0.00000000E+00
  0.00000000E+00  0.00000000E+00  0.00000000E+00
  0.00000000E+00  0.00000000E+00  0.00000000E+00
  0.00000000E+00  0.00000000E+00  0.00000000E+00
  0.00000000E+00  0.00000000E+00  0.00000000E+00
  0.00000000E+00  0.00000000E+00  0.00000000E+00
  0.00000000E+00  0.00000000E+00  0.00000000E+00
  0.00000000E+00  0.00000000E+00  0.00000000E+00
  0.00000000E+00  0.00000000E+00  0.00000000E+00
  0.00000000E+00  0.00000000E+00  0.00000000E+00
  0.00000000E+00  0.00000000E+00  0.00000000E+00
  0.00000000E+00  0.00000000E+00  0.00000000E+00
  0.00000000E+00  0.00000000E+00  0.00000000E+00
  0.00000000E+00  0.00000000E+00  0.00000000E+00
  0.00000000E+00  0.00000000E+00  0.00000000E+00
  0.00000000E+00  0.00000000E+00  0.00000000E+00
  0.00000000E+00  0.00000000E+00  0.00000000E+00
  0.00000000E+00  0.00000000E+00  0.00000000E+00
  0.00000000E+00  0.00000000E+00  0.00000000E+00
  0.00000000E+00  0.00000000E+00  0.00000000E+00
  0.00000000E+00  0.00000000E+00  0.00000000E+00
  0.00000000E+00  0.00000000E+00  0.00000000E+00
  0.00000000E+00  0.00000000E+00  0.00000000E+00
  0.00000000E+00  0.00000000E+00  0.00000000E+00
  0.00000000E+00  0.00000000E+00  0.00000000E+00
  0.00000000E+00  0.00000000E+00  0.00000000E+00
  0.00000000E+00  0.00000000E+00  0.00000000E+00
  0.00000000E+00  0.00000000E+00  0.00000000E+00
  0.00000000E+00  0.00000000E+00  0.00000000E+00
  0.00000000E+00  0.00000000E+00  0.00000000E+00
  0.00000000E+00  0.00000000E+00  0.00000000E+00
  0.00000000E+00  0.00000000E+00  0.00000000E+00
  0.00000000E+00  0.00000000E+00  0.00000000E+00
  0.00000000E+00  0.00000000E+00  0.00000000E+00
  0.00000000E+00  0.00000000E+00  0.00000000E+00
