Mg O Rh                                 
   1.00000000000000     
     8.4141216974800006    0.0000000000000000    0.0000000000000000
     0.0000000000000000    8.4141216974800006    0.0000000000000000
     0.0000000000000000    0.0000000000000000   23.4141216974799988
   Mg   O    Rh
    32    32     1
Selective dynamics
Direct
  0.2500000289113245  0.0000000289113245  0.0054976686351951   T   T   T
  0.2500000151709101  0.5000001492839703  0.0054938141258395   T   T   T
  0.7500001492839703  0.0000000151709101  0.0054938141258395   T   T   T
  0.7500001746917102  0.5000001746917102  0.0053802331124361   T   T   T
 -0.0000327054596374  0.2500328871666476  0.0055093566949050   T   T   T
 -0.0000326475972422  0.7499673524027578  0.0055119264231343   T   T   T
  0.5000327978581293  0.2500327978581292  0.0055118770207248   T   T   T
  0.5000328871666476  0.7499672945403628  0.0055093566949050   T   T   T
 -0.0000371216074099 -0.0000118961741127  0.0949926030546062   T   T   T
  0.0001801342783736  0.5000139596319312  0.0950378467565777   T   T   T
  0.5000373129399649  0.0000116896726180  0.0949927263129106   T   T   T
  0.4998202835928726  0.4999863811248684  0.0950379912727020   T   T   T
  0.2500116896726180  0.2500373129399650  0.0949927263129106   T   T   T
  0.2499881038258873  0.7499628783925902  0.0949926030546062   T   T   T
  0.7499863811248683  0.2498202835928726  0.0950379912727020   T   T   T
  0.7500139596319313  0.7501801342783735  0.0950378467565777   T   T   T
  0.2500003824839838  0.0000003824839839  0.1852873090073441   T   T   T
  0.2500010505455548  0.4999995204812943  0.1855960899389766   T   T   T
  0.7499995204812945  0.0000010505455549  0.1855960899389766   T   T   T
  0.7500000886805955  0.5000000886805955  0.1847178052560687   T   T   T
  0.9994259559614009  0.2505739660940831  0.1858260109686275   T   T   T
  0.9994490652712069  0.7494490652712069  0.1858020048609188   T   T   T
  0.5005517608484695  0.2505517608484695  0.1858025059152141   T   T   T
  0.5005739660940830  0.7494259559614009  0.1858260109686275   T   T   T
  0.0010744816529199  0.0000158307693983  0.2748265866569039   T   T   T
  0.0059328367069236  0.5001970539438634  0.2766208750388627   T   T   T
  0.4989263360978167 -0.0000143977390704  0.2748265789515543   T   T   T
  0.4940727033083155  0.4998007780577996  0.2766227512228009   T   T   T
  0.2499856022609296  0.2489263360978167  0.2748265789515543   T   T   T
  0.2500158307693983  0.7510744816529198  0.2748265866569039   T   T   T
  0.7498007780577995  0.2440727033083154  0.2766227512228009   T   T   T
  0.7501970539438634  0.7559328367069236  0.2766208750388627   T   T   T
  0.9999334206812014  0.0000026015301562  0.0033189481066645   T   T   T
  0.0000226275328142  0.4999977451653058  0.0032999976986778   T   T   T
  0.5000667588995145 -0.0000022721694793  0.0033189640345844   T   T   T
  0.4999775473869709  0.5000022599084974  0.0033000183271907   T   T   T
  0.2499977278305207  0.2500667588995146  0.0033189640345844   T   T   T
  0.2500026015301562  0.7499334206812014  0.0033189481066645   T   T   T
  0.7500022599084974  0.2499775473869708  0.0033000183271907   T   T   T
  0.7499977451653057  0.7500226275328138  0.0032999976986778   T   T   T
  0.2500000859513815  0.0000000859513814  0.0951097780757046   T   T   T
  0.2500003522158120  0.5000000693337452  0.0953844599686068   T   T   T
  0.7500000693337453  0.0000003522158119  0.0953844599686068   T   T   T
  0.7500000783821974  0.5000000783821974  0.0951538329367537   T   T   T
  0.9996680751926930  0.2503318901971903  0.0952734670806811   T   T   T
  0.9996710716208714  0.7496710716208714  0.0952884853555289   T   T   T
  0.5003291501307792  0.2503291501307791  0.0952882267419009   T   T   T
  0.5003318901971900  0.7496680751926930  0.0952734670806811   T   T   T
  0.9996255373344429  0.0000185089018063  0.1849746397666737   T   T   T
  0.9989585823832099  0.5000247206760284  0.1857973427996180   T   T   T
  0.5003743877091261 -0.0000189114048399  0.1849744171716579   T   T   T
  0.5010425381635401  0.4999767081179865  0.1857972659469808   T   T   T
  0.2499810885951601  0.2503743877091261  0.1849743255526575   T   T   T
  0.2500185089018064  0.7496255373344429  0.1849745481476733   T   T   T
  0.7499767081179864  0.2510425381635401  0.1857971743279804   T   T   T
  0.7500247206760285  0.7489585823832099  0.1857972511806176   T   T   T
  0.2499998315586336 -0.0000001180063680  0.2766454459103591   T   T   T
  0.2499985857732854  0.5000008222171997  0.2769394272704587   T   T   T
  0.7500007717822011 -0.0000013637917163  0.2769394272704587   T   T   T
  0.7500115893978638  0.5000116398328622  0.2771508908346790   T   T   T
  0.0005701821247431  0.2494305136098233  0.2766215787284009   T   T   T
  0.0007813864588714  0.7507813864588715  0.2764481228164326   T   T   T
  0.4992205551869754  0.2492205551869754  0.2764480907365457   T   T   T
  0.4994305136098233  0.7505701821247430  0.2766215787284009   T   T   T
  0.7499739414421844  0.4999739918771829  0.3649918473351583   T   T   T
 
  0.00000000E+00  0.00000000E+00  0.00000000E+00
  0.00000000E+00  0.00000000E+00  0.00000000E+00
  0.00000000E+00  0.00000000E+00  0.00000000E+00
  0.00000000E+00  0.00000000E+00  0.00000000E+00
  0.00000000E+00  0.00000000E+00  0.00000000E+00
  0.00000000E+00  0.00000000E+00  0.00000000E+00
  0.00000000E+00  0.00000000E+00  0.00000000E+00
  0.00000000E+00  0.00000000E+00  0.00000000E+00
  0.00000000E+00  0.00000000E+00  0.00000000E+00
  0.00000000E+00  0.00000000E+00  0.00000000E+00
  0.00000000E+00  0.00000000E+00  0.00000000E+00
  0.00000000E+00  0.00000000E+00  0.00000000E+00
  0.00000000E+00  0.00000000E+00  0.00000000E+00
  0.00000000E+00  0.00000000E+00  0.00000000E+00
  0.00000000E+00  0.00000000E+00  0.00000000E+00
  0.00000000E+00  0.00000000E+00  0.00000000E+00
  0.00000000E+00  0.00000000E+00  0.00000000E+00
  0.00000000E+00  0.00000000E+00  0.00000000E+00
  0.00000000E+00  0.00000000E+00  0.00000000E+00
  0.00000000E+00  0.00000000E+00  0.00000000E+00
  0.00000000E+00  0.00000000E+00  0.00000000E+00
  0.00000000E+00  0.00000000E+00  0.00000000E+00
  0.00000000E+00  0.00000000E+00  0.00000000E+00
  0.00000000E+00  0.00000000E+00  0.00000000E+00
  0.00000000E+00  0.00000000E+00  0.00000000E+00
  0.00000000E+00  0.00000000E+00  0.00000000E+00
  0.00000000E+00  0.00000000E+00  0.00000000E+00
  0.00000000E+00  0.00000000E+00  0.00000000E+00
  0.00000000E+00  0.00000000E+00  0.00000000E+00
  0.00000000E+00  0.00000000E+00  0.00000000E+00
  0.00000000E+00  0.00000000E+00  0.00000000E+00
  0.00000000E+00  0.00000000E+00  0.00000000E+00
  0.00000000E+00  0.00000000E+00  0.00000000E+00
  0.00000000E+00  0.00000000E+00  0.00000000E+00
  0.00000000E+00  0.00000000E+00  0.00000000E+00
  0.00000000E+00  0.00000000E+00  0.00000000E+00
  0.00000000E+00  0.00000000E+00  0.00000000E+00
  0.00000000E+00  0.00000000E+00  0.00000000E+00
  0.00000000E+00  0.00000000E+00  0.00000000E+00
  0.00000000E+00  0.00000000E+00  0.00000000E+00
  0.00000000E+00  0.00000000E+00  0.00000000E+00
  0.00000000E+00  0.00000000E+00  0.00000000E+00
  0.00000000E+00  0.00000000E+00  0.00000000E+00
  0.00000000E+00  0.00000000E+00  0.00000000E+00
  0.00000000E+00  0.00000000E+00  0.00000000E+00
  0.00000000E+00  0.00000000E+00  0.00000000E+00
  0.00000000E+00  0.00000000E+00  0.00000000E+00
  0.00000000E+00  0.00000000E+00  0.00000000E+00
  0.00000000E+00  0.00000000E+00  0.00000000E+00
  0.00000000E+00  0.00000000E+00  0.00000000E+00
  0.00000000E+00  0.00000000E+00  0.00000000E+00
  0.00000000E+00  0.00000000E+00  0.00000000E+00
  0.00000000E+00  0.00000000E+00  0.00000000E+00
  0.00000000E+00  0.00000000E+00  0.00000000E+00
  0.00000000E+00  0.00000000E+00  0.00000000E+00
  0.00000000E+00  0.00000000E+00  0.00000000E+00
  0.00000000E+00  0.00000000E+00  0.00000000E+00
  0.00000000E+00  0.00000000E+00  0.00000000E+00
  0.00000000E+00  0.00000000E+00  0.00000000E+00
  0.00000000E+00  0.00000000E+00  0.00000000E+00
  0.00000000E+00  0.00000000E+00  0.00000000E+00
  0.00000000E+00  0.00000000E+00  0.00000000E+00
  0.00000000E+00  0.00000000E+00  0.00000000E+00
  0.00000000E+00  0.00000000E+00  0.00000000E+00
  0.00000000E+00  0.00000000E+00  0.00000000E+00
