Ir Mg O                                 
   1.00000000000000     
     8.4141216974800006    0.0000000000000000    0.0000000000000000
     0.0000000000000000    8.4141216974800006    0.0000000000000000
     0.0000000000000000    0.0000000000000000   23.4141216974799988
   Ir   Mg   O 
     1    32    32
Selective dynamics
Direct
  0.7502339668629231  0.5002340172979215  0.3610837566723198   T   T   T
  0.2499987160610182 -0.0000012839389818  0.0054881733378489   T   T   T
  0.2499980672209583  0.4999990068077023  0.0054508231861438   T   T   T
  0.7499990068077022 -0.0000019327790417  0.0054508231861438   T   T   T
  0.7499985105617379  0.4999985105617379  0.0053670672369073   T   T   T
 -0.0000230770296954  0.2500211073598280  0.0055249656831434   T   T   T
 -0.0000247975821363  0.7499752024178635  0.0055241674399751   T   T   T
  0.5000224078179750  0.2500224078179749  0.0055239490209659   T   T   T
  0.5000211073598281  0.7499769229703044  0.0055249656831434   T   T   T
  0.0000160233820782 -0.0000041944468392  0.0950575701706924   T   T   T
  0.0003583712858507  0.4999938449495566  0.0949215713474616   T   T   T
  0.4999829275634277  0.0000018701435510  0.0950578697105311   T   T   T
  0.4996353850143139  0.5000027872115714  0.0949229485414222   T   T   T
  0.2500018701435511  0.2499829275634276  0.0950578697105311   T   T   T
  0.2499958055531608  0.7500160233820784  0.0950575701706924   T   T   T
  0.7500027872115712  0.2496353850143138  0.0949229485414222   T   T   T
  0.7499938449495567  0.7503583712858508  0.0949215713474616   T   T   T
  0.2499978688788697 -0.0000021311211303  0.1851804560944007   T   T   T
  0.2499940508957039  0.4999995060898600  0.1855278930062461   T   T   T
  0.7499995060898600 -0.0000059491042961  0.1855278930062461   T   T   T
  0.7499984807287431  0.4999984807287431  0.1840369276533228   T   T   T
 -0.0006348589843357  0.2506255464269984  0.1859226035766172   T   T   T
 -0.0006510434833808  0.7493489565166195  0.1859210230857362   T   T   T
  0.5006365012985204  0.2506365012985204  0.1859185131707538   T   T   T
  0.5006255464269985  0.7493651410156645  0.1859226035766172   T   T   T
  0.0015459203420399 -0.0000005148912154  0.2749162794018671   T   T   T
  0.0077893188104763  0.4999896467988683  0.2770925166320765   T   T   T
  0.4984364796965504 -0.0000151798246109  0.2749170663877395   T   T   T
  0.4922235190831442  0.4999840577246020  0.2770867879434356   T   T   T
  0.2499848201753891  0.2484364796965503  0.2749170663877395   T   T   T
  0.2499994851087846  0.7515459203420398  0.2749162794018671   T   T   T
  0.7499840577246020  0.2422235190831442  0.2770867879434356   T   T   T
  0.7499896467988681  0.7577893188104764  0.2770925166320765   T   T   T
  0.9999480811447209 -0.0000030918409048  0.0033495159976214   T   T   T
  0.0000681300704807  0.4999992623784018  0.0032747840684392   T   T   T
  0.5000498634204698  0.0000013751705960  0.0033493175951303   T   T   T
  0.4999284887761255  0.4999983134504875  0.0032754301897349   T   T   T
  0.2500013751705961  0.2500498634204698  0.0033493175951303   T   T   T
  0.2499969081590953  0.7499480811447209  0.0033495159976214   T   T   T
  0.7499983134504874  0.2499284887761255  0.0032754301897349   T   T   T
  0.7499992623784018  0.7500681300704809  0.0032747840684392   T   T   T
  0.2499998473900757 -0.0000001526099243  0.0951729938319123   T   T   T
  0.2499960952935857  0.4999990476078348  0.0953687945088537   T   T   T
  0.7499990476078348 -0.0000039047064144  0.0953687945088537   T   T   T
  0.7499980473694285  0.4999980473694284  0.0951053903147167   T   T   T
  0.9997012805883775  0.2502972921255635  0.0953362505136475   T   T   T
  0.9996924024535295  0.7496924024535295  0.0953369582407701   T   T   T
  0.5003029176408679  0.2503029176408683  0.0953361464877883   T   T   T
  0.5002972921255633  0.7497012805883775  0.0953362505136475   T   T   T
  0.9996348333165117 -0.0000086836612177  0.1850631985094483   T   T   T
  0.9988789821668004  0.4999912493812450  0.1858325772768834   T   T   T
  0.5003611789725666  0.0000001526752243  0.1850643364863803   T   T   T
  0.5011151919032207  0.4999967700038225  0.1858311348536342   T   T   T
  0.2500001526752244  0.2503611789725669  0.1850642448673799   T   T   T
  0.2499913163387824  0.7496348333165117  0.1850631068904479   T   T   T
  0.7499967700038226  0.2511151919032207  0.1858310432346338   T   T   T
  0.7499912493812450  0.7488789821668004  0.1858324856578830   T   T   T
  0.2499950141929676 -0.0000049353720340  0.2765306240816026   T   T   T
  0.2500078611226605  0.4999909237244232  0.2769431661252528   T   T   T
  0.7499908732894248  0.0000079115576590  0.2769431661252528   T   T   T
  0.7499562702327837  0.4999563206677820  0.2756776340182454   T   T   T
  0.0007898852093162  0.2491930244454425  0.2765031629442439   T   T   T
  0.0008004889460313  0.7508004889460312  0.2764965794825477   T   T   T
  0.4991890798139125  0.2491890798139124  0.2765053358369154   T   T   T
  0.4991930244454426  0.7507898852093160  0.2765031629442439   T   T   T
 
  0.00000000E+00  0.00000000E+00  0.00000000E+00
  0.00000000E+00  0.00000000E+00  0.00000000E+00
  0.00000000E+00  0.00000000E+00  0.00000000E+00
  0.00000000E+00  0.00000000E+00  0.00000000E+00
  0.00000000E+00  0.00000000E+00  0.00000000E+00
  0.00000000E+00  0.00000000E+00  0.00000000E+00
  0.00000000E+00  0.00000000E+00  0.00000000E+00
  0.00000000E+00  0.00000000E+00  0.00000000E+00
  0.00000000E+00  0.00000000E+00  0.00000000E+00
  0.00000000E+00  0.00000000E+00  0.00000000E+00
  0.00000000E+00  0.00000000E+00  0.00000000E+00
  0.00000000E+00  0.00000000E+00  0.00000000E+00
  0.00000000E+00  0.00000000E+00  0.00000000E+00
  0.00000000E+00  0.00000000E+00  0.00000000E+00
  0.00000000E+00  0.00000000E+00  0.00000000E+00
  0.00000000E+00  0.00000000E+00  0.00000000E+00
  0.00000000E+00  0.00000000E+00  0.00000000E+00
  0.00000000E+00  0.00000000E+00  0.00000000E+00
  0.00000000E+00  0.00000000E+00  0.00000000E+00
  0.00000000E+00  0.00000000E+00  0.00000000E+00
  0.00000000E+00  0.00000000E+00  0.00000000E+00
  0.00000000E+00  0.00000000E+00  0.00000000E+00
  0.00000000E+00  0.00000000E+00  0.00000000E+00
  0.00000000E+00  0.00000000E+00  0.00000000E+00
  0.00000000E+00  0.00000000E+00  0.00000000E+00
  0.00000000E+00  0.00000000E+00  0.00000000E+00
  0.00000000E+00  0.00000000E+00  0.00000000E+00
  0.00000000E+00  0.00000000E+00  0.00000000E+00
  0.00000000E+00  0.00000000E+00  0.00000000E+00
  0.00000000E+00  0.00000000E+00  0.00000000E+00
  0.00000000E+00  0.00000000E+00  0.00000000E+00
  0.00000000E+00  0.00000000E+00  0.00000000E+00
  0.00000000E+00  0.00000000E+00  0.00000000E+00
  0.00000000E+00  0.00000000E+00  0.00000000E+00
  0.00000000E+00  0.00000000E+00  0.00000000E+00
  0.00000000E+00  0.00000000E+00  0.00000000E+00
  0.00000000E+00  0.00000000E+00  0.00000000E+00
  0.00000000E+00  0.00000000E+00  0.00000000E+00
  0.00000000E+00  0.00000000E+00  0.00000000E+00
  0.00000000E+00  0.00000000E+00  0.00000000E+00
  0.00000000E+00  0.00000000E+00  0.00000000E+00
  0.00000000E+00  0.00000000E+00  0.00000000E+00
  0.00000000E+00  0.00000000E+00  0.00000000E+00
  0.00000000E+00  0.00000000E+00  0.00000000E+00
  0.00000000E+00  0.00000000E+00  0.00000000E+00
  0.00000000E+00  0.00000000E+00  0.00000000E+00
  0.00000000E+00  0.00000000E+00  0.00000000E+00
  0.00000000E+00  0.00000000E+00  0.00000000E+00
  0.00000000E+00  0.00000000E+00  0.00000000E+00
  0.00000000E+00  0.00000000E+00  0.00000000E+00
  0.00000000E+00  0.00000000E+00  0.00000000E+00
  0.00000000E+00  0.00000000E+00  0.00000000E+00
  0.00000000E+00  0.00000000E+00  0.00000000E+00
  0.00000000E+00  0.00000000E+00  0.00000000E+00
  0.00000000E+00  0.00000000E+00  0.00000000E+00
  0.00000000E+00  0.00000000E+00  0.00000000E+00
  0.00000000E+00  0.00000000E+00  0.00000000E+00
  0.00000000E+00  0.00000000E+00  0.00000000E+00
  0.00000000E+00  0.00000000E+00  0.00000000E+00
  0.00000000E+00  0.00000000E+00  0.00000000E+00
  0.00000000E+00  0.00000000E+00  0.00000000E+00
  0.00000000E+00  0.00000000E+00  0.00000000E+00
  0.00000000E+00  0.00000000E+00  0.00000000E+00
  0.00000000E+00  0.00000000E+00  0.00000000E+00
  0.00000000E+00  0.00000000E+00  0.00000000E+00
