Mg O V                                  
   1.00000000000000     
     8.4141216974800006    0.0000000000000000    0.0000000000000000
     0.0000000000000000    8.4141216974800006    0.0000000000000000
     0.0000000000000000    0.0000000000000000   23.4141216974799988
   Mg   O    V 
    32    32     1
Selective dynamics
Direct
  0.2500000000000000  0.0000000000000000  0.0055040698613623   T   T   T
  0.2500000000000000  0.5000000000000000  0.0054728768138874   T   T   T
  0.7500000000000000  0.0000000000000000  0.0054728768138874   T   T   T
  0.7500000000000000  0.5000000000000000  0.0054361455408015   T   T   T
  0.0000285217881612  0.2499714782118388  0.0055005324316520   T   T   T
  0.0000285217881612  0.7500285217881610  0.0055005324316520   T   T   T
  0.4999714782118388  0.2499714782118388  0.0055005324316520   T   T   T
  0.4999714782118388  0.7500285217881610  0.0055005324316520   T   T   T
  0.0001944823912963  0.0000000000000000  0.0950314122199906   T   T   T
 -0.0000474955636410  0.5000000000000000  0.0949126756932196   T   T   T
  0.4998055176087037  0.0000000000000000  0.0950314122199906   T   T   T
  0.5000474955636411  0.5000000000000000  0.0949126756932196   T   T   T
  0.2500000000000000  0.2498055176087037  0.0950314122199906   T   T   T
  0.2500000000000000  0.7501944823912964  0.0950314122199906   T   T   T
  0.7500000000000000  0.2500474955636410  0.0949126756932196   T   T   T
  0.7500000000000000  0.7499525044363590  0.0949126756932196   T   T   T
  0.2500000000000000  0.0000000000000000  0.1855266531124572   T   T   T
  0.2500000000000000  0.5000000000000000  0.1852200305960816   T   T   T
  0.7500000000000000  0.0000000000000000  0.1852200305960816   T   T   T
  0.7500000000000000  0.5000000000000000  0.1850584936763230   T   T   T
  0.0001371424101844  0.2498628575898156  0.1855178722269929   T   T   T
  0.0001371424101844  0.7501371424101844  0.1855178722269929   T   T   T
  0.4998628575898157  0.2498628575898156  0.1855178722269929   T   T   T
  0.4998628575898157  0.7501371424101844  0.1855178722269929   T   T   T
  0.0010886205537717  0.0000000000000000  0.2751768341639432   T   T   T
  0.0064232984457869  0.5000000000000000  0.2753545112242188   T   T   T
  0.4989113794462283  0.0000000000000000  0.2751768341639432   T   T   T
  0.4935767015542132  0.5000000000000000  0.2753545112242188   T   T   T
  0.2500000000000000  0.2489113794462283  0.2751768341639432   T   T   T
  0.2500000000000000  0.7510886205537717  0.2751768341639432   T   T   T
  0.7500000000000000  0.2435767015542130  0.2753545112242188   T   T   T
  0.7500000000000000  0.7564232984457870  0.2753545112242188   T   T   T
 -0.0000027859568876  0.0000000000000000  0.0033376806593986   T   T   T
  0.0000322629543295  0.5000000000000000  0.0032933904404328   T   T   T
  0.5000027859568875  0.0000000000000000  0.0033376806593986   T   T   T
  0.4999677370456703  0.5000000000000000  0.0032933904404328   T   T   T
  0.2500000000000000  0.2500027859568876  0.0033376806593986   T   T   T
  0.2500000000000000  0.7499972140431125  0.0033376806593986   T   T   T
  0.7500000000000000  0.2499677370456705  0.0032933904404328   T   T   T
  0.7500000000000000  0.7500322629543296  0.0032933904404328   T   T   T
  0.2500000000000000  0.0000000000000000  0.0952184097786540   T   T   T
  0.2500000000000000  0.5000000000000000  0.0952880705117657   T   T   T
  0.7500000000000000  0.0000000000000000  0.0952880705117657   T   T   T
  0.7500000000000000  0.5000000000000000  0.0951756997828416   T   T   T
 -0.0001319672933938  0.2501319672933938  0.0952117041203884   T   T   T
 -0.0001319672933938  0.7498680327066061  0.0952117041203884   T   T   T
  0.5001319672933939  0.2501319672933938  0.0952117041203884   T   T   T
  0.5001319672933939  0.7498680327066061  0.0952117041203884   T   T   T
 -0.0000475886834081  0.0000000000000000  0.1850235764110642   T   T   T
 -0.0012266127240398  0.5000000000000000  0.1855050716853436   T   T   T
  0.5000475886834083  0.0000000000000000  0.1850235764110642   T   T   T
  0.5012266127240397  0.5000000000000000  0.1855050716853436   T   T   T
  0.2500000000000000  0.2500475886834082  0.1850234847920638   T   T   T
  0.2500000000000000  0.7499524113165917  0.1850234847920638   T   T   T
  0.7500000000000000  0.2512266127240398  0.1855049800663433   T   T   T
  0.7500000000000000  0.7487733872759603  0.1855049800663433   T   T   T
  0.2499999495650016  0.0000000000000000  0.2770078730939864   T   T   T
  0.2499999495650016  0.5000000000000000  0.2761809209058112   T   T   T
  0.7499999495650016  0.0000000000000000  0.2761809209058112   T   T   T
  0.7499999495650016  0.5000000000000000  0.2797467750295810   T   T   T
  0.0006448534982572  0.2493551465017428  0.2762616394984075   T   T   T
  0.0006448534982572  0.7506448534982572  0.2762616394984075   T   T   T
  0.4993551465017428  0.2493551465017428  0.2762616394984075   T   T   T
  0.4993551465017428  0.7506448534982572  0.2762616394984075   T   T   T
  0.7499999495650016  0.5000000000000000  0.3684897620216240   T   T   T
 
  0.00000000E+00  0.00000000E+00  0.00000000E+00
  0.00000000E+00  0.00000000E+00  0.00000000E+00
  0.00000000E+00  0.00000000E+00  0.00000000E+00
  0.00000000E+00  0.00000000E+00  0.00000000E+00
  0.00000000E+00  0.00000000E+00  0.00000000E+00
  0.00000000E+00  0.00000000E+00  0.00000000E+00
  0.00000000E+00  0.00000000E+00  0.00000000E+00
  0.00000000E+00  0.00000000E+00  0.00000000E+00
  0.00000000E+00  0.00000000E+00  0.00000000E+00
  0.00000000E+00  0.00000000E+00  0.00000000E+00
  0.00000000E+00  0.00000000E+00  0.00000000E+00
  0.00000000E+00  0.00000000E+00  0.00000000E+00
  0.00000000E+00  0.00000000E+00  0.00000000E+00
  0.00000000E+00  0.00000000E+00  0.00000000E+00
  0.00000000E+00  0.00000000E+00  0.00000000E+00
  0.00000000E+00  0.00000000E+00  0.00000000E+00
  0.00000000E+00  0.00000000E+00  0.00000000E+00
  0.00000000E+00  0.00000000E+00  0.00000000E+00
  0.00000000E+00  0.00000000E+00  0.00000000E+00
  0.00000000E+00  0.00000000E+00  0.00000000E+00
  0.00000000E+00  0.00000000E+00  0.00000000E+00
  0.00000000E+00  0.00000000E+00  0.00000000E+00
  0.00000000E+00  0.00000000E+00  0.00000000E+00
  0.00000000E+00  0.00000000E+00  0.00000000E+00
  0.00000000E+00  0.00000000E+00  0.00000000E+00
  0.00000000E+00  0.00000000E+00  0.00000000E+00
  0.00000000E+00  0.00000000E+00  0.00000000E+00
  0.00000000E+00  0.00000000E+00  0.00000000E+00
  0.00000000E+00  0.00000000E+00  0.00000000E+00
  0.00000000E+00  0.00000000E+00  0.00000000E+00
  0.00000000E+00  0.00000000E+00  0.00000000E+00
  0.00000000E+00  0.00000000E+00  0.00000000E+00
  0.00000000E+00  0.00000000E+00  0.00000000E+00
  0.00000000E+00  0.00000000E+00  0.00000000E+00
  0.00000000E+00  0.00000000E+00  0.00000000E+00
  0.00000000E+00  0.00000000E+00  0.00000000E+00
  0.00000000E+00  0.00000000E+00  0.00000000E+00
  0.00000000E+00  0.00000000E+00  0.00000000E+00
  0.00000000E+00  0.00000000E+00  0.00000000E+00
  0.00000000E+00  0.00000000E+00  0.00000000E+00
  0.00000000E+00  0.00000000E+00  0.00000000E+00
  0.00000000E+00  0.00000000E+00  0.00000000E+00
  0.00000000E+00  0.00000000E+00  0.00000000E+00
  0.00000000E+00  0.00000000E+00  0.00000000E+00
  0.00000000E+00  0.00000000E+00  0.00000000E+00
  0.00000000E+00  0.00000000E+00  0.00000000E+00
  0.00000000E+00  0.00000000E+00  0.00000000E+00
  0.00000000E+00  0.00000000E+00  0.00000000E+00
  0.00000000E+00  0.00000000E+00  0.00000000E+00
  0.00000000E+00  0.00000000E+00  0.00000000E+00
  0.00000000E+00  0.00000000E+00  0.00000000E+00
  0.00000000E+00  0.00000000E+00  0.00000000E+00
  0.00000000E+00  0.00000000E+00  0.00000000E+00
  0.00000000E+00  0.00000000E+00  0.00000000E+00
  0.00000000E+00  0.00000000E+00  0.00000000E+00
  0.00000000E+00  0.00000000E+00  0.00000000E+00
  0.00000000E+00  0.00000000E+00  0.00000000E+00
  0.00000000E+00  0.00000000E+00  0.00000000E+00
  0.00000000E+00  0.00000000E+00  0.00000000E+00
  0.00000000E+00  0.00000000E+00  0.00000000E+00
  0.00000000E+00  0.00000000E+00  0.00000000E+00
  0.00000000E+00  0.00000000E+00  0.00000000E+00
  0.00000000E+00  0.00000000E+00  0.00000000E+00
  0.00000000E+00  0.00000000E+00  0.00000000E+00
  0.00000000E+00  0.00000000E+00  0.00000000E+00
