Cd Mg O                                 
   1.00000000000000     
     8.4141216974800006    0.0000000000000000    0.0000000000000000
     0.0000000000000000    8.4141216974800006    0.0000000000000000
     0.0000000000000000    0.0000000000000000   23.4141216974799988
   Cd   Mg   O 
     1    32    32
Selective dynamics
Direct
  0.7499998095480641  0.4999998599830626  0.4045747824948120   T   T   T
  0.2500000009551296  0.0000000009551297  0.0052517443809237   T   T   T
  0.2500000020364430  0.4999999993094429  0.0052174869865216   T   T   T
  0.7499999993094427  0.0000000020364429  0.0052174869865216   T   T   T
  0.7500000051569008  0.5000000051569006  0.0050809845932363   T   T   T
  0.0001273589562849  0.2498726421966991  0.0052236804854312   T   T   T
  0.0001273536170244  0.7501273536170244  0.0052236822849263   T   T   T
  0.4998726425119442  0.2498726425119440  0.0052236817278312   T   T   T
  0.4998726421966994  0.7501273589562849  0.0052236804854312   T   T   T
  0.0000760533231393 -0.0000000071436045  0.0947001105742034   T   T   T
 -0.0000039445938988  0.4999999980220382  0.0945952700206893   T   T   T
  0.4999239454097501 -0.0000000052369897  0.0947001120152319   T   T   T
  0.5000039458175846  0.4999999977944861  0.0945952688046705   T   T   T
  0.2499999947630103  0.2499239454097501  0.0947001120152319   T   T   T
  0.2499999928563956  0.7500760533231393  0.0947001105742034   T   T   T
  0.7499999977944860  0.2500039458175844  0.0945952688046705   T   T   T
  0.7499999980220382  0.7499960554061013  0.0945952700206893   T   T   T
  0.2500000037152457  0.0000000037152457  0.1853396415284006   T   T   T
  0.2500000004903124  0.5000000064538773  0.1850791775264902   T   T   T
  0.7500000064538773  0.0000000004903123  0.1850791775264902   T   T   T
  0.7500000026943966  0.5000000026943965  0.1849689652321571   T   T   T
 -0.0000305319812349  0.2500305335325649  0.1851373582417196   T   T   T
 -0.0000305300562742  0.7499694699437258  0.1851373591063060   T   T   T
  0.5000305284565643  0.2500305284565643  0.1851373584249016   T   T   T
  0.5000305335325651  0.7499694680187652  0.1851373582417196   T   T   T
  0.0000872772958312 -0.0000000071106382  0.2747938786448087   T   T   T
  0.0011470747496410  0.5000000070173596  0.2743578466334052   T   T   T
  0.4999127284937092 -0.0000000102457420  0.2747938773504606   T   T   T
  0.4988529183002069  0.5000000053263192  0.2743578438855042   T   T   T
  0.2499999897542580  0.2499127284937092  0.2747938773504606   T   T   T
  0.2499999928893619  0.7500872772958310  0.2747938786448087   T   T   T
  0.7500000053263194  0.2488529183002069  0.2743578438855042   T   T   T
  0.7500000070173598  0.7511470747496408  0.2743578466334052   T   T   T
  0.0000910353376016 -0.0000000039428806  0.0030846682010234   T   T   T
  0.0000935761597340  0.5000000042065521  0.0029937112215956   T   T   T
  0.4999089646185084 -0.0000000003110257  0.0030846663862091   T   T   T
  0.4999064231764270  0.5000000011528670  0.0029937153874887   T   T   T
  0.2499999996889744  0.2499089646185084  0.0030846663862091   T   T   T
  0.2499999960571194  0.7500910353376014  0.0030846682010234   T   T   T
  0.7500000011528670  0.2499064231764270  0.0029937153874887   T   T   T
  0.7500000042065522  0.7500935761597339  0.0029937112215956   T   T   T
  0.2500000001522348  0.0000000001522348  0.0950086222883251   T   T   T
  0.2500000044813616  0.5000000031623637  0.0949769245874370   T   T   T
  0.7500000031623635  0.0000000044813616  0.0949769245874370   T   T   T
  0.7500000062419552  0.5000000062419552  0.0948840219059079   T   T   T
 -0.0000254474855535  0.2500254540929374  0.0949560704806564   T   T   T
 -0.0000254577567579  0.7499745422432423  0.0949560698824918   T   T   T
  0.5000254426887643  0.2500254426887642  0.0949560649964779   T   T   T
  0.5000254540929374  0.7499745525144463  0.0949560704806564   T   T   T
  0.0000473879019330  0.0000000028991408  0.1849448173158763   T   T   T
  0.0001010658132349  0.5000000016615260  0.1847800945705706   T   T   T
  0.4999526286422959  0.0000000028493283  0.1849448199711151   T   T   T
  0.4998989473644829  0.4999999949263372  0.1847800928044928   T   T   T
  0.2500000028493283  0.2499526286422959  0.1849447283521147   T   T   T
  0.2500000028991409  0.7500473879019330  0.1849447256968759   T   T   T
  0.7499999949263374  0.2498989473644828  0.1847800011854924   T   T   T
  0.7500000016615261  0.7501010658132348  0.1847800029515702   T   T   T
  0.2499999696850489  0.0000000201200473  0.2771125368941030   T   T   T
  0.2499999691924476  0.5000000434266079  0.2765672843473734   T   T   T
  0.7499999929916095  0.0000000196274460  0.2765672843473734   T   T   T
  0.7499999747366284  0.5000000251716268  0.2760023264571057   T   T   T
 -0.0001791376888448  0.2501791459433791  0.2766466890118438   T   T   T
 -0.0001791425683323  0.7498208574316677  0.2766466951959228   T   T   T
  0.5001791326871263  0.2501791326871261  0.2766466935185599   T   T   T
  0.5001791459433792  0.7498208623111552  0.2766466890118438   T   T   T
 
  0.00000000E+00  0.00000000E+00  0.00000000E+00
  0.00000000E+00  0.00000000E+00  0.00000000E+00
  0.00000000E+00  0.00000000E+00  0.00000000E+00
  0.00000000E+00  0.00000000E+00  0.00000000E+00
  0.00000000E+00  0.00000000E+00  0.00000000E+00
  0.00000000E+00  0.00000000E+00  0.00000000E+00
  0.00000000E+00  0.00000000E+00  0.00000000E+00
  0.00000000E+00  0.00000000E+00  0.00000000E+00
  0.00000000E+00  0.00000000E+00  0.00000000E+00
  0.00000000E+00  0.00000000E+00  0.00000000E+00
  0.00000000E+00  0.00000000E+00  0.00000000E+00
  0.00000000E+00  0.00000000E+00  0.00000000E+00
  0.00000000E+00  0.00000000E+00  0.00000000E+00
  0.00000000E+00  0.00000000E+00  0.00000000E+00
  0.00000000E+00  0.00000000E+00  0.00000000E+00
  0.00000000E+00  0.00000000E+00  0.00000000E+00
  0.00000000E+00  0.00000000E+00  0.00000000E+00
  0.00000000E+00  0.00000000E+00  0.00000000E+00
  0.00000000E+00  0.00000000E+00  0.00000000E+00
  0.00000000E+00  0.00000000E+00  0.00000000E+00
  0.00000000E+00  0.00000000E+00  0.00000000E+00
  0.00000000E+00  0.00000000E+00  0.00000000E+00
  0.00000000E+00  0.00000000E+00  0.00000000E+00
  0.00000000E+00  0.00000000E+00  0.00000000E+00
  0.00000000E+00  0.00000000E+00  0.00000000E+00
  0.00000000E+00  0.00000000E+00  0.00000000E+00
  0.00000000E+00  0.00000000E+00  0.00000000E+00
  0.00000000E+00  0.00000000E+00  0.00000000E+00
  0.00000000E+00  0.00000000E+00  0.00000000E+00
  0.00000000E+00  0.00000000E+00  0.00000000E+00
  0.00000000E+00  0.00000000E+00  0.00000000E+00
  0.00000000E+00  0.00000000E+00  0.00000000E+00
  0.00000000E+00  0.00000000E+00  0.00000000E+00
  0.00000000E+00  0.00000000E+00  0.00000000E+00
  0.00000000E+00  0.00000000E+00  0.00000000E+00
  0.00000000E+00  0.00000000E+00  0.00000000E+00
  0.00000000E+00  0.00000000E+00  0.00000000E+00
  0.00000000E+00  0.00000000E+00  0.00000000E+00
  0.00000000E+00  0.00000000E+00  0.00000000E+00
  0.00000000E+00  0.00000000E+00  0.00000000E+00
  0.00000000E+00  0.00000000E+00  0.00000000E+00
  0.00000000E+00  0.00000000E+00  0.00000000E+00
  0.00000000E+00  0.00000000E+00  0.00000000E+00
  0.00000000E+00  0.00000000E+00  0.00000000E+00
  0.00000000E+00  0.00000000E+00  0.00000000E+00
  0.00000000E+00  0.00000000E+00  0.00000000E+00
  0.00000000E+00  0.00000000E+00  0.00000000E+00
  0.00000000E+00  0.00000000E+00  0.00000000E+00
  0.00000000E+00  0.00000000E+00  0.00000000E+00
  0.00000000E+00  0.00000000E+00  0.00000000E+00
  0.00000000E+00  0.00000000E+00  0.00000000E+00
  0.00000000E+00  0.00000000E+00  0.00000000E+00
  0.00000000E+00  0.00000000E+00  0.00000000E+00
  0.00000000E+00  0.00000000E+00  0.00000000E+00
  0.00000000E+00  0.00000000E+00  0.00000000E+00
  0.00000000E+00  0.00000000E+00  0.00000000E+00
  0.00000000E+00  0.00000000E+00  0.00000000E+00
  0.00000000E+00  0.00000000E+00  0.00000000E+00
  0.00000000E+00  0.00000000E+00  0.00000000E+00
  0.00000000E+00  0.00000000E+00  0.00000000E+00
  0.00000000E+00  0.00000000E+00  0.00000000E+00
  0.00000000E+00  0.00000000E+00  0.00000000E+00
  0.00000000E+00  0.00000000E+00  0.00000000E+00
  0.00000000E+00  0.00000000E+00  0.00000000E+00
  0.00000000E+00  0.00000000E+00  0.00000000E+00
