Mg O Pt                                 
   1.00000000000000     
     8.4141216974800006    0.0000000000000000    0.0000000000000000
     0.0000000000000000    8.4141216974800006    0.0000000000000000
     0.0000000000000000    0.0000000000000000   23.4141216974799988
   Mg   O    Pt
    32    32     1
Selective dynamics
Direct
  0.2499999969591883 -0.0000000030408117  0.0054922473559708   T   T   T
  0.2499999981635194  0.4999999997855177  0.0054421864346373   T   T   T
  0.7499999997855179 -0.0000000018364806  0.0054421864346373   T   T   T
  0.7500000009859499  0.5000000009859499  0.0053184043720672   T   T   T
 -0.0000327841599645  0.2500327797110311  0.0055251475263836   T   T   T
 -0.0000327854820380  0.7499672145179620  0.0055251458564833   T   T   T
  0.5000327795747591  0.2500327795747591  0.0055251485177019   T   T   T
  0.5000327797110311  0.7499672158400356  0.0055251475263836   T   T   T
  0.0000422026403480 -0.0000000028681434  0.0950619159132625   T   T   T
  0.0004835939816247  0.4999999924183680  0.0949098422095293   T   T   T
  0.4999577941929984 -0.0000000070527044  0.0950619159402271   T   T   T
  0.4995164035584994  0.5000000019944576  0.0949098428652070   T   T   T
  0.2499999929472957  0.2499577941929983  0.0950619159402271   T   T   T
  0.2499999971318566  0.7500422026403479  0.0950619159132625   T   T   T
  0.7500000019944577  0.2495164035584994  0.0949098428652070   T   T   T
  0.7499999924183681  0.7504835939816247  0.0949098422095293   T   T   T
  0.2499999964340478 -0.0000000035659522  0.1851346727082384   T   T   T
  0.2499999946057169  0.4999999965669160  0.1855901107342598   T   T   T
  0.7499999965669161 -0.0000000053942831  0.1855901107342598   T   T   T
  0.7500000020339342  0.5000000020339341  0.1836637655123530   T   T   T
 -0.0007384864605810  0.2507384791737995  0.1859919630753464   T   T   T
 -0.0007384960652182  0.7492615039347817  0.1859919644073557   T   T   T
  0.5007384805960288  0.2507384805960287  0.1859919621563167   T   T   T
  0.5007384791737995  0.7492615135394191  0.1859919630753464   T   T   T
  0.0017610441088034  0.0000000015811297  0.2747449730030833   T   T   T
  0.0079547894357043  0.4999999920664507  0.2774360337127967   T   T   T
  0.4982389551732849 -0.0000000045057277  0.2747449709066082   T   T   T
  0.4920452019448108  0.4999999980289496  0.2774360308811074   T   T   T
  0.2499999954942723  0.2482389551732849  0.2747449709066082   T   T   T
  0.2500000015811296  0.7517610441088035  0.2747449730030833   T   T   T
  0.7499999980289495  0.2420452019448107  0.2774360308811074   T   T   T
  0.7499999920664507  0.7579547894357043  0.2774360337127967   T   T   T
  0.9999451367282313 -0.0000000002026276  0.0033547394681121   T   T   T
  0.0001100179807571  0.4999999972702368  0.0032766918171079   T   T   T
  0.5000548596159374 -0.0000000053321831  0.0033547431846116   T   T   T
  0.4998899771078547  0.4999999998040706  0.0032766919388358   T   T   T
  0.2499999946678169  0.2500548596159375  0.0033547431846116   T   T   T
  0.2499999997973724  0.7499451367282313  0.0033547394681121   T   T   T
  0.7499999998040707  0.2498899771078547  0.0032766919388358   T   T   T
  0.7499999972702369  0.7501100179807573  0.0032766918171079   T   T   T
  0.2499999947705413 -0.0000000052294588  0.0951430567794566   T   T   T
  0.2499999948848752  0.4999999935605279  0.0954005319936624   T   T   T
  0.7499999935605279 -0.0000000051151248  0.0954005319936624   T   T   T
  0.7499999967538690  0.4999999967538690  0.0949981816429610   T   T   T
  0.9996281757952498  0.2503718188837916  0.0953356897235867   T   T   T
  0.9996281770279442  0.7496281770279442  0.0953356890450325   T   T   T
  0.5003718178997912  0.2503718178997913  0.0953356912318930   T   T   T
  0.5003718188837916  0.7496281757952498  0.0953356897235867   T   T   T
  0.9995545316934641 -0.0000000034307193  0.1849663600158178   T   T   T
  0.9986685321667788  0.5000000078492173  0.1859138984478837   T   T   T
  0.5004454670129590 -0.0000000034775155  0.1849663538024520   T   T   T
  0.5013314633838276  0.5000000011488518  0.1859139016238778   T   T   T
  0.2499999965224845  0.2504454670129589  0.1849662621834516   T   T   T
  0.2499999965692807  0.7495545316934641  0.1849662683968175   T   T   T
  0.7500000011488518  0.2513314633838277  0.1859138100048774   T   T   T
  0.7500000078492172  0.7486685321667788  0.1859138068288833   T   T   T
  0.2499999759767629  0.0000000264117613  0.2765538485561047   T   T   T
  0.2499999747491506  0.5000000213650491  0.2771478915034620   T   T   T
  0.7499999709300507  0.0000000251841489  0.2771478915034620   T   T   T
  0.7499999636186585  0.5000000140536569  0.2758631653738987   T   T   T
  0.0009761390660142  0.2490238644401853  0.2763180478952685   T   T   T
  0.0009761234076776  0.7509761234076775  0.2763180431034792   T   T   T
  0.4990238606052428  0.2490238606052429  0.2763180396443355   T   T   T
  0.4990238644401853  0.7509761390660141  0.2763180478952685   T   T   T
  0.7500000170140741  0.5000000674490725  0.3598626644611198   T   T   T
 
  0.00000000E+00  0.00000000E+00  0.00000000E+00
  0.00000000E+00  0.00000000E+00  0.00000000E+00
  0.00000000E+00  0.00000000E+00  0.00000000E+00
  0.00000000E+00  0.00000000E+00  0.00000000E+00
  0.00000000E+00  0.00000000E+00  0.00000000E+00
  0.00000000E+00  0.00000000E+00  0.00000000E+00
  0.00000000E+00  0.00000000E+00  0.00000000E+00
  0.00000000E+00  0.00000000E+00  0.00000000E+00
  0.00000000E+00  0.00000000E+00  0.00000000E+00
  0.00000000E+00  0.00000000E+00  0.00000000E+00
  0.00000000E+00  0.00000000E+00  0.00000000E+00
  0.00000000E+00  0.00000000E+00  0.00000000E+00
  0.00000000E+00  0.00000000E+00  0.00000000E+00
  0.00000000E+00  0.00000000E+00  0.00000000E+00
  0.00000000E+00  0.00000000E+00  0.00000000E+00
  0.00000000E+00  0.00000000E+00  0.00000000E+00
  0.00000000E+00  0.00000000E+00  0.00000000E+00
  0.00000000E+00  0.00000000E+00  0.00000000E+00
  0.00000000E+00  0.00000000E+00  0.00000000E+00
  0.00000000E+00  0.00000000E+00  0.00000000E+00
  0.00000000E+00  0.00000000E+00  0.00000000E+00
  0.00000000E+00  0.00000000E+00  0.00000000E+00
  0.00000000E+00  0.00000000E+00  0.00000000E+00
  0.00000000E+00  0.00000000E+00  0.00000000E+00
  0.00000000E+00  0.00000000E+00  0.00000000E+00
  0.00000000E+00  0.00000000E+00  0.00000000E+00
  0.00000000E+00  0.00000000E+00  0.00000000E+00
  0.00000000E+00  0.00000000E+00  0.00000000E+00
  0.00000000E+00  0.00000000E+00  0.00000000E+00
  0.00000000E+00  0.00000000E+00  0.00000000E+00
  0.00000000E+00  0.00000000E+00  0.00000000E+00
  0.00000000E+00  0.00000000E+00  0.00000000E+00
  0.00000000E+00  0.00000000E+00  0.00000000E+00
  0.00000000E+00  0.00000000E+00  0.00000000E+00
  0.00000000E+00  0.00000000E+00  0.00000000E+00
  0.00000000E+00  0.00000000E+00  0.00000000E+00
  0.00000000E+00  0.00000000E+00  0.00000000E+00
  0.00000000E+00  0.00000000E+00  0.00000000E+00
  0.00000000E+00  0.00000000E+00  0.00000000E+00
  0.00000000E+00  0.00000000E+00  0.00000000E+00
  0.00000000E+00  0.00000000E+00  0.00000000E+00
  0.00000000E+00  0.00000000E+00  0.00000000E+00
  0.00000000E+00  0.00000000E+00  0.00000000E+00
  0.00000000E+00  0.00000000E+00  0.00000000E+00
  0.00000000E+00  0.00000000E+00  0.00000000E+00
  0.00000000E+00  0.00000000E+00  0.00000000E+00
  0.00000000E+00  0.00000000E+00  0.00000000E+00
  0.00000000E+00  0.00000000E+00  0.00000000E+00
  0.00000000E+00  0.00000000E+00  0.00000000E+00
  0.00000000E+00  0.00000000E+00  0.00000000E+00
  0.00000000E+00  0.00000000E+00  0.00000000E+00
  0.00000000E+00  0.00000000E+00  0.00000000E+00
  0.00000000E+00  0.00000000E+00  0.00000000E+00
  0.00000000E+00  0.00000000E+00  0.00000000E+00
  0.00000000E+00  0.00000000E+00  0.00000000E+00
  0.00000000E+00  0.00000000E+00  0.00000000E+00
  0.00000000E+00  0.00000000E+00  0.00000000E+00
  0.00000000E+00  0.00000000E+00  0.00000000E+00
  0.00000000E+00  0.00000000E+00  0.00000000E+00
  0.00000000E+00  0.00000000E+00  0.00000000E+00
  0.00000000E+00  0.00000000E+00  0.00000000E+00
  0.00000000E+00  0.00000000E+00  0.00000000E+00
  0.00000000E+00  0.00000000E+00  0.00000000E+00
  0.00000000E+00  0.00000000E+00  0.00000000E+00
  0.00000000E+00  0.00000000E+00  0.00000000E+00
