W Mg O                                  
   1.00000000000000     
     8.4141216974800006    0.0000000000000000    0.0000000000000000
     0.0000000000000000    8.4141216974800006    0.0000000000000000
     0.0000000000000000    0.0000000000000000   23.4141216974799988
   W    Mg   O 
     1    32    32
Selective dynamics
Direct
  0.7503343992671224  0.5003344497021208  0.3686345243532345   T   T   T
  0.2499864769366197  0.9999864769366198  0.0055827950053074   T   T   T
  0.2499900902567806  0.4999855695612181  0.0055439401361946   T   T   T
  0.7499855695612179  0.9999900902567805  0.0055439401361946   T   T   T
  0.7499887923013233  0.4999887923013234  0.0054050374268226   T   T   T
  0.0000173231826974  0.2499591560577425  0.0056352431663303   T   T   T
  0.0000159646878979  0.7500159646878980  0.0056346264762139   T   T   T
  0.4999581388646052  0.2499581388646051  0.0056355569269603   T   T   T
  0.4999591560577425  0.7500173231826974  0.0056352431663303   T   T   T
 -0.0000022303863842  0.9999902434816829  0.0951539815944857   T   T   T
  0.0001138724437448  0.4999868146229350  0.0950359981855446   T   T   T
  0.4999758406357693  0.9999895280315578  0.0951562423805836   T   T   T
  0.4998671424922282  0.4999870848539542  0.0950369834066679   T   T   T
  0.2499895280315579  0.2499758406357693  0.0951562423805836   T   T   T
  0.2499902434816830  0.7499977696136156  0.0951539815944857   T   T   T
  0.7499870848539542  0.2498671424922282  0.0950369834066679   T   T   T
  0.7499868146229349  0.7501138724437447  0.0950359981855446   T   T   T
  0.2499961421668825  0.9999961421668825  0.1851682128281088   T   T   T
  0.2500050360246568  0.4999927603812753  0.1855509912798307   T   T   T
  0.7499927603812753  0.0000050360246569  0.1855509912798307   T   T   T
  0.7499989662571637  0.4999989662571636  0.1842335997948940   T   T   T
 -0.0003904777933513  0.2503804323703288  0.1859674584844401   T   T   T
 -0.0003891035842501  0.7496108964157500  0.1859632757456086   T   T   T
  0.5003824899022794  0.2503824899022797  0.1859716549135292   T   T   T
  0.5003804323703289  0.7496095222066488  0.1859674584844401   T   T   T
  0.0019640730006844  0.0000024941898825  0.2749893039628478   T   T   T
  0.0097501381099589  0.5000024281431489  0.2771246122058862   T   T   T
  0.4980340707842699  0.0000024297206142  0.2749972632244451   T   T   T
  0.4903015020174698  0.5000029399784877  0.2771376581965567   T   T   T
  0.2500024297206141  0.2480340707842697  0.2749972632244451   T   T   T
  0.2500024941898823  0.7519640730006842  0.2749893039628478   T   T   T
  0.7500029399784878  0.2403015020174699  0.2771376581965567   T   T   T
  0.7500024281431487  0.7597501381099590  0.2771246122058862   T   T   T
  0.9999307130158058  0.9999871691290108  0.0034460043137251   T   T   T
  0.0000448623407428  0.4999882574692806  0.0032933597990517   T   T   T
  0.5000405880350254  0.9999870827274010  0.0034461509224373   T   T   T
  0.4999342598896303  0.4999885714304393  0.0032937248068373   T   T   T
  0.2499870827274010  0.2500405880350252  0.0034461509224373   T   T   T
  0.2499871691290106  0.7499307130158058  0.0034460043137251   T   T   T
  0.7499885714304398  0.2499342598896303  0.0032937248068373   T   T   T
  0.7499882574692808  0.7500448623407425  0.0032933597990517   T   T   T
  0.2499893494514510  0.9999893494514509  0.0951340791852822   T   T   T
  0.2499925681772098  0.4999861381938450  0.0954585372361010   T   T   T
  0.7499861381938451  0.9999925681772099  0.0954585372361010   T   T   T
  0.7499913605605382  0.4999913605605382  0.0951784069652462   T   T   T
  0.9995585644858119  0.2504190843035875  0.0953691880354466   T   T   T
  0.9995578741546224  0.7495578741546224  0.0953681598189342   T   T   T
  0.5004195088844816  0.2504195088844814  0.0953705778883309   T   T   T
  0.5004190843035874  0.7495585644858119  0.0953691880354466   T   T   T
  0.9995990803105217  0.9999997656905720  0.1848915438458180   T   T   T
  0.9979092272780982  0.4999914980775300  0.1862137463122333   T   T   T
  0.5003882853920153  0.0000003955902039  0.1848962620824499   T   T   T
  0.5020927030357876  0.4999926183367691  0.1862172537076201   T   T   T
  0.2500003955902039  0.2503882853920155  0.1848961704634495   T   T   T
  0.2499997656905720  0.7495990803105217  0.1848914522268176   T   T   T
  0.7499926183367692  0.2520927030357875  0.1862171620886197   T   T   T
  0.7499914980775299  0.7479092272780982  0.1862136546932329   T   T   T
  0.2500003454311355  0.0000003958661339  0.2764108539173773   T   T   T
  0.2500197134544530  0.5000001555662604  0.2765194170651909   T   T   T
  0.7500001051312621  0.0000197638894515  0.2765194170651909   T   T   T
  0.7499933586911737  0.4999934091261720  0.2823721129694191   T   T   T
  0.0010107894358881  0.2489921624564405  0.2759872399259188   T   T   T
  0.0010156549589619  0.7510156549589619  0.2759754722040818   T   T   T
  0.4989975633443158  0.2489975633443230  0.2759990068494103   T   T   T
  0.4989921624564407  0.7510107894358879  0.2759872399259188   T   T   T
 
  0.00000000E+00  0.00000000E+00  0.00000000E+00
  0.00000000E+00  0.00000000E+00  0.00000000E+00
  0.00000000E+00  0.00000000E+00  0.00000000E+00
  0.00000000E+00  0.00000000E+00  0.00000000E+00
  0.00000000E+00  0.00000000E+00  0.00000000E+00
  0.00000000E+00  0.00000000E+00  0.00000000E+00
  0.00000000E+00  0.00000000E+00  0.00000000E+00
  0.00000000E+00  0.00000000E+00  0.00000000E+00
  0.00000000E+00  0.00000000E+00  0.00000000E+00
  0.00000000E+00  0.00000000E+00  0.00000000E+00
  0.00000000E+00  0.00000000E+00  0.00000000E+00
  0.00000000E+00  0.00000000E+00  0.00000000E+00
  0.00000000E+00  0.00000000E+00  0.00000000E+00
  0.00000000E+00  0.00000000E+00  0.00000000E+00
  0.00000000E+00  0.00000000E+00  0.00000000E+00
  0.00000000E+00  0.00000000E+00  0.00000000E+00
  0.00000000E+00  0.00000000E+00  0.00000000E+00
  0.00000000E+00  0.00000000E+00  0.00000000E+00
  0.00000000E+00  0.00000000E+00  0.00000000E+00
  0.00000000E+00  0.00000000E+00  0.00000000E+00
  0.00000000E+00  0.00000000E+00  0.00000000E+00
  0.00000000E+00  0.00000000E+00  0.00000000E+00
  0.00000000E+00  0.00000000E+00  0.00000000E+00
  0.00000000E+00  0.00000000E+00  0.00000000E+00
  0.00000000E+00  0.00000000E+00  0.00000000E+00
  0.00000000E+00  0.00000000E+00  0.00000000E+00
  0.00000000E+00  0.00000000E+00  0.00000000E+00
  0.00000000E+00  0.00000000E+00  0.00000000E+00
  0.00000000E+00  0.00000000E+00  0.00000000E+00
  0.00000000E+00  0.00000000E+00  0.00000000E+00
  0.00000000E+00  0.00000000E+00  0.00000000E+00
  0.00000000E+00  0.00000000E+00  0.00000000E+00
  0.00000000E+00  0.00000000E+00  0.00000000E+00
  0.00000000E+00  0.00000000E+00  0.00000000E+00
  0.00000000E+00  0.00000000E+00  0.00000000E+00
  0.00000000E+00  0.00000000E+00  0.00000000E+00
  0.00000000E+00  0.00000000E+00  0.00000000E+00
  0.00000000E+00  0.00000000E+00  0.00000000E+00
  0.00000000E+00  0.00000000E+00  0.00000000E+00
  0.00000000E+00  0.00000000E+00  0.00000000E+00
  0.00000000E+00  0.00000000E+00  0.00000000E+00
  0.00000000E+00  0.00000000E+00  0.00000000E+00
  0.00000000E+00  0.00000000E+00  0.00000000E+00
  0.00000000E+00  0.00000000E+00  0.00000000E+00
  0.00000000E+00  0.00000000E+00  0.00000000E+00
  0.00000000E+00  0.00000000E+00  0.00000000E+00
  0.00000000E+00  0.00000000E+00  0.00000000E+00
  0.00000000E+00  0.00000000E+00  0.00000000E+00
  0.00000000E+00  0.00000000E+00  0.00000000E+00
  0.00000000E+00  0.00000000E+00  0.00000000E+00
  0.00000000E+00  0.00000000E+00  0.00000000E+00
  0.00000000E+00  0.00000000E+00  0.00000000E+00
  0.00000000E+00  0.00000000E+00  0.00000000E+00
  0.00000000E+00  0.00000000E+00  0.00000000E+00
  0.00000000E+00  0.00000000E+00  0.00000000E+00
  0.00000000E+00  0.00000000E+00  0.00000000E+00
  0.00000000E+00  0.00000000E+00  0.00000000E+00
  0.00000000E+00  0.00000000E+00  0.00000000E+00
  0.00000000E+00  0.00000000E+00  0.00000000E+00
  0.00000000E+00  0.00000000E+00  0.00000000E+00
  0.00000000E+00  0.00000000E+00  0.00000000E+00
  0.00000000E+00  0.00000000E+00  0.00000000E+00
  0.00000000E+00  0.00000000E+00  0.00000000E+00
  0.00000000E+00  0.00000000E+00  0.00000000E+00
  0.00000000E+00  0.00000000E+00  0.00000000E+00
