Mg Na O Fe                              
   1.00000000000000     
    16.8282433949600012    0.0000000000000000    0.0000000000000000
     0.0000000000000000    8.4141216974800006    0.0000000000000000
     0.0000000000000000    0.0000000000000000   23.4141216974799988
   Mg   Na   O    Fe
    62     2    63     1
Selective dynamics
Direct
  0.1249167904547723  0.9995871010751125  0.0049744851308244   T   T   T
  0.6251246975213929  0.9997562932745057  0.0040725198435615   T   T   T
  0.1249277484198085  0.5001552092535005  0.0046085986046397   T   T   T
  0.6250976736825997  0.5001725107497993  0.0030077452296758   T   T   T
  0.3746191430689010 -0.0001545865214561  0.0049708421702492   T   T   T
  0.8753413894249799 -0.0000545069766277  0.0050597184128897   T   T   T
  0.3742938335297929  0.4997403818620688  0.0041890407186294   T   T   T
  0.8756494744559363  0.4997393383203068  0.0044780466233291   T   T   T
  0.0000124090774789  0.2495142947583977  0.0049290383574192   T   T   T
  0.4994846517372585  0.2493248652241346  0.0042337218305393   T   T   T
  0.0001863149644454  0.7501821294711964  0.0050779627393870   T   T   T
  0.4996597714666063  0.7503329036090757  0.0042878436264528   T   T   T
  0.2498274238242063  0.2495140712182911  0.0048919692708444   T   T   T
  0.7506393093000338  0.2493775987206051  0.0043610934829397   T   T   T
  0.2496810924573117  0.7501261173698563  0.0050448059120182   T   T   T
  0.7504559363364455  0.7503323279522915  0.0044115942992339   T   T   T
  0.0004181813209148  0.0007003665835163  0.0948334289531101   T   T   T
  0.5001445785504787  0.0003234813113256  0.0942954895450138   T   T   T
  0.0009548610964262  0.4990300138164545  0.0942475382633640   T   T   T
  0.4990903206284184  0.4992181221729975  0.0922164346815397   T   T   T
  0.2493168711090382  0.0005185965981559  0.0948335416746304   T   T   T
  0.7501399053984544  0.0004309979142214  0.0943839162986271   T   T   T
  0.2487867713381567  0.4990638331568118  0.0941637582932414   T   T   T
  0.7511527305265538  0.4992000345891769  0.0926049530456879   T   T   T
  0.1249010421781039  0.2496017050469484  0.0941709103213975   T   T   T
  0.6250825913451687  0.2484685774696569  0.0925311800498435   T   T   T
  0.1248993547349817  0.7501656754925925  0.0948230447207003   T   T   T
  0.6251040109366717  0.7517636378271292  0.0929328003874870   T   T   T
  0.3746416577742636  0.2490683082482978  0.0944950887694386   T   T   T
  0.8753669082418708  0.2492207737758181  0.0947795905349692   T   T   T
  0.3747357371729982  0.7502542345605421  0.0941992209514407   T   T   T
  0.8752433090762830  0.7503842935925070  0.0943716718348615   T   T   T
  0.1247559367963090  0.0048346226231466  0.1867577599956722   T   T   T
  0.6252447807442483  0.0101083879199694  0.1856600181927799   T   T   T
  0.1243238683901529  0.4952158544186567  0.1860975714011154   T   T   T
  0.6251476923101923  0.4956426706634525  0.1762301618768134   T   T   T
  0.3749556647458163  0.0003576201739831  0.1848204667942152   T   T   T
  0.8749726666589600  0.0006055537693566  0.1851958754852595   T   T   T
  0.3722342565372095  0.4984797553783190  0.1821644225472868   T   T   T
  0.8783142045374291  0.4988518345358764  0.1837277713239347   T   T   T
  0.0032399815306480  0.2491801706354170  0.1871035636732436   T   T   T
  0.5020823651543171  0.2511707579806875  0.1860069994081613   T   T   T
  0.0012709431788861  0.7505463106561683  0.1850945220371501   T   T   T
  0.5007137366643264  0.7486422518006012  0.1847248934216518   T   T   T
  0.2467834254837290  0.2492421847962083  0.1869626791632341   T   T   T
  0.7480169542558506  0.2515859506380694  0.1860656037110404   T   T   T
  0.2484215401776941  0.7501910451355039  0.1852811014375945   T   T   T
  0.7495172629368355  0.7484080307574611  0.1847168680647264   T   T   T
  0.0026099387945901  0.0020317547615970  0.2744958711714300   T   T   T
  0.5018609192500572  0.0065798079592906  0.2741530726011465   T   T   T
  0.0028085898470389  0.4973472637394120  0.2741635932389842   T   T   T
  0.4878404526365897  0.4973144640338621  0.2735758616714890   T   T   T
  0.2457412151472110  0.0018562569970514  0.2743040761395592   T   T   T
  0.7491584193248433  0.0088169414289743  0.2747840218772628   T   T   T
  0.2420817882010116  0.4968666202844687  0.2744137758817052   T   T   T
  0.7664132195773009  0.4971540849279855  0.2728118797098719   T   T   T
  0.1240388492805914  0.7509822346397336  0.2744545647884817   T   T   T
  0.6253274391521960  0.7693962128768047  0.2728038013560011   T   T   T
  0.3736085235613148  0.2373456663827400  0.2754286181714921   T   T   T
  0.8768321853991546  0.2468908310712839  0.2747128180169374   T   T   T
  0.3711664328431172  0.7593986227682546  0.2752645732242296   T   T   T
  0.8788811044212176  0.7518407104451592  0.2741253813829608   T   T   T
  0.1245364820823439  0.2490359504812626  0.3013206514576243   T   T   T
  0.6246004321428440  0.2453055733578096  0.3030884403845895   T   T   T
  0.9995877595074478  0.9996407079379129  0.0026742612024083   T   T   T
  0.5001780870629881  0.9996103695821450  0.0028177778811288   T   T   T
  0.9997209504397120  0.5000767097571144  0.0023939616162544   T   T   T
  0.4998042112460744  0.5000547455599230  0.0017201063331276   T   T   T
  0.2504395082401383  0.9995673159231924  0.0028164037990392   T   T   T
  0.7498069130561861  0.9996551447698261  0.0027431396047325   T   T   T
  0.2503458960619774  0.5000810824513863  0.0023338018262640   T   T   T
  0.7500817243220220  0.5000567218070567  0.0019112403486218   T   T   T
  0.1250279741032684  0.2497466217941548  0.0022570550008078   T   T   T
  0.6249612786099930  0.2493217652656368  0.0017981682814627   T   T   T
  0.1250507431427459  0.7499915977390044  0.0024016860374724   T   T   T
  0.6249621951611326  0.7506100454651806  0.0018328603566534   T   T   T
  0.3753204882039608  0.2495945676368831  0.0024445096190093   T   T   T
  0.8746623776154547  0.2497164672588012  0.0024818802161024   T   T   T
  0.3753620626153803  0.7499976661940503  0.0027277851940349   T   T   T
  0.8746162912917953  0.7499688208618512  0.0027608354259847   T   T   T
  0.1250475703525791  0.9988922587413932  0.0940335997555436   T   T   T
  0.6250591715485595  0.9990626494773179  0.0948476712318360   T   T   T
  0.1251643361832188  0.5008828197824542  0.0936746879924023   T   T   T
  0.6248023406540087  0.5013033879584550  0.0916780221990388   T   T   T
  0.3759280541046364  0.9991893481207417  0.0951446236764909   T   T   T
  0.8740252083810519  0.9994574679030919  0.0949548877154019   T   T   T
  0.3756266247439962  0.5001751065229975  0.0943941653410355   T   T   T
  0.8743832056747231  0.5001891410110044  0.0945727974063262   T   T   T
  0.9990066367529015  0.2497996740535836  0.0940873974424049   T   T   T
  0.5000749704787050  0.2506249476012780  0.0942765948621798   T   T   T
  0.9992247469334659  0.7499366427548886  0.0945953951164097   T   T   T
  0.5005669473962260  0.7488771475987758  0.0948427478948885   T   T   T
  0.2511606683427976  0.2500571640737769  0.0941732471233453   T   T   T
  0.7497540105183378  0.2503976312315480  0.0942837483073591   T   T   T
  0.2509364955335418  0.7494914606159199  0.0947743942316730   T   T   T
  0.7492658654164952  0.7492260723663374  0.0948111807476928   T   T   T
  0.9989505506392687  0.0001608483720319  0.1846373829548441   T   T   T
  0.5016569138427842  0.9993746489500616  0.1854795832889511   T   T   T
  0.0002958708779739  0.4995792021221069  0.1839377302257513   T   T   T
  0.5014476166805393  0.4996069378765494  0.1864854843915549   T   T   T
  0.2511164695016191 -0.0001106589879783  0.1846116609743738   T   T   T
  0.7483275142327920  0.9996659156772565  0.1860650865040807   T   T   T
  0.2505256805375370  0.4995800902788713  0.1849611257050671   T   T   T
  0.7476603949801279  0.4994750729105802  0.1859568062565096   T   T   T
  0.1251214829118231  0.2498904693013696  0.1805934347120423   T   T   T
  0.6250494166299772  0.2562564570935164  0.1816262956376622   T   T   T
  0.1249499700192747  0.7500398843966941  0.1833297805086541   T   T   T
  0.6252295064749503  0.7420563648502492  0.1855059751942161   T   T   T
  0.3764630644828617  0.2521276402942894  0.1849289189300140   T   T   T
  0.8732426355113266  0.2502535898808602  0.1845111137839367   T   T   T
  0.3767765777380330  0.7465714707707195  0.1856865905501710   T   T   T
  0.8730278425121624  0.7493052131468998  0.1847344879628775   T   T   T
  0.1246989347507084  0.9866795846583232  0.2768411733872443   T   T   T
  0.6254782893339939  0.9957452588046424  0.2770938330720761   T   T   T
  0.1234213312772917  0.5140836598383322  0.2766595766787298   T   T   T
  0.3794812198266975  0.9958311064877267  0.2758966022073941   T   T   T
  0.8704477386660838  0.9949594364987644  0.2767144540310098   T   T   T
  0.3699098984966174  0.5058445982309129  0.2820378017427133   T   T   T
  0.8805083825167506  0.5051401911660474  0.2754194420607764   T   T   T
  0.9930457901283808  0.2472901687025844  0.2773872363130145   T   T   T
  0.4949200179797699  0.2593633948280237  0.2774389611604609   T   T   T
  0.9987022793181267  0.7526287927667138  0.2755760454452846   T   T   T
  0.5069332736155525  0.7343507438428061  0.2770231063448033   T   T   T
  0.2569185189704118  0.2483281492410452  0.2767455892262525   T   T   T
  0.7551487355908809  0.2611413507430401  0.2795583019573032   T   T   T
  0.2508842126135978  0.7514591630901877  0.2751496859576911   T   T   T
  0.7429307774855132  0.7307333897552760  0.2789693148050764   T   T   T
  0.3734945958542749  0.5029455502990348  0.3637705340046558   T   T   T
 
  0.00000000E+00  0.00000000E+00  0.00000000E+00
  0.00000000E+00  0.00000000E+00  0.00000000E+00
  0.00000000E+00  0.00000000E+00  0.00000000E+00
  0.00000000E+00  0.00000000E+00  0.00000000E+00
  0.00000000E+00  0.00000000E+00  0.00000000E+00
  0.00000000E+00  0.00000000E+00  0.00000000E+00
  0.00000000E+00  0.00000000E+00  0.00000000E+00
  0.00000000E+00  0.00000000E+00  0.00000000E+00
  0.00000000E+00  0.00000000E+00  0.00000000E+00
  0.00000000E+00  0.00000000E+00  0.00000000E+00
  0.00000000E+00  0.00000000E+00  0.00000000E+00
  0.00000000E+00  0.00000000E+00  0.00000000E+00
  0.00000000E+00  0.00000000E+00  0.00000000E+00
  0.00000000E+00  0.00000000E+00  0.00000000E+00
  0.00000000E+00  0.00000000E+00  0.00000000E+00
  0.00000000E+00  0.00000000E+00  0.00000000E+00
  0.00000000E+00  0.00000000E+00  0.00000000E+00
  0.00000000E+00  0.00000000E+00  0.00000000E+00
  0.00000000E+00  0.00000000E+00  0.00000000E+00
  0.00000000E+00  0.00000000E+00  0.00000000E+00
  0.00000000E+00  0.00000000E+00  0.00000000E+00
  0.00000000E+00  0.00000000E+00  0.00000000E+00
  0.00000000E+00  0.00000000E+00  0.00000000E+00
  0.00000000E+00  0.00000000E+00  0.00000000E+00
  0.00000000E+00  0.00000000E+00  0.00000000E+00
  0.00000000E+00  0.00000000E+00  0.00000000E+00
  0.00000000E+00  0.00000000E+00  0.00000000E+00
  0.00000000E+00  0.00000000E+00  0.00000000E+00
  0.00000000E+00  0.00000000E+00  0.00000000E+00
  0.00000000E+00  0.00000000E+00  0.00000000E+00
  0.00000000E+00  0.00000000E+00  0.00000000E+00
  0.00000000E+00  0.00000000E+00  0.00000000E+00
  0.00000000E+00  0.00000000E+00  0.00000000E+00
  0.00000000E+00  0.00000000E+00  0.00000000E+00
  0.00000000E+00  0.00000000E+00  0.00000000E+00
  0.00000000E+00  0.00000000E+00  0.00000000E+00
  0.00000000E+00  0.00000000E+00  0.00000000E+00
  0.00000000E+00  0.00000000E+00  0.00000000E+00
  0.00000000E+00  0.00000000E+00  0.00000000E+00
  0.00000000E+00  0.00000000E+00  0.00000000E+00
  0.00000000E+00  0.00000000E+00  0.00000000E+00
  0.00000000E+00  0.00000000E+00  0.00000000E+00
  0.00000000E+00  0.00000000E+00  0.00000000E+00
  0.00000000E+00  0.00000000E+00  0.00000000E+00
  0.00000000E+00  0.00000000E+00  0.00000000E+00
  0.00000000E+00  0.00000000E+00  0.00000000E+00
  0.00000000E+00  0.00000000E+00  0.00000000E+00
  0.00000000E+00  0.00000000E+00  0.00000000E+00
  0.00000000E+00  0.00000000E+00  0.00000000E+00
  0.00000000E+00  0.00000000E+00  0.00000000E+00
  0.00000000E+00  0.00000000E+00  0.00000000E+00
  0.00000000E+00  0.00000000E+00  0.00000000E+00
  0.00000000E+00  0.00000000E+00  0.00000000E+00
  0.00000000E+00  0.00000000E+00  0.00000000E+00
  0.00000000E+00  0.00000000E+00  0.00000000E+00
  0.00000000E+00  0.00000000E+00  0.00000000E+00
  0.00000000E+00  0.00000000E+00  0.00000000E+00
  0.00000000E+00  0.00000000E+00  0.00000000E+00
  0.00000000E+00  0.00000000E+00  0.00000000E+00
  0.00000000E+00  0.00000000E+00  0.00000000E+00
  0.00000000E+00  0.00000000E+00  0.00000000E+00
  0.00000000E+00  0.00000000E+00  0.00000000E+00
  0.00000000E+00  0.00000000E+00  0.00000000E+00
  0.00000000E+00  0.00000000E+00  0.00000000E+00
  0.00000000E+00  0.00000000E+00  0.00000000E+00
  0.00000000E+00  0.00000000E+00  0.00000000E+00
  0.00000000E+00  0.00000000E+00  0.00000000E+00
  0.00000000E+00  0.00000000E+00  0.00000000E+00
  0.00000000E+00  0.00000000E+00  0.00000000E+00
  0.00000000E+00  0.00000000E+00  0.00000000E+00
  0.00000000E+00  0.00000000E+00  0.00000000E+00
  0.00000000E+00  0.00000000E+00  0.00000000E+00
  0.00000000E+00  0.00000000E+00  0.00000000E+00
  0.00000000E+00  0.00000000E+00  0.00000000E+00
  0.00000000E+00  0.00000000E+00  0.00000000E+00
  0.00000000E+00  0.00000000E+00  0.00000000E+00
  0.00000000E+00  0.00000000E+00  0.00000000E+00
  0.00000000E+00  0.00000000E+00  0.00000000E+00
  0.00000000E+00  0.00000000E+00  0.00000000E+00
  0.00000000E+00  0.00000000E+00  0.00000000E+00
  0.00000000E+00  0.00000000E+00  0.00000000E+00
  0.00000000E+00  0.00000000E+00  0.00000000E+00
  0.00000000E+00  0.00000000E+00  0.00000000E+00
  0.00000000E+00  0.00000000E+00  0.00000000E+00
  0.00000000E+00  0.00000000E+00  0.00000000E+00
  0.00000000E+00  0.00000000E+00  0.00000000E+00
  0.00000000E+00  0.00000000E+00  0.00000000E+00
  0.00000000E+00  0.00000000E+00  0.00000000E+00
  0.00000000E+00  0.00000000E+00  0.00000000E+00
  0.00000000E+00  0.00000000E+00  0.00000000E+00
  0.00000000E+00  0.00000000E+00  0.00000000E+00
  0.00000000E+00  0.00000000E+00  0.00000000E+00
  0.00000000E+00  0.00000000E+00  0.00000000E+00
  0.00000000E+00  0.00000000E+00  0.00000000E+00
  0.00000000E+00  0.00000000E+00  0.00000000E+00
  0.00000000E+00  0.00000000E+00  0.00000000E+00
  0.00000000E+00  0.00000000E+00  0.00000000E+00
  0.00000000E+00  0.00000000E+00  0.00000000E+00
  0.00000000E+00  0.00000000E+00  0.00000000E+00
  0.00000000E+00  0.00000000E+00  0.00000000E+00
  0.00000000E+00  0.00000000E+00  0.00000000E+00
  0.00000000E+00  0.00000000E+00  0.00000000E+00
  0.00000000E+00  0.00000000E+00  0.00000000E+00
  0.00000000E+00  0.00000000E+00  0.00000000E+00
  0.00000000E+00  0.00000000E+00  0.00000000E+00
  0.00000000E+00  0.00000000E+00  0.00000000E+00
  0.00000000E+00  0.00000000E+00  0.00000000E+00
  0.00000000E+00  0.00000000E+00  0.00000000E+00
  0.00000000E+00  0.00000000E+00  0.00000000E+00
  0.00000000E+00  0.00000000E+00  0.00000000E+00
  0.00000000E+00  0.00000000E+00  0.00000000E+00
  0.00000000E+00  0.00000000E+00  0.00000000E+00
  0.00000000E+00  0.00000000E+00  0.00000000E+00
  0.00000000E+00  0.00000000E+00  0.00000000E+00
  0.00000000E+00  0.00000000E+00  0.00000000E+00
  0.00000000E+00  0.00000000E+00  0.00000000E+00
  0.00000000E+00  0.00000000E+00  0.00000000E+00
  0.00000000E+00  0.00000000E+00  0.00000000E+00
  0.00000000E+00  0.00000000E+00  0.00000000E+00
  0.00000000E+00  0.00000000E+00  0.00000000E+00
  0.00000000E+00  0.00000000E+00  0.00000000E+00
  0.00000000E+00  0.00000000E+00  0.00000000E+00
  0.00000000E+00  0.00000000E+00  0.00000000E+00
  0.00000000E+00  0.00000000E+00  0.00000000E+00
  0.00000000E+00  0.00000000E+00  0.00000000E+00
  0.00000000E+00  0.00000000E+00  0.00000000E+00
  0.00000000E+00  0.00000000E+00  0.00000000E+00
  0.00000000E+00  0.00000000E+00  0.00000000E+00
