Mg Na O Ru                              
   1.00000000000000     
    16.8282433949600012    0.0000000000000000    0.0000000000000000
     0.0000000000000000    8.4141216974800006    0.0000000000000000
     0.0000000000000000    0.0000000000000000   23.4141216974799988
   Mg   Na   O    Ru
    62     2    63     1
Selective dynamics
Direct
  0.1249397977425947  0.9996197302573978  0.0050119541757423   T   T   T
  0.6250619627075046  0.9997800058666838  0.0040987561742257   T   T   T
  0.1249865383860677  0.5001817059283913  0.0046580730509595   T   T   T
  0.6250097033319353  0.5001806145692267  0.0030476418802156   T   T   T
  0.3746220880242556 -0.0001218904709427  0.0050253312528087   T   T   T
  0.8753404500401770 -0.0000439329549348  0.0050544767334555   T   T   T
  0.3742837978122076  0.4997548437316827  0.0043010900878402   T   T   T
  0.8756717024046804  0.4997551080133138  0.0044892269135465   T   T   T
  0.0000367566599168  0.2495461897251543  0.0049504080322217   T   T   T
  0.4994391020339212  0.2493526206083626  0.0043126078739482   T   T   T
  0.0002223977254303  0.7502156677942621  0.0051013923642971   T   T   T
  0.4996090823619276  0.7502958127726914  0.0043664392050335   T   T   T
  0.2498504067791621  0.2495487495264449  0.0049567064662892   T   T   T
  0.7506185330232995  0.2493771588337418  0.0043662637185105   T   T   T
  0.2497154853052031  0.7500891371161900  0.0050911881734314   T   T   T
  0.7504303192450160  0.7503651858956923  0.0044163873779648   T   T   T
  0.0004469905090353  0.0006693363316314  0.0948495755289993   T   T   T
  0.5001160210093865  0.0002528369908847  0.0943853689616331   T   T   T
  0.0010313555904420  0.4990543746046258  0.0943054909567693   T   T   T
  0.4990238180151854  0.4991604009856308  0.0923551135990662   T   T   T
  0.2493521401836841  0.0004009015204360  0.0949027419487232   T   T   T
  0.7500953011981593  0.0004340674470921  0.0943462126188129   T   T   T
  0.2488582261551864  0.4990235828153894  0.0943343962497207   T   T   T
  0.7510826208742455  0.4992293914028632  0.0925919714049012   T   T   T
  0.1249660699060603  0.2496562563565055  0.0942221864198153   T   T   T
  0.6250289103774076  0.2484900370849483  0.0925501362680416   T   T   T
  0.1249924332826502  0.7500655345511652  0.0948839064395883   T   T   T
  0.6250552102353675  0.7517148324621697  0.0929659783695251   T   T   T
  0.3746469667580690  0.2491853101676098  0.0946080654145986   T   T   T
  0.8753597407380118  0.2492564513968388  0.0947680564541021   T   T   T
  0.3747148854618333  0.7501521989334046  0.0943562867579680   T   T   T
  0.8752665715527707  0.7503286882297167  0.0943607315906925   T   T   T
  0.1248383706864681  0.0046362708682477  0.1867510185944535   T   T   T
  0.6252212642072332  0.0099176885056880  0.1855628220400987   T   T   T
  0.1245020159168526  0.4951614046297902  0.1862282286098028   T   T   T
  0.6249881570365905  0.4956392507665908  0.1762498374834770   T   T   T
  0.3749759076802677  0.0002278995907872  0.1848296005807246   T   T   T
  0.8750109142847642  0.0005884316423898  0.1851394689592088   T   T   T
  0.3723243191788567  0.4985108559617125  0.1825533199687836   T   T   T
  0.8783873807015836  0.4988039747114373  0.1837019784869270   T   T   T
  0.0032600979678287  0.2491491110494853  0.1870900408255816   T   T   T
  0.5019858941751183  0.2513257904947695  0.1861694078395632   T   T   T
  0.0013627410894766  0.7504537067574002  0.1851262638879157   T   T   T
  0.5006022439624607  0.7481001344873116  0.1848862432162525   T   T   T
  0.2469262914997521  0.2492013864905876  0.1870532826012141   T   T   T
  0.7480819777089742  0.2515917015899230  0.1859587989003376   T   T   T
  0.2486090164599349  0.7497801131295805  0.1854953079337068   T   T   T
  0.7495565267046557  0.7484079186262471  0.1845726431259090   T   T   T
  0.0025824642859009  0.0018255970961893  0.2744616077073269   T   T   T
  0.5019263794479162  0.0058561673983296  0.2740017134569039   T   T   T
  0.0028271519970040  0.4973539024907764  0.2741990726191376   T   T   T
  0.4876432373722785  0.4966802992685886  0.2746706749880519   T   T   T
  0.2457212729384435  0.0017976823986565  0.2742562242136534   T   T   T
  0.7492494667545840  0.0085765412070200  0.2747428827236085   T   T   T
  0.2418902312908420  0.4959771875370330  0.2750825143543377   T   T   T
  0.7665730641649426  0.4972274663195468  0.2726845387600186   T   T   T
  0.1241816864928792  0.7507966016989243  0.2745243168890288   T   T   T
  0.6254881489661912  0.7693650702670124  0.2724945823940058   T   T   T
  0.3737226187387155  0.2369335558042085  0.2755688046640012   T   T   T
  0.8768325481060759  0.2468819819535886  0.2746716909845384   T   T   T
  0.3711335834607553  0.7602081982220285  0.2758342368626791   T   T   T
  0.8789133722457536  0.7517703350242890  0.2740780177689885   T   T   T
  0.1245136744197720  0.2487010920991901  0.3005419828162496   T   T   T
  0.6247165162903703  0.2451212299234260  0.3017957219422558   T   T   T
  0.9995641509753145  0.9996638567278211  0.0027138129821088   T   T   T
  0.5001762887327443  0.9995917201566992  0.0028686933591021   T   T   T
  0.9997099291523519  0.5001036744039576  0.0024288909718740   T   T   T
  0.4998008565003552  0.5000565015058047  0.0017714096531893   T   T   T
  0.2504460834190732  0.9995658409556107  0.0028351601061186   T   T   T
  0.7497858620453204  0.9996717356854703  0.0027594039997540   T   T   T
  0.2503753978230691  0.5000740771006399  0.0023700906497375   T   T   T
  0.7500456549420702  0.5000775683253054  0.0019042096897085   T   T   T
  0.1250135942762020  0.2497658499896477  0.0022746523451008   T   T   T
  0.6249597168627355  0.2493559732080695  0.0017935776334267   T   T   T
  0.1250504990824086  0.7500094754487544  0.0024149061075163   T   T   T
  0.6249436270613654  0.7505988539409760  0.0018503604417609   T   T   T
  0.3753408766378388  0.2496375862829849  0.0025051018667709   T   T   T
  0.8746351083497862  0.2497215306430199  0.0025131284098896   T   T   T
  0.3753828015788468  0.7499858484514403  0.0027957920695315   T   T   T
  0.8746033466365684  0.7499896231484671  0.0027936258463126   T   T   T
  0.1250290340260591  0.9988644458747039  0.0940532631885006   T   T   T
  0.6250987339562134  0.9990718961985853  0.0948208809329423   T   T   T
  0.1251771284599384  0.5008540898645113  0.0937203376823798   T   T   T
  0.6247970008697529  0.5012599628230425  0.0916833857333248   T   T   T
  0.3759274594637376  0.9991668826964207  0.0951330862403306   T   T   T
  0.8740012581748359  0.9994447418347979  0.0949555423895524   T   T   T
  0.3756276484307489  0.5001944932900461  0.0945066924836480   T   T   T
  0.8743735860678490  0.5001872975567963  0.0946102131775792   T   T   T
  0.9989782985684067  0.2498064574379517  0.0941210534228799   T   T   T
  0.5001375200689030  0.2506714846123499  0.0943246590150842   T   T   T
  0.9992230118772171  0.7499137833231641  0.0946207630923179   T   T   T
  0.5005841573352444  0.7487109905704687  0.0948780688035469   T   T   T
  0.2511443367096144  0.2500066407019822  0.0941941858829386   T   T   T
  0.7497534997387253  0.2504238090839939  0.0942718563193389   T   T   T
  0.2509321103532994  0.7493806370218427  0.0947972269516514   T   T   T
  0.7492899042635557  0.7492241722641771  0.0947742996898094   T   T   T
  0.9989117656577401  0.0000935902740935  0.1846586207915041   T   T   T
  0.5017557304646157  0.9991963852761891  0.1854512693914399   T   T   T
  0.0003138450942425  0.4995091455272343  0.1839958946934609   T   T   T
  0.5016367121555243  0.4994235858820326  0.1867353379724308   T   T   T
  0.2510944733860030 -0.0003783950192163  0.1846023127328549   T   T   T
  0.7484031281605049  0.9996737609045193  0.1861129683290247   T   T   T
  0.2503411861224445  0.4994064875912578  0.1850484811924991   T   T   T
  0.7476461072432936  0.4994498427069129  0.1860079802871599   T   T   T
  0.1250667133286763  0.2497859280563122  0.1806696083783182   T   T   T
  0.6251846059259359  0.2561629892702521  0.1817079651051815   T   T   T
  0.1249262055591834  0.7498528325182948  0.1834049914408087   T   T   T
  0.6254414017780842  0.7421067824187532  0.1853924884050696   T   T   T
  0.3765259698955994  0.2518204908418535  0.1849049465505786   T   T   T
  0.8732020666426059  0.2502520840475533  0.1845434255498951   T   T   T
  0.3768071506065725  0.7467348390716302  0.1858080919689160   T   T   T
  0.8730136257161406  0.7492498788185156  0.1847751369639986   T   T   T
  0.1245499922608541  0.9863903402479304  0.2769172590931947   T   T   T
  0.6257301670474040  0.9954598338370342  0.2772065582879958   T   T   T
  0.1232140578180262  0.5139699348201934  0.2768986064100842   T   T   T
  0.3796508620712648  0.9959798261836499  0.2759458385187072   T   T   T
  0.8704514044591575  0.9948948367844794  0.2767734542430196   T   T   T
  0.3691795535911153  0.5054148396324910  0.2786148242204627   T   T   T
  0.8805960879121455  0.5051110461775473  0.2755089401978675   T   T   T
  0.9929897744139521  0.2471848394700262  0.2774317527314417   T   T   T
  0.4952722480023264  0.2581814006686437  0.2772496159769546   T   T   T
  0.9986171552833505  0.7525635264320364  0.2756634191594855   T   T   T
  0.5075849262965093  0.7345000568856761  0.2767505273829646   T   T   T
  0.2568288842511788  0.2469925867626582  0.2764685591349167   T   T   T
  0.7552241116365455  0.2613219860209931  0.2796849012855646   T   T   T
  0.2506578426040426  0.7518972946666117  0.2752913406998029   T   T   T
  0.7429555307771789  0.7305216209115978  0.2790728110518101   T   T   T
  0.3720128903415468  0.5125804999387402  0.3632193560006252   T   T   T
 
  0.00000000E+00  0.00000000E+00  0.00000000E+00
  0.00000000E+00  0.00000000E+00  0.00000000E+00
  0.00000000E+00  0.00000000E+00  0.00000000E+00
  0.00000000E+00  0.00000000E+00  0.00000000E+00
  0.00000000E+00  0.00000000E+00  0.00000000E+00
  0.00000000E+00  0.00000000E+00  0.00000000E+00
  0.00000000E+00  0.00000000E+00  0.00000000E+00
  0.00000000E+00  0.00000000E+00  0.00000000E+00
  0.00000000E+00  0.00000000E+00  0.00000000E+00
  0.00000000E+00  0.00000000E+00  0.00000000E+00
  0.00000000E+00  0.00000000E+00  0.00000000E+00
  0.00000000E+00  0.00000000E+00  0.00000000E+00
  0.00000000E+00  0.00000000E+00  0.00000000E+00
  0.00000000E+00  0.00000000E+00  0.00000000E+00
  0.00000000E+00  0.00000000E+00  0.00000000E+00
  0.00000000E+00  0.00000000E+00  0.00000000E+00
  0.00000000E+00  0.00000000E+00  0.00000000E+00
  0.00000000E+00  0.00000000E+00  0.00000000E+00
  0.00000000E+00  0.00000000E+00  0.00000000E+00
  0.00000000E+00  0.00000000E+00  0.00000000E+00
  0.00000000E+00  0.00000000E+00  0.00000000E+00
  0.00000000E+00  0.00000000E+00  0.00000000E+00
  0.00000000E+00  0.00000000E+00  0.00000000E+00
  0.00000000E+00  0.00000000E+00  0.00000000E+00
  0.00000000E+00  0.00000000E+00  0.00000000E+00
  0.00000000E+00  0.00000000E+00  0.00000000E+00
  0.00000000E+00  0.00000000E+00  0.00000000E+00
  0.00000000E+00  0.00000000E+00  0.00000000E+00
  0.00000000E+00  0.00000000E+00  0.00000000E+00
  0.00000000E+00  0.00000000E+00  0.00000000E+00
  0.00000000E+00  0.00000000E+00  0.00000000E+00
  0.00000000E+00  0.00000000E+00  0.00000000E+00
  0.00000000E+00  0.00000000E+00  0.00000000E+00
  0.00000000E+00  0.00000000E+00  0.00000000E+00
  0.00000000E+00  0.00000000E+00  0.00000000E+00
  0.00000000E+00  0.00000000E+00  0.00000000E+00
  0.00000000E+00  0.00000000E+00  0.00000000E+00
  0.00000000E+00  0.00000000E+00  0.00000000E+00
  0.00000000E+00  0.00000000E+00  0.00000000E+00
  0.00000000E+00  0.00000000E+00  0.00000000E+00
  0.00000000E+00  0.00000000E+00  0.00000000E+00
  0.00000000E+00  0.00000000E+00  0.00000000E+00
  0.00000000E+00  0.00000000E+00  0.00000000E+00
  0.00000000E+00  0.00000000E+00  0.00000000E+00
  0.00000000E+00  0.00000000E+00  0.00000000E+00
  0.00000000E+00  0.00000000E+00  0.00000000E+00
  0.00000000E+00  0.00000000E+00  0.00000000E+00
  0.00000000E+00  0.00000000E+00  0.00000000E+00
  0.00000000E+00  0.00000000E+00  0.00000000E+00
  0.00000000E+00  0.00000000E+00  0.00000000E+00
  0.00000000E+00  0.00000000E+00  0.00000000E+00
  0.00000000E+00  0.00000000E+00  0.00000000E+00
  0.00000000E+00  0.00000000E+00  0.00000000E+00
  0.00000000E+00  0.00000000E+00  0.00000000E+00
  0.00000000E+00  0.00000000E+00  0.00000000E+00
  0.00000000E+00  0.00000000E+00  0.00000000E+00
  0.00000000E+00  0.00000000E+00  0.00000000E+00
  0.00000000E+00  0.00000000E+00  0.00000000E+00
  0.00000000E+00  0.00000000E+00  0.00000000E+00
  0.00000000E+00  0.00000000E+00  0.00000000E+00
  0.00000000E+00  0.00000000E+00  0.00000000E+00
  0.00000000E+00  0.00000000E+00  0.00000000E+00
  0.00000000E+00  0.00000000E+00  0.00000000E+00
  0.00000000E+00  0.00000000E+00  0.00000000E+00
  0.00000000E+00  0.00000000E+00  0.00000000E+00
  0.00000000E+00  0.00000000E+00  0.00000000E+00
  0.00000000E+00  0.00000000E+00  0.00000000E+00
  0.00000000E+00  0.00000000E+00  0.00000000E+00
  0.00000000E+00  0.00000000E+00  0.00000000E+00
  0.00000000E+00  0.00000000E+00  0.00000000E+00
  0.00000000E+00  0.00000000E+00  0.00000000E+00
  0.00000000E+00  0.00000000E+00  0.00000000E+00
  0.00000000E+00  0.00000000E+00  0.00000000E+00
  0.00000000E+00  0.00000000E+00  0.00000000E+00
  0.00000000E+00  0.00000000E+00  0.00000000E+00
  0.00000000E+00  0.00000000E+00  0.00000000E+00
  0.00000000E+00  0.00000000E+00  0.00000000E+00
  0.00000000E+00  0.00000000E+00  0.00000000E+00
  0.00000000E+00  0.00000000E+00  0.00000000E+00
  0.00000000E+00  0.00000000E+00  0.00000000E+00
  0.00000000E+00  0.00000000E+00  0.00000000E+00
  0.00000000E+00  0.00000000E+00  0.00000000E+00
  0.00000000E+00  0.00000000E+00  0.00000000E+00
  0.00000000E+00  0.00000000E+00  0.00000000E+00
  0.00000000E+00  0.00000000E+00  0.00000000E+00
  0.00000000E+00  0.00000000E+00  0.00000000E+00
  0.00000000E+00  0.00000000E+00  0.00000000E+00
  0.00000000E+00  0.00000000E+00  0.00000000E+00
  0.00000000E+00  0.00000000E+00  0.00000000E+00
  0.00000000E+00  0.00000000E+00  0.00000000E+00
  0.00000000E+00  0.00000000E+00  0.00000000E+00
  0.00000000E+00  0.00000000E+00  0.00000000E+00
  0.00000000E+00  0.00000000E+00  0.00000000E+00
  0.00000000E+00  0.00000000E+00  0.00000000E+00
  0.00000000E+00  0.00000000E+00  0.00000000E+00
  0.00000000E+00  0.00000000E+00  0.00000000E+00
  0.00000000E+00  0.00000000E+00  0.00000000E+00
  0.00000000E+00  0.00000000E+00  0.00000000E+00
  0.00000000E+00  0.00000000E+00  0.00000000E+00
  0.00000000E+00  0.00000000E+00  0.00000000E+00
  0.00000000E+00  0.00000000E+00  0.00000000E+00
  0.00000000E+00  0.00000000E+00  0.00000000E+00
  0.00000000E+00  0.00000000E+00  0.00000000E+00
  0.00000000E+00  0.00000000E+00  0.00000000E+00
  0.00000000E+00  0.00000000E+00  0.00000000E+00
  0.00000000E+00  0.00000000E+00  0.00000000E+00
  0.00000000E+00  0.00000000E+00  0.00000000E+00
  0.00000000E+00  0.00000000E+00  0.00000000E+00
  0.00000000E+00  0.00000000E+00  0.00000000E+00
  0.00000000E+00  0.00000000E+00  0.00000000E+00
  0.00000000E+00  0.00000000E+00  0.00000000E+00
  0.00000000E+00  0.00000000E+00  0.00000000E+00
  0.00000000E+00  0.00000000E+00  0.00000000E+00
  0.00000000E+00  0.00000000E+00  0.00000000E+00
  0.00000000E+00  0.00000000E+00  0.00000000E+00
  0.00000000E+00  0.00000000E+00  0.00000000E+00
  0.00000000E+00  0.00000000E+00  0.00000000E+00
  0.00000000E+00  0.00000000E+00  0.00000000E+00
  0.00000000E+00  0.00000000E+00  0.00000000E+00
  0.00000000E+00  0.00000000E+00  0.00000000E+00
  0.00000000E+00  0.00000000E+00  0.00000000E+00
  0.00000000E+00  0.00000000E+00  0.00000000E+00
  0.00000000E+00  0.00000000E+00  0.00000000E+00
  0.00000000E+00  0.00000000E+00  0.00000000E+00
  0.00000000E+00  0.00000000E+00  0.00000000E+00
  0.00000000E+00  0.00000000E+00  0.00000000E+00
  0.00000000E+00  0.00000000E+00  0.00000000E+00
  0.00000000E+00  0.00000000E+00  0.00000000E+00
