Mg Na O V                               
   1.00000000000000     
    16.8282433949600012    0.0000000000000000    0.0000000000000000
     0.0000000000000000    8.4141216974800006    0.0000000000000000
     0.0000000000000000    0.0000000000000000   23.4141216974799988
   Mg   Na   O    V 
    62     2    63     1
Selective dynamics
Direct
  0.1247839884229002  0.9996534931504241  0.0049499208281738   T   T   T
  0.6252464332919301  0.9997388437999405  0.0042208158475300   T   T   T
  0.1247576221561463  0.5001353002239400  0.0046030810026060   T   T   T
  0.6252952781149639  0.5001239354932114  0.0033080393007481   T   T   T
  0.3747092988719719  0.9998679106637153  0.0047071103553772   T   T   T
  0.8752781259302397  0.9999852459885893  0.0050395202793167   T   T   T
  0.3744124627937828  0.4997708715105758  0.0039851742760248   T   T   T
  0.8755531352085903  0.4997699444566917  0.0046066411895476   T   T   T
  0.9999408650973155  0.2495852505995529  0.0049278859146561   T   T   T
  0.4997438423887962  0.2493010647489026  0.0041848243567556   T   T   T
  0.0000779255080021  0.7501855166583897  0.0050559223093318   T   T   T
  0.4999075210793616  0.7504409655259520  0.0042233627046037   T   T   T
  0.2497169200026297  0.2495182044233205  0.0047638825062156   T   T   T
  0.7506055483663271  0.2494314924957409  0.0045006167046132   T   T   T
  0.2495816028647041  0.7502064116397087  0.0048904992814184   T   T   T
  0.7504218365996895  0.7503248121810921  0.0045437082823216   T   T   T
  0.0003658477064128  0.0007352805419735  0.0948248479035517   T   T   T
  0.5003690362442210  0.0004851948478778  0.0941662349084391   T   T   T
  0.0006517921549810  0.4990558842175868  0.0943321949764685   T   T   T
  0.4996198222128959  0.4992237596796268  0.0922129310341784   T   T   T
  0.2491960060748634  0.0006419621974167  0.0946184946988778   T   T   T
  0.7500570835511944  0.0005494961790343  0.0945675393183503   T   T   T
  0.2486966652893374  0.4990885544250801  0.0938600524632300   T   T   T
  0.7510509795175534  0.4991658767899517  0.0930593750348828   T   T   T
  0.1247404588755388  0.2495632570143195  0.0942408299504428   T   T   T
  0.6252407516714789  0.2484791120863652  0.0928748829048527   T   T   T
  0.1247282626966877  0.7502618862281017  0.0947695259509755   T   T   T
  0.6252395245958527  0.7514750170011261  0.0932466725680082   T   T   T
  0.3747744633559814  0.2489631764368276  0.0940469397866543   T   T   T
  0.8752886638970309  0.2494572409351404  0.0948411712187989   T   T   T
  0.3748237066577919  0.7505152398933512  0.0937178230070156   T   T   T
  0.8752045680685320  0.7502563692037003  0.0944285233160781   T   T   T
  0.1246138092526245  0.0047664003221393  0.1868529657659127   T   T   T
  0.6253153570973140  0.0084356298489762  0.1862214622825475   T   T   T
  0.1238648757576007  0.4954035674890811  0.1859203092894333   T   T   T
  0.6255410176898254  0.4955844042089563  0.1777448757409825   T   T   T
  0.3750753309623438  0.0005149548777418  0.1841000749232235   T   T   T
  0.8750213988813765  0.0007921546244612  0.1851727540426550   T   T   T
  0.3730276849607380  0.4985993643922387  0.1808648354388089   T   T   T
  0.8775722070092982  0.4988363157631808  0.1840642673908672   T   T   T
  0.0028485060043066  0.2492530446970746  0.1871205176468886   T   T   T
  0.5023233677620976  0.2506501438517591  0.1858122828949610   T   T   T
  0.0008928450603719  0.7504915213962088  0.1851047078899544   T   T   T
  0.5008855618013310  0.7494300589473158  0.1844686174086013   T   T   T
  0.2468862756423317  0.2493970347183308  0.1865925326284676   T   T   T
  0.7481303396584774  0.2511716775007256  0.1865603179162464   T   T   T
  0.2484801843477459  0.7503945349539498  0.1849793426286882   T   T   T
  0.7497074467846910  0.7489329960817321  0.1849497335594226   T   T   T
  0.0018560712243355  0.0019858599085316  0.2744566180235056   T   T   T
  0.5020882062814489  0.0049342657100026  0.2743368770007651   T   T   T
  0.0019800683896564  0.4975355458731100  0.2742259796798042   T   T   T
  0.4919385768050236  0.4976351287375031  0.2728413373558489   T   T   T
  0.2464069728533625  0.0014005298494351  0.2745001345530041   T   T   T
  0.7494709466961881  0.0057000183283860  0.2747184913021954   T   T   T
  0.2416203509181282  0.4980104724863123  0.2732004287213717   T   T   T
  0.7636928637266771  0.4978953373017049  0.2735977618450906   T   T   T
  0.1235726987521886  0.7511122369873530  0.2744400555429324   T   T   T
  0.6254647694986250  0.7635195955647225  0.2739235178464993   T   T   T
  0.3742752071894981  0.2362321725584202  0.2735586245355508   T   T   T
  0.8765648902379041  0.2473058220396246  0.2745626036955612   T   T   T
  0.3728638091978336  0.7599477596770157  0.2733356059907198   T   T   T
  0.8778559343963911  0.7516820898826052  0.2739023774765319   T   T   T
  0.1243760493742876  0.2491270540008607  0.3001700795321998   T   T   T
  0.6251150966969657  0.2477708376871088  0.3016180568108872   T   T   T
  0.9997461808172098  0.9996683003903529  0.0026297647874063   T   T   T
  0.5000646277537856  0.9996752292288975  0.0027013580682132   T   T   T
  0.9998024417908083  0.5001117439403683  0.0024098654511926   T   T   T
  0.4998070190258922  0.5000514336351755  0.0017127272838659   T   T   T
  0.2504189183562709  0.9996716136041196  0.0027555834551960   T   T   T
  0.7497891237908988  0.9996906036803520  0.0027211395776608   T   T   T
  0.2503180074354717  0.5000546145182885  0.0023056181852126   T   T   T
  0.7500689679760079  0.5000665909231778  0.0020087696097883   T   T   T
  0.1251416778108914  0.2498361070133701  0.0022972756232470   T   T   T
  0.6248952349628558  0.2494538199477540  0.0019120436700224   T   T   T
  0.1251180574384577  0.7499581554162723  0.0024041729695698   T   T   T
  0.6249091056131113  0.7504262711372264  0.0019108494323258   T   T   T
  0.3752442809233597  0.2496251793903876  0.0022965510190477   T   T   T
  0.8747452647278798  0.2498660386481826  0.0024180099876645   T   T   T
  0.3752885445688282  0.7500342319684137  0.0025778657381458   T   T   T
  0.8746975086434219  0.7498898232951996  0.0027080079770098   T   T   T
  0.1252270830618935  0.9990073026752091  0.0941563429988476   T   T   T
  0.6248188391234424  0.9989121281841852  0.0948311261123425   T   T   T
  0.1253515161927963  0.5008376503661226  0.0938662984605186   T   T   T
  0.6246094537221243  0.5011977334684141  0.0923148767974774   T   T   T
  0.3757122710623252  0.9993517672102346  0.0949908050105740   T   T   T
  0.8742851027590157  0.9995358113269697  0.0948121697476056   T   T   T
  0.3754797189503867  0.5001552488523144  0.0937898907544735   T   T   T
  0.8745521357598968  0.5002017764356134  0.0944623598611163   T   T   T
  0.9993227874351617  0.2498403321423690  0.0940939557295718   T   T   T
  0.4997930733556463  0.2505772836917428  0.0942035231167630   T   T   T
  0.9995313556581280  0.7499347798390360  0.0945564270854124   T   T   T
  0.5002954676965100  0.7491118428553921  0.0947322887888423   T   T   T
  0.2511752063914061  0.2501280342731781  0.0942250647687690   T   T   T
  0.7497382240382239  0.2503718268885428  0.0942473051954533   T   T   T
  0.2509061459187117  0.7495681538019081  0.0947477087831089   T   T   T
  0.7492843701763384  0.7493252202568090  0.0947467776998065   T   T   T
  0.9994920807351423  0.0001270551320535  0.1846093321762689   T   T   T
  0.5009228012981535  0.9998793812007121  0.1854303625831796   T   T   T
  0.0003521083286995  0.4996151023916968  0.1840309224356356   T   T   T
  0.5002633696778345  0.4996266398655583  0.1860894389158933   T   T   T
  0.2512187119623455  0.0002512394552452  0.1849492401029423   T   T   T
  0.7484708859622726  0.9998007724812203  0.1856964691047126   T   T   T
  0.2511466391876163  0.4995172669750045  0.1851381402394998   T   T   T
  0.7480814301753200  0.4996859905588046  0.1857116073937666   T   T   T
  0.1254264637034234  0.2501317745914383  0.1809871174679983   T   T   T
  0.6246577885872537  0.2551958837901735  0.1816555290409567   T   T   T
  0.1252951047057678  0.7498890834295923  0.1835426345576499   T   T   T
  0.6246740547477394  0.7428896466899800  0.1855691814694463   T   T   T
  0.3761422529997478  0.2528099669767917  0.1847804521387668   T   T   T
  0.8737878216674710  0.2501223520013829  0.1841956920001903   T   T   T
  0.3763804214464495  0.7460400968647407  0.1851445929568992   T   T   T
  0.8736510171223578  0.7495634552551773  0.1843095108875346   T   T   T
  0.1254182625900784  0.9863510786222148  0.2772286658147906   T   T   T
  0.6247359452980583  0.9924091572118727  0.2773619526142037   T   T   T
  0.1233908153033460  0.5143505257124974  0.2768379781419208   T   T   T
  0.3782405545975824  0.9965083362734370  0.2756376214487979   T   T   T
  0.8719096282017411  0.9954829856022236  0.2763642883802939   T   T   T
  0.3721542934890484  0.5071808419926889  0.2859928427255016   T   T   T
  0.8792234483016544  0.5048401879839888  0.2754530314117330   T   T   T
  0.9932014680825362  0.2478716710880246  0.2773776989562023   T   T   T
  0.4934584486964773  0.2578686768221629  0.2779842875688395   T   T   T
  0.9987543632892086  0.7522323944995872  0.2756573081141875   T   T   T
  0.5028967832784831  0.7389923865649551  0.2769181404953123   T   T   T
  0.2579107198910561  0.2509384119754393  0.2778702682229969   T   T   T
  0.7559335012619104  0.2581068340287598  0.2788398714009784   T   T   T
  0.2519882279341410  0.7499588592509047  0.2757305029603775   T   T   T
  0.7460342950280267  0.7378341519388413  0.2778435433834307   T   T   T
  0.3693583999412014  0.4992816975244658  0.3678646835505944   T   T   T
 
  0.00000000E+00  0.00000000E+00  0.00000000E+00
  0.00000000E+00  0.00000000E+00  0.00000000E+00
  0.00000000E+00  0.00000000E+00  0.00000000E+00
  0.00000000E+00  0.00000000E+00  0.00000000E+00
  0.00000000E+00  0.00000000E+00  0.00000000E+00
  0.00000000E+00  0.00000000E+00  0.00000000E+00
  0.00000000E+00  0.00000000E+00  0.00000000E+00
  0.00000000E+00  0.00000000E+00  0.00000000E+00
  0.00000000E+00  0.00000000E+00  0.00000000E+00
  0.00000000E+00  0.00000000E+00  0.00000000E+00
  0.00000000E+00  0.00000000E+00  0.00000000E+00
  0.00000000E+00  0.00000000E+00  0.00000000E+00
  0.00000000E+00  0.00000000E+00  0.00000000E+00
  0.00000000E+00  0.00000000E+00  0.00000000E+00
  0.00000000E+00  0.00000000E+00  0.00000000E+00
  0.00000000E+00  0.00000000E+00  0.00000000E+00
  0.00000000E+00  0.00000000E+00  0.00000000E+00
  0.00000000E+00  0.00000000E+00  0.00000000E+00
  0.00000000E+00  0.00000000E+00  0.00000000E+00
  0.00000000E+00  0.00000000E+00  0.00000000E+00
  0.00000000E+00  0.00000000E+00  0.00000000E+00
  0.00000000E+00  0.00000000E+00  0.00000000E+00
  0.00000000E+00  0.00000000E+00  0.00000000E+00
  0.00000000E+00  0.00000000E+00  0.00000000E+00
  0.00000000E+00  0.00000000E+00  0.00000000E+00
  0.00000000E+00  0.00000000E+00  0.00000000E+00
  0.00000000E+00  0.00000000E+00  0.00000000E+00
  0.00000000E+00  0.00000000E+00  0.00000000E+00
  0.00000000E+00  0.00000000E+00  0.00000000E+00
  0.00000000E+00  0.00000000E+00  0.00000000E+00
  0.00000000E+00  0.00000000E+00  0.00000000E+00
  0.00000000E+00  0.00000000E+00  0.00000000E+00
  0.00000000E+00  0.00000000E+00  0.00000000E+00
  0.00000000E+00  0.00000000E+00  0.00000000E+00
  0.00000000E+00  0.00000000E+00  0.00000000E+00
  0.00000000E+00  0.00000000E+00  0.00000000E+00
  0.00000000E+00  0.00000000E+00  0.00000000E+00
  0.00000000E+00  0.00000000E+00  0.00000000E+00
  0.00000000E+00  0.00000000E+00  0.00000000E+00
  0.00000000E+00  0.00000000E+00  0.00000000E+00
  0.00000000E+00  0.00000000E+00  0.00000000E+00
  0.00000000E+00  0.00000000E+00  0.00000000E+00
  0.00000000E+00  0.00000000E+00  0.00000000E+00
  0.00000000E+00  0.00000000E+00  0.00000000E+00
  0.00000000E+00  0.00000000E+00  0.00000000E+00
  0.00000000E+00  0.00000000E+00  0.00000000E+00
  0.00000000E+00  0.00000000E+00  0.00000000E+00
  0.00000000E+00  0.00000000E+00  0.00000000E+00
  0.00000000E+00  0.00000000E+00  0.00000000E+00
  0.00000000E+00  0.00000000E+00  0.00000000E+00
  0.00000000E+00  0.00000000E+00  0.00000000E+00
  0.00000000E+00  0.00000000E+00  0.00000000E+00
  0.00000000E+00  0.00000000E+00  0.00000000E+00
  0.00000000E+00  0.00000000E+00  0.00000000E+00
  0.00000000E+00  0.00000000E+00  0.00000000E+00
  0.00000000E+00  0.00000000E+00  0.00000000E+00
  0.00000000E+00  0.00000000E+00  0.00000000E+00
  0.00000000E+00  0.00000000E+00  0.00000000E+00
  0.00000000E+00  0.00000000E+00  0.00000000E+00
  0.00000000E+00  0.00000000E+00  0.00000000E+00
  0.00000000E+00  0.00000000E+00  0.00000000E+00
  0.00000000E+00  0.00000000E+00  0.00000000E+00
  0.00000000E+00  0.00000000E+00  0.00000000E+00
  0.00000000E+00  0.00000000E+00  0.00000000E+00
  0.00000000E+00  0.00000000E+00  0.00000000E+00
  0.00000000E+00  0.00000000E+00  0.00000000E+00
  0.00000000E+00  0.00000000E+00  0.00000000E+00
  0.00000000E+00  0.00000000E+00  0.00000000E+00
  0.00000000E+00  0.00000000E+00  0.00000000E+00
  0.00000000E+00  0.00000000E+00  0.00000000E+00
  0.00000000E+00  0.00000000E+00  0.00000000E+00
  0.00000000E+00  0.00000000E+00  0.00000000E+00
  0.00000000E+00  0.00000000E+00  0.00000000E+00
  0.00000000E+00  0.00000000E+00  0.00000000E+00
  0.00000000E+00  0.00000000E+00  0.00000000E+00
  0.00000000E+00  0.00000000E+00  0.00000000E+00
  0.00000000E+00  0.00000000E+00  0.00000000E+00
  0.00000000E+00  0.00000000E+00  0.00000000E+00
  0.00000000E+00  0.00000000E+00  0.00000000E+00
  0.00000000E+00  0.00000000E+00  0.00000000E+00
  0.00000000E+00  0.00000000E+00  0.00000000E+00
  0.00000000E+00  0.00000000E+00  0.00000000E+00
  0.00000000E+00  0.00000000E+00  0.00000000E+00
  0.00000000E+00  0.00000000E+00  0.00000000E+00
  0.00000000E+00  0.00000000E+00  0.00000000E+00
  0.00000000E+00  0.00000000E+00  0.00000000E+00
  0.00000000E+00  0.00000000E+00  0.00000000E+00
  0.00000000E+00  0.00000000E+00  0.00000000E+00
  0.00000000E+00  0.00000000E+00  0.00000000E+00
  0.00000000E+00  0.00000000E+00  0.00000000E+00
  0.00000000E+00  0.00000000E+00  0.00000000E+00
  0.00000000E+00  0.00000000E+00  0.00000000E+00
  0.00000000E+00  0.00000000E+00  0.00000000E+00
  0.00000000E+00  0.00000000E+00  0.00000000E+00
  0.00000000E+00  0.00000000E+00  0.00000000E+00
  0.00000000E+00  0.00000000E+00  0.00000000E+00
  0.00000000E+00  0.00000000E+00  0.00000000E+00
  0.00000000E+00  0.00000000E+00  0.00000000E+00
  0.00000000E+00  0.00000000E+00  0.00000000E+00
  0.00000000E+00  0.00000000E+00  0.00000000E+00
  0.00000000E+00  0.00000000E+00  0.00000000E+00
  0.00000000E+00  0.00000000E+00  0.00000000E+00
  0.00000000E+00  0.00000000E+00  0.00000000E+00
  0.00000000E+00  0.00000000E+00  0.00000000E+00
  0.00000000E+00  0.00000000E+00  0.00000000E+00
  0.00000000E+00  0.00000000E+00  0.00000000E+00
  0.00000000E+00  0.00000000E+00  0.00000000E+00
  0.00000000E+00  0.00000000E+00  0.00000000E+00
  0.00000000E+00  0.00000000E+00  0.00000000E+00
  0.00000000E+00  0.00000000E+00  0.00000000E+00
  0.00000000E+00  0.00000000E+00  0.00000000E+00
  0.00000000E+00  0.00000000E+00  0.00000000E+00
  0.00000000E+00  0.00000000E+00  0.00000000E+00
  0.00000000E+00  0.00000000E+00  0.00000000E+00
  0.00000000E+00  0.00000000E+00  0.00000000E+00
  0.00000000E+00  0.00000000E+00  0.00000000E+00
  0.00000000E+00  0.00000000E+00  0.00000000E+00
  0.00000000E+00  0.00000000E+00  0.00000000E+00
  0.00000000E+00  0.00000000E+00  0.00000000E+00
  0.00000000E+00  0.00000000E+00  0.00000000E+00
  0.00000000E+00  0.00000000E+00  0.00000000E+00
  0.00000000E+00  0.00000000E+00  0.00000000E+00
  0.00000000E+00  0.00000000E+00  0.00000000E+00
  0.00000000E+00  0.00000000E+00  0.00000000E+00
  0.00000000E+00  0.00000000E+00  0.00000000E+00
  0.00000000E+00  0.00000000E+00  0.00000000E+00
  0.00000000E+00  0.00000000E+00  0.00000000E+00
  0.00000000E+00  0.00000000E+00  0.00000000E+00
