Mg Na O Pt                              
   1.00000000000000     
    16.8282433949600012    0.0000000000000000    0.0000000000000000
     0.0000000000000000    8.4141216974800006    0.0000000000000000
     0.0000000000000000    0.0000000000000000   23.4141216974799988
   Mg   Na   O    Pt
    62     2    63     1
Selective dynamics
Direct
  0.1249881853945518  0.9995958382072410  0.0050707970709561   T   T   T
  0.6250391815785017  0.9997638766326618  0.0041062603378795   T   T   T
  0.1250169257325690  0.5001693647504698  0.0046297074878274   T   T   T
  0.6250180510907714  0.5001775372320411  0.0029884647546735   T   T   T
  0.3746231005973084 -0.0001765987090377  0.0050403785172187   T   T   T
  0.8753662973473756 -0.0000665098861029  0.0050517284728884   T   T   T
  0.3742899170885544  0.4997441529746828  0.0042248094058570   T   T   T
  0.8757034523243854  0.4997394106732039  0.0044911875293213   T   T   T
  0.0000959761944474  0.2495105209344498  0.0049743720549766   T   T   T
  0.4994245975392099  0.2493018607682104  0.0042948945622855   T   T   T
  0.0002775697405331  0.7502069834256331  0.0051260372969779   T   T   T
  0.4995948801560444  0.7503497547602198  0.0043470022356765   T   T   T
  0.2498774601769417  0.2495065876585369  0.0049533521060206   T   T   T
  0.7506198341565464  0.2493542716105954  0.0043633926197238   T   T   T
  0.2497489712792887  0.7501304782143240  0.0051230608162542   T   T   T
  0.7504282042444016  0.7503583201284151  0.0044106496619626   T   T   T
  0.0005023534690501  0.0006804867083141  0.0948456906997890   T   T   T
  0.5000430864178487  0.0003090197316173  0.0945138060488066   T   T   T
  0.0011176835685605  0.4990139733211966  0.0943220962942486   T   T   T
  0.4990853800705142  0.4992194292435572  0.0922736239977811   T   T   T
  0.2494661616692506  0.0004897548666970  0.0950172424596665   T   T   T
  0.7500802353093804  0.0004211201641955  0.0943220743548297   T   T   T
  0.2487867892983745  0.4990221502596006  0.0942644990609956   T   T   T
  0.7510889901085185  0.4992159893349831  0.0925657473591386   T   T   T
  0.1250754047496863  0.2496980387337879  0.0942922980243437   T   T   T
  0.6249468899519598  0.2484912982462289  0.0925732411124766   T   T   T
  0.1250934280531888  0.7500539058483741  0.0949273861810971   T   T   T
  0.6249684921396264  0.7517655822081986  0.0929756845373742   T   T   T
  0.3746866974039428  0.2487962364230143  0.0946640731616196   T   T   T
  0.8753971754272849  0.2492484961998292  0.0947728260112368   T   T   T
  0.3747716065034628  0.7504387088976574  0.0944111780795348   T   T   T
  0.8752906888620030  0.7503036261879071  0.0943514927616709   T   T   T
  0.1248862795098215  0.0046955433972301  0.1867169212929394   T   T   T
  0.6251172288192643  0.0100109155344144  0.1855816172480944   T   T   T
  0.1246713875049654  0.4952055687025539  0.1863049743359056   T   T   T
  0.6249003648668904  0.4957179654942659  0.1761933835092841   T   T   T
  0.3749801383264173  0.0002188927811391  0.1852875998623195   T   T   T
  0.8750390532062685  0.0005914705006832  0.1851229375038380   T   T   T
  0.3722601920866124  0.4983396658663690  0.1819504242745244   T   T   T
  0.8785293045522273  0.4987733021348734  0.1836940339276301   T   T   T
  0.0033721038361036  0.2492149157728226  0.1870969982252737   T   T   T
  0.5018031506632865  0.2514795417460052  0.1864049221487848   T   T   T
  0.0014449136133140  0.7504446148397326  0.1851105688933623   T   T   T
  0.5004324121044739  0.7481836452529803  0.1851357278549720   T   T   T
  0.2470670875943610  0.2492860728157978  0.1872750501169548   T   T   T
  0.7480548237388766  0.2516425960424358  0.1858996716843025   T   T   T
  0.2487175673501209  0.7499234461255698  0.1856247155457156   T   T   T
  0.7495290581735333  0.7483637593493133  0.1845459004192250   T   T   T
  0.0025450062437477  0.0018455554310743  0.2743900223422306   T   T   T
  0.5019013223070895  0.0066672925071541  0.2743996802339366   T   T   T
  0.0028990837024588  0.4974050281710983  0.2742329815968679   T   T   T
  0.4867873447882994  0.4973242738590147  0.2745828808627731   T   T   T
  0.2453638972275903  0.0019591716080909  0.2743169839718149   T   T   T
  0.7492898030566886  0.0086979197967324  0.2746978127353593   T   T   T
  0.2420993501337304  0.4963651987407864  0.2755468962068047   T   T   T
  0.7667508357530032  0.4972063336731061  0.2725791224581631   T   T   T
  0.1242223275800537  0.7509601951730731  0.2744442411688732   T   T   T
  0.6255817488355763  0.7697293519189090  0.2724215418326176   T   T   T
  0.3733234446752901  0.2382321085515647  0.2766863849714455   T   T   T
  0.8769008355158159  0.2469074071730614  0.2746415229535694   T   T   T
  0.3704176656498993  0.7589747244511874  0.2769048073236250   T   T   T
  0.8789841214978437  0.7517866442387087  0.2740508356905286   T   T   T
  0.1243935677432269  0.2487282086600207  0.3006798835102034   T   T   T
  0.6249002547964128  0.2450511881803213  0.3016029680450438   T   T   T
  0.9995851594980603  0.9996486266910409  0.0027303945492452   T   T   T
  0.5001889293621222  0.9995965678767657  0.0029019145303592   T   T   T
  0.9997160586979594  0.5000804113064291  0.0024152979328768   T   T   T
  0.4998419000731793  0.5000686890335095  0.0017220510457005   T   T   T
  0.2504797115994558  0.9995590497010477  0.0028731247573901   T   T   T
  0.7497763392659611  0.9996606121980978  0.0027573217359495   T   T   T
  0.2503762456707727  0.5000791837101741  0.0023488943271320   T   T   T
  0.7500674491107807  0.5000619064423946  0.0018915056024421   T   T   T
  0.1250315892447536  0.2497273720641600  0.0022762168824456   T   T   T
  0.6249665049170927  0.2493257295096359  0.0017854762925309   T   T   T
  0.1250623870017633  0.7500250454270404  0.0024373962245374   T   T   T
  0.6249509042002630  0.7506181686806492  0.0018542355807839   T   T   T
  0.3753733762311821  0.2495518758723940  0.0024857811449681   T   T   T
  0.8746499214811507  0.2497104297662471  0.0025249604831154   T   T   T
  0.3754162489609559  0.7500151163049166  0.0027794079208620   T   T   T
  0.8746131161126380  0.7499634347410278  0.0027991081579897   T   T   T
  0.1250777498371413  0.9988902950523689  0.0940967661696004   T   T   T
  0.6250294838938980  0.9991147644875062  0.0948890802879865   T   T   T
  0.1251840370232913  0.5008533405869928  0.0936712162242109   T   T   T
  0.6247925145451876  0.5012606998541985  0.0916333003557273   T   T   T
  0.3760171626269448  0.9991386094509687  0.0952169987724025   T   T   T
  0.8739865225456531  0.9994400977926567  0.0949599587853176   T   T   T
  0.3757007453160993  0.5001747217493937  0.0943647253795328   T   T   T
  0.8743829074368746  0.5001514722969427  0.0946325183587468   T   T   T
  0.9990047966872319  0.2498033510301748  0.0941390180675662   T   T   T
  0.5001406223550922  0.2506690475602392  0.0943699565965679   T   T   T
  0.9992341617901805  0.7498911883892392  0.0946304338383389   T   T   T
  0.5005824214120476  0.7488159382300473  0.0949631468851765   T   T   T
  0.2512360889315884  0.2500177787513604  0.0941746809322697   T   T   T
  0.7497049932037104  0.2504043486815268  0.0942937746925964   T   T   T
  0.2510250250341449  0.7494610840582028  0.0948043102269142   T   T   T
  0.7492438588442227  0.7492073529800276  0.0947873157208986   T   T   T
  0.9988488066478977  0.0001320100967926  0.1846156101599823   T   T   T
  0.5017337287539484  0.9992644103897568  0.1858627540973914   T   T   T
  0.0003905583981543  0.4995179612354865  0.1840229438395138   T   T   T
  0.5016915148749347  0.4995259051135674  0.1867589622424865   T   T   T
  0.2511755085971122 -0.0002198156068953  0.1847051915121989   T   T   T
  0.7483853928505413  0.9996618096366690  0.1861168014198039   T   T   T
  0.2502519544577022  0.4994445452226524  0.1849162407173131   T   T   T
  0.7475765626529975  0.4994611978170659  0.1860213803531039   T   T   T
  0.1251240166509717  0.2498840841037316  0.1807084015780584   T   T   T
  0.6251009768554671  0.2563068348069798  0.1818484910835454   T   T   T
  0.1249273230796376  0.7498471303359218  0.1833670617396669   T   T   T
  0.6253426024747846  0.7421629227617993  0.1854617589219311   T   T   T
  0.3766109766762326  0.2514852945591218  0.1850375155781599   T   T   T
  0.8731662604392673  0.2502663272420600  0.1845495930317390   T   T   T
  0.3768720668881284  0.7471283761641802  0.1859523984767488   T   T   T
  0.8729768245835066  0.7492143153682260  0.1847677303409154   T   T   T
  0.1242974094658316  0.9866085722352576  0.2768340803019898   T   T   T
  0.6257126828575367  0.9957089947468239  0.2772182757127888   T   T   T
  0.1233680945358884  0.5140371903263170  0.2770736179673555   T   T   T
  0.3798305565171013  0.9956732921598935  0.2767376005249109   T   T   T
  0.8704009104851033  0.9948879347175984  0.2767785729207070   T   T   T
  0.3685597945434502  0.5046727509689957  0.2753772756117763   T   T   T
  0.8806773254916878  0.5050897508766252  0.2755178061877143   T   T   T
  0.9929617180189951  0.2472245985136558  0.2774347789009333   T   T   T
  0.4953707424614468  0.2593659446551156  0.2778011180265697   T   T   T
  0.9986186927168307  0.7525737187927716  0.2756318550818903   T   T   T
  0.5080910613608457  0.7332425283767944  0.2774281674277781   T   T   T
  0.2564619989190227  0.2467847035518187  0.2766719051383538   T   T   T
  0.7552380610067494  0.2614892493813337  0.2797275463590519   T   T   T
  0.2502156450187584  0.7525504330206589  0.2751553272099834   T   T   T
  0.7428113487939371  0.7302308354287462  0.2791332512896765   T   T   T
  0.3732091875247873  0.5089193537433048  0.3597292539096434   T   T   T
 
  0.00000000E+00  0.00000000E+00  0.00000000E+00
  0.00000000E+00  0.00000000E+00  0.00000000E+00
  0.00000000E+00  0.00000000E+00  0.00000000E+00
  0.00000000E+00  0.00000000E+00  0.00000000E+00
  0.00000000E+00  0.00000000E+00  0.00000000E+00
  0.00000000E+00  0.00000000E+00  0.00000000E+00
  0.00000000E+00  0.00000000E+00  0.00000000E+00
  0.00000000E+00  0.00000000E+00  0.00000000E+00
  0.00000000E+00  0.00000000E+00  0.00000000E+00
  0.00000000E+00  0.00000000E+00  0.00000000E+00
  0.00000000E+00  0.00000000E+00  0.00000000E+00
  0.00000000E+00  0.00000000E+00  0.00000000E+00
  0.00000000E+00  0.00000000E+00  0.00000000E+00
  0.00000000E+00  0.00000000E+00  0.00000000E+00
  0.00000000E+00  0.00000000E+00  0.00000000E+00
  0.00000000E+00  0.00000000E+00  0.00000000E+00
  0.00000000E+00  0.00000000E+00  0.00000000E+00
  0.00000000E+00  0.00000000E+00  0.00000000E+00
  0.00000000E+00  0.00000000E+00  0.00000000E+00
  0.00000000E+00  0.00000000E+00  0.00000000E+00
  0.00000000E+00  0.00000000E+00  0.00000000E+00
  0.00000000E+00  0.00000000E+00  0.00000000E+00
  0.00000000E+00  0.00000000E+00  0.00000000E+00
  0.00000000E+00  0.00000000E+00  0.00000000E+00
  0.00000000E+00  0.00000000E+00  0.00000000E+00
  0.00000000E+00  0.00000000E+00  0.00000000E+00
  0.00000000E+00  0.00000000E+00  0.00000000E+00
  0.00000000E+00  0.00000000E+00  0.00000000E+00
  0.00000000E+00  0.00000000E+00  0.00000000E+00
  0.00000000E+00  0.00000000E+00  0.00000000E+00
  0.00000000E+00  0.00000000E+00  0.00000000E+00
  0.00000000E+00  0.00000000E+00  0.00000000E+00
  0.00000000E+00  0.00000000E+00  0.00000000E+00
  0.00000000E+00  0.00000000E+00  0.00000000E+00
  0.00000000E+00  0.00000000E+00  0.00000000E+00
  0.00000000E+00  0.00000000E+00  0.00000000E+00
  0.00000000E+00  0.00000000E+00  0.00000000E+00
  0.00000000E+00  0.00000000E+00  0.00000000E+00
  0.00000000E+00  0.00000000E+00  0.00000000E+00
  0.00000000E+00  0.00000000E+00  0.00000000E+00
  0.00000000E+00  0.00000000E+00  0.00000000E+00
  0.00000000E+00  0.00000000E+00  0.00000000E+00
  0.00000000E+00  0.00000000E+00  0.00000000E+00
  0.00000000E+00  0.00000000E+00  0.00000000E+00
  0.00000000E+00  0.00000000E+00  0.00000000E+00
  0.00000000E+00  0.00000000E+00  0.00000000E+00
  0.00000000E+00  0.00000000E+00  0.00000000E+00
  0.00000000E+00  0.00000000E+00  0.00000000E+00
  0.00000000E+00  0.00000000E+00  0.00000000E+00
  0.00000000E+00  0.00000000E+00  0.00000000E+00
  0.00000000E+00  0.00000000E+00  0.00000000E+00
  0.00000000E+00  0.00000000E+00  0.00000000E+00
  0.00000000E+00  0.00000000E+00  0.00000000E+00
  0.00000000E+00  0.00000000E+00  0.00000000E+00
  0.00000000E+00  0.00000000E+00  0.00000000E+00
  0.00000000E+00  0.00000000E+00  0.00000000E+00
  0.00000000E+00  0.00000000E+00  0.00000000E+00
  0.00000000E+00  0.00000000E+00  0.00000000E+00
  0.00000000E+00  0.00000000E+00  0.00000000E+00
  0.00000000E+00  0.00000000E+00  0.00000000E+00
  0.00000000E+00  0.00000000E+00  0.00000000E+00
  0.00000000E+00  0.00000000E+00  0.00000000E+00
  0.00000000E+00  0.00000000E+00  0.00000000E+00
  0.00000000E+00  0.00000000E+00  0.00000000E+00
  0.00000000E+00  0.00000000E+00  0.00000000E+00
  0.00000000E+00  0.00000000E+00  0.00000000E+00
  0.00000000E+00  0.00000000E+00  0.00000000E+00
  0.00000000E+00  0.00000000E+00  0.00000000E+00
  0.00000000E+00  0.00000000E+00  0.00000000E+00
  0.00000000E+00  0.00000000E+00  0.00000000E+00
  0.00000000E+00  0.00000000E+00  0.00000000E+00
  0.00000000E+00  0.00000000E+00  0.00000000E+00
  0.00000000E+00  0.00000000E+00  0.00000000E+00
  0.00000000E+00  0.00000000E+00  0.00000000E+00
  0.00000000E+00  0.00000000E+00  0.00000000E+00
  0.00000000E+00  0.00000000E+00  0.00000000E+00
  0.00000000E+00  0.00000000E+00  0.00000000E+00
  0.00000000E+00  0.00000000E+00  0.00000000E+00
  0.00000000E+00  0.00000000E+00  0.00000000E+00
  0.00000000E+00  0.00000000E+00  0.00000000E+00
  0.00000000E+00  0.00000000E+00  0.00000000E+00
  0.00000000E+00  0.00000000E+00  0.00000000E+00
  0.00000000E+00  0.00000000E+00  0.00000000E+00
  0.00000000E+00  0.00000000E+00  0.00000000E+00
  0.00000000E+00  0.00000000E+00  0.00000000E+00
  0.00000000E+00  0.00000000E+00  0.00000000E+00
  0.00000000E+00  0.00000000E+00  0.00000000E+00
  0.00000000E+00  0.00000000E+00  0.00000000E+00
  0.00000000E+00  0.00000000E+00  0.00000000E+00
  0.00000000E+00  0.00000000E+00  0.00000000E+00
  0.00000000E+00  0.00000000E+00  0.00000000E+00
  0.00000000E+00  0.00000000E+00  0.00000000E+00
  0.00000000E+00  0.00000000E+00  0.00000000E+00
  0.00000000E+00  0.00000000E+00  0.00000000E+00
  0.00000000E+00  0.00000000E+00  0.00000000E+00
  0.00000000E+00  0.00000000E+00  0.00000000E+00
  0.00000000E+00  0.00000000E+00  0.00000000E+00
  0.00000000E+00  0.00000000E+00  0.00000000E+00
  0.00000000E+00  0.00000000E+00  0.00000000E+00
  0.00000000E+00  0.00000000E+00  0.00000000E+00
  0.00000000E+00  0.00000000E+00  0.00000000E+00
  0.00000000E+00  0.00000000E+00  0.00000000E+00
  0.00000000E+00  0.00000000E+00  0.00000000E+00
  0.00000000E+00  0.00000000E+00  0.00000000E+00
  0.00000000E+00  0.00000000E+00  0.00000000E+00
  0.00000000E+00  0.00000000E+00  0.00000000E+00
  0.00000000E+00  0.00000000E+00  0.00000000E+00
  0.00000000E+00  0.00000000E+00  0.00000000E+00
  0.00000000E+00  0.00000000E+00  0.00000000E+00
  0.00000000E+00  0.00000000E+00  0.00000000E+00
  0.00000000E+00  0.00000000E+00  0.00000000E+00
  0.00000000E+00  0.00000000E+00  0.00000000E+00
  0.00000000E+00  0.00000000E+00  0.00000000E+00
  0.00000000E+00  0.00000000E+00  0.00000000E+00
  0.00000000E+00  0.00000000E+00  0.00000000E+00
  0.00000000E+00  0.00000000E+00  0.00000000E+00
  0.00000000E+00  0.00000000E+00  0.00000000E+00
  0.00000000E+00  0.00000000E+00  0.00000000E+00
  0.00000000E+00  0.00000000E+00  0.00000000E+00
  0.00000000E+00  0.00000000E+00  0.00000000E+00
  0.00000000E+00  0.00000000E+00  0.00000000E+00
  0.00000000E+00  0.00000000E+00  0.00000000E+00
  0.00000000E+00  0.00000000E+00  0.00000000E+00
  0.00000000E+00  0.00000000E+00  0.00000000E+00
  0.00000000E+00  0.00000000E+00  0.00000000E+00
  0.00000000E+00  0.00000000E+00  0.00000000E+00
  0.00000000E+00  0.00000000E+00  0.00000000E+00
  0.00000000E+00  0.00000000E+00  0.00000000E+00
