Mg Na O Co                              
   1.00000000000000     
    16.8282433949600012    0.0000000000000000    0.0000000000000000
     0.0000000000000000    8.4141216974800006    0.0000000000000000
     0.0000000000000000    0.0000000000000000   23.4141216974799988
   Mg   Na   O    Co
    62     2    63     1
Selective dynamics
Direct
  0.1249335370312343  0.9995880961369902  0.0050296436453982   T   T   T
  0.6251255615942354  0.9997479006318123  0.0040802623369081   T   T   T
  0.1250046906177933  0.5001917079743872  0.0046496594333300   T   T   T
  0.6250516430119809  0.5001729660265940  0.0030284649474947   T   T   T
  0.3746029923556983 -0.0001240165043356  0.0050044414752467   T   T   T
  0.8753585096336058 -0.0000715031531329  0.0050715802305776   T   T   T
  0.3742688746134388  0.4997361595550232  0.0042232665819867   T   T   T
  0.8756764975071512  0.4997314818362374  0.0044816194424688   T   T   T
  0.0000497595697530  0.2494885181645891  0.0049474084114531   T   T   T
  0.4994426732545043  0.2494037823518891  0.0042532720595464   T   T   T
  0.0002289801319452  0.7502156251286487  0.0050987026816401   T   T   T
  0.4996338229969097  0.7502596692987334  0.0043068306058129   T   T   T
  0.2498500369730164  0.2495900360580525  0.0049249163440311   T   T   T
  0.7506644137485068  0.2493608692194627  0.0043770876723502   T   T   T
  0.2496939525722479  0.7500653534657291  0.0050872834791526   T   T   T
  0.7504731462206979  0.7503437563850277  0.0044251557185012   T   T   T
  0.0004955414024983  0.0006831147848889  0.0948617959941603   T   T   T
  0.5001341378694475  0.0002870244900580  0.0943366827033113   T   T   T
  0.0010366233259352  0.4990103788570242  0.0943196683501310   T   T   T
  0.4990424807195656  0.4992319298103317  0.0922419682472507   T   T   T
  0.2493691378456381  0.0004713195549382  0.0949060270839655   T   T   T
  0.7501044489922084  0.0004283792402579  0.0943699286787889   T   T   T
  0.2488327870957171  0.4990753524120174  0.0942277946253294   T   T   T
  0.7511010286910550  0.4991995758390476  0.0926174777686822   T   T   T
  0.1249547028821174  0.2496544833435791  0.0942082916786355   T   T   T
  0.6250691525594276  0.2484490299924581  0.0925372516503114   T   T   T
  0.1249848501686706  0.7501334800973373  0.0948851811920230   T   T   T
  0.6250696848019375  0.7517261828888192  0.0929710305261001   T   T   T
  0.3746566213548259  0.2491139685619356  0.0945585775878387   T   T   T
  0.8753768332865861  0.2492160701930554  0.0947961596088030   T   T   T
  0.3747444711394797  0.7502055777943594  0.0942620686587150   T   T   T
  0.8752653321650281  0.7503349432428724  0.0943814579109866   T   T   T
  0.1248255409772332  0.0047359392222453  0.1868030373392074   T   T   T
  0.6252380442546525  0.0100557689433440  0.1856460868555503   T   T   T
  0.1244417513526047  0.4951891146444337  0.1862355834907959   T   T   T
  0.6251244305204167  0.4955983934834983  0.1763004217015336   T   T   T
  0.3749630686486802  0.0002677039461195  0.1848597146726965   T   T   T
  0.8750692581174164  0.0006331293172969  0.1851761112704333   T   T   T
  0.3721521640029034  0.4984997862724452  0.1822994303346273   T   T   T
  0.8783962342534670  0.4987453746435077  0.1837549643505020   T   T   T
  0.0032994567654180  0.2492307204926801  0.1871314164884138   T   T   T
  0.5021131211183582  0.2511470944783439  0.1859675948673709   T   T   T
  0.0013373952333938  0.7504476155199256  0.1851444477717120   T   T   T
  0.5007245877031856  0.7484828280618170  0.1846894771539392   T   T   T
  0.2468003222660348  0.2490268812047627  0.1869861243922734   T   T   T
  0.7480327264854703  0.2516015027983558  0.1860560104025752   T   T   T
  0.2484511528770099  0.7501891483585529  0.1853592894241387   T   T   T
  0.7495243420736202  0.7484164390692017  0.1846612220084608   T   T   T
  0.0026271884752152  0.0019344990559720  0.2745296950639995   T   T   T
  0.5018399742124898  0.0065396165495204  0.2741866746981783   T   T   T
  0.0029353976309520  0.4973302179025652  0.2742218354165605   T   T   T
  0.4869828967384441  0.4970488058419070  0.2736239343116176   T   T   T
  0.2458021257320500  0.0017359535991212  0.2743542474376165   T   T   T
  0.7492751605489616  0.0084362492289772  0.2747927639822234   T   T   T
  0.2425040971610920  0.4964383897449393  0.2746384283523433   T   T   T
  0.7664712929540051  0.4972987058049121  0.2727602215813511   T   T   T
  0.1241649670184544  0.7508136874431440  0.2745353601775181   T   T   T
  0.6253910118759353  0.7692693782821356  0.2727215384489117   T   T   T
  0.3736165697663434  0.2380324830301560  0.2752769071743565   T   T   T
  0.8768658980150908  0.2469271926452781  0.2747129107453719   T   T   T
  0.3711834807834410  0.7586954846295769  0.2753647531524996   T   T   T
  0.8789087733003539  0.7518141355323626  0.2741444649769600   T   T   T
  0.1245812333675048  0.2489930934678974  0.3012666240881327   T   T   T
  0.6247725789209598  0.2450127697698127  0.3027326980804113   T   T   T
  0.9995861910703662  0.9996389681260978  0.0026995714972911   T   T   T
  0.5001814815702286  0.9995968057852297  0.0028055882464714   T   T   T
  0.9997337782024724  0.5000793511427277  0.0024066711541293   T   T   T
  0.4998245751008445  0.5000786893494205  0.0017147706200647   T   T   T
  0.2504666465941885  0.9995687040813023  0.0028311695027576   T   T   T
  0.7497999692756995  0.9996525340173655  0.0027514772286001   T   T   T
  0.2503581711772435  0.5000954014452225  0.0023423871557953   T   T   T
  0.7500537572196374  0.5000661859617945  0.0018927599775746   T   T   T
  0.1250311110100042  0.2497462551596931  0.0022528467555073   T   T   T
  0.6249729436431789  0.2493280292187923  0.0017690245201481   T   T   T
  0.1250585800991126  0.7500165442994474  0.0024062712850241   T   T   T
  0.6249623937368866  0.7505961334908641  0.0018086382069417   T   T   T
  0.3753387374888393  0.2495628404212894  0.0024547794665717   T   T   T
  0.8746655719912305  0.2496769535471874  0.0024967462738018   T   T   T
  0.3753898717124255  0.7500387333827722  0.0027435132549835   T   T   T
  0.8746181176347668  0.7499811103116022  0.0027912528994759   T   T   T
  0.1250623711308288  0.9988843923679931  0.0940253225417152   T   T   T
  0.6250821919649812  0.9990195188767736  0.0948071383007456   T   T   T
  0.1251718640704806  0.5009013784156007  0.0936855159081723   T   T   T
  0.6248067310019229  0.5013042602205514  0.0916299137925194   T   T   T
  0.3759648962239984  0.9991964886902954  0.0951042562222467   T   T   T
  0.8740287856548817  0.9994224354830521  0.0949343658605184   T   T   T
  0.3756348126607007  0.5001715717163611  0.0944403950520121   T   T   T
  0.8743860093667045  0.5001787634016828  0.0946033306470445   T   T   T
  0.9989993605451334  0.2497935210883719  0.0940855604028067   T   T   T
  0.5001171068839320  0.2506607062777940  0.0942513998919748   T   T   T
  0.9992382394314402  0.7499039672145832  0.0945961928062749   T   T   T
  0.5006028163179786  0.7488297478510800  0.0948215310484195   T   T   T
  0.2511860167526950  0.2500537340852637  0.0941681607186614   T   T   T
  0.7497574048483270  0.2504207975728892  0.0942635555599522   T   T   T
  0.2509589480641692  0.7494593759881255  0.0947590884546482   T   T   T
  0.7492669341862843  0.7491911427320188  0.0947949003607397   T   T   T
  0.9989578597398900  0.0001435025648907  0.1846255694455739   T   T   T
  0.5017286934441347  0.9992639021646782  0.1855933829441851   T   T   T
  0.0003583400709373  0.4995394750826262  0.1839731857436365   T   T   T
  0.5014920394316741  0.4995493123656041  0.1864542861545065   T   T   T
  0.2511553783969858 -0.0002400945561461  0.1846502062587838   T   T   T
  0.7484016450983814  0.9996451435957499  0.1860799456095676   T   T   T
  0.2504188326246899  0.4995338996383230  0.1849057525270032   T   T   T
  0.7476496637648097  0.4994802608796453  0.1859676947146530   T   T   T
  0.1251237545680434  0.2499054806755605  0.1806114619608007   T   T   T
  0.6250920878945139  0.2561695259525603  0.1816380697007099   T   T   T
  0.1249813177834547  0.7499087224181084  0.1833715089234211   T   T   T
  0.6252531629476475  0.7420417480668036  0.1855476126578823   T   T   T
  0.3765883992289353  0.2518805937338056  0.1848951482637589   T   T   T
  0.8732151102039312  0.2502580512424365  0.1844955829475711   T   T   T
  0.3768570979120003  0.7468009701164925  0.1856789411588881   T   T   T
  0.8730487772469979  0.7492696315529035  0.1847227594584709   T   T   T
  0.1246786560481894  0.9865347395336453  0.2768577875239942   T   T   T
  0.6254478062513467  0.9956148733994584  0.2771866948499914   T   T   T
  0.1235646481467990  0.5139730534411302  0.2767452437710493   T   T   T
  0.3796713097204759  0.9956800395060525  0.2760096359272878   T   T   T
  0.8705466297326609  0.9949994380579195  0.2766722256656151   T   T   T
  0.3696273404295736  0.5057252840777480  0.2810178465825104   T   T   T
  0.8806128997619287  0.5050694008769750  0.2754478054445842   T   T   T
  0.9930526707448437  0.2473313884366652  0.2773651452107356   T   T   T
  0.4949933623623554  0.2596483351045816  0.2776349389664026   T   T   T
  0.9986954667835212  0.7524497426832012  0.2755809624793530   T   T   T
  0.5071351082989038  0.7333998738687310  0.2773141597501684   T   T   T
  0.2569649674979347  0.2477040079147667  0.2766951556227756   T   T   T
  0.7551916068451359  0.2612696629311591  0.2795439938917209   T   T   T
  0.2509008791962016  0.7515946162940746  0.2752825389642220   T   T   T
  0.7430519172690578  0.7309801867549525  0.2789278186174536   T   T   T
  0.3706415952464487  0.5081465284991504  0.3625505190538759   T   T   T
 
  0.00000000E+00  0.00000000E+00  0.00000000E+00
  0.00000000E+00  0.00000000E+00  0.00000000E+00
  0.00000000E+00  0.00000000E+00  0.00000000E+00
  0.00000000E+00  0.00000000E+00  0.00000000E+00
  0.00000000E+00  0.00000000E+00  0.00000000E+00
  0.00000000E+00  0.00000000E+00  0.00000000E+00
  0.00000000E+00  0.00000000E+00  0.00000000E+00
  0.00000000E+00  0.00000000E+00  0.00000000E+00
  0.00000000E+00  0.00000000E+00  0.00000000E+00
  0.00000000E+00  0.00000000E+00  0.00000000E+00
  0.00000000E+00  0.00000000E+00  0.00000000E+00
  0.00000000E+00  0.00000000E+00  0.00000000E+00
  0.00000000E+00  0.00000000E+00  0.00000000E+00
  0.00000000E+00  0.00000000E+00  0.00000000E+00
  0.00000000E+00  0.00000000E+00  0.00000000E+00
  0.00000000E+00  0.00000000E+00  0.00000000E+00
  0.00000000E+00  0.00000000E+00  0.00000000E+00
  0.00000000E+00  0.00000000E+00  0.00000000E+00
  0.00000000E+00  0.00000000E+00  0.00000000E+00
  0.00000000E+00  0.00000000E+00  0.00000000E+00
  0.00000000E+00  0.00000000E+00  0.00000000E+00
  0.00000000E+00  0.00000000E+00  0.00000000E+00
  0.00000000E+00  0.00000000E+00  0.00000000E+00
  0.00000000E+00  0.00000000E+00  0.00000000E+00
  0.00000000E+00  0.00000000E+00  0.00000000E+00
  0.00000000E+00  0.00000000E+00  0.00000000E+00
  0.00000000E+00  0.00000000E+00  0.00000000E+00
  0.00000000E+00  0.00000000E+00  0.00000000E+00
  0.00000000E+00  0.00000000E+00  0.00000000E+00
  0.00000000E+00  0.00000000E+00  0.00000000E+00
  0.00000000E+00  0.00000000E+00  0.00000000E+00
  0.00000000E+00  0.00000000E+00  0.00000000E+00
  0.00000000E+00  0.00000000E+00  0.00000000E+00
  0.00000000E+00  0.00000000E+00  0.00000000E+00
  0.00000000E+00  0.00000000E+00  0.00000000E+00
  0.00000000E+00  0.00000000E+00  0.00000000E+00
  0.00000000E+00  0.00000000E+00  0.00000000E+00
  0.00000000E+00  0.00000000E+00  0.00000000E+00
  0.00000000E+00  0.00000000E+00  0.00000000E+00
  0.00000000E+00  0.00000000E+00  0.00000000E+00
  0.00000000E+00  0.00000000E+00  0.00000000E+00
  0.00000000E+00  0.00000000E+00  0.00000000E+00
  0.00000000E+00  0.00000000E+00  0.00000000E+00
  0.00000000E+00  0.00000000E+00  0.00000000E+00
  0.00000000E+00  0.00000000E+00  0.00000000E+00
  0.00000000E+00  0.00000000E+00  0.00000000E+00
  0.00000000E+00  0.00000000E+00  0.00000000E+00
  0.00000000E+00  0.00000000E+00  0.00000000E+00
  0.00000000E+00  0.00000000E+00  0.00000000E+00
  0.00000000E+00  0.00000000E+00  0.00000000E+00
  0.00000000E+00  0.00000000E+00  0.00000000E+00
  0.00000000E+00  0.00000000E+00  0.00000000E+00
  0.00000000E+00  0.00000000E+00  0.00000000E+00
  0.00000000E+00  0.00000000E+00  0.00000000E+00
  0.00000000E+00  0.00000000E+00  0.00000000E+00
  0.00000000E+00  0.00000000E+00  0.00000000E+00
  0.00000000E+00  0.00000000E+00  0.00000000E+00
  0.00000000E+00  0.00000000E+00  0.00000000E+00
  0.00000000E+00  0.00000000E+00  0.00000000E+00
  0.00000000E+00  0.00000000E+00  0.00000000E+00
  0.00000000E+00  0.00000000E+00  0.00000000E+00
  0.00000000E+00  0.00000000E+00  0.00000000E+00
  0.00000000E+00  0.00000000E+00  0.00000000E+00
  0.00000000E+00  0.00000000E+00  0.00000000E+00
  0.00000000E+00  0.00000000E+00  0.00000000E+00
  0.00000000E+00  0.00000000E+00  0.00000000E+00
  0.00000000E+00  0.00000000E+00  0.00000000E+00
  0.00000000E+00  0.00000000E+00  0.00000000E+00
  0.00000000E+00  0.00000000E+00  0.00000000E+00
  0.00000000E+00  0.00000000E+00  0.00000000E+00
  0.00000000E+00  0.00000000E+00  0.00000000E+00
  0.00000000E+00  0.00000000E+00  0.00000000E+00
  0.00000000E+00  0.00000000E+00  0.00000000E+00
  0.00000000E+00  0.00000000E+00  0.00000000E+00
  0.00000000E+00  0.00000000E+00  0.00000000E+00
  0.00000000E+00  0.00000000E+00  0.00000000E+00
  0.00000000E+00  0.00000000E+00  0.00000000E+00
  0.00000000E+00  0.00000000E+00  0.00000000E+00
  0.00000000E+00  0.00000000E+00  0.00000000E+00
  0.00000000E+00  0.00000000E+00  0.00000000E+00
  0.00000000E+00  0.00000000E+00  0.00000000E+00
  0.00000000E+00  0.00000000E+00  0.00000000E+00
  0.00000000E+00  0.00000000E+00  0.00000000E+00
  0.00000000E+00  0.00000000E+00  0.00000000E+00
  0.00000000E+00  0.00000000E+00  0.00000000E+00
  0.00000000E+00  0.00000000E+00  0.00000000E+00
  0.00000000E+00  0.00000000E+00  0.00000000E+00
  0.00000000E+00  0.00000000E+00  0.00000000E+00
  0.00000000E+00  0.00000000E+00  0.00000000E+00
  0.00000000E+00  0.00000000E+00  0.00000000E+00
  0.00000000E+00  0.00000000E+00  0.00000000E+00
  0.00000000E+00  0.00000000E+00  0.00000000E+00
  0.00000000E+00  0.00000000E+00  0.00000000E+00
  0.00000000E+00  0.00000000E+00  0.00000000E+00
  0.00000000E+00  0.00000000E+00  0.00000000E+00
  0.00000000E+00  0.00000000E+00  0.00000000E+00
  0.00000000E+00  0.00000000E+00  0.00000000E+00
  0.00000000E+00  0.00000000E+00  0.00000000E+00
  0.00000000E+00  0.00000000E+00  0.00000000E+00
  0.00000000E+00  0.00000000E+00  0.00000000E+00
  0.00000000E+00  0.00000000E+00  0.00000000E+00
  0.00000000E+00  0.00000000E+00  0.00000000E+00
  0.00000000E+00  0.00000000E+00  0.00000000E+00
  0.00000000E+00  0.00000000E+00  0.00000000E+00
  0.00000000E+00  0.00000000E+00  0.00000000E+00
  0.00000000E+00  0.00000000E+00  0.00000000E+00
  0.00000000E+00  0.00000000E+00  0.00000000E+00
  0.00000000E+00  0.00000000E+00  0.00000000E+00
  0.00000000E+00  0.00000000E+00  0.00000000E+00
  0.00000000E+00  0.00000000E+00  0.00000000E+00
  0.00000000E+00  0.00000000E+00  0.00000000E+00
  0.00000000E+00  0.00000000E+00  0.00000000E+00
  0.00000000E+00  0.00000000E+00  0.00000000E+00
  0.00000000E+00  0.00000000E+00  0.00000000E+00
  0.00000000E+00  0.00000000E+00  0.00000000E+00
  0.00000000E+00  0.00000000E+00  0.00000000E+00
  0.00000000E+00  0.00000000E+00  0.00000000E+00
  0.00000000E+00  0.00000000E+00  0.00000000E+00
  0.00000000E+00  0.00000000E+00  0.00000000E+00
  0.00000000E+00  0.00000000E+00  0.00000000E+00
  0.00000000E+00  0.00000000E+00  0.00000000E+00
  0.00000000E+00  0.00000000E+00  0.00000000E+00
  0.00000000E+00  0.00000000E+00  0.00000000E+00
  0.00000000E+00  0.00000000E+00  0.00000000E+00
  0.00000000E+00  0.00000000E+00  0.00000000E+00
  0.00000000E+00  0.00000000E+00  0.00000000E+00
  0.00000000E+00  0.00000000E+00  0.00000000E+00
  0.00000000E+00  0.00000000E+00  0.00000000E+00
