Mg Na O                                 
   1.00000000000000     
    16.8282433949600012    0.0000000000000000    0.0000000000000000
     0.0000000000000000    8.4141216974800006    0.0000000000000000
     0.0000000000000000    0.0000000000000000   23.4141216974799988
   Mg   Na   O 
    62     2    63
Selective dynamics
Direct
  0.1250000000000000  0.9998174071979403  0.0049381097479611   T   T   T
  0.6250000000000000  0.9998247700583793  0.0041708425629696   T   T   T
  0.1250000000000000  0.5002028090365738  0.0047001998447236   T   T   T
  0.6250000000000000  0.5001253811445321  0.0032080895809725   T   T   T
  0.3746675621880684  0.0000542784381696  0.0050452364373090   T   T   T
  0.8753324378119316  0.0000542784381696  0.0050452364373090   T   T   T
  0.3743646458075184  0.4998503106496924  0.0045566624577953   T   T   T
  0.8756353541924816  0.4998503106496924  0.0045566624577953   T   T   T
  0.0000842641045184  0.2496993313127408  0.0049948764911706   T   T   T
  0.4994606010231126  0.2494039457035794  0.0044554064541046   T   T   T
  0.0002311527680028  0.7502866897191491  0.0050948000161222   T   T   T
  0.4996125154062022  0.7503501357497595  0.0044470606143864   T   T   T
  0.2499157358954816  0.2496993313127408  0.0049948764911706   T   T   T
  0.7505393989768874  0.2494039457035794  0.0044554064541046   T   T   T
  0.2497688472319972  0.7502866897191491  0.0050948000161222   T   T   T
  0.7503874845937978  0.7503501357497595  0.0044470606143864   T   T   T
  0.0005410487450086  0.0007679223961300  0.0948363822099446   T   T   T
  0.4999423641623890  0.0003594713306416  0.0943723116625831   T   T   T
  0.0012044167101199  0.4991266573991741  0.0943713197847207   T   T   T
  0.4988337753678601  0.4991658138865953  0.0926415788906090   T   T   T
  0.2494589512549914  0.0007679223961300  0.0948363822099446   T   T   T
  0.7500576358376109  0.0003594713306416  0.0943723116625831   T   T   T
  0.2487955832898801  0.4991266573991741  0.0943713197847207   T   T   T
  0.7511662246321400  0.4991658138865953  0.0926415788906090   T   T   T
  0.1250000000000000  0.2497383107574451  0.0943334860924381   T   T   T
  0.6250000000000000  0.2483732966334023  0.0926758465222455   T   T   T
  0.1250000000000000  0.7502409396860831  0.0948369847577187   T   T   T
  0.6250000000000000  0.7516512379262790  0.0928770590410860   T   T   T
  0.3745735001260537  0.2492354721311656  0.0947695571019561   T   T   T
  0.8754264998739463  0.2492354721311656  0.0947695571019561   T   T   T
  0.3746518883242914  0.7504091206743542  0.0943528433061260   T   T   T
  0.8753481116757087  0.7504091206743542  0.0943528433061260   T   T   T
  0.1250000000000000  0.0046574571603362  0.1869442786292976   T   T   T
  0.6250000000000000  0.0094197665256836  0.1856558989007999   T   T   T
  0.1250000000000000  0.4953457047142170  0.1865431093623622   T   T   T
  0.6250000000000000  0.4956850554361232  0.1762412610253156   T   T   T
  0.3749440144444406  0.0004244102459159  0.1851215847570812   T   T   T
  0.8750559855555594  0.0004244102459159  0.1851215847570812   T   T   T
  0.3712820703297300  0.4988544114571546  0.1837381631704847   T   T   T
  0.8787179296702697  0.4988544114571546  0.1837381631704847   T   T   T
  0.0033221460215778  0.2491293087668410  0.1871041573736053   T   T   T
  0.5018842777560989  0.2514731464585892  0.1859546511371640   T   T   T
  0.0016545381192113  0.7505594316892953  0.1851376155003698   T   T   T
  0.5005178920280242  0.7481501313034520  0.1845780242453511   T   T   T
  0.2466778539784222  0.2491293087668410  0.1871041573736053   T   T   T
  0.7481157222439011  0.2514731464585892  0.1859546511371640   T   T   T
  0.2483454618807887  0.7505594316892953  0.1851376155003698   T   T   T
  0.7494821079719759  0.7481501313034520  0.1845780242453511   T   T   T
  0.0031216184912917  0.0018104025610042  0.2745122855523519   T   T   T
  0.5009183083556674  0.0077466803831887  0.2746760238500778   T   T   T
  0.0036859928461981  0.4974940521052054  0.2743491089306925   T   T   T
  0.4830454831818328  0.4971757133220473  0.2725521796288561   T   T   T
  0.2468783815087082  0.0018104025610042  0.2745122855523519   T   T   T
  0.7490816916443326  0.0077466803831887  0.2746760238500778   T   T   T
  0.2463140071538018  0.4974940521052054  0.2743491089306925   T   T   T
  0.7669545168181673  0.4971757133220473  0.2725521796288561   T   T   T
  0.1250000000000000  0.7508244107020124  0.2745388425661909   T   T   T
  0.6250000000000000  0.7686856439096103  0.2725547367527614   T   T   T
  0.3729741866278511  0.2465235670159036  0.2745913904075520   T   T   T
  0.8770258133721488  0.2465235670159036  0.2745913904075520   T   T   T
  0.3705896882290801  0.7516813598779039  0.2739545032039036   T   T   T
  0.8794103117709199  0.7516813598779039  0.2739545032039036   T   T   T
  0.1250000000000000  0.2492948164683924  0.2996698282094734   T   T   T
  0.6250000000000000  0.2452312949573646  0.3005865885722089   T   T   T
  0.9995232462750359  0.9997933561623302  0.0026457245665144   T   T   T
  0.5002604470973253  0.9997097521886965  0.0028700830069365   T   T   T
  0.9996124212978833  0.5001877159105773  0.0024695718173213   T   T   T
  0.4999176513821973  0.5000556266294746  0.0020498539172950   T   T   T
  0.2504767537249642  0.9997933561623302  0.0026457245665144   T   T   T
  0.7497395529026747  0.9997097521886965  0.0028700830069365   T   T   T
  0.2503875787021167  0.5001877159105773  0.0024695718173213   T   T   T
  0.7500823486178027  0.5000556266294746  0.0020498539172950   T   T   T
  0.1250000000000000  0.2499147637079649  0.0022877876222177   T   T   T
  0.6250000000000000  0.2493385879620582  0.0019700681469116   T   T   T
  0.1250000000000000  0.7500959816352674  0.0023658798411643   T   T   T
  0.6250000000000000  0.7506175718174400  0.0019506062645640   T   T   T
  0.3754178606835693  0.2498238277141444  0.0025877609812411   T   T   T
  0.8745821393164305  0.2498238277141444  0.0025877609812411   T   T   T
  0.3754411063405674  0.7500551788992378  0.0028217674285895   T   T   T
  0.8745588936594327  0.7500551788992378  0.0028217674285895   T   T   T
  0.1250000000000000  0.9990912345790647  0.0940521412223093   T   T   T
  0.6250000000000000  0.9990635374140552  0.0950526127084469   T   T   T
  0.1250000000000000  0.5008976888253304  0.0936601481597105   T   T   T
  0.6250000000000000  0.5011520594556698  0.0917358092233963   T   T   T
  0.3760205335305525  0.9994605522172856  0.0950041717301621   T   T   T
  0.8739794664694477  0.9994605522172856  0.0950041717301621   T   T   T
  0.3755816832010689  0.5002038456501335  0.0946969988968823   T   T   T
  0.8744183167989314  0.5002038456501335  0.0946969988968823   T   T   T
  0.9989870723618006  0.2498263358802592  0.0941994284084252   T   T   T
  0.5003082911004092  0.2503190734947446  0.0944783321059454   T   T   T
  0.9992253297682510  0.7500508582145072  0.0946597886674685   T   T   T
  0.5007687859973895  0.7492067935347696  0.0948936508942353   T   T   T
  0.2510129276381995  0.2498263358802592  0.0941994284084252   T   T   T
  0.7496917088995907  0.2503190734947446  0.0944783321059454   T   T   T
  0.2507746702317489  0.7500508582145072  0.0946597886674685   T   T   T
  0.7492312140026105  0.7492067935347696  0.0948936508942353   T   T   T
 -0.0010776677294698  0.0000493768792314  0.1847364855712400   T   T   T
  0.5018079260417888 -0.0005793519867807  0.1861690881092959   T   T   T
  0.0006517891991692  0.4996274340439308  0.1841761011256765   T   T   T
  0.5024260665680665  0.4993774747502589  0.1860564047685764   T   T   T
  0.2510776677294699  0.0000493768792314  0.1847364855712400   T   T   T
  0.7481920739582112 -0.0005793519867807  0.1861690881092959   T   T   T
  0.2493482108008308  0.4996274340439308  0.1841761011256765   T   T   T
  0.7475739334319335  0.4993774747502589  0.1860564047685764   T   T   T
  0.1250000000000000  0.2495666050558030  0.1809075081549678   T   T   T
  0.6250000000000000  0.2558815399620763  0.1822352296653722   T   T   T
  0.1250000000000000  0.7504845521221672  0.1834395391749110   T   T   T
  0.6250000000000000  0.7421567631987888  0.1856781876891877   T   T   T
  0.3767790156164688  0.2501851828788468  0.1845887354630481   T   T   T
  0.8732209843835310  0.2501851828788468  0.1845887354630481   T   T   T
  0.3769781840517135  0.7492023212337388  0.1847786672584440   T   T   T
  0.8730218159482863  0.7492023212337388  0.1847786672584440   T   T   T
  0.1249999747830017  0.9863896079003767  0.2771152540439748   T   T   T
  0.6249999747830017  0.9950222842771119  0.2773603164988969   T   T   T
  0.1249999747830017  0.5143403603101920  0.2773955566832412   T   T   T
  0.3796966641617860  0.9946232085954384  0.2767221277079308   T   T   T
  0.8703032854042174  0.9946232085954384  0.2767221277079308   T   T   T
  0.3691187230670389  0.5051745341737532  0.2754824726400144   T   T   T
  0.8808812264989646  0.5051745341737532  0.2754824726400144   T   T   T
  0.9931479239559005  0.2471705741825718  0.2775104819762230   T   T   T
  0.4947219876980420  0.2611001767747187  0.2797362145116111   T   T   T
  0.9990670801984918  0.7525509101877633  0.2757435344535168   T   T   T
  0.5076271229241393  0.7298883185593443  0.2792167407461738   T   T   T
  0.2568520760440995  0.2471705741825718  0.2775104819762230   T   T   T
  0.7552780123019577  0.2611001767747187  0.2797362145116111   T   T   T
  0.2509329198015083  0.7525509101877633  0.2757435344535168   T   T   T
  0.7423728770758607  0.7298883185593443  0.2792167407461738   T   T   T
 
  0.00000000E+00  0.00000000E+00  0.00000000E+00
  0.00000000E+00  0.00000000E+00  0.00000000E+00
  0.00000000E+00  0.00000000E+00  0.00000000E+00
  0.00000000E+00  0.00000000E+00  0.00000000E+00
  0.00000000E+00  0.00000000E+00  0.00000000E+00
  0.00000000E+00  0.00000000E+00  0.00000000E+00
  0.00000000E+00  0.00000000E+00  0.00000000E+00
  0.00000000E+00  0.00000000E+00  0.00000000E+00
  0.00000000E+00  0.00000000E+00  0.00000000E+00
  0.00000000E+00  0.00000000E+00  0.00000000E+00
  0.00000000E+00  0.00000000E+00  0.00000000E+00
  0.00000000E+00  0.00000000E+00  0.00000000E+00
  0.00000000E+00  0.00000000E+00  0.00000000E+00
  0.00000000E+00  0.00000000E+00  0.00000000E+00
  0.00000000E+00  0.00000000E+00  0.00000000E+00
  0.00000000E+00  0.00000000E+00  0.00000000E+00
  0.00000000E+00  0.00000000E+00  0.00000000E+00
  0.00000000E+00  0.00000000E+00  0.00000000E+00
  0.00000000E+00  0.00000000E+00  0.00000000E+00
  0.00000000E+00  0.00000000E+00  0.00000000E+00
  0.00000000E+00  0.00000000E+00  0.00000000E+00
  0.00000000E+00  0.00000000E+00  0.00000000E+00
  0.00000000E+00  0.00000000E+00  0.00000000E+00
  0.00000000E+00  0.00000000E+00  0.00000000E+00
  0.00000000E+00  0.00000000E+00  0.00000000E+00
  0.00000000E+00  0.00000000E+00  0.00000000E+00
  0.00000000E+00  0.00000000E+00  0.00000000E+00
  0.00000000E+00  0.00000000E+00  0.00000000E+00
  0.00000000E+00  0.00000000E+00  0.00000000E+00
  0.00000000E+00  0.00000000E+00  0.00000000E+00
  0.00000000E+00  0.00000000E+00  0.00000000E+00
  0.00000000E+00  0.00000000E+00  0.00000000E+00
  0.00000000E+00  0.00000000E+00  0.00000000E+00
  0.00000000E+00  0.00000000E+00  0.00000000E+00
  0.00000000E+00  0.00000000E+00  0.00000000E+00
  0.00000000E+00  0.00000000E+00  0.00000000E+00
  0.00000000E+00  0.00000000E+00  0.00000000E+00
  0.00000000E+00  0.00000000E+00  0.00000000E+00
  0.00000000E+00  0.00000000E+00  0.00000000E+00
  0.00000000E+00  0.00000000E+00  0.00000000E+00
  0.00000000E+00  0.00000000E+00  0.00000000E+00
  0.00000000E+00  0.00000000E+00  0.00000000E+00
  0.00000000E+00  0.00000000E+00  0.00000000E+00
  0.00000000E+00  0.00000000E+00  0.00000000E+00
  0.00000000E+00  0.00000000E+00  0.00000000E+00
  0.00000000E+00  0.00000000E+00  0.00000000E+00
  0.00000000E+00  0.00000000E+00  0.00000000E+00
  0.00000000E+00  0.00000000E+00  0.00000000E+00
  0.00000000E+00  0.00000000E+00  0.00000000E+00
  0.00000000E+00  0.00000000E+00  0.00000000E+00
  0.00000000E+00  0.00000000E+00  0.00000000E+00
  0.00000000E+00  0.00000000E+00  0.00000000E+00
  0.00000000E+00  0.00000000E+00  0.00000000E+00
  0.00000000E+00  0.00000000E+00  0.00000000E+00
  0.00000000E+00  0.00000000E+00  0.00000000E+00
  0.00000000E+00  0.00000000E+00  0.00000000E+00
  0.00000000E+00  0.00000000E+00  0.00000000E+00
  0.00000000E+00  0.00000000E+00  0.00000000E+00
  0.00000000E+00  0.00000000E+00  0.00000000E+00
  0.00000000E+00  0.00000000E+00  0.00000000E+00
  0.00000000E+00  0.00000000E+00  0.00000000E+00
  0.00000000E+00  0.00000000E+00  0.00000000E+00
  0.00000000E+00  0.00000000E+00  0.00000000E+00
  0.00000000E+00  0.00000000E+00  0.00000000E+00
  0.00000000E+00  0.00000000E+00  0.00000000E+00
  0.00000000E+00  0.00000000E+00  0.00000000E+00
  0.00000000E+00  0.00000000E+00  0.00000000E+00
  0.00000000E+00  0.00000000E+00  0.00000000E+00
  0.00000000E+00  0.00000000E+00  0.00000000E+00
  0.00000000E+00  0.00000000E+00  0.00000000E+00
  0.00000000E+00  0.00000000E+00  0.00000000E+00
  0.00000000E+00  0.00000000E+00  0.00000000E+00
  0.00000000E+00  0.00000000E+00  0.00000000E+00
  0.00000000E+00  0.00000000E+00  0.00000000E+00
  0.00000000E+00  0.00000000E+00  0.00000000E+00
  0.00000000E+00  0.00000000E+00  0.00000000E+00
  0.00000000E+00  0.00000000E+00  0.00000000E+00
  0.00000000E+00  0.00000000E+00  0.00000000E+00
  0.00000000E+00  0.00000000E+00  0.00000000E+00
  0.00000000E+00  0.00000000E+00  0.00000000E+00
  0.00000000E+00  0.00000000E+00  0.00000000E+00
  0.00000000E+00  0.00000000E+00  0.00000000E+00
  0.00000000E+00  0.00000000E+00  0.00000000E+00
  0.00000000E+00  0.00000000E+00  0.00000000E+00
  0.00000000E+00  0.00000000E+00  0.00000000E+00
  0.00000000E+00  0.00000000E+00  0.00000000E+00
  0.00000000E+00  0.00000000E+00  0.00000000E+00
  0.00000000E+00  0.00000000E+00  0.00000000E+00
  0.00000000E+00  0.00000000E+00  0.00000000E+00
  0.00000000E+00  0.00000000E+00  0.00000000E+00
  0.00000000E+00  0.00000000E+00  0.00000000E+00
  0.00000000E+00  0.00000000E+00  0.00000000E+00
  0.00000000E+00  0.00000000E+00  0.00000000E+00
  0.00000000E+00  0.00000000E+00  0.00000000E+00
  0.00000000E+00  0.00000000E+00  0.00000000E+00
  0.00000000E+00  0.00000000E+00  0.00000000E+00
  0.00000000E+00  0.00000000E+00  0.00000000E+00
  0.00000000E+00  0.00000000E+00  0.00000000E+00
  0.00000000E+00  0.00000000E+00  0.00000000E+00
  0.00000000E+00  0.00000000E+00  0.00000000E+00
  0.00000000E+00  0.00000000E+00  0.00000000E+00
  0.00000000E+00  0.00000000E+00  0.00000000E+00
  0.00000000E+00  0.00000000E+00  0.00000000E+00
  0.00000000E+00  0.00000000E+00  0.00000000E+00
  0.00000000E+00  0.00000000E+00  0.00000000E+00
  0.00000000E+00  0.00000000E+00  0.00000000E+00
  0.00000000E+00  0.00000000E+00  0.00000000E+00
  0.00000000E+00  0.00000000E+00  0.00000000E+00
  0.00000000E+00  0.00000000E+00  0.00000000E+00
  0.00000000E+00  0.00000000E+00  0.00000000E+00
  0.00000000E+00  0.00000000E+00  0.00000000E+00
  0.00000000E+00  0.00000000E+00  0.00000000E+00
  0.00000000E+00  0.00000000E+00  0.00000000E+00
  0.00000000E+00  0.00000000E+00  0.00000000E+00
  0.00000000E+00  0.00000000E+00  0.00000000E+00
  0.00000000E+00  0.00000000E+00  0.00000000E+00
  0.00000000E+00  0.00000000E+00  0.00000000E+00
  0.00000000E+00  0.00000000E+00  0.00000000E+00
  0.00000000E+00  0.00000000E+00  0.00000000E+00
  0.00000000E+00  0.00000000E+00  0.00000000E+00
  0.00000000E+00  0.00000000E+00  0.00000000E+00
  0.00000000E+00  0.00000000E+00  0.00000000E+00
  0.00000000E+00  0.00000000E+00  0.00000000E+00
  0.00000000E+00  0.00000000E+00  0.00000000E+00
  0.00000000E+00  0.00000000E+00  0.00000000E+00
  0.00000000E+00  0.00000000E+00  0.00000000E+00
  0.00000000E+00  0.00000000E+00  0.00000000E+00
