Mg Na O Mn                              
   1.00000000000000     
    16.8282433949600012    0.0000000000000000    0.0000000000000000
     0.0000000000000000    8.4141216974800006    0.0000000000000000
     0.0000000000000000    0.0000000000000000   23.4141216974799988
   Mg   Na   O    Mn
    62     2    63     1
Selective dynamics
Direct
  0.1248036801203249  0.9995905117585341  0.0048978115056555   T   T   T
  0.6251858701656029  0.9997358494884754  0.0039581717305849   T   T   T
  0.1248841658368934  0.5001174879873002  0.0045548215946876   T   T   T
  0.6251620266414954  0.5001643167762367  0.0029402479998725   T   T   T
  0.3746271890611292  0.9998578295778214  0.0047079514713333   T   T   T
  0.8753224395438248  0.9999693689850355  0.0049818706945157   T   T   T
  0.3742912857547891  0.4997321009929719  0.0039284411893370   T   T   T
  0.8756734463951069  0.4997390977855605  0.0044827915401825   T   T   T
  0.9999711277352512  0.2495107910936017  0.0048945003475055   T   T   T
  0.4995609610456125  0.2493342329048116  0.0040444157692900   T   T   T
  0.0001368812694632  0.7501809020837858  0.0050360829494247   T   T   T
  0.4997445994229934  0.7503474780987531  0.0040955588435737   T   T   T
  0.2497411772511815  0.2495172905677258  0.0047234257987012   T   T   T
  0.7506981884320684  0.2493821898036265  0.0043083076418713   T   T   T
  0.2495974501597429  0.7501180574801350  0.0048733263856079   T   T   T
  0.7505035244781167  0.7503631748389190  0.0043554001154221   T   T   T
  0.0004200335488354  0.0006941820062114  0.0948040310339762   T   T   T
  0.5001890330682693  0.0004403936009018  0.0941467568194093   T   T   T
  0.0009677990962359  0.4990267687589165  0.0943281562489030   T   T   T
  0.4991949624881563  0.4992057709511961  0.0920144479559155   T   T   T
  0.2492458853826796  0.0005961614429452  0.0946678628931743   T   T   T
  0.7500411346871243  0.0005099378928385  0.0943663523112090   T   T   T
  0.2487456123241074  0.4990550643190081  0.0939748860819320   T   T   T
  0.7510950493982130  0.4992056850577153  0.0926891401160012   T   T   T
  0.1248494913668603  0.2495821442981980  0.0941697476266112   T   T   T
  0.6250827017813172  0.2484640695488616  0.0924846794075616   T   T   T
  0.1248527799335542  0.7501641074981737  0.0947534966931291   T   T   T
  0.6250926957182812  0.7517246254856260  0.0928982383241695   T   T   T
  0.3746649457268341  0.2490486248310601  0.0941881071227085   T   T   T
  0.8753154679186391  0.2493026958599188  0.0947982999035079   T   T   T
  0.3747340642303783  0.7503271488643262  0.0938499705787432   T   T   T
  0.8752256310887102  0.7503396470117899  0.0943893570268423   T   T   T
  0.1248156078741962  0.0048113993498168  0.1867823727561175   T   T   T
  0.6250529384012244  0.0100094465874154  0.1857711893838338   T   T   T
  0.1244176150756348  0.4953075490006121  0.1862449262901661   T   T   T
  0.6250220299450024  0.4955503809671115  0.1765100243318465   T   T   T
  0.3749407088386015  0.0004228263365045  0.1844165034149345   T   T   T
  0.8749490811124744  0.0006876822353374  0.1851292822830010   T   T   T
  0.3725228134882308  0.4985121231476516  0.1815443917930914   T   T   T
  0.8782517006846539  0.4988273654791413  0.1838296657787734   T   T   T
  0.0031822675777811  0.2493130396850952  0.1871232151167974   T   T   T
  0.5021884041165501  0.2511190058225344  0.1859921233175524   T   T   T
  0.0012883026097494  0.7504592025398011  0.1851121101364885   T   T   T
  0.5007135047790748  0.7488408315940511  0.1845489814888393   T   T   T
  0.2467166956621032  0.2493107753944654  0.1868502073166030   T   T   T
  0.7478344201508368  0.2516137485491267  0.1861869943231360   T   T   T
  0.2483745402940854  0.7503666961426269  0.1851046866960531   T   T   T
  0.7494059638874031  0.7484887393120805  0.1847469571797739   T   T   T
  0.0025882113121013  0.0020542206311210  0.2744723254654164   T   T   T
  0.5015611582396384  0.0061140225979472  0.2741434842541146   T   T   T
  0.0028477510365888  0.4974438791062877  0.2742649824741348   T   T   T
  0.4878330423478320  0.4975117277472911  0.2738343160775051   T   T   T
  0.2461959678437747  0.0016858218820138  0.2743651421254788   T   T   T
  0.7489944432816935  0.0081670743966164  0.2746806827704208   T   T   T
  0.2430129970579339  0.4974744889284335  0.2743156085294209   T   T   T
  0.7659113208668352  0.4974106559901337  0.2729290043136876   T   T   T
  0.1241957958560788  0.7510092364659878  0.2745056975545911   T   T   T
  0.6248863401928074  0.7685984808096390  0.2730725165412314   T   T   T
  0.3736647562411767  0.2375877386980838  0.2742010600661823   T   T   T
  0.8767343447920458  0.2469583685886323  0.2746696882170045   T   T   T
  0.3717534169073264  0.7585571196727918  0.2740369207085750   T   T   T
  0.8787549227195487  0.7518753637031101  0.2740364366361144   T   T   T
  0.1247096744700101  0.2491872275036538  0.3010473532379784   T   T   T
  0.6241626862215313  0.2454361307795885  0.3041352003713997   T   T   T
  0.9995943382745194  0.9996383668739998  0.0025824305757010   T   T   T
  0.5001495252901118  0.9996131633434301  0.0025853842351614   T   T   T
  0.9997679133674877  0.5000705972753370  0.0023598069038090   T   T   T
  0.4998444359137132  0.5000730990706981  0.0015077853750184   T   T   T
  0.2503974328157064  0.9995809758592340  0.0026259319042115   T   T   T
  0.7498121997160883  0.9996552512322712  0.0026212992714729   T   T   T
  0.2503078145542526  0.5000605880669827  0.0021656725071481   T   T   T
  0.7500709699873280  0.5000927805344442  0.0018335607161520   T   T   T
  0.1250203769879029  0.2497544730901959  0.0021522988393591   T   T   T
  0.6249700695158731  0.2493547851086795  0.0016265431873811   T   T   T
  0.1250251588891605  0.7499577878555685  0.0022978359313055   T   T   T
  0.6249705715100865  0.7505583870493626  0.0016570155420232   T   T   T
  0.3752946469778837  0.2495493755043539  0.0022078054972514   T   T   T
  0.8746915137483106  0.2497572549262563  0.0024025562765596   T   T   T
  0.3753453492337364  0.7500469410291941  0.0025138234765980   T   T   T
  0.8746434169921570  0.7499543230088397  0.0027069155555268   T   T   T
  0.1250868890761561  0.9989242144067992  0.0939654634529929   T   T   T
  0.6249301171337471  0.9989915476272626  0.0946861158760542   T   T   T
  0.1252835607853425  0.5008584138088290  0.0936761707757808   T   T   T
  0.6246500503632363  0.5013622659908978  0.0916765051739435   T   T   T
  0.3758787117388761  0.9992586935877777  0.0949290017597512   T   T   T
  0.8740370390986993  0.9994740422909747  0.0948402460441121   T   T   T
  0.3755878900981543  0.5001542155684591  0.0940150068862942   T   T   T
  0.8744378592073734  0.5002039468276923  0.0945503248678656   T   T   T
  0.9990554914890408  0.2498144121873817  0.0940510578733476   T   T   T
  0.4999496603781306  0.2507571759687677  0.0940917147167803   T   T   T
  0.9992996548627335  0.7499144470102526  0.0945391556665787   T   T   T
  0.5004696171044107  0.7488336278527087  0.0946673882844094   T   T   T
  0.2511733393340876  0.2501359628146335  0.0940526106876921   T   T   T
  0.7497217278195601  0.2504591601961673  0.0941530368718806   T   T   T
  0.2509404927273085  0.7494955166333238  0.0946167869082631   T   T   T
  0.7492070502815653  0.7492263773564435  0.0947121254756113   T   T   T
  0.9991071937519315  0.0001595487140076  0.1846006141293703   T   T   T
  0.5012967865031920  0.9995663916126512  0.1853163205790656   T   T   T
  0.0004604600857923  0.4996201300495051  0.1840087960802275   T   T   T
  0.5009665750266420  0.4996368161143144  0.1864411938395669   T   T   T
  0.2512195913996460  0.0000883433559003  0.1845644285720865   T   T   T
  0.7481985265044121  0.9997250021904563  0.1859363613284977   T   T   T
  0.2508736599496809  0.4996096312242903  0.1849887946281150   T   T   T
  0.7475756716643697  0.4995209421265464  0.1858873132723808   T   T   T
  0.1252778615999696  0.2500006118849703  0.1806661525659459   T   T   T
  0.6248100172691282  0.2561299724109853  0.1814126181033278   T   T   T
  0.1251525329276739  0.7499627534273438  0.1833404534151533   T   T   T
  0.6249076749452888  0.7420906106477307  0.1855350211018382   T   T   T
  0.3762995163535417  0.2524656293617716  0.1846670777932728   T   T   T
  0.8732526475314658  0.2502640833112592  0.1844384530202923   T   T   T
  0.3766170851727754  0.7463027585261071  0.1852370714771741   T   T   T
  0.8731136447992740  0.7493699744684732  0.1846235699529368   T   T   T
  0.1250517175405391  0.9866545753211823  0.2769071740841011   T   T   T
  0.6250632522404964  0.9953375282111957  0.2771518942287553   T   T   T
  0.1239353463144150  0.5142701139104747  0.2768897443101001   T   T   T
  0.3788808719423018  0.9957073470467437  0.2755982644325727   T   T   T
  0.8706384593534895  0.9951054959799152  0.2765050582736988   T   T   T
  0.3703197586192709  0.5068868418157935  0.2855411287138011   T   T   T
  0.8802574832955153  0.5051194604157229  0.2754360757637171   T   T   T
  0.9930917443236735  0.2474392111728839  0.2773662560050244   T   T   T
  0.4942232893780527  0.2585728701890296  0.2774740697071559   T   T   T
  0.9988041352048471  0.7525879890580033  0.2755884485881616   T   T   T
  0.5054880529495716  0.7363612911458273  0.2767749024576566   T   T   T
  0.2573338400797369  0.2488910366751529  0.2771108104839567   T   T   T
  0.7550140771818835  0.2607474571411762  0.2793976743712940   T   T   T
  0.2514050054311777  0.7513422094612420  0.2752671171142798   T   T   T
  0.7431864854480025  0.7321313289132012  0.2786068026138352   T   T   T
  0.3755760055911938  0.4985854521242572  0.3713268791529760   T   T   T
 
  0.00000000E+00  0.00000000E+00  0.00000000E+00
  0.00000000E+00  0.00000000E+00  0.00000000E+00
  0.00000000E+00  0.00000000E+00  0.00000000E+00
  0.00000000E+00  0.00000000E+00  0.00000000E+00
  0.00000000E+00  0.00000000E+00  0.00000000E+00
  0.00000000E+00  0.00000000E+00  0.00000000E+00
  0.00000000E+00  0.00000000E+00  0.00000000E+00
  0.00000000E+00  0.00000000E+00  0.00000000E+00
  0.00000000E+00  0.00000000E+00  0.00000000E+00
  0.00000000E+00  0.00000000E+00  0.00000000E+00
  0.00000000E+00  0.00000000E+00  0.00000000E+00
  0.00000000E+00  0.00000000E+00  0.00000000E+00
  0.00000000E+00  0.00000000E+00  0.00000000E+00
  0.00000000E+00  0.00000000E+00  0.00000000E+00
  0.00000000E+00  0.00000000E+00  0.00000000E+00
  0.00000000E+00  0.00000000E+00  0.00000000E+00
  0.00000000E+00  0.00000000E+00  0.00000000E+00
  0.00000000E+00  0.00000000E+00  0.00000000E+00
  0.00000000E+00  0.00000000E+00  0.00000000E+00
  0.00000000E+00  0.00000000E+00  0.00000000E+00
  0.00000000E+00  0.00000000E+00  0.00000000E+00
  0.00000000E+00  0.00000000E+00  0.00000000E+00
  0.00000000E+00  0.00000000E+00  0.00000000E+00
  0.00000000E+00  0.00000000E+00  0.00000000E+00
  0.00000000E+00  0.00000000E+00  0.00000000E+00
  0.00000000E+00  0.00000000E+00  0.00000000E+00
  0.00000000E+00  0.00000000E+00  0.00000000E+00
  0.00000000E+00  0.00000000E+00  0.00000000E+00
  0.00000000E+00  0.00000000E+00  0.00000000E+00
  0.00000000E+00  0.00000000E+00  0.00000000E+00
  0.00000000E+00  0.00000000E+00  0.00000000E+00
  0.00000000E+00  0.00000000E+00  0.00000000E+00
  0.00000000E+00  0.00000000E+00  0.00000000E+00
  0.00000000E+00  0.00000000E+00  0.00000000E+00
  0.00000000E+00  0.00000000E+00  0.00000000E+00
  0.00000000E+00  0.00000000E+00  0.00000000E+00
  0.00000000E+00  0.00000000E+00  0.00000000E+00
  0.00000000E+00  0.00000000E+00  0.00000000E+00
  0.00000000E+00  0.00000000E+00  0.00000000E+00
  0.00000000E+00  0.00000000E+00  0.00000000E+00
  0.00000000E+00  0.00000000E+00  0.00000000E+00
  0.00000000E+00  0.00000000E+00  0.00000000E+00
  0.00000000E+00  0.00000000E+00  0.00000000E+00
  0.00000000E+00  0.00000000E+00  0.00000000E+00
  0.00000000E+00  0.00000000E+00  0.00000000E+00
  0.00000000E+00  0.00000000E+00  0.00000000E+00
  0.00000000E+00  0.00000000E+00  0.00000000E+00
  0.00000000E+00  0.00000000E+00  0.00000000E+00
  0.00000000E+00  0.00000000E+00  0.00000000E+00
  0.00000000E+00  0.00000000E+00  0.00000000E+00
  0.00000000E+00  0.00000000E+00  0.00000000E+00
  0.00000000E+00  0.00000000E+00  0.00000000E+00
  0.00000000E+00  0.00000000E+00  0.00000000E+00
  0.00000000E+00  0.00000000E+00  0.00000000E+00
  0.00000000E+00  0.00000000E+00  0.00000000E+00
  0.00000000E+00  0.00000000E+00  0.00000000E+00
  0.00000000E+00  0.00000000E+00  0.00000000E+00
  0.00000000E+00  0.00000000E+00  0.00000000E+00
  0.00000000E+00  0.00000000E+00  0.00000000E+00
  0.00000000E+00  0.00000000E+00  0.00000000E+00
  0.00000000E+00  0.00000000E+00  0.00000000E+00
  0.00000000E+00  0.00000000E+00  0.00000000E+00
  0.00000000E+00  0.00000000E+00  0.00000000E+00
  0.00000000E+00  0.00000000E+00  0.00000000E+00
  0.00000000E+00  0.00000000E+00  0.00000000E+00
  0.00000000E+00  0.00000000E+00  0.00000000E+00
  0.00000000E+00  0.00000000E+00  0.00000000E+00
  0.00000000E+00  0.00000000E+00  0.00000000E+00
  0.00000000E+00  0.00000000E+00  0.00000000E+00
  0.00000000E+00  0.00000000E+00  0.00000000E+00
  0.00000000E+00  0.00000000E+00  0.00000000E+00
  0.00000000E+00  0.00000000E+00  0.00000000E+00
  0.00000000E+00  0.00000000E+00  0.00000000E+00
  0.00000000E+00  0.00000000E+00  0.00000000E+00
  0.00000000E+00  0.00000000E+00  0.00000000E+00
  0.00000000E+00  0.00000000E+00  0.00000000E+00
  0.00000000E+00  0.00000000E+00  0.00000000E+00
  0.00000000E+00  0.00000000E+00  0.00000000E+00
  0.00000000E+00  0.00000000E+00  0.00000000E+00
  0.00000000E+00  0.00000000E+00  0.00000000E+00
  0.00000000E+00  0.00000000E+00  0.00000000E+00
  0.00000000E+00  0.00000000E+00  0.00000000E+00
  0.00000000E+00  0.00000000E+00  0.00000000E+00
  0.00000000E+00  0.00000000E+00  0.00000000E+00
  0.00000000E+00  0.00000000E+00  0.00000000E+00
  0.00000000E+00  0.00000000E+00  0.00000000E+00
  0.00000000E+00  0.00000000E+00  0.00000000E+00
  0.00000000E+00  0.00000000E+00  0.00000000E+00
  0.00000000E+00  0.00000000E+00  0.00000000E+00
  0.00000000E+00  0.00000000E+00  0.00000000E+00
  0.00000000E+00  0.00000000E+00  0.00000000E+00
  0.00000000E+00  0.00000000E+00  0.00000000E+00
  0.00000000E+00  0.00000000E+00  0.00000000E+00
  0.00000000E+00  0.00000000E+00  0.00000000E+00
  0.00000000E+00  0.00000000E+00  0.00000000E+00
  0.00000000E+00  0.00000000E+00  0.00000000E+00
  0.00000000E+00  0.00000000E+00  0.00000000E+00
  0.00000000E+00  0.00000000E+00  0.00000000E+00
  0.00000000E+00  0.00000000E+00  0.00000000E+00
  0.00000000E+00  0.00000000E+00  0.00000000E+00
  0.00000000E+00  0.00000000E+00  0.00000000E+00
  0.00000000E+00  0.00000000E+00  0.00000000E+00
  0.00000000E+00  0.00000000E+00  0.00000000E+00
  0.00000000E+00  0.00000000E+00  0.00000000E+00
  0.00000000E+00  0.00000000E+00  0.00000000E+00
  0.00000000E+00  0.00000000E+00  0.00000000E+00
  0.00000000E+00  0.00000000E+00  0.00000000E+00
  0.00000000E+00  0.00000000E+00  0.00000000E+00
  0.00000000E+00  0.00000000E+00  0.00000000E+00
  0.00000000E+00  0.00000000E+00  0.00000000E+00
  0.00000000E+00  0.00000000E+00  0.00000000E+00
  0.00000000E+00  0.00000000E+00  0.00000000E+00
  0.00000000E+00  0.00000000E+00  0.00000000E+00
  0.00000000E+00  0.00000000E+00  0.00000000E+00
  0.00000000E+00  0.00000000E+00  0.00000000E+00
  0.00000000E+00  0.00000000E+00  0.00000000E+00
  0.00000000E+00  0.00000000E+00  0.00000000E+00
  0.00000000E+00  0.00000000E+00  0.00000000E+00
  0.00000000E+00  0.00000000E+00  0.00000000E+00
  0.00000000E+00  0.00000000E+00  0.00000000E+00
  0.00000000E+00  0.00000000E+00  0.00000000E+00
  0.00000000E+00  0.00000000E+00  0.00000000E+00
  0.00000000E+00  0.00000000E+00  0.00000000E+00
  0.00000000E+00  0.00000000E+00  0.00000000E+00
  0.00000000E+00  0.00000000E+00  0.00000000E+00
  0.00000000E+00  0.00000000E+00  0.00000000E+00
  0.00000000E+00  0.00000000E+00  0.00000000E+00
  0.00000000E+00  0.00000000E+00  0.00000000E+00
