Mg Na O Rh                              
   1.00000000000000     
    16.8282433949600012    0.0000000000000000    0.0000000000000000
     0.0000000000000000    8.4141216974800006    0.0000000000000000
     0.0000000000000000    0.0000000000000000   23.4141216974799988
   Mg   Na   O    Rh
    62     2    63     1
Selective dynamics
Direct
  0.1249855349809433  0.9997092014261403  0.0050147244489747   T   T   T
  0.6250173656465814  0.9998169451009913  0.0040917844347616   T   T   T
  0.1249553583094930  0.5001845172398754  0.0046292054888066   T   T   T
  0.6250533703280895  0.5001014602569086  0.0030821878883106   T   T   T
  0.3746489956500442 -0.0000706132089363  0.0050309385262267   T   T   T
  0.8753630902648686 -0.0000226888296051  0.0050795992328457   T   T   T
  0.3742835556005285  0.4997896929126818  0.0043992769411411   T   T   T
  0.8757130101535756  0.4997716536182283  0.0045289169669865   T   T   T
  0.0000984880386297  0.2495832331969302  0.0049782412595055   T   T   T
  0.4994580590196117  0.2493580454191059  0.0043685182172860   T   T   T
  0.0002601811356693  0.7502417984076215  0.0050962182555362   T   T   T
  0.4996090678445069  0.7503718345134447  0.0043940849573690   T   T   T
  0.2498662914378468  0.2495418946584483  0.0049709432922905   T   T   T
  0.7505871709928874  0.2494148722812699  0.0043942146066529   T   T   T
  0.2497336731360547  0.7502479259568063  0.0050846316375128   T   T   T
  0.7504315383284156  0.7503102373058409  0.0044100193852192   T   T   T
  0.0005394089736828  0.0006723372366083  0.0948870801075841   T   T   T
  0.5000609361580506  0.0003945846694720  0.0944291746044403   T   T   T
  0.0010918292516559  0.4990695168465435  0.0942864035844597   T   T   T
  0.4989995714445063  0.4992273594413535  0.0924570369276451   T   T   T
  0.2493787828679925  0.0005054165800597  0.0948881950543248   T   T   T
  0.7500515343388073  0.0003773991381224  0.0943892712280478   T   T   T
  0.2487458513718723  0.4990943445232331  0.0942667379714763   T   T   T
  0.7511593048576989  0.4991977423859865  0.0926213973680956   T   T   T
  0.1249686754758017  0.2495646755246307  0.0942722268139155   T   T   T
  0.6249892677470045  0.2483775394415413  0.0926817759537541   T   T   T
  0.1250341157752440  0.7502573336147333  0.0948581392879923   T   T   T
  0.6250261506331896  0.7517679958899417  0.0929393445678281   T   T   T
  0.3746344827698493  0.2490608106048606  0.0946387468200188   T   T   T
  0.8754157041824893  0.2492255566064102  0.0947793876893306   T   T   T
  0.3747333861352170  0.7504058488388522  0.0943323783140669   T   T   T
  0.8753300614970568  0.7503464677775471  0.0943864833208845   T   T   T
  0.1250377200665304  0.0045986291887467  0.1868928595823248   T   T   T
  0.6250181408120582  0.0098897135640515  0.1857259908724630   T   T   T
  0.1246810622991038  0.4953252887005372  0.1862000470590996   T   T   T
  0.6249367996455543  0.4957271681920016  0.1762335352115469   T   T   T
  0.3749543820690185  0.0004020229284383  0.1849818021863925   T   T   T
  0.8750942127183399  0.0004698760662550  0.1851734638967683   T   T   T
  0.3719345695760252  0.4985035202128000  0.1827698610018150   T   T   T
  0.8785701256403090  0.4987691726143529  0.1837071715134117   T   T   T
  0.0033689386635104  0.2490414749981222  0.1871176352901920   T   T   T
  0.5017541673538439  0.2515971772031230  0.1862239923318428   T   T   T
  0.0016156387889802  0.7505152968277835  0.1851630132462865   T   T   T
  0.5005201743980557  0.7482888368369385  0.1848798162795910   T   T   T
  0.2468675993185870  0.2492178383741698  0.1869289741910386   T   T   T
  0.7480727622082758  0.2514797720279482  0.1860122059311964   T   T   T
  0.2487565751183296  0.7498591957988689  0.1853700477572508   T   T   T
  0.7495125867322540  0.7482772971506392  0.1846174957482360   T   T   T
  0.0029988570269859  0.0018333981860410  0.2745330789970746   T   T   T
  0.5014297051929049  0.0069381456538257  0.2744902088236410   T   T   T
  0.0031803375243525  0.4973064126499289  0.2742652080599522   T   T   T
  0.4857871797441169  0.4977689327397923  0.2739705621035904   T   T   T
  0.2462519530980534  0.0014721533225514  0.2743851959813103   T   T   T
  0.7492563578645041  0.0083494692291064  0.2747872781720607   T   T   T
  0.2431205131647224  0.4961050435019906  0.2745705614708873   T   T   T
  0.7668123332692474  0.4972091571216870  0.2726230133761449   T   T   T
  0.1245648175055654  0.7507419205853532  0.2745576630375689   T   T   T
  0.6252878878495544  0.7696619203386659  0.2725276908028756   T   T   T
  0.3730894618810210  0.2401980441263318  0.2754475656340651   T   T   T
  0.8769976302253246  0.2465412696475378  0.2746683877855022   T   T   T
  0.3714029705056869  0.7573578605668049  0.2753504234034777   T   T   T
  0.8793002932017767  0.7518252126289185  0.2740523011341680   T   T   T
  0.1247648830512460  0.2488998306005640  0.3002082789518297   T   T   T
  0.6248938708145838  0.2457177914325171  0.3010021507645073   T   T   T
  0.9995785363630167  0.9997148444709603  0.0027282344783538   T   T   T
  0.5002137695864407  0.9996636604461755  0.0028318433477000   T   T   T
  0.9996839386144361  0.5001209299460379  0.0024246981364548   T   T   T
  0.4998579585619181  0.5000725773148954  0.0018689592675883   T   T   T
  0.2504600889817804  0.9996978696258010  0.0027731964957968   T   T   T
  0.7497587928889498  0.9996741257450097  0.0027970773584768   T   T   T
  0.2503402543682270  0.5000972216260693  0.0023787622466175   T   T   T
  0.7501241750776633  0.5000557093437679  0.0019491905892614   T   T   T
  0.1250323402179303  0.2497826431632870  0.0022891467941271   T   T   T
  0.6249761318921971  0.2493121046320550  0.0018458898560110   T   T   T
  0.1250460557404598  0.7500975465513254  0.0023850456820621   T   T   T
  0.6249719396784874  0.7506152245663054  0.0018505358346231   T   T   T
  0.3753661041590693  0.2496766862585789  0.0025355160075846   T   T   T
  0.8746351530313898  0.2497685429701398  0.0025520700306615   T   T   T
  0.3754058240227900  0.7500440578167233  0.0027879779207134   T   T   T
  0.8746136449851203  0.7499722431243792  0.0028109977967156   T   T   T
  0.1250315999769586  0.9989572367663443  0.0940835979101200   T   T   T
  0.6250193926892813  0.9991135714712215  0.0949950104705131   T   T   T
  0.1250582250416234  0.5008839570276761  0.0936533351408170   T   T   T
  0.6249034623727580  0.5011849056180360  0.0917297806659981   T   T   T
  0.3759956435045414  0.9992939537489458  0.0950681709542603   T   T   T
  0.8740119514671523  0.9994265231853094  0.0950259349475569   T   T   T
  0.3756115550935946  0.5002300885053691  0.0944647218657018   T   T   T
  0.8744224338358551  0.5001685796529981  0.0946647963157232   T   T   T
  0.9990097591426482  0.2497677026224295  0.0941652173608031   T   T   T
  0.5002357155427148  0.2505496221440925  0.0943916918583063   T   T   T
  0.9992736364688700  0.7499634135547407  0.0946646125025624   T   T   T
  0.5006955919458799  0.7490444754838235  0.0949395488876690   T   T   T
  0.2510641357248515  0.2498612905890055  0.0941798653917274   T   T   T
  0.7496948446480379  0.2503672694195300  0.0944005770771906   T   T   T
  0.2508770263175152  0.7497059402900079  0.0946974302085214   T   T   T
  0.7492701811422928  0.7491946800106166  0.0948418232035950   T   T   T
  0.9990404534428079 -0.0000189677880546  0.1847406066147429   T   T   T
  0.5017302432722149  0.9996033986295466  0.1858821645227574   T   T   T
  0.0004556225931431  0.4995916078054287  0.1840409305233915   T   T   T
  0.5019498810795365  0.4994361782236170  0.1865209380428807   T   T   T
  0.2511010270966129 -0.0003941597805799  0.1846393027027060   T   T   T
  0.7482324184752891  0.9995155261170225  0.1862000038244861   T   T   T
  0.2498652732122319  0.4995109510274555  0.1845342608884776   T   T   T
  0.7476225018278945  0.4993991724481650  0.1860149192965612   T   T   T
  0.1250396630340711  0.2496540364311506  0.1807449959153073   T   T   T
  0.6250197958625724  0.2561544758607275  0.1820736962883616   T   T   T
  0.1250693926032057  0.7501912239044788  0.1834232373307387   T   T   T
  0.6252669378697289  0.7422909763682296  0.1855476715487749   T   T   T
  0.3765795927283016  0.2511052216567008  0.1846868711704139   T   T   T
  0.8732806520510065  0.2501752004613630  0.1845904788175206   T   T   T
  0.3768613054652469  0.7478587230750580  0.1853330190398951   T   T   T
  0.8730692206599249  0.7491610805834118  0.1848339682193974   T   T   T
  0.1248681812740238  0.9862443982518787  0.2771381843186579   T   T   T
  0.6254673798159353  0.9955756353007136  0.2775152640966749   T   T   T
  0.1237788366884989  0.5140654190999489  0.2769292938336214   T   T   T
  0.3795452700247998  0.9958084705158911  0.2764044450026370   T   T   T
  0.8704505885794677  0.9947170364310250  0.2767699704662110   T   T   T
  0.3689611975141127  0.5045477824006567  0.2752087712461610   T   T   T
  0.8807773955425120  0.5051334891806363  0.2755395199688992   T   T   T
  0.9931347512281361  0.2470557341722681  0.2774590827840376   T   T   T
  0.4949129600400483  0.2599135234846128  0.2784057528035759   T   T   T
  0.9989180204715239  0.7526619706013478  0.2757601124531400   T   T   T
  0.5074675738950803  0.7338086121513047  0.2773055951380959   T   T   T
  0.2563940272385603  0.2468263523844749  0.2765093167811728   T   T   T
  0.7553576432260620  0.2613059903748635  0.2796895650857988   T   T   T
  0.2509807178056178  0.7518838510911630  0.2755964611284742   T   T   T
  0.7426615826303197  0.7301893572405940  0.2791901539650058   T   T   T
  0.3699602885987769  0.5070604074721984  0.3634780477741638   T   T   T
 
  0.00000000E+00  0.00000000E+00  0.00000000E+00
  0.00000000E+00  0.00000000E+00  0.00000000E+00
  0.00000000E+00  0.00000000E+00  0.00000000E+00
  0.00000000E+00  0.00000000E+00  0.00000000E+00
  0.00000000E+00  0.00000000E+00  0.00000000E+00
  0.00000000E+00  0.00000000E+00  0.00000000E+00
  0.00000000E+00  0.00000000E+00  0.00000000E+00
  0.00000000E+00  0.00000000E+00  0.00000000E+00
  0.00000000E+00  0.00000000E+00  0.00000000E+00
  0.00000000E+00  0.00000000E+00  0.00000000E+00
  0.00000000E+00  0.00000000E+00  0.00000000E+00
  0.00000000E+00  0.00000000E+00  0.00000000E+00
  0.00000000E+00  0.00000000E+00  0.00000000E+00
  0.00000000E+00  0.00000000E+00  0.00000000E+00
  0.00000000E+00  0.00000000E+00  0.00000000E+00
  0.00000000E+00  0.00000000E+00  0.00000000E+00
  0.00000000E+00  0.00000000E+00  0.00000000E+00
  0.00000000E+00  0.00000000E+00  0.00000000E+00
  0.00000000E+00  0.00000000E+00  0.00000000E+00
  0.00000000E+00  0.00000000E+00  0.00000000E+00
  0.00000000E+00  0.00000000E+00  0.00000000E+00
  0.00000000E+00  0.00000000E+00  0.00000000E+00
  0.00000000E+00  0.00000000E+00  0.00000000E+00
  0.00000000E+00  0.00000000E+00  0.00000000E+00
  0.00000000E+00  0.00000000E+00  0.00000000E+00
  0.00000000E+00  0.00000000E+00  0.00000000E+00
  0.00000000E+00  0.00000000E+00  0.00000000E+00
  0.00000000E+00  0.00000000E+00  0.00000000E+00
  0.00000000E+00  0.00000000E+00  0.00000000E+00
  0.00000000E+00  0.00000000E+00  0.00000000E+00
  0.00000000E+00  0.00000000E+00  0.00000000E+00
  0.00000000E+00  0.00000000E+00  0.00000000E+00
  0.00000000E+00  0.00000000E+00  0.00000000E+00
  0.00000000E+00  0.00000000E+00  0.00000000E+00
  0.00000000E+00  0.00000000E+00  0.00000000E+00
  0.00000000E+00  0.00000000E+00  0.00000000E+00
  0.00000000E+00  0.00000000E+00  0.00000000E+00
  0.00000000E+00  0.00000000E+00  0.00000000E+00
  0.00000000E+00  0.00000000E+00  0.00000000E+00
  0.00000000E+00  0.00000000E+00  0.00000000E+00
  0.00000000E+00  0.00000000E+00  0.00000000E+00
  0.00000000E+00  0.00000000E+00  0.00000000E+00
  0.00000000E+00  0.00000000E+00  0.00000000E+00
  0.00000000E+00  0.00000000E+00  0.00000000E+00
  0.00000000E+00  0.00000000E+00  0.00000000E+00
  0.00000000E+00  0.00000000E+00  0.00000000E+00
  0.00000000E+00  0.00000000E+00  0.00000000E+00
  0.00000000E+00  0.00000000E+00  0.00000000E+00
  0.00000000E+00  0.00000000E+00  0.00000000E+00
  0.00000000E+00  0.00000000E+00  0.00000000E+00
  0.00000000E+00  0.00000000E+00  0.00000000E+00
  0.00000000E+00  0.00000000E+00  0.00000000E+00
  0.00000000E+00  0.00000000E+00  0.00000000E+00
  0.00000000E+00  0.00000000E+00  0.00000000E+00
  0.00000000E+00  0.00000000E+00  0.00000000E+00
  0.00000000E+00  0.00000000E+00  0.00000000E+00
  0.00000000E+00  0.00000000E+00  0.00000000E+00
  0.00000000E+00  0.00000000E+00  0.00000000E+00
  0.00000000E+00  0.00000000E+00  0.00000000E+00
  0.00000000E+00  0.00000000E+00  0.00000000E+00
  0.00000000E+00  0.00000000E+00  0.00000000E+00
  0.00000000E+00  0.00000000E+00  0.00000000E+00
  0.00000000E+00  0.00000000E+00  0.00000000E+00
  0.00000000E+00  0.00000000E+00  0.00000000E+00
  0.00000000E+00  0.00000000E+00  0.00000000E+00
  0.00000000E+00  0.00000000E+00  0.00000000E+00
  0.00000000E+00  0.00000000E+00  0.00000000E+00
  0.00000000E+00  0.00000000E+00  0.00000000E+00
  0.00000000E+00  0.00000000E+00  0.00000000E+00
  0.00000000E+00  0.00000000E+00  0.00000000E+00
  0.00000000E+00  0.00000000E+00  0.00000000E+00
  0.00000000E+00  0.00000000E+00  0.00000000E+00
  0.00000000E+00  0.00000000E+00  0.00000000E+00
  0.00000000E+00  0.00000000E+00  0.00000000E+00
  0.00000000E+00  0.00000000E+00  0.00000000E+00
  0.00000000E+00  0.00000000E+00  0.00000000E+00
  0.00000000E+00  0.00000000E+00  0.00000000E+00
  0.00000000E+00  0.00000000E+00  0.00000000E+00
  0.00000000E+00  0.00000000E+00  0.00000000E+00
  0.00000000E+00  0.00000000E+00  0.00000000E+00
  0.00000000E+00  0.00000000E+00  0.00000000E+00
  0.00000000E+00  0.00000000E+00  0.00000000E+00
  0.00000000E+00  0.00000000E+00  0.00000000E+00
  0.00000000E+00  0.00000000E+00  0.00000000E+00
  0.00000000E+00  0.00000000E+00  0.00000000E+00
  0.00000000E+00  0.00000000E+00  0.00000000E+00
  0.00000000E+00  0.00000000E+00  0.00000000E+00
  0.00000000E+00  0.00000000E+00  0.00000000E+00
  0.00000000E+00  0.00000000E+00  0.00000000E+00
  0.00000000E+00  0.00000000E+00  0.00000000E+00
  0.00000000E+00  0.00000000E+00  0.00000000E+00
  0.00000000E+00  0.00000000E+00  0.00000000E+00
  0.00000000E+00  0.00000000E+00  0.00000000E+00
  0.00000000E+00  0.00000000E+00  0.00000000E+00
  0.00000000E+00  0.00000000E+00  0.00000000E+00
  0.00000000E+00  0.00000000E+00  0.00000000E+00
  0.00000000E+00  0.00000000E+00  0.00000000E+00
  0.00000000E+00  0.00000000E+00  0.00000000E+00
  0.00000000E+00  0.00000000E+00  0.00000000E+00
  0.00000000E+00  0.00000000E+00  0.00000000E+00
  0.00000000E+00  0.00000000E+00  0.00000000E+00
  0.00000000E+00  0.00000000E+00  0.00000000E+00
  0.00000000E+00  0.00000000E+00  0.00000000E+00
  0.00000000E+00  0.00000000E+00  0.00000000E+00
  0.00000000E+00  0.00000000E+00  0.00000000E+00
  0.00000000E+00  0.00000000E+00  0.00000000E+00
  0.00000000E+00  0.00000000E+00  0.00000000E+00
  0.00000000E+00  0.00000000E+00  0.00000000E+00
  0.00000000E+00  0.00000000E+00  0.00000000E+00
  0.00000000E+00  0.00000000E+00  0.00000000E+00
  0.00000000E+00  0.00000000E+00  0.00000000E+00
  0.00000000E+00  0.00000000E+00  0.00000000E+00
  0.00000000E+00  0.00000000E+00  0.00000000E+00
  0.00000000E+00  0.00000000E+00  0.00000000E+00
  0.00000000E+00  0.00000000E+00  0.00000000E+00
  0.00000000E+00  0.00000000E+00  0.00000000E+00
  0.00000000E+00  0.00000000E+00  0.00000000E+00
  0.00000000E+00  0.00000000E+00  0.00000000E+00
  0.00000000E+00  0.00000000E+00  0.00000000E+00
  0.00000000E+00  0.00000000E+00  0.00000000E+00
  0.00000000E+00  0.00000000E+00  0.00000000E+00
  0.00000000E+00  0.00000000E+00  0.00000000E+00
  0.00000000E+00  0.00000000E+00  0.00000000E+00
  0.00000000E+00  0.00000000E+00  0.00000000E+00
  0.00000000E+00  0.00000000E+00  0.00000000E+00
  0.00000000E+00  0.00000000E+00  0.00000000E+00
  0.00000000E+00  0.00000000E+00  0.00000000E+00
  0.00000000E+00  0.00000000E+00  0.00000000E+00
