Mg Na O Cu                              
   1.00000000000000     
    16.8282433949600012    0.0000000000000000    0.0000000000000000
     0.0000000000000000    8.4141216974800006    0.0000000000000000
     0.0000000000000000    0.0000000000000000   23.4141216974799988
   Mg   Na   O    Cu
    62     2    63     1
Selective dynamics
Direct
  0.1249529632832252  0.9995720465167652  0.0050335103310261   T   T   T
  0.6250838260264174  0.9997609794210385  0.0040712304618661   T   T   T
  0.1250103045049708  0.5001592773511049  0.0046315424263459   T   T   T
  0.6250187445767982  0.5001710043702275  0.0030232797013340   T   T   T
  0.3746019036165965 -0.0001264784536881  0.0050074481950506   T   T   T
  0.8753645568740168 -0.0000831809646367  0.0050898321408375   T   T   T
  0.3742702594943640  0.4997346904218735  0.0042270929047553   T   T   T
  0.8756891974913626  0.4997314987724210  0.0044790763420439   T   T   T
  0.0000701502084587  0.2494650652485860  0.0049555680682680   T   T   T
  0.4994251954121722  0.2493969914579079  0.0042442188376236   T   T   T
  0.0002433154626038  0.7502116788315071  0.0051074495239098   T   T   T
  0.4996096283260966  0.7502835101590626  0.0042941187877127   T   T   T
  0.2498560000336917  0.2495520452316637  0.0049091584325766   T   T   T
  0.7506442621165096  0.2493453255756061  0.0043741526046834   T   T   T
  0.2497031441798171  0.7500984101368621  0.0050691168514294   T   T   T
  0.7504581411733551  0.7503590604439165  0.0044160794276336   T   T   T
  0.0005128381088221  0.0006585333187864  0.0948757409023571   T   T   T
  0.5000889331551995  0.0003514165177069  0.0943357631330569   T   T   T
  0.0010631338618286  0.4989932131067941  0.0943066267681935   T   T   T
  0.4990042222333961  0.4992364397786903  0.0923046324594724   T   T   T
  0.2493895462228644  0.0005437077080905  0.0948671691497188   T   T   T
  0.7500744222538412  0.0004302701946367  0.0943886848581334   T   T   T
  0.2488122915741605  0.4990496714947566  0.0942094111298854   T   T   T
  0.7510893165330628  0.4992057958302806  0.0926050862604264   T   T   T
  0.1249681097552544  0.2496424803389569  0.0942059135890796   T   T   T
  0.6250367093060234  0.2484652251030869  0.0925472831162492   T   T   T
  0.1249727629939933  0.7500992513453257  0.0948547590837129   T   T   T
  0.6250516738952913  0.7517514577987746  0.0929371079628037   T   T   T
  0.3746412109189832  0.2491276981465988  0.0945762841842311   T   T   T
  0.8753785631926942  0.2491899554619717  0.0948032731174434   T   T   T
  0.3747291680904301  0.7502349486422021  0.0942679199570131   T   T   T
  0.8752680390746620  0.7503410661538800  0.0944011882925797   T   T   T
  0.1248341131365165  0.0047447362890869  0.1868420621155610   T   T   T
  0.6251756675681157  0.0100953543368567  0.1857220063564501   T   T   T
  0.1245967669667768  0.4951550327919746  0.1862598148448331   T   T   T
  0.6250413484028834  0.4956566271180778  0.1762737752746305   T   T   T
  0.3749333844212447  0.0003972459307900  0.1849380546270478   T   T   T
  0.8750588583933273  0.0006053197759137  0.1851964657046709   T   T   T
  0.3719390871746117  0.4985445341299087  0.1825816574463820   T   T   T
  0.8784405311497900  0.4987616978103433  0.1837567173302405   T   T   T
  0.0033366198151697  0.2491854627310261  0.1871265558978403   T   T   T
  0.5020222016849170  0.2513733801372595  0.1860188874990892   T   T   T
  0.0014005249988005  0.7504617958053168  0.1851440437700169   T   T   T
  0.5006453979811449  0.7485222702817467  0.1846825089727529   T   T   T
  0.2467178440115733  0.2491251251457622  0.1869856503482867   T   T   T
  0.7480322473834976  0.2516153951358321  0.1860458034890541   T   T   T
  0.2483620115169973  0.7503266750294896  0.1852328613041416   T   T   T
  0.7495039006563518  0.7484186945119701  0.1846908842888085   T   T   T
  0.0027450244114300  0.0019628427915754  0.2745416109729710   T   T   T
  0.5014909476838995  0.0069004125903619  0.2744051773367894   T   T   T
  0.0031330582015706  0.4973308124957268  0.2742155467448034   T   T   T
  0.4858343868398944  0.4975815484807448  0.2733137639224478   T   T   T
  0.2460016815840827  0.0018772074474624  0.2744397001203305   T   T   T
  0.7492398491357145  0.0085817186284837  0.2748351407620825   T   T   T
  0.2435006627783784  0.4970301566202864  0.2743996595431030   T   T   T
  0.7666184920820250  0.4973109177618570  0.2727218781275941   T   T   T
  0.1243195126331292  0.7507746106849759  0.2745176715684291   T   T   T
  0.6252596629822053  0.7695158456993380  0.2727531755941460   T   T   T
  0.3733570396832167  0.2402202437416286  0.2751450531765574   T   T   T
  0.8769064113041646  0.2469414070813354  0.2747119831882942   T   T   T
  0.3708595332694670  0.7570082798363158  0.2748835493976088   T   T   T
  0.8790276921434912  0.7517965427202886  0.2741508438207452   T   T   T
  0.1247084251478755  0.2492625609605115  0.3012050272176329   T   T   T
  0.6247241249966466  0.2453436677085663  0.3024961860778789   T   T   T
  0.9995833715907302  0.9996193560291315  0.0027298497021957   T   T   T
  0.5001923765481149  0.9996088977896508  0.0028067154075011   T   T   T
  0.9997104194129478  0.5000645348516135  0.0023870074937664   T   T   T
  0.4998177533713032  0.5000833866598914  0.0017272484765825   T   T   T
  0.2504540595306726  0.9995613779408162  0.0028163352372679   T   T   T
  0.7497847794076270  0.9996488365507479  0.0027728314878637   T   T   T
  0.2503613967511478  0.5000856446122930  0.0023389905673749   T   T   T
  0.7500633979735251  0.5000697829349900  0.0018858673846405   T   T   T
  0.1250178683637184  0.2497051624700929  0.0022473571610595   T   T   T
  0.6249757952797271  0.2493177394762816  0.0017672841079922   T   T   T
  0.1250398242297514  0.7500127082173896  0.0023975062049859   T   T   T
  0.6249683389020280  0.7506217246692317  0.0018062309740785   T   T   T
  0.3753430225875919  0.2496204398960319  0.0024442150180126   T   T   T
  0.8746557992043122  0.2496626618960408  0.0025118419502119   T   T   T
  0.3753904440196703  0.7499740469090548  0.0027437321543052   T   T   T
  0.8746111042868393  0.7499817412473445  0.0028120502949720   T   T   T
  0.1250565944418324  0.9988712524056768  0.0940389764999737   T   T   T
  0.6250478438085619  0.9990552092128220  0.0948733043761694   T   T   T
  0.1251449122953092  0.5008711178633309  0.0936429965183517   T   T   T
  0.6248037322863317  0.5013160121309381  0.0916613959035292   T   T   T
  0.3759877328219245  0.9992460825269674  0.0950933919775173   T   T   T
  0.8739910859195578  0.9994128108366080  0.0949883174124561   T   T   T
  0.3756374740950204  0.5001494817425673  0.0944993854742709   T   T   T
  0.8743697165531438  0.5001652546784663  0.0946138015847108   T   T   T
  0.9989859942251306  0.2497630900347912  0.0941088315344184   T   T   T
  0.5001427050407113  0.2506540352197056  0.0942828288377673   T   T   T
  0.9992186041397588  0.7498957264732540  0.0946173658873408   T   T   T
  0.5006458295943007  0.7489108217030799  0.0948467609338260   T   T   T
  0.2511740458694253  0.2499825579554810  0.0941405413640944   T   T   T
  0.7497171825867454  0.2503971962799800  0.0943026629399941   T   T   T
  0.2509266596722720  0.7495578129856463  0.0947230963683051   T   T   T
  0.7492256039194495  0.7492145906692723  0.0948362999195092   T   T   T
  0.9989373691883645  0.0001260023164790  0.1846713724616282   T   T   T
  0.5017360768445995  0.9994142222153675  0.1857890555524323   T   T   T
  0.0004216263174572  0.4995399217867711  0.1840177850384870   T   T   T
  0.5017036369784427  0.4996699137940182  0.1863682046416372   T   T   T
  0.2511169930644089 -0.0000920439358648  0.1846953277221396   T   T   T
  0.7483196678667691  0.9996588085952989  0.1861656687227694   T   T   T
  0.2501494676567975  0.4995778300884746  0.1846230588398844   T   T   T
  0.7475717989904052  0.4994955624226608  0.1860026845995835   T   T   T
  0.1251115988967349  0.2498107025228909  0.1806181391242435   T   T   T
  0.6250117257673279  0.2562444908048448  0.1817624339874673   T   T   T
  0.1249753781085220  0.7500421370041646  0.1833751055684898   T   T   T
  0.6251441140189251  0.7421750352536773  0.1856678172509185   T   T   T
  0.3765806634227583  0.2514083314581078  0.1848191859429889   T   T   T
  0.8731876395102933  0.2502235814873045  0.1845403123483562   T   T   T
  0.3768259427887343  0.7474825871310176  0.1854022851510257   T   T   T
  0.8730011399316414  0.7492909323333855  0.1847817997745806   T   T   T
  0.1247378013197340  0.9865440555334231  0.2769240350211535   T   T   T
  0.6252813630164926  0.9957037439939371  0.2773474125251547   T   T   T
  0.1240546490232974  0.5139756438519556  0.2767828496743701   T   T   T
  0.3795612753630450  0.9955272010355678  0.2761850312005167   T   T   T
  0.8705054908682162  0.9949949021317986  0.2767238244281880   T   T   T
  0.3691944389381893  0.5057536799188390  0.2788078072270332   T   T   T
  0.8806744567860108  0.5051069952353633  0.2754820176773678   T   T   T
  0.9931064412045402  0.2473855393795155  0.2773978784167901   T   T   T
  0.4948486224317483  0.2604983133883193  0.2781717964493001   T   T   T
  0.9987968224465638  0.7523744629127924  0.2756181753709455   T   T   T
  0.5070920566557574  0.7329558465380251  0.2777646681147416   T   T   T
  0.2568482235574081  0.2477581185028011  0.2769944930345699   T   T   T
  0.7551746588671179  0.2613883145039732  0.2796238221212100   T   T   T
  0.2508547740827107  0.7519221722743271  0.2753761676124247   T   T   T
  0.7428256650105850  0.7306695698981343  0.2790767226460222   T   T   T
  0.3728719888653488  0.5027868083428693  0.3628912287038172   T   T   T
 
  0.00000000E+00  0.00000000E+00  0.00000000E+00
  0.00000000E+00  0.00000000E+00  0.00000000E+00
  0.00000000E+00  0.00000000E+00  0.00000000E+00
  0.00000000E+00  0.00000000E+00  0.00000000E+00
  0.00000000E+00  0.00000000E+00  0.00000000E+00
  0.00000000E+00  0.00000000E+00  0.00000000E+00
  0.00000000E+00  0.00000000E+00  0.00000000E+00
  0.00000000E+00  0.00000000E+00  0.00000000E+00
  0.00000000E+00  0.00000000E+00  0.00000000E+00
  0.00000000E+00  0.00000000E+00  0.00000000E+00
  0.00000000E+00  0.00000000E+00  0.00000000E+00
  0.00000000E+00  0.00000000E+00  0.00000000E+00
  0.00000000E+00  0.00000000E+00  0.00000000E+00
  0.00000000E+00  0.00000000E+00  0.00000000E+00
  0.00000000E+00  0.00000000E+00  0.00000000E+00
  0.00000000E+00  0.00000000E+00  0.00000000E+00
  0.00000000E+00  0.00000000E+00  0.00000000E+00
  0.00000000E+00  0.00000000E+00  0.00000000E+00
  0.00000000E+00  0.00000000E+00  0.00000000E+00
  0.00000000E+00  0.00000000E+00  0.00000000E+00
  0.00000000E+00  0.00000000E+00  0.00000000E+00
  0.00000000E+00  0.00000000E+00  0.00000000E+00
  0.00000000E+00  0.00000000E+00  0.00000000E+00
  0.00000000E+00  0.00000000E+00  0.00000000E+00
  0.00000000E+00  0.00000000E+00  0.00000000E+00
  0.00000000E+00  0.00000000E+00  0.00000000E+00
  0.00000000E+00  0.00000000E+00  0.00000000E+00
  0.00000000E+00  0.00000000E+00  0.00000000E+00
  0.00000000E+00  0.00000000E+00  0.00000000E+00
  0.00000000E+00  0.00000000E+00  0.00000000E+00
  0.00000000E+00  0.00000000E+00  0.00000000E+00
  0.00000000E+00  0.00000000E+00  0.00000000E+00
  0.00000000E+00  0.00000000E+00  0.00000000E+00
  0.00000000E+00  0.00000000E+00  0.00000000E+00
  0.00000000E+00  0.00000000E+00  0.00000000E+00
  0.00000000E+00  0.00000000E+00  0.00000000E+00
  0.00000000E+00  0.00000000E+00  0.00000000E+00
  0.00000000E+00  0.00000000E+00  0.00000000E+00
  0.00000000E+00  0.00000000E+00  0.00000000E+00
  0.00000000E+00  0.00000000E+00  0.00000000E+00
  0.00000000E+00  0.00000000E+00  0.00000000E+00
  0.00000000E+00  0.00000000E+00  0.00000000E+00
  0.00000000E+00  0.00000000E+00  0.00000000E+00
  0.00000000E+00  0.00000000E+00  0.00000000E+00
  0.00000000E+00  0.00000000E+00  0.00000000E+00
  0.00000000E+00  0.00000000E+00  0.00000000E+00
  0.00000000E+00  0.00000000E+00  0.00000000E+00
  0.00000000E+00  0.00000000E+00  0.00000000E+00
  0.00000000E+00  0.00000000E+00  0.00000000E+00
  0.00000000E+00  0.00000000E+00  0.00000000E+00
  0.00000000E+00  0.00000000E+00  0.00000000E+00
  0.00000000E+00  0.00000000E+00  0.00000000E+00
  0.00000000E+00  0.00000000E+00  0.00000000E+00
  0.00000000E+00  0.00000000E+00  0.00000000E+00
  0.00000000E+00  0.00000000E+00  0.00000000E+00
  0.00000000E+00  0.00000000E+00  0.00000000E+00
  0.00000000E+00  0.00000000E+00  0.00000000E+00
  0.00000000E+00  0.00000000E+00  0.00000000E+00
  0.00000000E+00  0.00000000E+00  0.00000000E+00
  0.00000000E+00  0.00000000E+00  0.00000000E+00
  0.00000000E+00  0.00000000E+00  0.00000000E+00
  0.00000000E+00  0.00000000E+00  0.00000000E+00
  0.00000000E+00  0.00000000E+00  0.00000000E+00
  0.00000000E+00  0.00000000E+00  0.00000000E+00
  0.00000000E+00  0.00000000E+00  0.00000000E+00
  0.00000000E+00  0.00000000E+00  0.00000000E+00
  0.00000000E+00  0.00000000E+00  0.00000000E+00
  0.00000000E+00  0.00000000E+00  0.00000000E+00
  0.00000000E+00  0.00000000E+00  0.00000000E+00
  0.00000000E+00  0.00000000E+00  0.00000000E+00
  0.00000000E+00  0.00000000E+00  0.00000000E+00
  0.00000000E+00  0.00000000E+00  0.00000000E+00
  0.00000000E+00  0.00000000E+00  0.00000000E+00
  0.00000000E+00  0.00000000E+00  0.00000000E+00
  0.00000000E+00  0.00000000E+00  0.00000000E+00
  0.00000000E+00  0.00000000E+00  0.00000000E+00
  0.00000000E+00  0.00000000E+00  0.00000000E+00
  0.00000000E+00  0.00000000E+00  0.00000000E+00
  0.00000000E+00  0.00000000E+00  0.00000000E+00
  0.00000000E+00  0.00000000E+00  0.00000000E+00
  0.00000000E+00  0.00000000E+00  0.00000000E+00
  0.00000000E+00  0.00000000E+00  0.00000000E+00
  0.00000000E+00  0.00000000E+00  0.00000000E+00
  0.00000000E+00  0.00000000E+00  0.00000000E+00
  0.00000000E+00  0.00000000E+00  0.00000000E+00
  0.00000000E+00  0.00000000E+00  0.00000000E+00
  0.00000000E+00  0.00000000E+00  0.00000000E+00
  0.00000000E+00  0.00000000E+00  0.00000000E+00
  0.00000000E+00  0.00000000E+00  0.00000000E+00
  0.00000000E+00  0.00000000E+00  0.00000000E+00
  0.00000000E+00  0.00000000E+00  0.00000000E+00
  0.00000000E+00  0.00000000E+00  0.00000000E+00
  0.00000000E+00  0.00000000E+00  0.00000000E+00
  0.00000000E+00  0.00000000E+00  0.00000000E+00
  0.00000000E+00  0.00000000E+00  0.00000000E+00
  0.00000000E+00  0.00000000E+00  0.00000000E+00
  0.00000000E+00  0.00000000E+00  0.00000000E+00
  0.00000000E+00  0.00000000E+00  0.00000000E+00
  0.00000000E+00  0.00000000E+00  0.00000000E+00
  0.00000000E+00  0.00000000E+00  0.00000000E+00
  0.00000000E+00  0.00000000E+00  0.00000000E+00
  0.00000000E+00  0.00000000E+00  0.00000000E+00
  0.00000000E+00  0.00000000E+00  0.00000000E+00
  0.00000000E+00  0.00000000E+00  0.00000000E+00
  0.00000000E+00  0.00000000E+00  0.00000000E+00
  0.00000000E+00  0.00000000E+00  0.00000000E+00
  0.00000000E+00  0.00000000E+00  0.00000000E+00
  0.00000000E+00  0.00000000E+00  0.00000000E+00
  0.00000000E+00  0.00000000E+00  0.00000000E+00
  0.00000000E+00  0.00000000E+00  0.00000000E+00
  0.00000000E+00  0.00000000E+00  0.00000000E+00
  0.00000000E+00  0.00000000E+00  0.00000000E+00
  0.00000000E+00  0.00000000E+00  0.00000000E+00
  0.00000000E+00  0.00000000E+00  0.00000000E+00
  0.00000000E+00  0.00000000E+00  0.00000000E+00
  0.00000000E+00  0.00000000E+00  0.00000000E+00
  0.00000000E+00  0.00000000E+00  0.00000000E+00
  0.00000000E+00  0.00000000E+00  0.00000000E+00
  0.00000000E+00  0.00000000E+00  0.00000000E+00
  0.00000000E+00  0.00000000E+00  0.00000000E+00
  0.00000000E+00  0.00000000E+00  0.00000000E+00
  0.00000000E+00  0.00000000E+00  0.00000000E+00
  0.00000000E+00  0.00000000E+00  0.00000000E+00
  0.00000000E+00  0.00000000E+00  0.00000000E+00
  0.00000000E+00  0.00000000E+00  0.00000000E+00
  0.00000000E+00  0.00000000E+00  0.00000000E+00
  0.00000000E+00  0.00000000E+00  0.00000000E+00
  0.00000000E+00  0.00000000E+00  0.00000000E+00
