Mg Na O Ir                              
   1.00000000000000     
    16.8282433949600012    0.0000000000000000    0.0000000000000000
     0.0000000000000000    8.4141216974800006    0.0000000000000000
     0.0000000000000000    0.0000000000000000   23.4141216974799988
   Mg   Na   O    Ir
    62     2    63     1
Selective dynamics
Direct
  0.1249723272133455  0.9997109638135022  0.0050116473289170   T   T   T
  0.6250216398088051  0.9998133419291583  0.0040973226586217   T   T   T
  0.1249400229007379  0.5001824089683852  0.0046324753210473   T   T   T
  0.6250776793825653  0.5001240097270360  0.0030677905963183   T   T   T
  0.3746448695672344 -0.0000886809633075  0.0050357736955086   T   T   T
  0.8753562924186260 -0.0000242054331387  0.0050830332719214   T   T   T
  0.3742692310474526  0.4997996883409867  0.0043234916686038   T   T   T
  0.8757126071927408  0.4997782459207570  0.0045364264643164   T   T   T
  0.0000966499673262  0.2495748300985061  0.0049844587155372   T   T   T
  0.4994602556484460  0.2492982246548529  0.0043722897766223   T   T   T
  0.0002471016161819  0.7502467218615276  0.0051049853571052   T   T   T
  0.4996102198154288  0.7504195973046343  0.0043981756878214   T   T   T
  0.2498486255858126  0.2495480986922705  0.0049729877840990   T   T   T
  0.7505920286934950  0.2494009399800275  0.0044011655664791   T   T   T
  0.2497248909478222  0.7502723781237988  0.0051081564372557   T   T   T
  0.7504261387935547  0.7503317274075390  0.0044213247957432   T   T   T
  0.0005024636565828  0.0006819375602170  0.0948927983087232   T   T   T
  0.5000540918242531  0.0003004929643125  0.0944741578630994   T   T   T
  0.0010888037730964  0.4990675109934818  0.0942926382761452   T   T   T
  0.4990965135648672  0.4992454924694387  0.0923507089257917   T   T   T
  0.2493856847915998  0.0005950278523519  0.0949346452318264   T   T   T
  0.7500586142739700  0.0003767464220922  0.0944032989932685   T   T   T
  0.2487018916946662  0.4991198452346702  0.0942530108900103   T   T   T
  0.7511391705046832  0.4992082798514011  0.0926311629817711   T   T   T
  0.1249997370788929  0.2496157607074040  0.0942982939851755   T   T   T
  0.6249883682795838  0.2484063264004682  0.0926662473929852   T   T   T
  0.1250322186227762  0.7502545449010403  0.0948695764332261   T   T   T
  0.6249820067322615  0.7517617516026357  0.0929814228802474   T   T   T
  0.3746405042652607  0.2488761183496966  0.0946155669105966   T   T   T
  0.8754087474666078  0.2492208777748689  0.0947968016071952   T   T   T
  0.3747533944295799  0.7505506721700319  0.0943275875594148   T   T   T
  0.8753086720448301  0.7503558591663186  0.0944029119845073   T   T   T
  0.1250036398922584  0.0047651231167552  0.1868304371467696   T   T   T
  0.6250610168170528  0.0099197382866132  0.1856774359604579   T   T   T
  0.1246496625120351  0.4953528176857733  0.1862495193145013   T   T   T
  0.6249476290359696  0.4957160523434222  0.1762069614503123   T   T   T
  0.3749506608231508  0.0004012800927014  0.1850977646036877   T   T   T
  0.8750687549807510  0.0004849474285340  0.1851923806010559   T   T   T
  0.3721206917689552  0.4983866311988952  0.1821765644519325   T   T   T
  0.8785244373963879  0.4987695394887618  0.1837142442491318   T   T   T
  0.0033891815116280  0.2490690497782211  0.1871464719211056   T   T   T
  0.5017209948904958  0.2515096816943627  0.1862622536951472   T   T   T
  0.0015459861753081  0.7505592150713347  0.1851458531908211   T   T   T
  0.5003905208301936  0.7480935942040381  0.1850548439422027   T   T   T
  0.2471037465889208  0.2496863888223132  0.1871235918063101   T   T   T
  0.7480797537483869  0.2514848253092617  0.1860111299340638   T   T   T
  0.2488221594663486  0.7498062140235964  0.1854728068079090   T   T   T
  0.7495047565179950  0.7482937875627031  0.1846519004370475   T   T   T
  0.0029108917537435  0.0019668742637073  0.2745406836188820   T   T   T
  0.5016441930138816  0.0068527510995786  0.2743988361707534   T   T   T
  0.0030417113951204  0.4973235497310118  0.2742963517194167   T   T   T
  0.4867195814206584  0.4971325782287567  0.2742894172182279   T   T   T
  0.2458917754163972  0.0017142425106088  0.2743577885923746   T   T   T
  0.7492651015023403  0.0084147578473252  0.2748005760274945   T   T   T
  0.2422764958255934  0.4969766452873821  0.2751840130015524   T   T   T
  0.7668231376073917  0.4972227412603733  0.2726394419257209   T   T   T
  0.1243417721120110  0.7510827871643130  0.2745032189978645   T   T   T
  0.6253062329988744  0.7697045925189241  0.2725733162021035   T   T   T
  0.3733990529059281  0.2385954719496491  0.2763716214737861   T   T   T
  0.8769484648490101  0.2465441026938350  0.2746969048898402   T   T   T
  0.3709451441852485  0.7586780995316805  0.2762794951410106   T   T   T
  0.8792482466691984  0.7518529444807698  0.2740981381811627   T   T   T
  0.1246076168467083  0.2489224916603709  0.3004943475659951   T   T   T
  0.6249979427659779  0.2452402902021387  0.3013578291089376   T   T   T
  0.9995716804056276  0.9997098253831393  0.0027213245788147   T   T   T
  0.5002130875217661  0.9996534776723353  0.0028640648473273   T   T   T
  0.9996911989464862  0.5001219807865672  0.0024251198733942   T   T   T
  0.4998537566246539  0.5000688267334037  0.0018018233712109   T   T   T
  0.2504581484476222  0.9997013575296976  0.0028066014304625   T   T   T
  0.7497477638867213  0.9996773120385358  0.0027908741270007   T   T   T
  0.2503512857223757  0.5001248330963742  0.0023445436284560   T   T   T
  0.7500997983488307  0.5000627558920208  0.0019451845932900   T   T   T
  0.1250402606395270  0.2497769871743010  0.0022849636553620   T   T   T
  0.6249498548437861  0.2493182023160740  0.0018476753358205   T   T   T
  0.1250578426608636  0.7501065720331199  0.0023969738532413   T   T   T
  0.6249430537744943  0.7506322232413914  0.0018541726332072   T   T   T
  0.3753701386136387  0.2496529404280818  0.0025111174706025   T   T   T
  0.8746346760384837  0.2497737911485812  0.0025413034508398   T   T   T
  0.3754080807283811  0.7500614445737337  0.0027633554275770   T   T   T
  0.8745978733884551  0.7499689946892232  0.0028022220978564   T   T   T
  0.1250360953127764  0.9990066259648273  0.0940757433068053   T   T   T
  0.6250100747220844  0.9991041016604545  0.0949738829483219   T   T   T
  0.1250943943237583  0.5008986803274739  0.0936722787578029   T   T   T
  0.6248537595336399  0.5012266291481916  0.0917277373146439   T   T   T
  0.3759996620503324  0.9992568776946755  0.0951238600930820   T   T   T
  0.8739936778962299  0.9994272866280397  0.0950263946261569   T   T   T
  0.3756651431174234  0.5002387667526603  0.0943784367383762   T   T   T
  0.8744086853062087  0.5001760613523133  0.0946410812126697   T   T   T
  0.9990249851028228  0.2497611226297329  0.0941675981291241   T   T   T
  0.5001853381399262  0.2506224583864025  0.0944165355111904   T   T   T
  0.9992428913089432  0.7499845904989763  0.0946459454186906   T   T   T
  0.5006339101747065  0.7488868668619351  0.0949770765928434   T   T   T
  0.2511199226862303  0.2500404573485013  0.0941685419870586   T   T   T
  0.7496959500769134  0.2503623762378087  0.0943744900957271   T   T   T
  0.2509403216153275  0.7496412936061954  0.0947525696455592   T   T   T
  0.7492400975867195  0.7492094461999829  0.0948480109775271   T   T   T
  0.9990144223932795  0.0000533788787378  0.1846975231311989   T   T   T
  0.5016911046298881  0.9993160839381662  0.1858284778074543   T   T   T
  0.0004267534343601  0.4995957972313994  0.1840190976742146   T   T   T
  0.5018476809633403  0.4994549148970340  0.1866783231776203   T   T   T
  0.2511639655953424 -0.0000252336760657  0.1846899518295958   T   T   T
  0.7482197174639396  0.9995278632499259  0.1861898151654407   T   T   T
  0.2501135127153594  0.4995419760484717  0.1847092575896536   T   T   T
  0.7475937184946009  0.4994004988194418  0.1860060268500955   T   T   T
  0.1251698246204396  0.2498328046920185  0.1807787576534794   T   T   T
  0.6250299326652604  0.2561944671952603  0.1819722385971824   T   T   T
  0.1250535095480913  0.7502190187324539  0.1833827308337697   T   T   T
  0.6251718044730887  0.7421782434113517  0.1855989025604195   T   T   T
  0.3765367249900882  0.2513624794097563  0.1848574944321765   T   T   T
  0.8732459515608723  0.2501557214382891  0.1845820117769132   T   T   T
  0.3768375079662870  0.7474608699870132  0.1855856344432798   T   T   T
  0.8730377069346829  0.7492025745422327  0.1848265894288613   T   T   T
  0.1247073090347774  0.9865332869016625  0.2770118001177085   T   T   T
  0.6255422060886597  0.9955414438243162  0.2774170848354252   T   T   T
  0.1234265417197224  0.5142519863817792  0.2769376304382540   T   T   T
  0.3796966445230852  0.9958530524671498  0.2765201413407145   T   T   T
  0.8704108199079966  0.9947893476229561  0.2767556235751293   T   T   T
  0.3689293182200106  0.5050562693593997  0.2748768014196175   T   T   T
  0.8807400152995624  0.5051712568106681  0.2755178930629323   T   T   T
  0.9930716130924028  0.2470825347162100  0.2774244091155819   T   T   T
  0.4952405502056736  0.2594425265886830  0.2778236980373754   T   T   T
  0.9988220672943038  0.7528654805139258  0.2756941027183581   T   T   T
  0.5075147319933911  0.7333183122958351  0.2774978362710119   T   T   T
  0.2566539362197525  0.2475703649210367  0.2768351068522368   T   T   T
  0.7553302492305833  0.2613347261720371  0.2796671976569830   T   T   T
  0.2506698060787348  0.7521796758072105  0.2752521459151047   T   T   T
  0.7426343140931515  0.7300807735844770  0.2791705667157828   T   T   T
  0.3710487917845117  0.5045486510787345  0.3604717744968611   T   T   T
 
  0.00000000E+00  0.00000000E+00  0.00000000E+00
  0.00000000E+00  0.00000000E+00  0.00000000E+00
  0.00000000E+00  0.00000000E+00  0.00000000E+00
  0.00000000E+00  0.00000000E+00  0.00000000E+00
  0.00000000E+00  0.00000000E+00  0.00000000E+00
  0.00000000E+00  0.00000000E+00  0.00000000E+00
  0.00000000E+00  0.00000000E+00  0.00000000E+00
  0.00000000E+00  0.00000000E+00  0.00000000E+00
  0.00000000E+00  0.00000000E+00  0.00000000E+00
  0.00000000E+00  0.00000000E+00  0.00000000E+00
  0.00000000E+00  0.00000000E+00  0.00000000E+00
  0.00000000E+00  0.00000000E+00  0.00000000E+00
  0.00000000E+00  0.00000000E+00  0.00000000E+00
  0.00000000E+00  0.00000000E+00  0.00000000E+00
  0.00000000E+00  0.00000000E+00  0.00000000E+00
  0.00000000E+00  0.00000000E+00  0.00000000E+00
  0.00000000E+00  0.00000000E+00  0.00000000E+00
  0.00000000E+00  0.00000000E+00  0.00000000E+00
  0.00000000E+00  0.00000000E+00  0.00000000E+00
  0.00000000E+00  0.00000000E+00  0.00000000E+00
  0.00000000E+00  0.00000000E+00  0.00000000E+00
  0.00000000E+00  0.00000000E+00  0.00000000E+00
  0.00000000E+00  0.00000000E+00  0.00000000E+00
  0.00000000E+00  0.00000000E+00  0.00000000E+00
  0.00000000E+00  0.00000000E+00  0.00000000E+00
  0.00000000E+00  0.00000000E+00  0.00000000E+00
  0.00000000E+00  0.00000000E+00  0.00000000E+00
  0.00000000E+00  0.00000000E+00  0.00000000E+00
  0.00000000E+00  0.00000000E+00  0.00000000E+00
  0.00000000E+00  0.00000000E+00  0.00000000E+00
  0.00000000E+00  0.00000000E+00  0.00000000E+00
  0.00000000E+00  0.00000000E+00  0.00000000E+00
  0.00000000E+00  0.00000000E+00  0.00000000E+00
  0.00000000E+00  0.00000000E+00  0.00000000E+00
  0.00000000E+00  0.00000000E+00  0.00000000E+00
  0.00000000E+00  0.00000000E+00  0.00000000E+00
  0.00000000E+00  0.00000000E+00  0.00000000E+00
  0.00000000E+00  0.00000000E+00  0.00000000E+00
  0.00000000E+00  0.00000000E+00  0.00000000E+00
  0.00000000E+00  0.00000000E+00  0.00000000E+00
  0.00000000E+00  0.00000000E+00  0.00000000E+00
  0.00000000E+00  0.00000000E+00  0.00000000E+00
  0.00000000E+00  0.00000000E+00  0.00000000E+00
  0.00000000E+00  0.00000000E+00  0.00000000E+00
  0.00000000E+00  0.00000000E+00  0.00000000E+00
  0.00000000E+00  0.00000000E+00  0.00000000E+00
  0.00000000E+00  0.00000000E+00  0.00000000E+00
  0.00000000E+00  0.00000000E+00  0.00000000E+00
  0.00000000E+00  0.00000000E+00  0.00000000E+00
  0.00000000E+00  0.00000000E+00  0.00000000E+00
  0.00000000E+00  0.00000000E+00  0.00000000E+00
  0.00000000E+00  0.00000000E+00  0.00000000E+00
  0.00000000E+00  0.00000000E+00  0.00000000E+00
  0.00000000E+00  0.00000000E+00  0.00000000E+00
  0.00000000E+00  0.00000000E+00  0.00000000E+00
  0.00000000E+00  0.00000000E+00  0.00000000E+00
  0.00000000E+00  0.00000000E+00  0.00000000E+00
  0.00000000E+00  0.00000000E+00  0.00000000E+00
  0.00000000E+00  0.00000000E+00  0.00000000E+00
  0.00000000E+00  0.00000000E+00  0.00000000E+00
  0.00000000E+00  0.00000000E+00  0.00000000E+00
  0.00000000E+00  0.00000000E+00  0.00000000E+00
  0.00000000E+00  0.00000000E+00  0.00000000E+00
  0.00000000E+00  0.00000000E+00  0.00000000E+00
  0.00000000E+00  0.00000000E+00  0.00000000E+00
  0.00000000E+00  0.00000000E+00  0.00000000E+00
  0.00000000E+00  0.00000000E+00  0.00000000E+00
  0.00000000E+00  0.00000000E+00  0.00000000E+00
  0.00000000E+00  0.00000000E+00  0.00000000E+00
  0.00000000E+00  0.00000000E+00  0.00000000E+00
  0.00000000E+00  0.00000000E+00  0.00000000E+00
  0.00000000E+00  0.00000000E+00  0.00000000E+00
  0.00000000E+00  0.00000000E+00  0.00000000E+00
  0.00000000E+00  0.00000000E+00  0.00000000E+00
  0.00000000E+00  0.00000000E+00  0.00000000E+00
  0.00000000E+00  0.00000000E+00  0.00000000E+00
  0.00000000E+00  0.00000000E+00  0.00000000E+00
  0.00000000E+00  0.00000000E+00  0.00000000E+00
  0.00000000E+00  0.00000000E+00  0.00000000E+00
  0.00000000E+00  0.00000000E+00  0.00000000E+00
  0.00000000E+00  0.00000000E+00  0.00000000E+00
  0.00000000E+00  0.00000000E+00  0.00000000E+00
  0.00000000E+00  0.00000000E+00  0.00000000E+00
  0.00000000E+00  0.00000000E+00  0.00000000E+00
  0.00000000E+00  0.00000000E+00  0.00000000E+00
  0.00000000E+00  0.00000000E+00  0.00000000E+00
  0.00000000E+00  0.00000000E+00  0.00000000E+00
  0.00000000E+00  0.00000000E+00  0.00000000E+00
  0.00000000E+00  0.00000000E+00  0.00000000E+00
  0.00000000E+00  0.00000000E+00  0.00000000E+00
  0.00000000E+00  0.00000000E+00  0.00000000E+00
  0.00000000E+00  0.00000000E+00  0.00000000E+00
  0.00000000E+00  0.00000000E+00  0.00000000E+00
  0.00000000E+00  0.00000000E+00  0.00000000E+00
  0.00000000E+00  0.00000000E+00  0.00000000E+00
  0.00000000E+00  0.00000000E+00  0.00000000E+00
  0.00000000E+00  0.00000000E+00  0.00000000E+00
  0.00000000E+00  0.00000000E+00  0.00000000E+00
  0.00000000E+00  0.00000000E+00  0.00000000E+00
  0.00000000E+00  0.00000000E+00  0.00000000E+00
  0.00000000E+00  0.00000000E+00  0.00000000E+00
  0.00000000E+00  0.00000000E+00  0.00000000E+00
  0.00000000E+00  0.00000000E+00  0.00000000E+00
  0.00000000E+00  0.00000000E+00  0.00000000E+00
  0.00000000E+00  0.00000000E+00  0.00000000E+00
  0.00000000E+00  0.00000000E+00  0.00000000E+00
  0.00000000E+00  0.00000000E+00  0.00000000E+00
  0.00000000E+00  0.00000000E+00  0.00000000E+00
  0.00000000E+00  0.00000000E+00  0.00000000E+00
  0.00000000E+00  0.00000000E+00  0.00000000E+00
  0.00000000E+00  0.00000000E+00  0.00000000E+00
  0.00000000E+00  0.00000000E+00  0.00000000E+00
  0.00000000E+00  0.00000000E+00  0.00000000E+00
  0.00000000E+00  0.00000000E+00  0.00000000E+00
  0.00000000E+00  0.00000000E+00  0.00000000E+00
  0.00000000E+00  0.00000000E+00  0.00000000E+00
  0.00000000E+00  0.00000000E+00  0.00000000E+00
  0.00000000E+00  0.00000000E+00  0.00000000E+00
  0.00000000E+00  0.00000000E+00  0.00000000E+00
  0.00000000E+00  0.00000000E+00  0.00000000E+00
  0.00000000E+00  0.00000000E+00  0.00000000E+00
  0.00000000E+00  0.00000000E+00  0.00000000E+00
  0.00000000E+00  0.00000000E+00  0.00000000E+00
  0.00000000E+00  0.00000000E+00  0.00000000E+00
  0.00000000E+00  0.00000000E+00  0.00000000E+00
  0.00000000E+00  0.00000000E+00  0.00000000E+00
  0.00000000E+00  0.00000000E+00  0.00000000E+00
  0.00000000E+00  0.00000000E+00  0.00000000E+00
