Mg Na O Ag                              
   1.00000000000000     
    16.8282433949600012    0.0000000000000000    0.0000000000000000
     0.0000000000000000    8.4141216974800006    0.0000000000000000
     0.0000000000000000    0.0000000000000000   23.4141216974799988
   Mg   Na   O    Ag
    62     2    63     1
Selective dynamics
Direct
  0.1249284715249918  0.9996802971433353  0.0049926684327187   T   T   T
  0.6250730406807737  0.9998062714619061  0.0040422245091639   T   T   T
  0.1248781414122410  0.5001623578205331  0.0045488049212355   T   T   T
  0.6251010826875731  0.5001281190603698  0.0029986854912444   T   T   T
  0.3746288118140391 -0.0000676105159209  0.0048569736902952   T   T   T
  0.8753658563693033 -0.0000365724806254  0.0050990695105381   T   T   T
  0.3742889178433501  0.4997913450392114  0.0042529641863021   T   T   T
  0.8756988630406872  0.4997606387548077  0.0044803905288211   T   T   T
  0.0000784544172650  0.2494651352015049  0.0049782082899947   T   T   T
  0.4995207422869753  0.2493471438573125  0.0042365663751593   T   T   T
  0.0002307441474072  0.7503184017054860  0.0050972129535649   T   T   T
  0.4996822199573243  0.7503728684702531  0.0042605707358404   T   T   T
  0.2497628057926765  0.2494848439482019  0.0048406328946728   T   T   T
  0.7506304797781402  0.2493329564322117  0.0043805222137478   T   T   T
  0.2496289714826394  0.7502892386662279  0.0049684226167734   T   T   T
  0.7504605856816268  0.7503905347202173  0.0043988552099468   T   T   T
  0.0005193511678962  0.0006730012682609  0.0948859357938562   T   T   T
  0.5001317227747386  0.0003497458971517  0.0941750279952785   T   T   T
  0.0009683463752814  0.4990391501357715  0.0942663222737034   T   T   T
  0.4990817183042594  0.4992398212952991  0.0923306588214270   T   T   T
  0.2493114621671661  0.0006192245660072  0.0947083963039818   T   T   T
  0.7500554630352433  0.0003888272424131  0.0943942389925106   T   T   T
  0.2486190304318270  0.4990841993946661  0.0939929862233324   T   T   T
  0.7512378085937419  0.4992054998953149  0.0925639515673408   T   T   T
  0.1248136861085395  0.2495493941415783  0.0941879391143617   T   T   T
  0.6251797193974182  0.2483276925250303  0.0925363179972675   T   T   T
  0.1248257219780217  0.7502544468971307  0.0947389275731847   T   T   T
  0.6251831708193064  0.7518127170116370  0.0928200944569003   T   T   T
  0.3746128006121567  0.2491885681452229  0.0943324842013411   T   T   T
  0.8754084698818243  0.2491822266894173  0.0948090702987031   T   T   T
  0.3747006834568729  0.7503489001492687  0.0940009536494393   T   T   T
  0.8753016992441089  0.7503751199166523  0.0944240297050558   T   T   T
  0.1248922853404924  0.0046487370607257  0.1869704467063522   T   T   T
  0.6251898929188460  0.0097514309076107  0.1857867844904875   T   T   T
  0.1245709442559889  0.4952823236726674  0.1861139914407910   T   T   T
  0.6252150778357725  0.4957184396818232  0.1760761961566149   T   T   T
  0.3749199094551720  0.0004627438511054  0.1846137175095380   T   T   T
  0.8750775032396995  0.0004864230270424  0.1852008671137632   T   T   T
  0.3715759241364651  0.4987103268912815  0.1825679296769978   T   T   T
  0.8785189781364230  0.4987784291726075  0.1837475113948198   T   T   T
  0.0032795300080391  0.2491129796430823  0.1871164519630174   T   T   T
  0.5020703311539343  0.2512011430905710  0.1856055531288237   T   T   T
  0.0014841659971171  0.7504862622744986  0.1851635173620976   T   T   T
  0.5007475819535410  0.7485918817041144  0.1843284846143900   T   T   T
  0.2465417298753210  0.2490203573018550  0.1866803311274617   T   T   T
  0.7481691413154848  0.2514840039648598  0.1860209106459587   T   T   T
  0.2482181950143125  0.7505536573692602  0.1848815667768021   T   T   T
  0.7495404534504431  0.7483563605159262  0.1847088764996905   T   T   T
  0.0030168968009431  0.0018838808897296  0.2745993762019599   T   T   T
  0.5010625178705063  0.0074804189690030  0.2744749623741526   T   T   T
  0.0033553283076585  0.4973263184157295  0.2742156527291830   T   T   T
  0.4846126276314897  0.4972716999920677  0.2721216708696215   T   T   T
  0.2467061653148828  0.0016967461730516  0.2744922365109398   T   T   T
  0.7492112922464145  0.0083031189971199  0.2748566922278997   T   T   T
  0.2446902629641074  0.4972775663786190  0.2736421516425249   T   T   T
  0.7668087414024098  0.4972704012114749  0.2726577758443942   T   T   T
  0.1247307384987541  0.7506558586582118  0.2745471523815354   T   T   T
  0.6250583254401939  0.7693097974929946  0.2727320010596109   T   T   T
  0.3732556934247628  0.2432130339585492  0.2741372629844543   T   T   T
  0.8769863661873796  0.2467056489395384  0.2746919476148296   T   T   T
  0.3709911095020305  0.7545910939001076  0.2736712236642824   T   T   T
  0.8792515597147603  0.7517364334225888  0.2741129998495646   T   T   T
  0.1250095910285163  0.2495813844080458  0.3005606549887601   T   T   T
  0.6247745589777682  0.2457880866633531  0.3015117273160287   T   T   T
  0.9995688103842960  0.9996862505808819  0.0027323612180287   T   T   T
  0.5002506950900983  0.9996595804451983  0.0027009341984533   T   T   T
  0.9996115541097872  0.5001058581867496  0.0023407106572773   T   T   T
  0.4999248991310952  0.5000676589733026  0.0017877318003931   T   T   T
  0.2504209263884862  0.9996817005588131  0.0026671306323010   T   T   T
  0.7497659148671000  0.9996673103441528  0.0027869800266695   T   T   T
  0.2502807975874782  0.5001037575029857  0.0023122965944649   T   T   T
  0.7501715825193348  0.5000690073544956  0.0018601572453745   T   T   T
  0.1249692189118904  0.2497234118522157  0.0022209528522417   T   T   T
  0.6250274267369557  0.2492894620591744  0.0017638738257502   T   T   T
  0.1249728605121921  0.7501093305601770  0.0023282613858016   T   T   T
  0.6250330592835642  0.7506545382823480  0.0017619958990126   T   T   T
  0.3753630541805289  0.2496949422666010  0.0023874906077733   T   T   T
  0.8746414633417600  0.2497289802487833  0.0025464779891187   T   T   T
  0.3754019260161845  0.7500327794771753  0.0026481149299716   T   T   T
  0.8746011539011271  0.7499922284779884  0.0028183201403475   T   T   T
  0.1249754110071837  0.9989696531375019  0.0940346679331625   T   T   T
  0.6250932570828183  0.9990717161130962  0.0949351001818692   T   T   T
  0.1249516574715526  0.5008753133211526  0.0935408375931277   T   T   T
  0.6250587586056394  0.5012528247914729  0.0915856838767620   T   T   T
  0.3759995406937945  0.9993700932056370  0.0948306371917541   T   T   T
  0.8739919554561455  0.9994129394291641  0.0950373133611865   T   T   T
  0.3755871920593492  0.5001798271505701  0.0941845795646158   T   T   T
  0.8744002517660844  0.5001807032855906  0.0945969644009140   T   T   T
  0.9989548052423065  0.2496936785165512  0.0941248298016840   T   T   T
  0.5003556947632158  0.2503510137944536  0.0941731831526349   T   T   T
  0.9991858418623245  0.7500189497679999  0.0946154706049455   T   T   T
  0.5008439474094660  0.7492273602772729  0.0946655151035435   T   T   T
  0.2509767638247358  0.2498010216470222  0.0940070348432179   T   T   T
  0.7497518484236756  0.2503229374135094  0.0943495137333250   T   T   T
  0.2507388288945690  0.7499023150947729  0.0945199346079616   T   T   T
  0.7492738485681868  0.7492578787031152  0.0948491172886425   T   T   T
  0.9989765611629980  0.0000306479774466  0.1847550037648929   T   T   T
  0.5018276456396575  0.9994388720487317  0.1858312400012053   T   T   T
  0.0004245078327891  0.4995797921124338  0.1840328524342032   T   T   T
  0.5021044810755979  0.4995098506134306  0.1856666840179976   T   T   T
  0.2510557915989233 -0.0000171099809988  0.1845874405111065   T   T   T
  0.7482677503169795  0.9995350626725064  0.1862484984304583   T   T   T
  0.2496403882869809  0.4995938867270308  0.1839534133521358   T   T   T
  0.7476716441234701  0.4994412259403367  0.1860288624013548   T   T   T
  0.1249864314493399  0.2496546900937055  0.1806768923562835   T   T   T
  0.6251140144842869  0.2561592744971142  0.1819464292603222   T   T   T
  0.1249460155047615  0.7503390471206680  0.1833220436472650   T   T   T
  0.6251578476020645  0.7422624817354102  0.1856786688825804   T   T   T
  0.3766495704626947  0.2509612549936801  0.1842287798042784   T   T   T
  0.8732471798855075  0.2500664676586138  0.1845860514970299   T   T   T
  0.3769179651351671  0.7481804239250409  0.1845756184855217   T   T   T
  0.8730392250271573  0.7493031486895091  0.1848378139121373   T   T   T
  0.1251241316517435  0.9863175179778000  0.2771579225372524   T   T   T
  0.6250404384920822  0.9954490682953486  0.2775845587465123   T   T   T
  0.1245925192025867  0.5139909641790752  0.2766302260531004   T   T   T
  0.3794993793882870  0.9951433084948167  0.2758993050897713   T   T   T
  0.8704602872004834  0.9948162128420958  0.2767578144709987   T   T   T
  0.3692042797201192  0.5053868437474915  0.2755928001304920   T   T   T
  0.8808089069737742  0.5051142540459496  0.2755378964792695   T   T   T
  0.9932144810851130  0.2472055694790623  0.2774408161801445   T   T   T
  0.4947234933226216  0.2608557108721979  0.2782735847728985   T   T   T
  0.9990129572931937  0.7524961958890131  0.2757454078341605   T   T   T
  0.5070431621700030  0.7314815747534273  0.2778405766184288   T   T   T
  0.2569393064474498  0.2477056610355810  0.2768592090395647   T   T   T
  0.7552470560005641  0.2612455259087793  0.2796482416773841   T   T   T
  0.2510836469748361  0.7519229990643054  0.2751658076240360   T   T   T
  0.7425481702306082  0.7303194129140175  0.2791580834897870   T   T   T
  0.3699619361081878  0.5036493030623795  0.3794151748080046   T   T   T
 
  0.00000000E+00  0.00000000E+00  0.00000000E+00
  0.00000000E+00  0.00000000E+00  0.00000000E+00
  0.00000000E+00  0.00000000E+00  0.00000000E+00
  0.00000000E+00  0.00000000E+00  0.00000000E+00
  0.00000000E+00  0.00000000E+00  0.00000000E+00
  0.00000000E+00  0.00000000E+00  0.00000000E+00
  0.00000000E+00  0.00000000E+00  0.00000000E+00
  0.00000000E+00  0.00000000E+00  0.00000000E+00
  0.00000000E+00  0.00000000E+00  0.00000000E+00
  0.00000000E+00  0.00000000E+00  0.00000000E+00
  0.00000000E+00  0.00000000E+00  0.00000000E+00
  0.00000000E+00  0.00000000E+00  0.00000000E+00
  0.00000000E+00  0.00000000E+00  0.00000000E+00
  0.00000000E+00  0.00000000E+00  0.00000000E+00
  0.00000000E+00  0.00000000E+00  0.00000000E+00
  0.00000000E+00  0.00000000E+00  0.00000000E+00
  0.00000000E+00  0.00000000E+00  0.00000000E+00
  0.00000000E+00  0.00000000E+00  0.00000000E+00
  0.00000000E+00  0.00000000E+00  0.00000000E+00
  0.00000000E+00  0.00000000E+00  0.00000000E+00
  0.00000000E+00  0.00000000E+00  0.00000000E+00
  0.00000000E+00  0.00000000E+00  0.00000000E+00
  0.00000000E+00  0.00000000E+00  0.00000000E+00
  0.00000000E+00  0.00000000E+00  0.00000000E+00
  0.00000000E+00  0.00000000E+00  0.00000000E+00
  0.00000000E+00  0.00000000E+00  0.00000000E+00
  0.00000000E+00  0.00000000E+00  0.00000000E+00
  0.00000000E+00  0.00000000E+00  0.00000000E+00
  0.00000000E+00  0.00000000E+00  0.00000000E+00
  0.00000000E+00  0.00000000E+00  0.00000000E+00
  0.00000000E+00  0.00000000E+00  0.00000000E+00
  0.00000000E+00  0.00000000E+00  0.00000000E+00
  0.00000000E+00  0.00000000E+00  0.00000000E+00
  0.00000000E+00  0.00000000E+00  0.00000000E+00
  0.00000000E+00  0.00000000E+00  0.00000000E+00
  0.00000000E+00  0.00000000E+00  0.00000000E+00
  0.00000000E+00  0.00000000E+00  0.00000000E+00
  0.00000000E+00  0.00000000E+00  0.00000000E+00
  0.00000000E+00  0.00000000E+00  0.00000000E+00
  0.00000000E+00  0.00000000E+00  0.00000000E+00
  0.00000000E+00  0.00000000E+00  0.00000000E+00
  0.00000000E+00  0.00000000E+00  0.00000000E+00
  0.00000000E+00  0.00000000E+00  0.00000000E+00
  0.00000000E+00  0.00000000E+00  0.00000000E+00
  0.00000000E+00  0.00000000E+00  0.00000000E+00
  0.00000000E+00  0.00000000E+00  0.00000000E+00
  0.00000000E+00  0.00000000E+00  0.00000000E+00
  0.00000000E+00  0.00000000E+00  0.00000000E+00
  0.00000000E+00  0.00000000E+00  0.00000000E+00
  0.00000000E+00  0.00000000E+00  0.00000000E+00
  0.00000000E+00  0.00000000E+00  0.00000000E+00
  0.00000000E+00  0.00000000E+00  0.00000000E+00
  0.00000000E+00  0.00000000E+00  0.00000000E+00
  0.00000000E+00  0.00000000E+00  0.00000000E+00
  0.00000000E+00  0.00000000E+00  0.00000000E+00
  0.00000000E+00  0.00000000E+00  0.00000000E+00
  0.00000000E+00  0.00000000E+00  0.00000000E+00
  0.00000000E+00  0.00000000E+00  0.00000000E+00
  0.00000000E+00  0.00000000E+00  0.00000000E+00
  0.00000000E+00  0.00000000E+00  0.00000000E+00
  0.00000000E+00  0.00000000E+00  0.00000000E+00
  0.00000000E+00  0.00000000E+00  0.00000000E+00
  0.00000000E+00  0.00000000E+00  0.00000000E+00
  0.00000000E+00  0.00000000E+00  0.00000000E+00
  0.00000000E+00  0.00000000E+00  0.00000000E+00
  0.00000000E+00  0.00000000E+00  0.00000000E+00
  0.00000000E+00  0.00000000E+00  0.00000000E+00
  0.00000000E+00  0.00000000E+00  0.00000000E+00
  0.00000000E+00  0.00000000E+00  0.00000000E+00
  0.00000000E+00  0.00000000E+00  0.00000000E+00
  0.00000000E+00  0.00000000E+00  0.00000000E+00
  0.00000000E+00  0.00000000E+00  0.00000000E+00
  0.00000000E+00  0.00000000E+00  0.00000000E+00
  0.00000000E+00  0.00000000E+00  0.00000000E+00
  0.00000000E+00  0.00000000E+00  0.00000000E+00
  0.00000000E+00  0.00000000E+00  0.00000000E+00
  0.00000000E+00  0.00000000E+00  0.00000000E+00
  0.00000000E+00  0.00000000E+00  0.00000000E+00
  0.00000000E+00  0.00000000E+00  0.00000000E+00
  0.00000000E+00  0.00000000E+00  0.00000000E+00
  0.00000000E+00  0.00000000E+00  0.00000000E+00
  0.00000000E+00  0.00000000E+00  0.00000000E+00
  0.00000000E+00  0.00000000E+00  0.00000000E+00
  0.00000000E+00  0.00000000E+00  0.00000000E+00
  0.00000000E+00  0.00000000E+00  0.00000000E+00
  0.00000000E+00  0.00000000E+00  0.00000000E+00
  0.00000000E+00  0.00000000E+00  0.00000000E+00
  0.00000000E+00  0.00000000E+00  0.00000000E+00
  0.00000000E+00  0.00000000E+00  0.00000000E+00
  0.00000000E+00  0.00000000E+00  0.00000000E+00
  0.00000000E+00  0.00000000E+00  0.00000000E+00
  0.00000000E+00  0.00000000E+00  0.00000000E+00
  0.00000000E+00  0.00000000E+00  0.00000000E+00
  0.00000000E+00  0.00000000E+00  0.00000000E+00
  0.00000000E+00  0.00000000E+00  0.00000000E+00
  0.00000000E+00  0.00000000E+00  0.00000000E+00
  0.00000000E+00  0.00000000E+00  0.00000000E+00
  0.00000000E+00  0.00000000E+00  0.00000000E+00
  0.00000000E+00  0.00000000E+00  0.00000000E+00
  0.00000000E+00  0.00000000E+00  0.00000000E+00
  0.00000000E+00  0.00000000E+00  0.00000000E+00
  0.00000000E+00  0.00000000E+00  0.00000000E+00
  0.00000000E+00  0.00000000E+00  0.00000000E+00
  0.00000000E+00  0.00000000E+00  0.00000000E+00
  0.00000000E+00  0.00000000E+00  0.00000000E+00
  0.00000000E+00  0.00000000E+00  0.00000000E+00
  0.00000000E+00  0.00000000E+00  0.00000000E+00
  0.00000000E+00  0.00000000E+00  0.00000000E+00
  0.00000000E+00  0.00000000E+00  0.00000000E+00
  0.00000000E+00  0.00000000E+00  0.00000000E+00
  0.00000000E+00  0.00000000E+00  0.00000000E+00
  0.00000000E+00  0.00000000E+00  0.00000000E+00
  0.00000000E+00  0.00000000E+00  0.00000000E+00
  0.00000000E+00  0.00000000E+00  0.00000000E+00
  0.00000000E+00  0.00000000E+00  0.00000000E+00
  0.00000000E+00  0.00000000E+00  0.00000000E+00
  0.00000000E+00  0.00000000E+00  0.00000000E+00
  0.00000000E+00  0.00000000E+00  0.00000000E+00
  0.00000000E+00  0.00000000E+00  0.00000000E+00
  0.00000000E+00  0.00000000E+00  0.00000000E+00
  0.00000000E+00  0.00000000E+00  0.00000000E+00
  0.00000000E+00  0.00000000E+00  0.00000000E+00
  0.00000000E+00  0.00000000E+00  0.00000000E+00
  0.00000000E+00  0.00000000E+00  0.00000000E+00
  0.00000000E+00  0.00000000E+00  0.00000000E+00
  0.00000000E+00  0.00000000E+00  0.00000000E+00
  0.00000000E+00  0.00000000E+00  0.00000000E+00
  0.00000000E+00  0.00000000E+00  0.00000000E+00
