Mg Na O Au                              
   1.00000000000000     
    16.8282433949600012    0.0000000000000000    0.0000000000000000
     0.0000000000000000    8.4141216974800006    0.0000000000000000
     0.0000000000000000    0.0000000000000000   23.4141216974799988
   Mg   Na   O    Au
    62     2    63     1
Selective dynamics
Direct
  0.1249397409111694  0.9996771551790324  0.0050064893687525   T   T   T
  0.6250591363001483  0.9998074779092354  0.0040538194778414   T   T   T
  0.1248615452014118  0.5001654960089675  0.0045532048113269   T   T   T
  0.6251323908431686  0.5001334221662488  0.0029861722590065   T   T   T
  0.3746273665249711 -0.0001014847350112  0.0048800403168271   T   T   T
  0.8753679702035726 -0.0000402106568089  0.0051012213482662   T   T   T
  0.3742750482337563  0.4997873439355310  0.0042061436356034   T   T   T
  0.8757112172972964  0.4997618135330553  0.0045032056799026   T   T   T
  0.0000854562268679  0.2494768579426124  0.0049885149698421   T   T   T
  0.4995222499641484  0.2492732887822489  0.0042603362334995   T   T   T
  0.0002390564551423  0.7503033834020983  0.0051126616492995   T   T   T
  0.4996778314214967  0.7504379583020350  0.0042897528463331   T   T   T
  0.2497644754646766  0.2494467361302150  0.0048796913906160   T   T   T
  0.7506253774323473  0.2493421695267810  0.0043875935298770   T   T   T
  0.2496354718907375  0.7503203913379273  0.0050167331422226   T   T   T
  0.7504545910052264  0.7503813289216474  0.0044111642926414   T   T   T
  0.0005045502541794  0.0006691443223442  0.0948990058117543   T   T   T
  0.5001204656871178  0.0003185279640819  0.0942926351926476   T   T   T
  0.0010078110706368  0.4990355850735136  0.0942852674951268   T   T   T
  0.4991398021793089  0.4992422292874086  0.0922527505313806   T   T   T
  0.2493254295523847  0.0005813523092131  0.0948151905872028   T   T   T
  0.7500617095685027  0.0003842951241313  0.0944023125031835   T   T   T
  0.2485982636314566  0.4990795092575702  0.0940178442390428   T   T   T
  0.7512188122159194  0.4992096252726632  0.0925855498406090   T   T   T
  0.1248655847698568  0.2495650703094195  0.0942214832158435   T   T   T
  0.6251236155819424  0.2483576660775968  0.0925741206628025   T   T   T
  0.1248909310841594  0.7502413801351544  0.0948006211683648   T   T   T
  0.6251219827683003  0.7518137311969723  0.0928791299718971   T   T   T
  0.3746358009854805  0.2489730108814654  0.0943528999919466   T   T   T
  0.8754152578481108  0.2491913583465890  0.0948179781005424   T   T   T
  0.3747302537367807  0.7504688380345343  0.0940549394829067   T   T   T
  0.8753088502276402  0.7503623917377947  0.0944333785585597   T   T   T
  0.1249225818034390  0.0046826550227509  0.1869191283908951   T   T   T
  0.6251558986301562  0.0098276008403330  0.1857491889901597   T   T   T
  0.1245872357805657  0.4952795765223066  0.1861900580561867   T   T   T
  0.6251316453929480  0.4957280782006499  0.1761059016681283   T   T   T
  0.3749389490687619  0.0003836225903281  0.1847846815820376   T   T   T
  0.8750850036433413  0.0004874440537737  0.1852160673442687   T   T   T
  0.3717965809687157  0.4985201430286836  0.1820044866330148   T   T   T
  0.8785403222839612  0.4987725221273902  0.1837481199475839   T   T   T
  0.0033401381405437  0.2490970827788955  0.1871432783506116   T   T   T
  0.5019639099350929  0.2513209559058477  0.1858402710112301   T   T   T
  0.0015199504787450  0.7505011916702863  0.1851688121638726   T   T   T
  0.5006377462950481  0.7483784057074125  0.1846108374815308   T   T   T
  0.2467118749931536  0.2492234879824543  0.1868599882084624   T   T   T
  0.7481490926672418  0.2514973833707053  0.1860279026589099   T   T   T
  0.2484054784814788  0.7502350024608673  0.1851244015264113   T   T   T
  0.7495346911230217  0.7483347103727369  0.1847094006234326   T   T   T
  0.0029956245289212  0.0019217863126813  0.2745887320363962   T   T   T
  0.5013106559250331  0.0074833002464418  0.2745096957170663   T   T   T
  0.0032671793751646  0.4972948636770930  0.2742715272418840   T   T   T
  0.4850472430117403  0.4971478217661138  0.2728452691557263   T   T   T
  0.2462696709809351  0.0017182958921230  0.2744395348557348   T   T   T
  0.7492289035431938  0.0083556651255480  0.2748522270428442   T   T   T
  0.2438257089576794  0.4970138796110296  0.2743084149964317   T   T   T
  0.7668360561997793  0.4972581604976298  0.2726546168410509   T   T   T
  0.1246309114354711  0.7507704474927934  0.2745690690503930   T   T   T
  0.6250994464433444  0.7694494126665272  0.2726821298370457   T   T   T
  0.3732050086416505  0.2412231995243565  0.2749208984913666   T   T   T
  0.8769797135550986  0.2466604128808072  0.2747146280352366   T   T   T
  0.3708359375609485  0.7561575490804464  0.2746541145278305   T   T   T
  0.8792889699264099  0.7517752158718616  0.2741330101589709   T   T   T
  0.1249091263193661  0.2493050052836374  0.3007619482910855   T   T   T
  0.6248382433606574  0.2455455727506501  0.3015532258099659   T   T   T
  0.9995782268850006  0.9996842653824394  0.0027291385967287   T   T   T
  0.5002342974521508  0.9996471919766780  0.0027588847914462   T   T   T
  0.9996409119074993  0.5001031324187866  0.0023524802521685   T   T   T
  0.4999128124067234  0.5000704031975640  0.0017286114479558   T   T   T
  0.2504376869379588  0.9996786226182809  0.0027291279411265   T   T   T
  0.7497490648067888  0.9996670848855804  0.0027843026578056   T   T   T
  0.2502954957998916  0.5001016603293110  0.0022756152144727   T   T   T
  0.7501446417325747  0.5000667179233992  0.0018739525018891   T   T   T
  0.1250041024586759  0.2497249163469811  0.0022386899300792   T   T   T
  0.6249903390980465  0.2492984116002982  0.0017782369816714   T   T   T
  0.1250152682069697  0.7501097861587527  0.0023523138821741   T   T   T
  0.6249866042899198  0.7506523367195009  0.0017894371123564   T   T   T
  0.3753673916648216  0.2496287412275535  0.0023807478047371   T   T   T
  0.8746376881014786  0.2497416900616795  0.0025384312243766   T   T   T
  0.3754085359021100  0.7500656736370417  0.0026415535018296   T   T   T
  0.8745997002872239  0.7499760681841312  0.0028105972885592   T   T   T
  0.1250011721219022  0.9989682500143328  0.0940455605791711   T   T   T
  0.6250529462507814  0.9990895646182093  0.0949503784418000   T   T   T
  0.1250150433894141  0.5008702153150050  0.0935700156771309   T   T   T
  0.6249735752224699  0.5012484557084500  0.0916131315339255   T   T   T
  0.3760243218925352  0.9992937631464331  0.0949303904536321   T   T   T
  0.8739811341687422  0.9994117358200986  0.0950350166486813   T   T   T
  0.3756433395121432  0.5001749947185558  0.0941066830124695   T   T   T
  0.8743981385498719  0.5001736785141394  0.0946042269790467   T   T   T
  0.9989776526478530  0.2496975705001409  0.0941266396935924   T   T   T
  0.5003084712301279  0.2504458640978612  0.0942279958282759   T   T   T
  0.9992049879903963  0.7500073943511748  0.0946188020075005   T   T   T
  0.5007635920646779  0.7490935123440552  0.0947648573347991   T   T   T
  0.2510532986152868  0.2499001867591925  0.0940391095658561   T   T   T
  0.7497164157666444  0.2503330615237656  0.0943507387848790   T   T   T
  0.2508415061506078  0.7497578489393801  0.0945838383661029   T   T   T
  0.7492459735806950  0.7492479086767562  0.0948485344519486   T   T   T
  0.9989879944677554  0.0000361508773418  0.1847187609836999   T   T   T
  0.5017663054373895  0.9993736158379807  0.1858619558618214   T   T   T
  0.0004279721814240  0.4995760932151376  0.1840244363440465   T   T   T
  0.5018846543420497  0.4994778511530591  0.1859816624071271   T   T   T
  0.2511512798929306 -0.0000883395544028  0.1845835194304753   T   T   T
  0.7482317718496144  0.9995380189007995  0.1862291981578424   T   T   T
  0.2499364207778117  0.4995710844498428  0.1842008953995857   T   T   T
  0.7476243859679444  0.4994309570822810  0.1860174770142366   T   T   T
  0.1250533684031739  0.2497305008963862  0.1806595537457875   T   T   T
  0.6250608672460430  0.2562249660452665  0.1819549240947143   T   T   T
  0.1249913371250268  0.7502396013569985  0.1833231904067379   T   T   T
  0.6251279115446180  0.7421965204692285  0.1856453330340208   T   T   T
  0.3766818084740263  0.2512002128662432  0.1844348270756119   T   T   T
  0.8732389553051891  0.2500885568166936  0.1845834438374915   T   T   T
  0.3769333055407998  0.7477072071199070  0.1849639586987442   T   T   T
  0.8730293840156297  0.7492732447365184  0.1848364612763457   T   T   T
  0.1249222047627481  0.9863964331335202  0.2770380268804258   T   T   T
  0.6251584367035659  0.9954966277410476  0.2774952109203168   T   T   T
  0.1242241830947168  0.5140123341972506  0.2767025071571698   T   T   T
  0.3796878313618435  0.9953390585098810  0.2761302300401300   T   T   T
  0.8704281248644127  0.9948099741518314  0.2767485372697729   T   T   T
  0.3689402745756896  0.5054348789983142  0.2754083414742400   T   T   T
  0.8807970178498939  0.5051348102700937  0.2755163159177600   T   T   T
  0.9931823087742284  0.2471726913606943  0.2774087683848622   T   T   T
  0.4948099500265886  0.2606849285166646  0.2780752744026944   T   T   T
  0.9989591675051692  0.7526013403760184  0.2757023341004169   T   T   T
  0.5072189153534078  0.7315403273655525  0.2777137886399789   T   T   T
  0.2568196166240707  0.2475109169305238  0.2765866934869504   T   T   T
  0.7552467417735826  0.2612926221826620  0.2796311275186072   T   T   T
  0.2509261094701139  0.7520617350157013  0.2750411340263936   T   T   T
  0.7424958488659280  0.7301765794335434  0.2791356474158113   T   T   T
  0.3709322433491116  0.5057061527614577  0.3740716290245148   T   T   T
 
  0.00000000E+00  0.00000000E+00  0.00000000E+00
  0.00000000E+00  0.00000000E+00  0.00000000E+00
  0.00000000E+00  0.00000000E+00  0.00000000E+00
  0.00000000E+00  0.00000000E+00  0.00000000E+00
  0.00000000E+00  0.00000000E+00  0.00000000E+00
  0.00000000E+00  0.00000000E+00  0.00000000E+00
  0.00000000E+00  0.00000000E+00  0.00000000E+00
  0.00000000E+00  0.00000000E+00  0.00000000E+00
  0.00000000E+00  0.00000000E+00  0.00000000E+00
  0.00000000E+00  0.00000000E+00  0.00000000E+00
  0.00000000E+00  0.00000000E+00  0.00000000E+00
  0.00000000E+00  0.00000000E+00  0.00000000E+00
  0.00000000E+00  0.00000000E+00  0.00000000E+00
  0.00000000E+00  0.00000000E+00  0.00000000E+00
  0.00000000E+00  0.00000000E+00  0.00000000E+00
  0.00000000E+00  0.00000000E+00  0.00000000E+00
  0.00000000E+00  0.00000000E+00  0.00000000E+00
  0.00000000E+00  0.00000000E+00  0.00000000E+00
  0.00000000E+00  0.00000000E+00  0.00000000E+00
  0.00000000E+00  0.00000000E+00  0.00000000E+00
  0.00000000E+00  0.00000000E+00  0.00000000E+00
  0.00000000E+00  0.00000000E+00  0.00000000E+00
  0.00000000E+00  0.00000000E+00  0.00000000E+00
  0.00000000E+00  0.00000000E+00  0.00000000E+00
  0.00000000E+00  0.00000000E+00  0.00000000E+00
  0.00000000E+00  0.00000000E+00  0.00000000E+00
  0.00000000E+00  0.00000000E+00  0.00000000E+00
  0.00000000E+00  0.00000000E+00  0.00000000E+00
  0.00000000E+00  0.00000000E+00  0.00000000E+00
  0.00000000E+00  0.00000000E+00  0.00000000E+00
  0.00000000E+00  0.00000000E+00  0.00000000E+00
  0.00000000E+00  0.00000000E+00  0.00000000E+00
  0.00000000E+00  0.00000000E+00  0.00000000E+00
  0.00000000E+00  0.00000000E+00  0.00000000E+00
  0.00000000E+00  0.00000000E+00  0.00000000E+00
  0.00000000E+00  0.00000000E+00  0.00000000E+00
  0.00000000E+00  0.00000000E+00  0.00000000E+00
  0.00000000E+00  0.00000000E+00  0.00000000E+00
  0.00000000E+00  0.00000000E+00  0.00000000E+00
  0.00000000E+00  0.00000000E+00  0.00000000E+00
  0.00000000E+00  0.00000000E+00  0.00000000E+00
  0.00000000E+00  0.00000000E+00  0.00000000E+00
  0.00000000E+00  0.00000000E+00  0.00000000E+00
  0.00000000E+00  0.00000000E+00  0.00000000E+00
  0.00000000E+00  0.00000000E+00  0.00000000E+00
  0.00000000E+00  0.00000000E+00  0.00000000E+00
  0.00000000E+00  0.00000000E+00  0.00000000E+00
  0.00000000E+00  0.00000000E+00  0.00000000E+00
  0.00000000E+00  0.00000000E+00  0.00000000E+00
  0.00000000E+00  0.00000000E+00  0.00000000E+00
  0.00000000E+00  0.00000000E+00  0.00000000E+00
  0.00000000E+00  0.00000000E+00  0.00000000E+00
  0.00000000E+00  0.00000000E+00  0.00000000E+00
  0.00000000E+00  0.00000000E+00  0.00000000E+00
  0.00000000E+00  0.00000000E+00  0.00000000E+00
  0.00000000E+00  0.00000000E+00  0.00000000E+00
  0.00000000E+00  0.00000000E+00  0.00000000E+00
  0.00000000E+00  0.00000000E+00  0.00000000E+00
  0.00000000E+00  0.00000000E+00  0.00000000E+00
  0.00000000E+00  0.00000000E+00  0.00000000E+00
  0.00000000E+00  0.00000000E+00  0.00000000E+00
  0.00000000E+00  0.00000000E+00  0.00000000E+00
  0.00000000E+00  0.00000000E+00  0.00000000E+00
  0.00000000E+00  0.00000000E+00  0.00000000E+00
  0.00000000E+00  0.00000000E+00  0.00000000E+00
  0.00000000E+00  0.00000000E+00  0.00000000E+00
  0.00000000E+00  0.00000000E+00  0.00000000E+00
  0.00000000E+00  0.00000000E+00  0.00000000E+00
  0.00000000E+00  0.00000000E+00  0.00000000E+00
  0.00000000E+00  0.00000000E+00  0.00000000E+00
  0.00000000E+00  0.00000000E+00  0.00000000E+00
  0.00000000E+00  0.00000000E+00  0.00000000E+00
  0.00000000E+00  0.00000000E+00  0.00000000E+00
  0.00000000E+00  0.00000000E+00  0.00000000E+00
  0.00000000E+00  0.00000000E+00  0.00000000E+00
  0.00000000E+00  0.00000000E+00  0.00000000E+00
  0.00000000E+00  0.00000000E+00  0.00000000E+00
  0.00000000E+00  0.00000000E+00  0.00000000E+00
  0.00000000E+00  0.00000000E+00  0.00000000E+00
  0.00000000E+00  0.00000000E+00  0.00000000E+00
  0.00000000E+00  0.00000000E+00  0.00000000E+00
  0.00000000E+00  0.00000000E+00  0.00000000E+00
  0.00000000E+00  0.00000000E+00  0.00000000E+00
  0.00000000E+00  0.00000000E+00  0.00000000E+00
  0.00000000E+00  0.00000000E+00  0.00000000E+00
  0.00000000E+00  0.00000000E+00  0.00000000E+00
  0.00000000E+00  0.00000000E+00  0.00000000E+00
  0.00000000E+00  0.00000000E+00  0.00000000E+00
  0.00000000E+00  0.00000000E+00  0.00000000E+00
  0.00000000E+00  0.00000000E+00  0.00000000E+00
  0.00000000E+00  0.00000000E+00  0.00000000E+00
  0.00000000E+00  0.00000000E+00  0.00000000E+00
  0.00000000E+00  0.00000000E+00  0.00000000E+00
  0.00000000E+00  0.00000000E+00  0.00000000E+00
  0.00000000E+00  0.00000000E+00  0.00000000E+00
  0.00000000E+00  0.00000000E+00  0.00000000E+00
  0.00000000E+00  0.00000000E+00  0.00000000E+00
  0.00000000E+00  0.00000000E+00  0.00000000E+00
  0.00000000E+00  0.00000000E+00  0.00000000E+00
  0.00000000E+00  0.00000000E+00  0.00000000E+00
  0.00000000E+00  0.00000000E+00  0.00000000E+00
  0.00000000E+00  0.00000000E+00  0.00000000E+00
  0.00000000E+00  0.00000000E+00  0.00000000E+00
  0.00000000E+00  0.00000000E+00  0.00000000E+00
  0.00000000E+00  0.00000000E+00  0.00000000E+00
  0.00000000E+00  0.00000000E+00  0.00000000E+00
  0.00000000E+00  0.00000000E+00  0.00000000E+00
  0.00000000E+00  0.00000000E+00  0.00000000E+00
  0.00000000E+00  0.00000000E+00  0.00000000E+00
  0.00000000E+00  0.00000000E+00  0.00000000E+00
  0.00000000E+00  0.00000000E+00  0.00000000E+00
  0.00000000E+00  0.00000000E+00  0.00000000E+00
  0.00000000E+00  0.00000000E+00  0.00000000E+00
  0.00000000E+00  0.00000000E+00  0.00000000E+00
  0.00000000E+00  0.00000000E+00  0.00000000E+00
  0.00000000E+00  0.00000000E+00  0.00000000E+00
  0.00000000E+00  0.00000000E+00  0.00000000E+00
  0.00000000E+00  0.00000000E+00  0.00000000E+00
  0.00000000E+00  0.00000000E+00  0.00000000E+00
  0.00000000E+00  0.00000000E+00  0.00000000E+00
  0.00000000E+00  0.00000000E+00  0.00000000E+00
  0.00000000E+00  0.00000000E+00  0.00000000E+00
  0.00000000E+00  0.00000000E+00  0.00000000E+00
  0.00000000E+00  0.00000000E+00  0.00000000E+00
  0.00000000E+00  0.00000000E+00  0.00000000E+00
  0.00000000E+00  0.00000000E+00  0.00000000E+00
  0.00000000E+00  0.00000000E+00  0.00000000E+00
  0.00000000E+00  0.00000000E+00  0.00000000E+00
