Mg Na O Ni                              
   1.00000000000000     
    16.8282433949600012    0.0000000000000000    0.0000000000000000
     0.0000000000000000    8.4141216974800006    0.0000000000000000
     0.0000000000000000    0.0000000000000000   23.4141216974799988
   Mg   Na   O    Ni
    62     2    63     1
Selective dynamics
Direct
  0.1249623035665683  0.9997070665647875  0.0050451869687474   T   T   T
  0.6250331032920621  0.9998055638365054  0.0041346856560239   T   T   T
  0.1249707539455813  0.5001805573393460  0.0046766332332259   T   T   T
  0.6250477285772689  0.5001149110217044  0.0031182240082418   T   T   T
  0.3746415837219864 -0.0000782052010057  0.0050816912047394   T   T   T
  0.8753566806953350 -0.0000272307719932  0.0051021621465282   T   T   T
  0.3742691918060973  0.4997876218659567  0.0043751184843359   T   T   T
  0.8757040447562808  0.4997700708269608  0.0045646437620064   T   T   T
  0.0000904824199101  0.2495682087962555  0.0050104550663242   T   T   T
  0.4994495257397770  0.2493377901684632  0.0044028764963347   T   T   T
  0.0002439155609620  0.7502438496993934  0.0051273489502603   T   T   T
  0.4996080685418479  0.7503702002688790  0.0044328779004245   T   T   T
  0.2498573564303748  0.2495843515400953  0.0050022326407995   T   T   T
  0.7505964045217863  0.2494006165418240  0.0044289664769264   T   T   T
  0.2497236536119178  0.7502175884148906  0.0051360937311237   T   T   T
  0.7504301950938683  0.7503259887499797  0.0044501053063844   T   T   T
  0.0005101871073677  0.0006803291203710  0.0949007980441777   T   T   T
  0.5000438948271017  0.0003195683106342  0.0944922853800853   T   T   T
  0.0011099605979553  0.4990504578942784  0.0943469365504296   T   T   T
  0.4990228716407384  0.4992217686633469  0.0924403186639398   T   T   T
  0.2493900307449611  0.0006059644724459  0.0949462779073017   T   T   T
  0.7500578317331740  0.0003883060026739  0.0944142521931301   T   T   T
  0.2487506723433450  0.4990895254703571  0.0943434902291388   T   T   T
  0.7511292110174332  0.4991941818647663  0.0926768263638103   T   T   T
  0.1249885717281772  0.2496339584430022  0.0943230103266570   T   T   T
  0.6249898965733897  0.2484099073723995  0.0926964878318059   T   T   T
  0.1250062949306935  0.7502132256040267  0.0948827055571673   T   T   T
  0.6249921531337576  0.7517385634084811  0.0930083549599056   T   T   T
  0.3746269007485504  0.2489844071446372  0.0947310798227568   T   T   T
  0.8754099294666797  0.2492356651883104  0.0948130984135133   T   T   T
  0.3747381326833593  0.7504598499785963  0.0944027004032033   T   T   T
  0.8753132830271281  0.7503330379027960  0.0944141367586969   T   T   T
  0.1249416350066361  0.0047267196407360  0.1868555391139849   T   T   T
  0.6250706520908689  0.0098909412101192  0.1857171291957684   T   T   T
  0.1247171420758498  0.4953328041162182  0.1863136116847602   T   T   T
  0.6248930321884600  0.4957119548745895  0.1763088143621294   T   T   T
  0.3749336459588724  0.0004378702102113  0.1851371519834185   T   T   T
  0.8750785644502782  0.0005011853687786  0.1851998034262733   T   T   T
  0.3720898420422800  0.4984723542720246  0.1825711741802712   T   T   T
  0.8785520667917721  0.4987635520649834  0.1837519726414253   T   T   T
  0.0033581278749232  0.2491272072756860  0.1871590920848751   T   T   T
  0.5017662740611811  0.2514788792825436  0.1863358944331846   T   T   T
  0.0015372043447252  0.7504919901368342  0.1851647875395167   T   T   T
  0.5004622265254468  0.7481125058744181  0.1850736262696041   T   T   T
  0.2469803777226523  0.2494344362873782  0.1871801860709303   T   T   T
  0.7480795832484104  0.2515184223706602  0.1860335361022852   T   T   T
  0.2486691256367555  0.7500189414512766  0.1854475036621940   T   T   T
  0.7495085101435240  0.7482701234657626  0.1846494118702700   T   T   T
  0.0028866268940183  0.0019295003452769  0.2745602115580681   T   T   T
  0.5016599659155883  0.0067531662316371  0.2743983090305548   T   T   T
  0.0031326717575379  0.4973663541308275  0.2743268039866941   T   T   T
  0.4864809591877705  0.4971240296548015  0.2743889601196313   T   T   T
  0.2458511333160358  0.0017192779775195  0.2742795494488484   T   T   T
  0.7492483609182733  0.0083448842973770  0.2748073630330317   T   T   T
  0.2427162606612742  0.4968183799146356  0.2750701547515205   T   T   T
  0.7667723808453476  0.4972239109696905  0.2726706467407247   T   T   T
  0.1244459529080803  0.7511302178311412  0.2744683537536370   T   T   T
  0.6253400689567731  0.7694992791666255  0.2725985366567539   T   T   T
  0.3733005309643652  0.2391634221960869  0.2761501822735540   T   T   T
  0.8769539402289238  0.2466497853782345  0.2747027483480987   T   T   T
  0.3707745711415218  0.7580804371252036  0.2760450662166703   T   T   T
  0.8792248259164559  0.7517921163523805  0.2740867185120781   T   T   T
  0.1247304836587010  0.2489096895993843  0.3002686410666257   T   T   T
  0.6248901997893855  0.2454824118958223  0.3012152736891852   T   T   T
  0.9995790913260706  0.9997038394283542  0.0027431993973091   T   T   T
  0.5002014647855139  0.9996538736340174  0.0028870701163945   T   T   T
  0.9997021176678252  0.5001180976453848  0.0024560680212360   T   T   T
  0.4998312405025943  0.5000642616421493  0.0018632891082366   T   T   T
  0.2504620886861104  0.9996932617411344  0.0028353126754978   T   T   T
  0.7497527436613622  0.9996758922869384  0.0028115200841593   T   T   T
  0.2503639149653712  0.5001179579101004  0.0023960723037671   T   T   T
  0.7500891394757044  0.5000582009815506  0.0019779036050869   T   T   T
  0.1250409289092234  0.2497923942006137  0.0023173973440036   T   T   T
  0.6249532690692122  0.2493362514846978  0.0018817472276123   T   T   T
  0.1250546203826691  0.7500846506599668  0.0024265207068405   T   T   T
  0.6249463954906590  0.7505975700046981  0.0018866705368167   T   T   T
  0.3753634152180223  0.2496677177313193  0.0025644853758283   T   T   T
  0.8746375370503127  0.2497745104373266  0.0025616482343465   T   T   T
  0.3753985134492880  0.7500430149337478  0.0028209020957296   T   T   T
  0.8746057439419526  0.7499616027204643  0.0028244651213831   T   T   T
  0.1250307966369718  0.9989925026904219  0.0941023906740168   T   T   T
  0.6250102706132972  0.9990980355649145  0.0949945955631769   T   T   T
  0.1251554765740693  0.5008852920375509  0.0937321465841156   T   T   T
  0.6248041557911557  0.5012012002536919  0.0917921752276862   T   T   T
  0.3759827496994996  0.9992718355870508  0.0952051065037601   T   T   T
  0.8740097237732729  0.9994321468650128  0.0950394902125682   T   T   T
  0.3756171199112732  0.5002328776612689  0.0944899229826116   T   T   T
  0.8744196877063817  0.5001638276939401  0.0946828668438360   T   T   T
  0.9990253347310545  0.2497785010697027  0.0941905776769760   T   T   T
  0.5001526161010326  0.2506471798085660  0.0944637325721958   T   T   T
  0.9992498810842018  0.7499510787545821  0.0946670475955021   T   T   T
  0.5006062709538912  0.7488580946071722  0.0950089609655554   T   T   T
  0.2511189790146396  0.2500698174885498  0.0942303443324607   T   T   T
  0.7497036296259749  0.2503826033226761  0.0943983096956597   T   T   T
  0.2509256378790264  0.7495887323746701  0.0947934460449256   T   T   T
  0.7492564558537358  0.7491861570676017  0.0948617462475240   T   T   T
  0.9990021805637895  0.0000529462593691  0.1847246457680154   T   T   T
  0.5016474641864113  0.9992742225359679  0.1858439236297993   T   T   T
  0.0004944059943054  0.4995785993690866  0.1840945360888410   T   T   T
  0.5016841201456806  0.4994531351723216  0.1867643804991493   T   T   T
  0.2511449599192966 -0.0000902161293599  0.1846220054385369   T   T   T
  0.7482605266457540  0.9995209518832562  0.1861957272735361   T   T   T
  0.2501699146806995  0.4995462074797502  0.1848731159562144   T   T   T
  0.7476001805363018  0.4994045797895679  0.1860191188115916   T   T   T
  0.1250913640589389  0.2498425630729704  0.1808060292283940   T   T   T
  0.6250461789799293  0.2561828398402776  0.1819797815197384   T   T   T
  0.1249858268150271  0.7501183445067306  0.1833867149404010   T   T   T
  0.6252081116041391  0.7421639170284748  0.1855558618756735   T   T   T
  0.3765355358712520  0.2515623422222062  0.1850072312329819   T   T   T
  0.8732580964064125  0.2501746864190446  0.1846048335170205   T   T   T
  0.3768378665731311  0.7472693639913695  0.1857297338892805   T   T   T
  0.8730570387981198  0.7491950411473246  0.1848390148694698   T   T   T
  0.1246359810955129  0.9865413601603114  0.2770415420224091   T   T   T
  0.6255623837838180  0.9954771443805889  0.2774049817682970   T   T   T
  0.1236294811917774  0.5142454966987644  0.2771055573834618   T   T   T
  0.3796222772397751  0.9957500492422681  0.2766146110306993   T   T   T
  0.8704460255856497  0.9947773018337479  0.2767802822220765   T   T   T
  0.3689495834040321  0.5050028821853826  0.2773788346696455   T   T   T
  0.8807324048165782  0.5051421462623595  0.2755544985375145   T   T   T
  0.9930790390021590  0.2471941405395942  0.2774746768089707   T   T   T
  0.4951729855193684  0.2590428101944125  0.2778882446869483   T   T   T
  0.9988668716276471  0.7526478531506153  0.2757364707673241   T   T   T
  0.5076705884511504  0.7334858155507256  0.2775396831625221   T   T   T
  0.2565610938047328  0.2469632333367643  0.2767478458546254   T   T   T
  0.7553420461325031  0.2612987932113472  0.2796931799449178   T   T   T
  0.2505142943470028  0.7526042876816377  0.2751659620838419   T   T   T
  0.7427280544302037  0.7302273292789072  0.2791747362576649   T   T   T
  0.3714189300574094  0.5060180892033477  0.3544729152868613   T   T   T
 
  0.00000000E+00  0.00000000E+00  0.00000000E+00
  0.00000000E+00  0.00000000E+00  0.00000000E+00
  0.00000000E+00  0.00000000E+00  0.00000000E+00
  0.00000000E+00  0.00000000E+00  0.00000000E+00
  0.00000000E+00  0.00000000E+00  0.00000000E+00
  0.00000000E+00  0.00000000E+00  0.00000000E+00
  0.00000000E+00  0.00000000E+00  0.00000000E+00
  0.00000000E+00  0.00000000E+00  0.00000000E+00
  0.00000000E+00  0.00000000E+00  0.00000000E+00
  0.00000000E+00  0.00000000E+00  0.00000000E+00
  0.00000000E+00  0.00000000E+00  0.00000000E+00
  0.00000000E+00  0.00000000E+00  0.00000000E+00
  0.00000000E+00  0.00000000E+00  0.00000000E+00
  0.00000000E+00  0.00000000E+00  0.00000000E+00
  0.00000000E+00  0.00000000E+00  0.00000000E+00
  0.00000000E+00  0.00000000E+00  0.00000000E+00
  0.00000000E+00  0.00000000E+00  0.00000000E+00
  0.00000000E+00  0.00000000E+00  0.00000000E+00
  0.00000000E+00  0.00000000E+00  0.00000000E+00
  0.00000000E+00  0.00000000E+00  0.00000000E+00
  0.00000000E+00  0.00000000E+00  0.00000000E+00
  0.00000000E+00  0.00000000E+00  0.00000000E+00
  0.00000000E+00  0.00000000E+00  0.00000000E+00
  0.00000000E+00  0.00000000E+00  0.00000000E+00
  0.00000000E+00  0.00000000E+00  0.00000000E+00
  0.00000000E+00  0.00000000E+00  0.00000000E+00
  0.00000000E+00  0.00000000E+00  0.00000000E+00
  0.00000000E+00  0.00000000E+00  0.00000000E+00
  0.00000000E+00  0.00000000E+00  0.00000000E+00
  0.00000000E+00  0.00000000E+00  0.00000000E+00
  0.00000000E+00  0.00000000E+00  0.00000000E+00
  0.00000000E+00  0.00000000E+00  0.00000000E+00
  0.00000000E+00  0.00000000E+00  0.00000000E+00
  0.00000000E+00  0.00000000E+00  0.00000000E+00
  0.00000000E+00  0.00000000E+00  0.00000000E+00
  0.00000000E+00  0.00000000E+00  0.00000000E+00
  0.00000000E+00  0.00000000E+00  0.00000000E+00
  0.00000000E+00  0.00000000E+00  0.00000000E+00
  0.00000000E+00  0.00000000E+00  0.00000000E+00
  0.00000000E+00  0.00000000E+00  0.00000000E+00
  0.00000000E+00  0.00000000E+00  0.00000000E+00
  0.00000000E+00  0.00000000E+00  0.00000000E+00
  0.00000000E+00  0.00000000E+00  0.00000000E+00
  0.00000000E+00  0.00000000E+00  0.00000000E+00
  0.00000000E+00  0.00000000E+00  0.00000000E+00
  0.00000000E+00  0.00000000E+00  0.00000000E+00
  0.00000000E+00  0.00000000E+00  0.00000000E+00
  0.00000000E+00  0.00000000E+00  0.00000000E+00
  0.00000000E+00  0.00000000E+00  0.00000000E+00
  0.00000000E+00  0.00000000E+00  0.00000000E+00
  0.00000000E+00  0.00000000E+00  0.00000000E+00
  0.00000000E+00  0.00000000E+00  0.00000000E+00
  0.00000000E+00  0.00000000E+00  0.00000000E+00
  0.00000000E+00  0.00000000E+00  0.00000000E+00
  0.00000000E+00  0.00000000E+00  0.00000000E+00
  0.00000000E+00  0.00000000E+00  0.00000000E+00
  0.00000000E+00  0.00000000E+00  0.00000000E+00
  0.00000000E+00  0.00000000E+00  0.00000000E+00
  0.00000000E+00  0.00000000E+00  0.00000000E+00
  0.00000000E+00  0.00000000E+00  0.00000000E+00
  0.00000000E+00  0.00000000E+00  0.00000000E+00
  0.00000000E+00  0.00000000E+00  0.00000000E+00
  0.00000000E+00  0.00000000E+00  0.00000000E+00
  0.00000000E+00  0.00000000E+00  0.00000000E+00
  0.00000000E+00  0.00000000E+00  0.00000000E+00
  0.00000000E+00  0.00000000E+00  0.00000000E+00
  0.00000000E+00  0.00000000E+00  0.00000000E+00
  0.00000000E+00  0.00000000E+00  0.00000000E+00
  0.00000000E+00  0.00000000E+00  0.00000000E+00
  0.00000000E+00  0.00000000E+00  0.00000000E+00
  0.00000000E+00  0.00000000E+00  0.00000000E+00
  0.00000000E+00  0.00000000E+00  0.00000000E+00
  0.00000000E+00  0.00000000E+00  0.00000000E+00
  0.00000000E+00  0.00000000E+00  0.00000000E+00
  0.00000000E+00  0.00000000E+00  0.00000000E+00
  0.00000000E+00  0.00000000E+00  0.00000000E+00
  0.00000000E+00  0.00000000E+00  0.00000000E+00
  0.00000000E+00  0.00000000E+00  0.00000000E+00
  0.00000000E+00  0.00000000E+00  0.00000000E+00
  0.00000000E+00  0.00000000E+00  0.00000000E+00
  0.00000000E+00  0.00000000E+00  0.00000000E+00
  0.00000000E+00  0.00000000E+00  0.00000000E+00
  0.00000000E+00  0.00000000E+00  0.00000000E+00
  0.00000000E+00  0.00000000E+00  0.00000000E+00
  0.00000000E+00  0.00000000E+00  0.00000000E+00
  0.00000000E+00  0.00000000E+00  0.00000000E+00
  0.00000000E+00  0.00000000E+00  0.00000000E+00
  0.00000000E+00  0.00000000E+00  0.00000000E+00
  0.00000000E+00  0.00000000E+00  0.00000000E+00
  0.00000000E+00  0.00000000E+00  0.00000000E+00
  0.00000000E+00  0.00000000E+00  0.00000000E+00
  0.00000000E+00  0.00000000E+00  0.00000000E+00
  0.00000000E+00  0.00000000E+00  0.00000000E+00
  0.00000000E+00  0.00000000E+00  0.00000000E+00
  0.00000000E+00  0.00000000E+00  0.00000000E+00
  0.00000000E+00  0.00000000E+00  0.00000000E+00
  0.00000000E+00  0.00000000E+00  0.00000000E+00
  0.00000000E+00  0.00000000E+00  0.00000000E+00
  0.00000000E+00  0.00000000E+00  0.00000000E+00
  0.00000000E+00  0.00000000E+00  0.00000000E+00
  0.00000000E+00  0.00000000E+00  0.00000000E+00
  0.00000000E+00  0.00000000E+00  0.00000000E+00
  0.00000000E+00  0.00000000E+00  0.00000000E+00
  0.00000000E+00  0.00000000E+00  0.00000000E+00
  0.00000000E+00  0.00000000E+00  0.00000000E+00
  0.00000000E+00  0.00000000E+00  0.00000000E+00
  0.00000000E+00  0.00000000E+00  0.00000000E+00
  0.00000000E+00  0.00000000E+00  0.00000000E+00
  0.00000000E+00  0.00000000E+00  0.00000000E+00
  0.00000000E+00  0.00000000E+00  0.00000000E+00
  0.00000000E+00  0.00000000E+00  0.00000000E+00
  0.00000000E+00  0.00000000E+00  0.00000000E+00
  0.00000000E+00  0.00000000E+00  0.00000000E+00
  0.00000000E+00  0.00000000E+00  0.00000000E+00
  0.00000000E+00  0.00000000E+00  0.00000000E+00
  0.00000000E+00  0.00000000E+00  0.00000000E+00
  0.00000000E+00  0.00000000E+00  0.00000000E+00
  0.00000000E+00  0.00000000E+00  0.00000000E+00
  0.00000000E+00  0.00000000E+00  0.00000000E+00
  0.00000000E+00  0.00000000E+00  0.00000000E+00
  0.00000000E+00  0.00000000E+00  0.00000000E+00
  0.00000000E+00  0.00000000E+00  0.00000000E+00
  0.00000000E+00  0.00000000E+00  0.00000000E+00
  0.00000000E+00  0.00000000E+00  0.00000000E+00
  0.00000000E+00  0.00000000E+00  0.00000000E+00
  0.00000000E+00  0.00000000E+00  0.00000000E+00
  0.00000000E+00  0.00000000E+00  0.00000000E+00
  0.00000000E+00  0.00000000E+00  0.00000000E+00
