Mg Na O Pd                              
   1.00000000000000     
    16.8282433949600012    0.0000000000000000    0.0000000000000000
     0.0000000000000000    8.4141216974800006    0.0000000000000000
     0.0000000000000000    0.0000000000000000   23.4141216974799988
   Mg   Na   O    Pd
    62     2    63     1
Selective dynamics
Direct
  0.1249841180794543  0.9997167073942727  0.0050150035336838   T   T   T
  0.6250068398630995  0.9998176694933325  0.0040836292822534   T   T   T
  0.1249392720241418  0.5001760993511363  0.0046308283251915   T   T   T
  0.6250642053219051  0.5001207971359577  0.0030798970965620   T   T   T
  0.3746441482761506 -0.0000678310369356  0.0050390936414436   T   T   T
  0.8753631600575860 -0.0000215831872194  0.0050879190265410   T   T   T
  0.3742688745136475  0.4997992060341671  0.0044206600906520   T   T   T
  0.8757204995641168  0.4997758070590717  0.0045368167086440   T   T   T
  0.0001056966601320  0.2495835072360968  0.0049916742538165   T   T   T
  0.4994485130831208  0.2493111651829534  0.0043802555955304   T   T   T
  0.0002538898064488  0.7502428290751034  0.0051057660536268   T   T   T
  0.4996005109385525  0.7504088196097622  0.0044013616871845   T   T   T
  0.2498522442734818  0.2495352396889657  0.0049789918506070   T   T   T
  0.7505948906195294  0.2494089167551423  0.0043919856347752   T   T   T
  0.2497235119499750  0.7502863314950897  0.0051058372473780   T   T   T
  0.7504296589847969  0.7503225818369262  0.0044071908406950   T   T   T
  0.0005091479728381  0.0006765601165981  0.0948978114417508   T   T   T
  0.5000412682927037  0.0003187759053296  0.0944214546472996   T   T   T
  0.0010960556311813  0.4990668123314892  0.0942903361776550   T   T   T
  0.4989703902186155  0.4992333042682977  0.0924739393830443   T   T   T
  0.2493955423608553  0.0006151965283378  0.0948868909569693   T   T   T
  0.7500533451115070  0.0003738200714634  0.0943921570020063   T   T   T
  0.2487660494410781  0.4990994527600478  0.0942920831123955   T   T   T
  0.7511639980944901  0.4992097848898897  0.0926138324304523   T   T   T
  0.1249816175488674  0.2496238315372427  0.0942964883444338   T   T   T
  0.6249997547613365  0.2484081184482389  0.0926597109445524   T   T   T
  0.1250066923228637  0.7502293993952035  0.0948452924153764   T   T   T
  0.6249983347903293  0.7517566080722434  0.0929389736656638   T   T   T
  0.3746252220103851  0.2491184442361379  0.0946510920850790   T   T   T
  0.8754208408803488  0.2492284310529497  0.0947929062706891   T   T   T
  0.3747316576598368  0.7503693150102889  0.0943382018036278   T   T   T
  0.8753230093277578  0.7503423780376353  0.0944049277062742   T   T   T
  0.1249829914069297  0.0047014127021090  0.1868634006683890   T   T   T
  0.6250735092715128  0.0097979502103803  0.1856979184957636   T   T   T
  0.1247405221982062  0.4953522540334497  0.1862757528027026   T   T   T
  0.6249470840947228  0.4957307493018598  0.1762107999660457   T   T   T
  0.3749422122612095  0.0003340993523767  0.1850241084296654   T   T   T
  0.8750763600181911  0.0004584013750020  0.1851851007912877   T   T   T
  0.3718397109909934  0.4985866371756058  0.1828716849924964   T   T   T
  0.8785707623891733  0.4987863047703505  0.1837210061555538   T   T   T
  0.0033606627464542  0.2490552731740976  0.1871231782791407   T   T   T
  0.5018100117026514  0.2515073606903273  0.1861444270138895   T   T   T
  0.0015719133030985  0.7505385385621036  0.1851510421456213   T   T   T
  0.5004676784522850  0.7481065333360495  0.1849133812938059   T   T   T
  0.2469058679514218  0.2494423261760446  0.1870399517103121   T   T   T
  0.7481144715964736  0.2514598308113483  0.1859725934084325   T   T   T
  0.2486364181583877  0.7500210316752310  0.1853195548084670   T   T   T
  0.7495241043364437  0.7483098440902656  0.1846336371997301   T   T   T
  0.0029879697866665  0.0018956636287745  0.2745358452605103   T   T   T
  0.5013807362257789  0.0070182477787289  0.2744754873452611   T   T   T
  0.0032391574878837  0.4973692532207115  0.2742995940079913   T   T   T
  0.4853257483354280  0.4970634386880172  0.2736925483208804   T   T   T
  0.2461991977531233  0.0016492293013488  0.2743394545473204   T   T   T
  0.7492486894965972  0.0083415377843127  0.2747900016895169   T   T   T
  0.2437086716366507  0.4969399362215924  0.2746710568454342   T   T   T
  0.7668550219081441  0.4972108047506896  0.2726006271170180   T   T   T
  0.1246332596651465  0.7509077572659342  0.2744809553780625   T   T   T
  0.6252424242156851  0.7695061946199452  0.2725556296988728   T   T   T
  0.3732325343569814  0.2409003000242587  0.2754430819799306   T   T   T
  0.8769712671678775  0.2465922087164235  0.2746661752379544   T   T   T
  0.3707875720708584  0.7563212741024650  0.2752991027215074   T   T   T
  0.8793035860952151  0.7517796246590615  0.2740582789082591   T   T   T
  0.1248295832584454  0.2491076797674969  0.3001001730181321   T   T   T
  0.6249403385750300  0.2456159550259156  0.3008762284447261   T   T   T
  0.9995694393516904  0.9997148028123851  0.0027303171827771   T   T   T
  0.5002215961920397  0.9996597030856967  0.0028309479983538   T   T   T
  0.9996730406659992  0.5001211343002561  0.0024102266717111   T   T   T
  0.4998596080067830  0.5000613046354883  0.0018444276716000   T   T   T
  0.2504496678432801  0.9997104874388194  0.0027765753129190   T   T   T
  0.7497528820314131  0.9996768835263999  0.0027879130683789   T   T   T
  0.2503458545161004  0.5001179119586775  0.0023585012243653   T   T   T
  0.7501152160306683  0.5000609179737467  0.0019377079423641   T   T   T
  0.1250308436922292  0.2497701016827558  0.0022808111101118   T   T   T
  0.6249669417438699  0.2493326416727301  0.0018349965985206   T   T   T
  0.1250414918030657  0.7501158406548446  0.0023836092527943   T   T   T
  0.6249597452683313  0.7506113570440978  0.0018378107839918   T   T   T
  0.3753668131407815  0.2497105606721569  0.0025186683746070   T   T   T
  0.8746340757419362  0.2497689983098363  0.0025444438759504   T   T   T
  0.3754039528858829  0.7500265292028944  0.0027718113479003   T   T   T
  0.8745982046564394  0.7499745078521498  0.0028039067940590   T   T   T
  0.1250158285786297  0.9990019838399633  0.0940807121969318   T   T   T
  0.6250139874925026  0.9991070672814772  0.0949780147619066   T   T   T
  0.1250461720460183  0.5008724859688921  0.0936365121759692   T   T   T
  0.6249194341455265  0.5012163375304257  0.0916934504245697   T   T   T
  0.3760081502751882  0.9993094004299372  0.0950444413159889   T   T   T
  0.8739893765968753  0.9994268036962061  0.0950287027167742   T   T   T
  0.3756251122865281  0.5002331292009989  0.0944694342039445   T   T   T
  0.8744098161992370  0.5001726073806766  0.0946474533645079   T   T   T
  0.9990155202033485  0.2497441952637265  0.0941690209391706   T   T   T
  0.5002528051848895  0.2504879403450938  0.0943905652263009   T   T   T
  0.9992399333556911  0.7499876488317445  0.0946474505712417   T   T   T
  0.5007107671898239  0.7490350619770090  0.0949204630417312   T   T   T
  0.2510488323714136  0.2499156147325320  0.0941479126202387   T   T   T
  0.7496994074096983  0.2503588514977872  0.0943752506405862   T   T   T
  0.2508547336081310  0.7497701157018859  0.0946912214922881   T   T   T
  0.7492398533666782  0.7492152897817861  0.0948439649540812   T   T   T
  0.9990084845221755  0.0000233199566332  0.1847306912161998   T   T   T
  0.5017467827302315  0.9993183412474338  0.1858925143537501   T   T   T
  0.0004727726726605  0.4995864620548718  0.1840652326276120   T   T   T
  0.5019871667140429  0.4994513091179863  0.1864537081948318   T   T   T
  0.2510948031474134 -0.0000570901375380  0.1846080360099327   T   T   T
  0.7482136267688109  0.9995199413290552  0.1862144368058592   T   T   T
  0.2498490407606597  0.4995313897860852  0.1844879675148849   T   T   T
  0.7475960253263145  0.4994128434691891  0.1860298958406181   T   T   T
  0.1250631784827790  0.2497234414310448  0.1807865430368911   T   T   T
  0.6250751875396157  0.2561062015761550  0.1820329025666455   T   T   T
  0.1249894632436990  0.7502918238623650  0.1833681616473845   T   T   T
  0.6251914622840520  0.7422973436377871  0.1856070505540199   T   T   T
  0.3766005926625116  0.2509637787088871  0.1846997981725440   T   T   T
  0.8732548083830697  0.2501547999302181  0.1846016440619136   T   T   T
  0.3768817389981579  0.7480377077264779  0.1852898222977646   T   T   T
  0.8730452866931763  0.7491807043601422  0.1848406876249061   T   T   T
  0.1247522993846031  0.9864160890654008  0.2770961263387320   T   T   T
  0.6254451578871943  0.9953833210858121  0.2775310986907948   T   T   T
  0.1240170661671287  0.5141902075722926  0.2770507291445012   T   T   T
  0.3796634263612680  0.9953539310941170  0.2765796140020386   T   T   T
  0.8704279304457534  0.9947449985769869  0.2767983414222085   T   T   T
  0.3689706153084853  0.5049786565637026  0.2749353934919486   T   T   T
  0.8807882477692158  0.5051419200881170  0.2755527082277160   T   T   T
  0.9931360043652444  0.2471224402853486  0.2774722593205076   T   T   T
  0.4950943504389382  0.2597070536241580  0.2781352282375822   T   T   T
  0.9989064286478813  0.7527172474094108  0.2757441367784280   T   T   T
  0.5075720728647550  0.7324913337827760  0.2777945135355817   T   T   T
  0.2566146749053653  0.2470719291575293  0.2767489666237009   T   T   T
  0.7553493738487500  0.2613143810897363  0.2797223489990907   T   T   T
  0.2506646451101763  0.7524545819378594  0.2751784995610991   T   T   T
  0.7425977585486516  0.7300716876768394  0.2792230708869518   T   T   T
  0.3704360043897337  0.5064111931335452  0.3640124623661450   T   T   T
 
  0.00000000E+00  0.00000000E+00  0.00000000E+00
  0.00000000E+00  0.00000000E+00  0.00000000E+00
  0.00000000E+00  0.00000000E+00  0.00000000E+00
  0.00000000E+00  0.00000000E+00  0.00000000E+00
  0.00000000E+00  0.00000000E+00  0.00000000E+00
  0.00000000E+00  0.00000000E+00  0.00000000E+00
  0.00000000E+00  0.00000000E+00  0.00000000E+00
  0.00000000E+00  0.00000000E+00  0.00000000E+00
  0.00000000E+00  0.00000000E+00  0.00000000E+00
  0.00000000E+00  0.00000000E+00  0.00000000E+00
  0.00000000E+00  0.00000000E+00  0.00000000E+00
  0.00000000E+00  0.00000000E+00  0.00000000E+00
  0.00000000E+00  0.00000000E+00  0.00000000E+00
  0.00000000E+00  0.00000000E+00  0.00000000E+00
  0.00000000E+00  0.00000000E+00  0.00000000E+00
  0.00000000E+00  0.00000000E+00  0.00000000E+00
  0.00000000E+00  0.00000000E+00  0.00000000E+00
  0.00000000E+00  0.00000000E+00  0.00000000E+00
  0.00000000E+00  0.00000000E+00  0.00000000E+00
  0.00000000E+00  0.00000000E+00  0.00000000E+00
  0.00000000E+00  0.00000000E+00  0.00000000E+00
  0.00000000E+00  0.00000000E+00  0.00000000E+00
  0.00000000E+00  0.00000000E+00  0.00000000E+00
  0.00000000E+00  0.00000000E+00  0.00000000E+00
  0.00000000E+00  0.00000000E+00  0.00000000E+00
  0.00000000E+00  0.00000000E+00  0.00000000E+00
  0.00000000E+00  0.00000000E+00  0.00000000E+00
  0.00000000E+00  0.00000000E+00  0.00000000E+00
  0.00000000E+00  0.00000000E+00  0.00000000E+00
  0.00000000E+00  0.00000000E+00  0.00000000E+00
  0.00000000E+00  0.00000000E+00  0.00000000E+00
  0.00000000E+00  0.00000000E+00  0.00000000E+00
  0.00000000E+00  0.00000000E+00  0.00000000E+00
  0.00000000E+00  0.00000000E+00  0.00000000E+00
  0.00000000E+00  0.00000000E+00  0.00000000E+00
  0.00000000E+00  0.00000000E+00  0.00000000E+00
  0.00000000E+00  0.00000000E+00  0.00000000E+00
  0.00000000E+00  0.00000000E+00  0.00000000E+00
  0.00000000E+00  0.00000000E+00  0.00000000E+00
  0.00000000E+00  0.00000000E+00  0.00000000E+00
  0.00000000E+00  0.00000000E+00  0.00000000E+00
  0.00000000E+00  0.00000000E+00  0.00000000E+00
  0.00000000E+00  0.00000000E+00  0.00000000E+00
  0.00000000E+00  0.00000000E+00  0.00000000E+00
  0.00000000E+00  0.00000000E+00  0.00000000E+00
  0.00000000E+00  0.00000000E+00  0.00000000E+00
  0.00000000E+00  0.00000000E+00  0.00000000E+00
  0.00000000E+00  0.00000000E+00  0.00000000E+00
  0.00000000E+00  0.00000000E+00  0.00000000E+00
  0.00000000E+00  0.00000000E+00  0.00000000E+00
  0.00000000E+00  0.00000000E+00  0.00000000E+00
  0.00000000E+00  0.00000000E+00  0.00000000E+00
  0.00000000E+00  0.00000000E+00  0.00000000E+00
  0.00000000E+00  0.00000000E+00  0.00000000E+00
  0.00000000E+00  0.00000000E+00  0.00000000E+00
  0.00000000E+00  0.00000000E+00  0.00000000E+00
  0.00000000E+00  0.00000000E+00  0.00000000E+00
  0.00000000E+00  0.00000000E+00  0.00000000E+00
  0.00000000E+00  0.00000000E+00  0.00000000E+00
  0.00000000E+00  0.00000000E+00  0.00000000E+00
  0.00000000E+00  0.00000000E+00  0.00000000E+00
  0.00000000E+00  0.00000000E+00  0.00000000E+00
  0.00000000E+00  0.00000000E+00  0.00000000E+00
  0.00000000E+00  0.00000000E+00  0.00000000E+00
  0.00000000E+00  0.00000000E+00  0.00000000E+00
  0.00000000E+00  0.00000000E+00  0.00000000E+00
  0.00000000E+00  0.00000000E+00  0.00000000E+00
  0.00000000E+00  0.00000000E+00  0.00000000E+00
  0.00000000E+00  0.00000000E+00  0.00000000E+00
  0.00000000E+00  0.00000000E+00  0.00000000E+00
  0.00000000E+00  0.00000000E+00  0.00000000E+00
  0.00000000E+00  0.00000000E+00  0.00000000E+00
  0.00000000E+00  0.00000000E+00  0.00000000E+00
  0.00000000E+00  0.00000000E+00  0.00000000E+00
  0.00000000E+00  0.00000000E+00  0.00000000E+00
  0.00000000E+00  0.00000000E+00  0.00000000E+00
  0.00000000E+00  0.00000000E+00  0.00000000E+00
  0.00000000E+00  0.00000000E+00  0.00000000E+00
  0.00000000E+00  0.00000000E+00  0.00000000E+00
  0.00000000E+00  0.00000000E+00  0.00000000E+00
  0.00000000E+00  0.00000000E+00  0.00000000E+00
  0.00000000E+00  0.00000000E+00  0.00000000E+00
  0.00000000E+00  0.00000000E+00  0.00000000E+00
  0.00000000E+00  0.00000000E+00  0.00000000E+00
  0.00000000E+00  0.00000000E+00  0.00000000E+00
  0.00000000E+00  0.00000000E+00  0.00000000E+00
  0.00000000E+00  0.00000000E+00  0.00000000E+00
  0.00000000E+00  0.00000000E+00  0.00000000E+00
  0.00000000E+00  0.00000000E+00  0.00000000E+00
  0.00000000E+00  0.00000000E+00  0.00000000E+00
  0.00000000E+00  0.00000000E+00  0.00000000E+00
  0.00000000E+00  0.00000000E+00  0.00000000E+00
  0.00000000E+00  0.00000000E+00  0.00000000E+00
  0.00000000E+00  0.00000000E+00  0.00000000E+00
  0.00000000E+00  0.00000000E+00  0.00000000E+00
  0.00000000E+00  0.00000000E+00  0.00000000E+00
  0.00000000E+00  0.00000000E+00  0.00000000E+00
  0.00000000E+00  0.00000000E+00  0.00000000E+00
  0.00000000E+00  0.00000000E+00  0.00000000E+00
  0.00000000E+00  0.00000000E+00  0.00000000E+00
  0.00000000E+00  0.00000000E+00  0.00000000E+00
  0.00000000E+00  0.00000000E+00  0.00000000E+00
  0.00000000E+00  0.00000000E+00  0.00000000E+00
  0.00000000E+00  0.00000000E+00  0.00000000E+00
  0.00000000E+00  0.00000000E+00  0.00000000E+00
  0.00000000E+00  0.00000000E+00  0.00000000E+00
  0.00000000E+00  0.00000000E+00  0.00000000E+00
  0.00000000E+00  0.00000000E+00  0.00000000E+00
  0.00000000E+00  0.00000000E+00  0.00000000E+00
  0.00000000E+00  0.00000000E+00  0.00000000E+00
  0.00000000E+00  0.00000000E+00  0.00000000E+00
  0.00000000E+00  0.00000000E+00  0.00000000E+00
  0.00000000E+00  0.00000000E+00  0.00000000E+00
  0.00000000E+00  0.00000000E+00  0.00000000E+00
  0.00000000E+00  0.00000000E+00  0.00000000E+00
  0.00000000E+00  0.00000000E+00  0.00000000E+00
  0.00000000E+00  0.00000000E+00  0.00000000E+00
  0.00000000E+00  0.00000000E+00  0.00000000E+00
  0.00000000E+00  0.00000000E+00  0.00000000E+00
  0.00000000E+00  0.00000000E+00  0.00000000E+00
  0.00000000E+00  0.00000000E+00  0.00000000E+00
  0.00000000E+00  0.00000000E+00  0.00000000E+00
  0.00000000E+00  0.00000000E+00  0.00000000E+00
  0.00000000E+00  0.00000000E+00  0.00000000E+00
  0.00000000E+00  0.00000000E+00  0.00000000E+00
  0.00000000E+00  0.00000000E+00  0.00000000E+00
  0.00000000E+00  0.00000000E+00  0.00000000E+00
  0.00000000E+00  0.00000000E+00  0.00000000E+00
