Mg N O                                  
   1.00000000000000     
     8.4141216974800006    0.0000000000000000    0.0000000000000000
     0.0000000000000000    8.4141216974800006    0.0000000000000000
     0.0000000000000000    0.0000000000000000   23.4141216974799988
   Mg   N    O 
    32     1    34
Selective dynamics
Direct
  0.2500035619105202 -0.0000266521646984  0.0045803415512194   T   T   T
  0.2500002086042472  0.5000164305937430  0.0045436763274627   T   T   T
  0.7499281005358351  0.0000364312887463  0.0046255072725251   T   T   T
  0.7499749150100521  0.5000004375480234  0.0045732919096756   T   T   T
  0.9998889281738548  0.2499335127223576  0.0046007931983213   T   T   T
  0.9999483231837625  0.7500353614099560  0.0045800997402806   T   T   T
  0.5000585086238888  0.2499501466654778  0.0046006529523727   T   T   T
  0.5000455713664046  0.7500967041177855  0.0046354188254962   T   T   T
  0.0000191903810413 -0.0000983850568976  0.0940359979755186   T   T   T
 -0.0000060291612058  0.5000948135282940  0.0939773423305026   T   T   T
  0.4999376566212038 -0.0001092958581514  0.0940551345415854   T   T   T
  0.4999848324892509  0.5001456755814917  0.0940031875341382   T   T   T
  0.2500186174425641  0.2499789596022757  0.0939063292120328   T   T   T
  0.2500671515602165  0.7500094924857322  0.0940223508354993   T   T   T
  0.7499374212717994  0.2500248045553558  0.0939569180137235   T   T   T
  0.7498968943088041  0.7499981422608220  0.0940579271471235   T   T   T
  0.2499913563365249  0.0006347530614875  0.1846486585607014   T   T   T
  0.2506080525838606  0.4993353865363646  0.1841157478066322   T   T   T
  0.7499947184188251 -0.0000492641671234  0.1845410138901657   T   T   T
  0.7493798087058671  0.5000044532048852  0.1845937261432033   T   T   T
  0.0006072152858155  0.2499597601062491  0.1845033905739181   T   T   T
 -0.0000800538485033  0.7500642303785162  0.1844674271175266   T   T   T
  0.4993558075923972  0.2505729136207324  0.1841243016859064   T   T   T
  0.4999868042151841  0.7494513972455216  0.1847277733521873   T   T   T
 -0.0000189010391063  0.9999054820542528  0.2738694021940151   T   T   T
  0.9987317935796968  0.5000434892647654  0.2735817201562869   T   T   T
  0.5000019573344946  0.9985763149268523  0.2738708424783003   T   T   T
  0.5011257329594040  0.5011708760429733  0.2762584081303837   T   T   T
  0.2488658066836338  0.2490076242351316  0.2761883593147822   T   T   T
  0.2498422247443565  0.7511495960328954  0.2737701234544926   T   T   T
  0.7514333420237657  0.2499524638154380  0.2736567481627534   T   T   T
  0.7501757376273154  0.7500347238888537  0.2740087618978976   T   T   T
  0.3769339200994718  0.3747651993897263  0.3967271370258129   T   T   T
 -0.0000088415863253  0.0000018167639045  0.0023930387035306   T   T   T
 -0.0000377333601911  0.4999788429294996  0.0023668840098711   T   T   T
  0.4999411479612753 -0.0000407853829798  0.0024252678094617   T   T   T
  0.5000137189186317  0.5000781302415384  0.0023307675496106   T   T   T
  0.2499741605590947  0.2499761111795554  0.0023351370238446   T   T   T
  0.2500596698867092  0.7500137431365728  0.0023922344386557   T   T   T
  0.7499694911818351  0.2500288624085495  0.0024345110557335   T   T   T
  0.7499234081801317  0.7499988827508900  0.0024099460483511   T   T   T
  0.2500737440825619 -0.0000233630003785  0.0942691704659005   T   T   T
  0.2500953603966427  0.4999821337938289  0.0940891547398380   T   T   T
  0.7498902128665204  0.0000077303972949  0.0942037148027673   T   T   T
  0.7499067397133489  0.5000101000137045  0.0942554828795428   T   T   T
  0.0000061011934047  0.2500352266734773  0.0942089900349275   T   T   T
  0.0000243823829573  0.7499673972302836  0.0941436748879404   T   T   T
  0.4999219503704489  0.2500650972219773  0.0941469534641942   T   T   T
  0.4999312844190556  0.7500015136013845  0.0942863161286567   T   T   T
  0.0000273257703472 -0.0001449870490345  0.1839543365891974   T   T   T
  0.0003273225510475  0.5001285175035877  0.1838848350545533   T   T   T
  0.4999184175318542  0.0002386050303388  0.1840789388502676   T   T   T
  0.4997794907696684  0.4998485231161579  0.1843890968746661   T   T   T
  0.2502853353503485  0.2501844834189583  0.1842922460664159   T   T   T
  0.2500250837949251  0.7496923835434852  0.1840332502760745   T   T   T
  0.7495789663309884  0.2500021369383573  0.1839157461535562   T   T   T
  0.7499250157931076  0.7499956272636035  0.1840555349023942   T   T   T
  0.2499236646252996  0.9992901835711355  0.2754160494442723   T   T   T
  0.2484505584141740  0.5014979720994044  0.2750787404170312   T   T   T
  0.7500787130934021  0.0000266726920064  0.2758398645978307   T   T   T
  0.7508383528266215  0.4999512302295867  0.2753117214498816   T   T   T
  0.9992693850725860  0.2500419407264589  0.2752030825307572   T   T   T
  0.0000463195769452  0.7499213190687346  0.2758650201131265   T   T   T
  0.5016137883775680  0.2484123221392627  0.2750288925685277   T   T   T
  0.4999739308924543  0.7507749832424716  0.2756320258850696   T   T   T
  0.2844370663462556  0.2826665460064783  0.3729681939284265   T   T   T
  0.4689851792330647  0.4674597143560773  0.3729759763306609   T   T   T
 
  0.00000000E+00  0.00000000E+00  0.00000000E+00
  0.00000000E+00  0.00000000E+00  0.00000000E+00
  0.00000000E+00  0.00000000E+00  0.00000000E+00
  0.00000000E+00  0.00000000E+00  0.00000000E+00
  0.00000000E+00  0.00000000E+00  0.00000000E+00
  0.00000000E+00  0.00000000E+00  0.00000000E+00
  0.00000000E+00  0.00000000E+00  0.00000000E+00
  0.00000000E+00  0.00000000E+00  0.00000000E+00
  0.00000000E+00  0.00000000E+00  0.00000000E+00
  0.00000000E+00  0.00000000E+00  0.00000000E+00
  0.00000000E+00  0.00000000E+00  0.00000000E+00
  0.00000000E+00  0.00000000E+00  0.00000000E+00
  0.00000000E+00  0.00000000E+00  0.00000000E+00
  0.00000000E+00  0.00000000E+00  0.00000000E+00
  0.00000000E+00  0.00000000E+00  0.00000000E+00
  0.00000000E+00  0.00000000E+00  0.00000000E+00
  0.00000000E+00  0.00000000E+00  0.00000000E+00
  0.00000000E+00  0.00000000E+00  0.00000000E+00
  0.00000000E+00  0.00000000E+00  0.00000000E+00
  0.00000000E+00  0.00000000E+00  0.00000000E+00
  0.00000000E+00  0.00000000E+00  0.00000000E+00
  0.00000000E+00  0.00000000E+00  0.00000000E+00
  0.00000000E+00  0.00000000E+00  0.00000000E+00
  0.00000000E+00  0.00000000E+00  0.00000000E+00
  0.00000000E+00  0.00000000E+00  0.00000000E+00
  0.00000000E+00  0.00000000E+00  0.00000000E+00
  0.00000000E+00  0.00000000E+00  0.00000000E+00
  0.00000000E+00  0.00000000E+00  0.00000000E+00
  0.00000000E+00  0.00000000E+00  0.00000000E+00
  0.00000000E+00  0.00000000E+00  0.00000000E+00
  0.00000000E+00  0.00000000E+00  0.00000000E+00
  0.00000000E+00  0.00000000E+00  0.00000000E+00
  0.00000000E+00  0.00000000E+00  0.00000000E+00
  0.00000000E+00  0.00000000E+00  0.00000000E+00
  0.00000000E+00  0.00000000E+00  0.00000000E+00
  0.00000000E+00  0.00000000E+00  0.00000000E+00
  0.00000000E+00  0.00000000E+00  0.00000000E+00
  0.00000000E+00  0.00000000E+00  0.00000000E+00
  0.00000000E+00  0.00000000E+00  0.00000000E+00
  0.00000000E+00  0.00000000E+00  0.00000000E+00
  0.00000000E+00  0.00000000E+00  0.00000000E+00
  0.00000000E+00  0.00000000E+00  0.00000000E+00
  0.00000000E+00  0.00000000E+00  0.00000000E+00
  0.00000000E+00  0.00000000E+00  0.00000000E+00
  0.00000000E+00  0.00000000E+00  0.00000000E+00
  0.00000000E+00  0.00000000E+00  0.00000000E+00
  0.00000000E+00  0.00000000E+00  0.00000000E+00
  0.00000000E+00  0.00000000E+00  0.00000000E+00
  0.00000000E+00  0.00000000E+00  0.00000000E+00
  0.00000000E+00  0.00000000E+00  0.00000000E+00
  0.00000000E+00  0.00000000E+00  0.00000000E+00
  0.00000000E+00  0.00000000E+00  0.00000000E+00
  0.00000000E+00  0.00000000E+00  0.00000000E+00
  0.00000000E+00  0.00000000E+00  0.00000000E+00
  0.00000000E+00  0.00000000E+00  0.00000000E+00
  0.00000000E+00  0.00000000E+00  0.00000000E+00
  0.00000000E+00  0.00000000E+00  0.00000000E+00
  0.00000000E+00  0.00000000E+00  0.00000000E+00
  0.00000000E+00  0.00000000E+00  0.00000000E+00
  0.00000000E+00  0.00000000E+00  0.00000000E+00
  0.00000000E+00  0.00000000E+00  0.00000000E+00
  0.00000000E+00  0.00000000E+00  0.00000000E+00
  0.00000000E+00  0.00000000E+00  0.00000000E+00
  0.00000000E+00  0.00000000E+00  0.00000000E+00
  0.00000000E+00  0.00000000E+00  0.00000000E+00
  0.00000000E+00  0.00000000E+00  0.00000000E+00
  0.00000000E+00  0.00000000E+00  0.00000000E+00
