Mg Mn N O                               
   1.00000000000000     
     8.4141216974800006    0.0000000000000000    0.0000000000000000
     0.0000000000000000    8.4141216974800006    0.0000000000000000
     0.0000000000000000    0.0000000000000000   23.4141216974799988
   Mg   Mn   N    O 
    32     1     1    34
Selective dynamics
Direct
  0.2502912710554940  0.0003629302067271  0.0036894627252136   T   T   T
  0.2502209418018697  0.4997617451748229  0.0037483142211236   T   T   T
  0.7497599894394873  0.0002754263782478  0.0036575340239626   T   T   T
  0.7496795198867784  0.4996829833086034  0.0036944783018544   T   T   T
  0.0000787369972236  0.2500692256363650  0.0035504161012217   T   T   T
  0.0000333930143770  0.7499751524880139  0.0030259714719698   T   T   T
  0.4999810708999083  0.2500284936341179  0.0039620172705956   T   T   T
  0.4999407646045132  0.7499213680308490  0.0035329382058577   T   T   T
  0.0002564003861818  0.0008779634310667  0.0925488999688759   T   T   T
 -0.0000846837116965  0.4991202116211408  0.0927405928395150   T   T   T
  0.4998726623190993  0.0002861976749378  0.0934586078082487   T   T   T
  0.4998699864624742  0.4995698845960763  0.0935203621239078   T   T   T
  0.2504967063047829  0.2501690088598467  0.0935386800663447   T   T   T
  0.2509269118239312  0.7501262889226800  0.0927450124533688   T   T   T
  0.7497290301724212  0.2501555281793200  0.0934865665487947   T   T   T
  0.7491362602081451  0.7497707028658438  0.0925631143559470   T   T   T
  0.2508748764965466  0.0027691978616931  0.1843189030493574   T   T   T
  0.2520914664839212  0.4979338297139396  0.1846250158443599   T   T   T
  0.7494927442072903  0.0006082359098495  0.1836661199917638   T   T   T
  0.7473440552622699  0.4991461572797410  0.1843229092478217   T   T   T
  0.0022537293699231  0.2503135813093093  0.1837289220852089   T   T   T
  0.0004565644878681  0.7496338052195308  0.1790138707537653   T   T   T
  0.4981960824978370  0.2518493753498973  0.1846927377343655   T   T   T
  0.4997280446848556  0.7478479629507283  0.1837138135164754   T   T   T
  0.0009593061845211  0.0099681266553371  0.2723616372296715   T   T   T
  0.0002976848328217  0.4896828478598517  0.2717537453643121   T   T   T
  0.4998723369162273  0.0017826355030919  0.2732587088008784   T   T   T
  0.4973454642593271  0.4957076657483093  0.2831097458914634   T   T   T
  0.2543984235726329  0.2527467430631920  0.2832165439868108   T   T   T
  0.2604424786803778  0.7497815955142731  0.2717538923166494   T   T   T
  0.7483166373727881  0.2502039140617452  0.2733058192382807   T   T   T
  0.7400445687236777  0.7491433114270060  0.2723381431762325   T   T   T
  0.0042534102519888  0.7457094635163528  0.3748150005838521   T   T   T
  0.3740192020390481  0.3767828060058171  0.4003187325811609   T   T   T
 -0.0000102854591004  0.0002995521965697  0.0012331996208983   T   T   T
 -0.0000561974385965  0.4997498731144653  0.0012750550405585   T   T   T
  0.5000568432107566  0.0000058060562444  0.0016460181523353   T   T   T
  0.4999643742017402  0.4999451410647797  0.0016249923258160   T   T   T
  0.2500561196905615  0.2500425363067773  0.0016398714123375   T   T   T
  0.2502498996696694  0.7500702639660096  0.0012319195925418   T   T   T
  0.7500018379583679  0.2499604694487230  0.0016639956158107   T   T   T
  0.7497289046689727  0.7500099023998125  0.0011857121583874   T   T   T
  0.2495200955315742 -0.0002706854038999  0.0934039110654298   T   T   T
  0.2494746308536098  0.5005749341724377  0.0934753380822217   T   T   T
  0.7506133038453427 -0.0006016922753312  0.0934475645520081   T   T   T
  0.7502966979809145  0.5005201569134452  0.0934088442655250   T   T   T
  0.0000722041572441  0.2498330226228130  0.0935516124811833   T   T   T
 -0.0001430677029106  0.7501887550134542  0.0921938228278668   T   T   T
  0.5001661925953573  0.2498661648890947  0.0935437743589140   T   T   T
  0.5001940560903371  0.7499526396093331  0.0935419533272152   T   T   T
 -0.0000746218568263  0.9959528938904902  0.1840210693901164   T   T   T
 -0.0012063213634501  0.5038633022170086  0.1835217900474667   T   T   T
  0.5003923637445077 -0.0019712993805254  0.1831274561452130   T   T   T
  0.5002996508965253  0.5011311291425606  0.1833802358408207   T   T   T
  0.2489285488308700  0.2497733561624529  0.1833672969121918   T   T   T
  0.2461887130832222  0.7512805402970300  0.1835078078789911   T   T   T
  0.7520275570372423  0.2496567790991439  0.1831352919898945   T   T   T
  0.7541297954668981  0.7501489634064644  0.1840162808008503   T   T   T
  0.2475793482219305  0.9960307275729803  0.2753872541087202   T   T   T
  0.2430124144635073  0.5070624438774585  0.2728545285502720   T   T   T
  0.7530758331419464 -0.0029975134752648  0.2753492355270914   T   T   T
  0.7540658296557403  0.5025107643988151  0.2753690959292656   T   T   T
  0.9982255770646762  0.2495383285247770  0.2743904797669572   T   T   T
 -0.0011877785302696  0.7512950569961344  0.2911330388771538   T   T   T
  0.5043913121486652  0.2456806656609515  0.2723433475244931   T   T   T
  0.5005186793694201  0.7518837607106433  0.2743563450521588   T   T   T
  0.2829282852157506  0.2849717146150630  0.3717039195444404   T   T   T
  0.4657971961089376  0.4677872626887992  0.3715974614096164   T   T   T
 
  0.00000000E+00  0.00000000E+00  0.00000000E+00
  0.00000000E+00  0.00000000E+00  0.00000000E+00
  0.00000000E+00  0.00000000E+00  0.00000000E+00
  0.00000000E+00  0.00000000E+00  0.00000000E+00
  0.00000000E+00  0.00000000E+00  0.00000000E+00
  0.00000000E+00  0.00000000E+00  0.00000000E+00
  0.00000000E+00  0.00000000E+00  0.00000000E+00
  0.00000000E+00  0.00000000E+00  0.00000000E+00
  0.00000000E+00  0.00000000E+00  0.00000000E+00
  0.00000000E+00  0.00000000E+00  0.00000000E+00
  0.00000000E+00  0.00000000E+00  0.00000000E+00
  0.00000000E+00  0.00000000E+00  0.00000000E+00
  0.00000000E+00  0.00000000E+00  0.00000000E+00
  0.00000000E+00  0.00000000E+00  0.00000000E+00
  0.00000000E+00  0.00000000E+00  0.00000000E+00
  0.00000000E+00  0.00000000E+00  0.00000000E+00
  0.00000000E+00  0.00000000E+00  0.00000000E+00
  0.00000000E+00  0.00000000E+00  0.00000000E+00
  0.00000000E+00  0.00000000E+00  0.00000000E+00
  0.00000000E+00  0.00000000E+00  0.00000000E+00
  0.00000000E+00  0.00000000E+00  0.00000000E+00
  0.00000000E+00  0.00000000E+00  0.00000000E+00
  0.00000000E+00  0.00000000E+00  0.00000000E+00
  0.00000000E+00  0.00000000E+00  0.00000000E+00
  0.00000000E+00  0.00000000E+00  0.00000000E+00
  0.00000000E+00  0.00000000E+00  0.00000000E+00
  0.00000000E+00  0.00000000E+00  0.00000000E+00
  0.00000000E+00  0.00000000E+00  0.00000000E+00
  0.00000000E+00  0.00000000E+00  0.00000000E+00
  0.00000000E+00  0.00000000E+00  0.00000000E+00
  0.00000000E+00  0.00000000E+00  0.00000000E+00
  0.00000000E+00  0.00000000E+00  0.00000000E+00
  0.00000000E+00  0.00000000E+00  0.00000000E+00
  0.00000000E+00  0.00000000E+00  0.00000000E+00
  0.00000000E+00  0.00000000E+00  0.00000000E+00
  0.00000000E+00  0.00000000E+00  0.00000000E+00
  0.00000000E+00  0.00000000E+00  0.00000000E+00
  0.00000000E+00  0.00000000E+00  0.00000000E+00
  0.00000000E+00  0.00000000E+00  0.00000000E+00
  0.00000000E+00  0.00000000E+00  0.00000000E+00
  0.00000000E+00  0.00000000E+00  0.00000000E+00
  0.00000000E+00  0.00000000E+00  0.00000000E+00
  0.00000000E+00  0.00000000E+00  0.00000000E+00
  0.00000000E+00  0.00000000E+00  0.00000000E+00
  0.00000000E+00  0.00000000E+00  0.00000000E+00
  0.00000000E+00  0.00000000E+00  0.00000000E+00
  0.00000000E+00  0.00000000E+00  0.00000000E+00
  0.00000000E+00  0.00000000E+00  0.00000000E+00
  0.00000000E+00  0.00000000E+00  0.00000000E+00
  0.00000000E+00  0.00000000E+00  0.00000000E+00
  0.00000000E+00  0.00000000E+00  0.00000000E+00
  0.00000000E+00  0.00000000E+00  0.00000000E+00
  0.00000000E+00  0.00000000E+00  0.00000000E+00
  0.00000000E+00  0.00000000E+00  0.00000000E+00
  0.00000000E+00  0.00000000E+00  0.00000000E+00
  0.00000000E+00  0.00000000E+00  0.00000000E+00
  0.00000000E+00  0.00000000E+00  0.00000000E+00
  0.00000000E+00  0.00000000E+00  0.00000000E+00
  0.00000000E+00  0.00000000E+00  0.00000000E+00
  0.00000000E+00  0.00000000E+00  0.00000000E+00
  0.00000000E+00  0.00000000E+00  0.00000000E+00
  0.00000000E+00  0.00000000E+00  0.00000000E+00
  0.00000000E+00  0.00000000E+00  0.00000000E+00
  0.00000000E+00  0.00000000E+00  0.00000000E+00
  0.00000000E+00  0.00000000E+00  0.00000000E+00
  0.00000000E+00  0.00000000E+00  0.00000000E+00
  0.00000000E+00  0.00000000E+00  0.00000000E+00
  0.00000000E+00  0.00000000E+00  0.00000000E+00
