Zn Mg N O                               
   1.00000000000000     
     8.4141216974800006    0.0000000000000000    0.0000000000000000
     0.0000000000000000    8.4141216974800006    0.0000000000000000
     0.0000000000000000    0.0000000000000000   23.4141216974799988
   Zn   Mg   N    O 
     1    32     1    34
Selective dynamics
Direct
  0.0046378945251913  0.7457590294461042  0.3714343157912581   T   T   T
  0.2502214075569152  0.0002092707869365  0.0040599993535076   T   T   T
  0.2501843347017690  0.4998206289052520  0.0041245093886405   T   T   T
  0.7498544681447026  0.0001521122203818  0.0040201357545825   T   T   T
  0.7497939011258047  0.4997805129037489  0.0040600669450384   T   T   T
  0.0001075594792103  0.2500161334802279  0.0039413599037272   T   T   T
  0.0000639620894337  0.7499410698059711  0.0035458115255175   T   T   T
  0.4999968943206768  0.2500116052297687  0.0042681660240081   T   T   T
  0.4999796533585595  0.7499035966444455  0.0039535458986133   T   T   T
  0.0002368773406850  0.0007372288773634  0.0929848961943692   T   T   T
  0.9999325910506129  0.4991764198720489  0.0931635780222325   T   T   T
  0.4999184424585666  0.0002652303880487  0.0937834638525236   T   T   T
  0.4999477387058851  0.4995464018615188  0.0938692745183311   T   T   T
  0.2505000219067141  0.2500792628066684  0.0938565863227614   T   T   T
  0.2508664049813016  0.7501022384288107  0.0931784991256917   T   T   T
  0.7497579933006691  0.2501099657941997  0.0937763649658255   T   T   T
  0.7492683485086367  0.7497736203647110  0.0929982634804363   T   T   T
  0.2508762828457660  0.0024957134493741  0.1846535947544912   T   T   T
  0.2519717148035523  0.4980375521236022  0.1848591666818780   T   T   T
  0.7494882874502489  0.0005824548624932  0.1840792567568321   T   T   T
  0.7475959738032278  0.4991486402211996  0.1846480862407824   T   T   T
  0.0020306235648804  0.2502223518948567  0.1839938869303120   T   T   T
  0.0004290420922729  0.7496246618262257  0.1796753238696824   T   T   T
  0.4984749081883709  0.2515506177642464  0.1848778791457089   T   T   T
  0.4998244082147715  0.7480678972757752  0.1840040123100581   T   T   T
  0.0008738565359942  0.0095204162268791  0.2728503444529364   T   T   T
  0.0002722664995885  0.4901654309071887  0.2722892926808484   T   T   T
  0.4999474124334906  0.0015921580437293  0.2735672474950698   T   T   T
  0.4978856034686474  0.4961162888203196  0.2820958989248366   T   T   T
  0.2539412629104398  0.2521857007011003  0.2821517899255261   T   T   T
  0.2599317013589818  0.7498052399519300  0.2722720157583412   T   T   T
  0.7485258028588038  0.2501275354504848  0.2735542812761536   T   T   T
  0.7405219540216105  0.7492060953791823  0.2728462736189954   T   T   T
  0.3725963795295122  0.3782003434412121  0.3994184171547513   T   T   T
  0.0000243246391711  0.0002005964245002  0.0016615615496178   T   T   T
  0.0000001100784346  0.4997489643351984  0.0017451961065102   T   T   T
  0.5000530974348074  0.9999362559582182  0.0019966163921673   T   T   T
  0.4999833245115084  0.4999829752343086  0.0019840647778690   T   T   T
  0.2500315657372174  0.2500214104915218  0.0019785093442963   T   T   T
  0.2502425138541475  0.7500085625698175  0.0017580995057792   T   T   T
  0.7500661095774638  0.2499547154586091  0.0019911499068516   T   T   T
  0.7498170220863266  0.7499828729772686  0.0016907857770113   T   T   T
  0.2495880146862274  0.9997464688827951  0.0937886260501362   T   T   T
  0.2495836611989743  0.5004466417116791  0.0938697332305346   T   T   T
  0.7505884317690484  0.9994363441624353  0.0938192722734218   T   T   T
  0.7502825663953075  0.5004333087639274  0.0937917928963602   T   T   T
  0.0001244208411860  0.2497857576934812  0.0939170820569778   T   T   T
  0.9998919339313888  0.7501439579406946  0.0927073948040142   T   T   T
  0.5001556178360848  0.2498778986101094  0.0938760496404224   T   T   T
  0.5002292993657791  0.7499056774545734  0.0939293499575520   T   T   T
  0.9999285241375176  0.9961442560017090  0.1843290981474535   T   T   T
  0.9989164758147663  0.5035830060264253  0.1838186914369462   T   T   T
  0.5004266896274017  0.9982474067659418  0.1834314845518829   T   T   T
  0.5003745267307147  0.5009617947282966  0.1837824812305595   T   T   T
  0.2490766378853013  0.2496631877949874  0.1837654725756693   T   T   T
  0.2464391932815573  0.7511623998645901  0.1838245016362201   T   T   T
  0.7518342323481181  0.2496107782195009  0.1834225124987056   T   T   T
  0.7538959678808924  0.7501214258223353  0.1843208735303738   T   T   T
  0.2481335710532005  0.9966642329533237  0.2755184794234319   T   T   T
  0.2439747452705673  0.5060888685589283  0.2730812312614985   T   T   T
  0.7525701073987019  0.9975223389724652  0.2756059727040842   T   T   T
  0.7534342869184264  0.5019284772405941  0.2754839947603182   T   T   T
  0.9984113075855642  0.2495187289016504  0.2746479156581145   T   T   T
  0.9990256768782919  0.7510639722320235  0.2879936391787500   T   T   T
  0.5041031326672122  0.2459751773794022  0.2729026298404763   T   T   T
  0.5005399868211000  0.7517452268705955  0.2746253411946875   T   T   T
  0.2822233893980537  0.2852930045631187  0.3716803023474177   T   T   T
  0.4654275907661091  0.4685699647369885  0.3716240191816303   T   T   T
 
  0.00000000E+00  0.00000000E+00  0.00000000E+00
  0.00000000E+00  0.00000000E+00  0.00000000E+00
  0.00000000E+00  0.00000000E+00  0.00000000E+00
  0.00000000E+00  0.00000000E+00  0.00000000E+00
  0.00000000E+00  0.00000000E+00  0.00000000E+00
  0.00000000E+00  0.00000000E+00  0.00000000E+00
  0.00000000E+00  0.00000000E+00  0.00000000E+00
  0.00000000E+00  0.00000000E+00  0.00000000E+00
  0.00000000E+00  0.00000000E+00  0.00000000E+00
  0.00000000E+00  0.00000000E+00  0.00000000E+00
  0.00000000E+00  0.00000000E+00  0.00000000E+00
  0.00000000E+00  0.00000000E+00  0.00000000E+00
  0.00000000E+00  0.00000000E+00  0.00000000E+00
  0.00000000E+00  0.00000000E+00  0.00000000E+00
  0.00000000E+00  0.00000000E+00  0.00000000E+00
  0.00000000E+00  0.00000000E+00  0.00000000E+00
  0.00000000E+00  0.00000000E+00  0.00000000E+00
  0.00000000E+00  0.00000000E+00  0.00000000E+00
  0.00000000E+00  0.00000000E+00  0.00000000E+00
  0.00000000E+00  0.00000000E+00  0.00000000E+00
  0.00000000E+00  0.00000000E+00  0.00000000E+00
  0.00000000E+00  0.00000000E+00  0.00000000E+00
  0.00000000E+00  0.00000000E+00  0.00000000E+00
  0.00000000E+00  0.00000000E+00  0.00000000E+00
  0.00000000E+00  0.00000000E+00  0.00000000E+00
  0.00000000E+00  0.00000000E+00  0.00000000E+00
  0.00000000E+00  0.00000000E+00  0.00000000E+00
  0.00000000E+00  0.00000000E+00  0.00000000E+00
  0.00000000E+00  0.00000000E+00  0.00000000E+00
  0.00000000E+00  0.00000000E+00  0.00000000E+00
  0.00000000E+00  0.00000000E+00  0.00000000E+00
  0.00000000E+00  0.00000000E+00  0.00000000E+00
  0.00000000E+00  0.00000000E+00  0.00000000E+00
  0.00000000E+00  0.00000000E+00  0.00000000E+00
  0.00000000E+00  0.00000000E+00  0.00000000E+00
  0.00000000E+00  0.00000000E+00  0.00000000E+00
  0.00000000E+00  0.00000000E+00  0.00000000E+00
  0.00000000E+00  0.00000000E+00  0.00000000E+00
  0.00000000E+00  0.00000000E+00  0.00000000E+00
  0.00000000E+00  0.00000000E+00  0.00000000E+00
  0.00000000E+00  0.00000000E+00  0.00000000E+00
  0.00000000E+00  0.00000000E+00  0.00000000E+00
  0.00000000E+00  0.00000000E+00  0.00000000E+00
  0.00000000E+00  0.00000000E+00  0.00000000E+00
  0.00000000E+00  0.00000000E+00  0.00000000E+00
  0.00000000E+00  0.00000000E+00  0.00000000E+00
  0.00000000E+00  0.00000000E+00  0.00000000E+00
  0.00000000E+00  0.00000000E+00  0.00000000E+00
  0.00000000E+00  0.00000000E+00  0.00000000E+00
  0.00000000E+00  0.00000000E+00  0.00000000E+00
  0.00000000E+00  0.00000000E+00  0.00000000E+00
  0.00000000E+00  0.00000000E+00  0.00000000E+00
  0.00000000E+00  0.00000000E+00  0.00000000E+00
  0.00000000E+00  0.00000000E+00  0.00000000E+00
  0.00000000E+00  0.00000000E+00  0.00000000E+00
  0.00000000E+00  0.00000000E+00  0.00000000E+00
  0.00000000E+00  0.00000000E+00  0.00000000E+00
  0.00000000E+00  0.00000000E+00  0.00000000E+00
  0.00000000E+00  0.00000000E+00  0.00000000E+00
  0.00000000E+00  0.00000000E+00  0.00000000E+00
  0.00000000E+00  0.00000000E+00  0.00000000E+00
  0.00000000E+00  0.00000000E+00  0.00000000E+00
  0.00000000E+00  0.00000000E+00  0.00000000E+00
  0.00000000E+00  0.00000000E+00  0.00000000E+00
  0.00000000E+00  0.00000000E+00  0.00000000E+00
  0.00000000E+00  0.00000000E+00  0.00000000E+00
  0.00000000E+00  0.00000000E+00  0.00000000E+00
  0.00000000E+00  0.00000000E+00  0.00000000E+00
