Fe Mg N O                               
   1.00000000000000     
     8.4141216974800006    0.0000000000000000    0.0000000000000000
     0.0000000000000000    8.4141216974800006    0.0000000000000000
     0.0000000000000000    0.0000000000000000   23.4141216974799988
   Fe   Mg   N    O 
     1    32     1    34
Selective dynamics
Direct
  0.0055520432679292  0.7445831084245526  0.3622249368713997   T   T   T
  0.2501989987866000  0.0001778716836468  0.0039687456719131   T   T   T
  0.2500345075188578  0.4999608291507653  0.0040540235061073   T   T   T
  0.7498947989320071  0.0001135681634789  0.0039401817688309   T   T   T
  0.7498370230573167  0.4997801859935949  0.0039698824651312   T   T   T
  0.0000135174565201  0.2500533740886453  0.0038381192047519   T   T   T
 -0.0000042651263060  0.7499999461422623  0.0033257263601281   T   T   T
  0.5000780304515969  0.2499310923477248  0.0042376334367036   T   T   T
  0.4999376856033742  0.7499868442974793  0.0038237476249207   T   T   T
  0.0003283584674681  0.0009084833856655  0.0928502233641965   T   T   T
 -0.0000714262165568  0.4991652534437065  0.0931005377091031   T   T   T
  0.4998727531372363  0.0002860951075473  0.0937838927684139   T   T   T
  0.4997963192228693  0.4995215337606725  0.0938112731867955   T   T   T
  0.2505098958235722  0.2502312912926438  0.0938102898739683   T   T   T
  0.2508488980993486  0.7501206574227361  0.0931043220999442   T   T   T
  0.7497461537678084  0.2501513288497494  0.0937913842103840   T   T   T
  0.7491184529379622  0.7496773298334309  0.0928521405580682   T   T   T
  0.2505574013327396  0.0024492337164918  0.1845777614181750   T   T   T
  0.2516571468804578  0.4983517036642954  0.1848910946184300   T   T   T
  0.7498213736397233  0.0002677856647698  0.1839339577748100   T   T   T
  0.7476822480348886  0.4994486866726572  0.1845767771511138   T   T   T
  0.0022021743236764  0.2503369432531874  0.1838261950306852   T   T   T
  0.0003510948253339  0.7497030466554060  0.1793174416866264   T   T   T
  0.4982336902433232  0.2517877024072657  0.1846310356359160   T   T   T
  0.4997012348494109  0.7479029947088518  0.1837885227652615   T   T   T
  0.0009814226039716  0.0123985417482083  0.2731835293999736   T   T   T
  0.0002809834293763  0.4872453490361842  0.2727684556591322   T   T   T
  0.4998397715430902  0.0021915920685694  0.2731213689526175   T   T   T
  0.4973326779588764  0.4949910875521206  0.2828199515085708   T   T   T
  0.2551338910786825  0.2527412689483113  0.2829637709474340   T   T   T
  0.2628509888187286  0.7498233130443287  0.2727340407083958   T   T   T
  0.7478755227911166  0.2502465492408356  0.2731703189990957   T   T   T
  0.7376187548158872  0.7490940689711536  0.2731544052186918   T   T   T
  0.3734032622776141  0.3776268442421304  0.4006357601144411   T   T   T
  0.0000069154682618  0.0003259502595080  0.0014758352910199   T   T   T
  0.9999419829612926  0.4997253454084484  0.0015808696736301   T   T   T
  0.5000763240380766 -0.0000431402606192  0.0019485792768767   T   T   T
  0.4999376871486114  0.4999706243263935  0.0019336231856539   T   T   T
  0.2500290820889692  0.2500718039501590  0.0019366467332906   T   T   T
  0.2502637907533749  0.7500573750196122  0.0015700240328528   T   T   T
  0.7500594774040478  0.2499183438963175  0.0019538191392535   T   T   T
  0.7496613462227439  0.7499843579950675  0.0014736763842757   T   T   T
  0.2494896555537257 -0.0003566431272617  0.0936442874329976   T   T   T
  0.2493314964708019  0.5007163557271418  0.0936995632526864   T   T   T
  0.7507267265759215 -0.0007063032499369  0.0937043383031812   T   T   T
  0.7503848545862882  0.5005309044237229  0.0936524611986643   T   T   T
  0.0000386416350097  0.2498615987618639  0.0937897901905127   T   T   T
 -0.0001961283415972  0.7502388742759994  0.0924856937960590   T   T   T
  0.5002354024398262  0.2498063965123606  0.0937302618363620   T   T   T
  0.5001503650148530  0.7499787388623245  0.0937777377428753   T   T   T
 -0.0000150320104725  0.9960735166185994  0.1843857930624242   T   T   T
 -0.0011157983368926  0.5038739426876127  0.1839393983771458   T   T   T
  0.5003818962992558 -0.0018833557014226  0.1832505213254975   T   T   T
  0.5002455059975406  0.5010209505565758  0.1835983721021986   T   T   T
  0.2489920450945112  0.2498128501417675  0.1835660813835434   T   T   T
  0.2461399762374929  0.7512181480446187  0.1839274128434033   T   T   T
  0.7519934316930773  0.2496524060416447  0.1832676579241642   T   T   T
  0.7540031626855763  0.7500768118052056  0.1843579079614071   T   T   T
  0.2480975892194272  0.9965578589099716  0.2752123657037679   T   T   T
  0.2435627543855947  0.5065193706174634  0.2728735422151500   T   T   T
  0.7525997738741288 -0.0025408250011557  0.2751616840214734   T   T   T
  0.7535585043757237  0.5019991948432522  0.2751865001877891   T   T   T
  0.9981921192685436  0.2494647528984313  0.2746804761803822   T   T   T
 -0.0019688405611095  0.7520647155075565  0.2867380943315044   T   T   T
  0.5041822231540467  0.2458620571598141  0.2725407770822092   T   T   T
  0.5005886764632752  0.7519413804686329  0.2745801584014357   T   T   T
  0.2831015790673141  0.2847868973829843  0.3721623071175252   T   T   T
  0.4659614589803057  0.4676733217123131  0.3720390440926500   T   T   T
 
  0.00000000E+00  0.00000000E+00  0.00000000E+00
  0.00000000E+00  0.00000000E+00  0.00000000E+00
  0.00000000E+00  0.00000000E+00  0.00000000E+00
  0.00000000E+00  0.00000000E+00  0.00000000E+00
  0.00000000E+00  0.00000000E+00  0.00000000E+00
  0.00000000E+00  0.00000000E+00  0.00000000E+00
  0.00000000E+00  0.00000000E+00  0.00000000E+00
  0.00000000E+00  0.00000000E+00  0.00000000E+00
  0.00000000E+00  0.00000000E+00  0.00000000E+00
  0.00000000E+00  0.00000000E+00  0.00000000E+00
  0.00000000E+00  0.00000000E+00  0.00000000E+00
  0.00000000E+00  0.00000000E+00  0.00000000E+00
  0.00000000E+00  0.00000000E+00  0.00000000E+00
  0.00000000E+00  0.00000000E+00  0.00000000E+00
  0.00000000E+00  0.00000000E+00  0.00000000E+00
  0.00000000E+00  0.00000000E+00  0.00000000E+00
  0.00000000E+00  0.00000000E+00  0.00000000E+00
  0.00000000E+00  0.00000000E+00  0.00000000E+00
  0.00000000E+00  0.00000000E+00  0.00000000E+00
  0.00000000E+00  0.00000000E+00  0.00000000E+00
  0.00000000E+00  0.00000000E+00  0.00000000E+00
  0.00000000E+00  0.00000000E+00  0.00000000E+00
  0.00000000E+00  0.00000000E+00  0.00000000E+00
  0.00000000E+00  0.00000000E+00  0.00000000E+00
  0.00000000E+00  0.00000000E+00  0.00000000E+00
  0.00000000E+00  0.00000000E+00  0.00000000E+00
  0.00000000E+00  0.00000000E+00  0.00000000E+00
  0.00000000E+00  0.00000000E+00  0.00000000E+00
  0.00000000E+00  0.00000000E+00  0.00000000E+00
  0.00000000E+00  0.00000000E+00  0.00000000E+00
  0.00000000E+00  0.00000000E+00  0.00000000E+00
  0.00000000E+00  0.00000000E+00  0.00000000E+00
  0.00000000E+00  0.00000000E+00  0.00000000E+00
  0.00000000E+00  0.00000000E+00  0.00000000E+00
  0.00000000E+00  0.00000000E+00  0.00000000E+00
  0.00000000E+00  0.00000000E+00  0.00000000E+00
  0.00000000E+00  0.00000000E+00  0.00000000E+00
  0.00000000E+00  0.00000000E+00  0.00000000E+00
  0.00000000E+00  0.00000000E+00  0.00000000E+00
  0.00000000E+00  0.00000000E+00  0.00000000E+00
  0.00000000E+00  0.00000000E+00  0.00000000E+00
  0.00000000E+00  0.00000000E+00  0.00000000E+00
  0.00000000E+00  0.00000000E+00  0.00000000E+00
  0.00000000E+00  0.00000000E+00  0.00000000E+00
  0.00000000E+00  0.00000000E+00  0.00000000E+00
  0.00000000E+00  0.00000000E+00  0.00000000E+00
  0.00000000E+00  0.00000000E+00  0.00000000E+00
  0.00000000E+00  0.00000000E+00  0.00000000E+00
  0.00000000E+00  0.00000000E+00  0.00000000E+00
  0.00000000E+00  0.00000000E+00  0.00000000E+00
  0.00000000E+00  0.00000000E+00  0.00000000E+00
  0.00000000E+00  0.00000000E+00  0.00000000E+00
  0.00000000E+00  0.00000000E+00  0.00000000E+00
  0.00000000E+00  0.00000000E+00  0.00000000E+00
  0.00000000E+00  0.00000000E+00  0.00000000E+00
  0.00000000E+00  0.00000000E+00  0.00000000E+00
  0.00000000E+00  0.00000000E+00  0.00000000E+00
  0.00000000E+00  0.00000000E+00  0.00000000E+00
  0.00000000E+00  0.00000000E+00  0.00000000E+00
  0.00000000E+00  0.00000000E+00  0.00000000E+00
  0.00000000E+00  0.00000000E+00  0.00000000E+00
  0.00000000E+00  0.00000000E+00  0.00000000E+00
  0.00000000E+00  0.00000000E+00  0.00000000E+00
  0.00000000E+00  0.00000000E+00  0.00000000E+00
  0.00000000E+00  0.00000000E+00  0.00000000E+00
  0.00000000E+00  0.00000000E+00  0.00000000E+00
  0.00000000E+00  0.00000000E+00  0.00000000E+00
  0.00000000E+00  0.00000000E+00  0.00000000E+00
