Cd Mg N O                               
   1.00000000000000     
     8.4141216974800006    0.0000000000000000    0.0000000000000000
     0.0000000000000000    8.4141216974800006    0.0000000000000000
     0.0000000000000000    0.0000000000000000   23.4141216974799988
   Cd   Mg   N    O 
     1    32     1    34
Selective dynamics
Direct
  0.0061061149915328  0.7442517190679834  0.3825893337174457   T   T   T
  0.2500831999972560  0.0000697846889921  0.0039793351848472   T   T   T
  0.2500618145484737  0.4999482939976170  0.0040312575190779   T   T   T
  0.7500074871762024  0.0000183144056350  0.0039400742975218   T   T   T
  0.7499565633852896  0.4999161164963306  0.0039791808990192   T   T   T
  0.0000975768351851  0.2500074790373761  0.0039538913698230   T   T   T
  0.0000573539894756  0.7499590342323506  0.0036774389221961   T   T   T
  0.5000124333750742  0.2500011277653881  0.0041386459917944   T   T   T
  0.5000016336218855  0.7499270722108138  0.0039675697130548   T   T   T
  0.0002043264563006  0.0005370673726128  0.0930352994458300   T   T   T
 -0.0000191851452982  0.4994055517780341  0.0931973473600745   T   T   T
  0.4999257165899076  0.0003508325630219  0.0936143261570716   T   T   T
  0.4999542861225241  0.4995165592282762  0.0937326030226880   T   T   T
  0.2505301810816817  0.2500752844534809  0.0937353069076112   T   T   T
  0.2506195009876163  0.7500459911133114  0.0932061205907106   T   T   T
  0.7496824301077160  0.2501131331106150  0.0936157347006761   T   T   T
  0.7494682473482031  0.7498072605783471  0.0930531692427791   T   T   T
  0.2507351932573660  0.0020196036283147  0.1843434578955420   T   T   T
  0.2516476369783831  0.4983673862217485  0.1844897434761534   T   T   T
  0.7495210211125914  0.0005647914700560  0.1838762112599033   T   T   T
  0.7480553269573856  0.4992987799772349  0.1843391693468197   T   T   T
  0.0016013164679289  0.2501651103219921  0.1839248770713571   T   T   T
  0.0003234524122821  0.7497295630962784  0.1811373510648639   T   T   T
  0.4987951566727000  0.2512282844217569  0.1846935692302283   T   T   T
  0.4998714460980666  0.7484872012380198  0.1839312183453829   T   T   T
  0.0005968735526144  0.0070539484631584  0.2724890338876333   T   T   T
  0.0000596187307840  0.4926972480328513  0.2720755555942466   T   T   T
  0.4999062161677111  0.0009428910253395  0.2734180813574059   T   T   T
  0.4984719518106727  0.4972967005538679  0.2803286718596517   T   T   T
  0.2527948207821554  0.2516156404126536  0.2803698013079005   T   T   T
  0.2573524220287621  0.7500133158816041  0.2720672874470787   T   T   T
  0.7491478204336263  0.2501776936670186  0.2734035144635443   T   T   T
  0.7430424847272885  0.7494938341267212  0.2724905409005333   T   T   T
  0.3721411068701881  0.3785980000862285  0.3991837325727849   T   T   T
  0.0000463226014945  0.0002039273294055  0.0017003698858758   T   T   T
  0.0000337779908410  0.4997571084325087  0.0017848477438464   T   T   T
  0.5000485170352658 -0.0000399825774888  0.0018643321930736   T   T   T
  0.4999827398229941  0.4999710514290147  0.0018588764442106   T   T   T
  0.2500510952122943  0.2500309497577012  0.0018585300832057   T   T   T
  0.2502441376411917  0.7499830077972501  0.0017881632923852   T   T   T
  0.7500452896735329  0.2499696721195149  0.0018641403147441   T   T   T
  0.7498213115879167  0.7499720192643090  0.0017275763285789   T   T   T
  0.2497183698271219 -0.0001583121540342  0.0937212538406514   T   T   T
  0.2497332477974999  0.5002866795277342  0.0937942247454021   T   T   T
  0.7504188111499981  0.9996129383924696  0.0937129360868746   T   T   T
  0.7501814770919174  0.5003068469270152  0.0937205723447577   T   T   T
  0.0001237005987350  0.2498668778801179  0.0938579167804037   T   T   T
  0.9999268816972624  0.7500881151802155  0.0930857942543891   T   T   T
  0.5000889424153940  0.2499479956415311  0.0937514476642128   T   T   T
  0.5001608362966313  0.7499156749801573  0.0938689550531752   T   T   T
  0.9998817409695689  0.9972636431074119  0.1838902604102280   T   T   T
  0.9992253521334804  0.5026034353167991  0.1835636750963600   T   T   T
  0.5003817244937068  0.9988388742029251  0.1833930793960796   T   T   T
  0.5003268087578315  0.5006496955527827  0.1839022440653560   T   T   T
  0.2493688933005222  0.2497113243372342  0.1839011930424821   T   T   T
  0.2474150979129097  0.7508315544016121  0.1835612145823072   T   T   T
  0.7512438020510547  0.2496967341722827  0.1833762460968035   T   T   T
  0.7528158945595914  0.7501840794311823  0.1838903546865466   T   T   T
  0.2486534167764828  0.9974546277480941  0.2753351849392179   T   T   T
  0.2453751461787698  0.5046898082885392  0.2733210357056440   T   T   T
  0.7518513667214374  0.9982480337736812  0.2755278135670532   T   T   T
  0.7526367111874046  0.5013986005643620  0.2753170083103686   T   T   T
  0.9984959499527482  0.2496246259472608  0.2746820817437094   T   T   T
  0.9994466717162628  0.7506357064831336  0.2828180176351754   T   T   T
  0.5035980649095099  0.2464873468405608  0.2734747294316527   T   T   T
  0.5004418516620573  0.7516339427055122  0.2746608806518842   T   T   T
  0.2818201237098563  0.2852828905860201  0.3723495153781096   T   T   T
  0.4654364085792451  0.4688599743461754  0.3722866065539943   T   T   T
 
  0.00000000E+00  0.00000000E+00  0.00000000E+00
  0.00000000E+00  0.00000000E+00  0.00000000E+00
  0.00000000E+00  0.00000000E+00  0.00000000E+00
  0.00000000E+00  0.00000000E+00  0.00000000E+00
  0.00000000E+00  0.00000000E+00  0.00000000E+00
  0.00000000E+00  0.00000000E+00  0.00000000E+00
  0.00000000E+00  0.00000000E+00  0.00000000E+00
  0.00000000E+00  0.00000000E+00  0.00000000E+00
  0.00000000E+00  0.00000000E+00  0.00000000E+00
  0.00000000E+00  0.00000000E+00  0.00000000E+00
  0.00000000E+00  0.00000000E+00  0.00000000E+00
  0.00000000E+00  0.00000000E+00  0.00000000E+00
  0.00000000E+00  0.00000000E+00  0.00000000E+00
  0.00000000E+00  0.00000000E+00  0.00000000E+00
  0.00000000E+00  0.00000000E+00  0.00000000E+00
  0.00000000E+00  0.00000000E+00  0.00000000E+00
  0.00000000E+00  0.00000000E+00  0.00000000E+00
  0.00000000E+00  0.00000000E+00  0.00000000E+00
  0.00000000E+00  0.00000000E+00  0.00000000E+00
  0.00000000E+00  0.00000000E+00  0.00000000E+00
  0.00000000E+00  0.00000000E+00  0.00000000E+00
  0.00000000E+00  0.00000000E+00  0.00000000E+00
  0.00000000E+00  0.00000000E+00  0.00000000E+00
  0.00000000E+00  0.00000000E+00  0.00000000E+00
  0.00000000E+00  0.00000000E+00  0.00000000E+00
  0.00000000E+00  0.00000000E+00  0.00000000E+00
  0.00000000E+00  0.00000000E+00  0.00000000E+00
  0.00000000E+00  0.00000000E+00  0.00000000E+00
  0.00000000E+00  0.00000000E+00  0.00000000E+00
  0.00000000E+00  0.00000000E+00  0.00000000E+00
  0.00000000E+00  0.00000000E+00  0.00000000E+00
  0.00000000E+00  0.00000000E+00  0.00000000E+00
  0.00000000E+00  0.00000000E+00  0.00000000E+00
  0.00000000E+00  0.00000000E+00  0.00000000E+00
  0.00000000E+00  0.00000000E+00  0.00000000E+00
  0.00000000E+00  0.00000000E+00  0.00000000E+00
  0.00000000E+00  0.00000000E+00  0.00000000E+00
  0.00000000E+00  0.00000000E+00  0.00000000E+00
  0.00000000E+00  0.00000000E+00  0.00000000E+00
  0.00000000E+00  0.00000000E+00  0.00000000E+00
  0.00000000E+00  0.00000000E+00  0.00000000E+00
  0.00000000E+00  0.00000000E+00  0.00000000E+00
  0.00000000E+00  0.00000000E+00  0.00000000E+00
  0.00000000E+00  0.00000000E+00  0.00000000E+00
  0.00000000E+00  0.00000000E+00  0.00000000E+00
  0.00000000E+00  0.00000000E+00  0.00000000E+00
  0.00000000E+00  0.00000000E+00  0.00000000E+00
  0.00000000E+00  0.00000000E+00  0.00000000E+00
  0.00000000E+00  0.00000000E+00  0.00000000E+00
  0.00000000E+00  0.00000000E+00  0.00000000E+00
  0.00000000E+00  0.00000000E+00  0.00000000E+00
  0.00000000E+00  0.00000000E+00  0.00000000E+00
  0.00000000E+00  0.00000000E+00  0.00000000E+00
  0.00000000E+00  0.00000000E+00  0.00000000E+00
  0.00000000E+00  0.00000000E+00  0.00000000E+00
  0.00000000E+00  0.00000000E+00  0.00000000E+00
  0.00000000E+00  0.00000000E+00  0.00000000E+00
  0.00000000E+00  0.00000000E+00  0.00000000E+00
  0.00000000E+00  0.00000000E+00  0.00000000E+00
  0.00000000E+00  0.00000000E+00  0.00000000E+00
  0.00000000E+00  0.00000000E+00  0.00000000E+00
  0.00000000E+00  0.00000000E+00  0.00000000E+00
  0.00000000E+00  0.00000000E+00  0.00000000E+00
  0.00000000E+00  0.00000000E+00  0.00000000E+00
  0.00000000E+00  0.00000000E+00  0.00000000E+00
  0.00000000E+00  0.00000000E+00  0.00000000E+00
  0.00000000E+00  0.00000000E+00  0.00000000E+00
  0.00000000E+00  0.00000000E+00  0.00000000E+00
