Mg N O V                                
   1.00000000000000     
     8.4141216974800006    0.0000000000000000    0.0000000000000000
     0.0000000000000000    8.4141216974800006    0.0000000000000000
     0.0000000000000000    0.0000000000000000   23.4141216974799988
   Mg   N    O    V 
    32     1    34     1
Selective dynamics
Direct
  0.2502152641134326  0.0002410709900257  0.0039228507309096   T   T   T
  0.2501750778188789  0.4998182693094605  0.0039798793483482   T   T   T
  0.7497894981614761  0.0002177503093439  0.0039140655643732   T   T   T
  0.7497661117900128  0.4997637190088589  0.0039243222987200   T   T   T
  0.0000516734031991  0.2500510301792645  0.0038029688953010   T   T   T
  0.0000042466792488  0.7499922170659994  0.0033577422616504   T   T   T
  0.5000201553360021  0.2499872949418964  0.0041310760598722   T   T   T
  0.4999348379464146  0.7499467079261893  0.0037941109384474   T   T   T
  0.0002090402275663  0.0008559725213839  0.0927892244896877   T   T   T
 -0.0000661488609696  0.4991774442855753  0.0930010560941925   T   T   T
  0.4998012355304695  0.0002628153470284  0.0936965863354453   T   T   T
  0.4999324941162743  0.4995717877499903  0.0937538380502963   T   T   T
  0.2504605559079183  0.2500835033482940  0.0937506949379716   T   T   T
  0.2508326617449237  0.7501011984015880  0.0930003192120437   T   T   T
  0.7497484649009433  0.2502191411256095  0.0937038585902458   T   T   T
  0.7491650848360090  0.7497995629047921  0.0927893146501570   T   T   T
  0.2505468814854335  0.0025157311070762  0.1845367723996427   T   T   T
  0.2520472836221782  0.4979666711765294  0.1847571339302926   T   T   T
  0.7494593457904085  0.0006187275961387  0.1838525630937309   T   T   T
  0.7475931133431963  0.4994649146749048  0.1845332024212976   T   T   T
  0.0022428879994436  0.2503170956594138  0.1837782109067689   T   T   T
  0.0003778240362095  0.7496664571013318  0.1792213016266367   T   T   T
  0.4981775761377348  0.2518352083809722  0.1846671726396003   T   T   T
  0.4997266240374982  0.7478558357938427  0.1837532052507351   T   T   T
  0.0001532240884031  0.0117783014598908  0.2728123638879469   T   T   T
  0.0010660707638719  0.4879029830426235  0.2723027474427265   T   T   T
  0.4996992073920998  0.0021406949495893  0.2731536386238215   T   T   T
  0.4973689512298451  0.4951415749737106  0.2829295683426670   T   T   T
  0.2549553925730226  0.2527263562044750  0.2830486776790059   T   T   T
  0.2622138487997127  0.7490142610692790  0.2722640470741878   T   T   T
  0.7479434947880484  0.2503846739411302  0.2731819772931156   T   T   T
  0.7382548776557535  0.7499034942945444  0.2727869785681134   T   T   T
  0.3742325677295155  0.3767220941436697  0.4005721221053976   T   T   T
 -0.0000439403076959  0.0002350375347356  0.0014625464377165   T   T   T
 -0.0000438145481360  0.4998012224706441  0.0015437575743746   T   T   T
  0.5000428827242818 -0.0000736588158391  0.0019051276970537   T   T   T
  0.4999859885163087  0.5000129179177042  0.0019006093807292   T   T   T
  0.2499873541234241  0.2500176540967519  0.0018995513835239   T   T   T
  0.2501940957331315  0.7500413628672321  0.0015374761663839   T   T   T
  0.7500761363332623  0.2499550081538808  0.0019061763023609   T   T   T
  0.7497478889015937  0.7500365833575305  0.0014580424787473   T   T   T
  0.2494401782747116 -0.0003537425489757  0.0936056660972185   T   T   T
  0.2494775553386167  0.5005543929026796  0.0936760787361168   T   T   T
  0.7505901142281995 -0.0005732403444514  0.0936617136793473   T   T   T
  0.7503691714382345  0.5005715011108074  0.0936116427192187   T   T   T
  0.0000661053282524  0.2498562137028410  0.0937506961833143   T   T   T
 -0.0001713092225893  0.7502126287193746  0.0924133626119025   T   T   T
  0.5001635596047729  0.2498642519434264  0.0937115860294144   T   T   T
  0.5001512509054420  0.7499471895711722  0.0937427377630682   T   T   T
 -0.0001491072127265  0.9958742857102674  0.1842757622546554   T   T   T
 -0.0010615474824645  0.5039983821334109  0.1838095699448313   T   T   T
  0.5001784914899080 -0.0019108373813556  0.1831844831408375   T   T   T
  0.5004714807976115  0.5011191060301159  0.1835033287590233   T   T   T
  0.2489081300700420  0.2495864463412458  0.1834754732796716   T   T   T
  0.2460242704304776  0.7511415547278936  0.1837974292580563   T   T   T
  0.7519956140779470  0.2498515139802268  0.1831911776026258   T   T   T
  0.7541653298742446  0.7501998283616654  0.1842520297338341   T   T   T
  0.2473454577047760  0.9958730318928045  0.2753165627927437   T   T   T
  0.2439249431983676  0.5061454394399534  0.2727147404185546   T   T   T
  0.7523019154796907 -0.0022334306810312  0.2750328392705797   T   T   T
  0.7542304256927806  0.5027365391438513  0.2752880952350930   T   T   T
  0.9981795438341982  0.2495352096542327  0.2745333571158485   T   T   T
 -0.0014465203577002  0.7515373106763030  0.2895253615664752   T   T   T
  0.5041908904039936  0.2458550136987960  0.2724697913151862   T   T   T
  0.5005260770942490  0.7519442845938971  0.2744600348673970   T   T   T
  0.2834718178539405  0.2844478388514912  0.3720320865335142   T   T   T
  0.4663921154198061  0.4673631901959067  0.3719146905130292   T   T   T
  0.0040720596769219  0.7462954914644235  0.3686505002741989   T   T   T
 
  0.00000000E+00  0.00000000E+00  0.00000000E+00
  0.00000000E+00  0.00000000E+00  0.00000000E+00
  0.00000000E+00  0.00000000E+00  0.00000000E+00
  0.00000000E+00  0.00000000E+00  0.00000000E+00
  0.00000000E+00  0.00000000E+00  0.00000000E+00
  0.00000000E+00  0.00000000E+00  0.00000000E+00
  0.00000000E+00  0.00000000E+00  0.00000000E+00
  0.00000000E+00  0.00000000E+00  0.00000000E+00
  0.00000000E+00  0.00000000E+00  0.00000000E+00
  0.00000000E+00  0.00000000E+00  0.00000000E+00
  0.00000000E+00  0.00000000E+00  0.00000000E+00
  0.00000000E+00  0.00000000E+00  0.00000000E+00
  0.00000000E+00  0.00000000E+00  0.00000000E+00
  0.00000000E+00  0.00000000E+00  0.00000000E+00
  0.00000000E+00  0.00000000E+00  0.00000000E+00
  0.00000000E+00  0.00000000E+00  0.00000000E+00
  0.00000000E+00  0.00000000E+00  0.00000000E+00
  0.00000000E+00  0.00000000E+00  0.00000000E+00
  0.00000000E+00  0.00000000E+00  0.00000000E+00
  0.00000000E+00  0.00000000E+00  0.00000000E+00
  0.00000000E+00  0.00000000E+00  0.00000000E+00
  0.00000000E+00  0.00000000E+00  0.00000000E+00
  0.00000000E+00  0.00000000E+00  0.00000000E+00
  0.00000000E+00  0.00000000E+00  0.00000000E+00
  0.00000000E+00  0.00000000E+00  0.00000000E+00
  0.00000000E+00  0.00000000E+00  0.00000000E+00
  0.00000000E+00  0.00000000E+00  0.00000000E+00
  0.00000000E+00  0.00000000E+00  0.00000000E+00
  0.00000000E+00  0.00000000E+00  0.00000000E+00
  0.00000000E+00  0.00000000E+00  0.00000000E+00
  0.00000000E+00  0.00000000E+00  0.00000000E+00
  0.00000000E+00  0.00000000E+00  0.00000000E+00
  0.00000000E+00  0.00000000E+00  0.00000000E+00
  0.00000000E+00  0.00000000E+00  0.00000000E+00
  0.00000000E+00  0.00000000E+00  0.00000000E+00
  0.00000000E+00  0.00000000E+00  0.00000000E+00
  0.00000000E+00  0.00000000E+00  0.00000000E+00
  0.00000000E+00  0.00000000E+00  0.00000000E+00
  0.00000000E+00  0.00000000E+00  0.00000000E+00
  0.00000000E+00  0.00000000E+00  0.00000000E+00
  0.00000000E+00  0.00000000E+00  0.00000000E+00
  0.00000000E+00  0.00000000E+00  0.00000000E+00
  0.00000000E+00  0.00000000E+00  0.00000000E+00
  0.00000000E+00  0.00000000E+00  0.00000000E+00
  0.00000000E+00  0.00000000E+00  0.00000000E+00
  0.00000000E+00  0.00000000E+00  0.00000000E+00
  0.00000000E+00  0.00000000E+00  0.00000000E+00
  0.00000000E+00  0.00000000E+00  0.00000000E+00
  0.00000000E+00  0.00000000E+00  0.00000000E+00
  0.00000000E+00  0.00000000E+00  0.00000000E+00
  0.00000000E+00  0.00000000E+00  0.00000000E+00
  0.00000000E+00  0.00000000E+00  0.00000000E+00
  0.00000000E+00  0.00000000E+00  0.00000000E+00
  0.00000000E+00  0.00000000E+00  0.00000000E+00
  0.00000000E+00  0.00000000E+00  0.00000000E+00
  0.00000000E+00  0.00000000E+00  0.00000000E+00
  0.00000000E+00  0.00000000E+00  0.00000000E+00
  0.00000000E+00  0.00000000E+00  0.00000000E+00
  0.00000000E+00  0.00000000E+00  0.00000000E+00
  0.00000000E+00  0.00000000E+00  0.00000000E+00
  0.00000000E+00  0.00000000E+00  0.00000000E+00
  0.00000000E+00  0.00000000E+00  0.00000000E+00
  0.00000000E+00  0.00000000E+00  0.00000000E+00
  0.00000000E+00  0.00000000E+00  0.00000000E+00
  0.00000000E+00  0.00000000E+00  0.00000000E+00
  0.00000000E+00  0.00000000E+00  0.00000000E+00
  0.00000000E+00  0.00000000E+00  0.00000000E+00
  0.00000000E+00  0.00000000E+00  0.00000000E+00
