Mo Mg N O                               
   1.00000000000000     
     8.4141216974800006    0.0000000000000000    0.0000000000000000
     0.0000000000000000    8.4141216974800006    0.0000000000000000
     0.0000000000000000    0.0000000000000000   23.4141216974799988
   Mo   Mg   N    O 
     1    32     1    34
Selective dynamics
Direct
  0.0095177165982512  0.7409071893304394  0.3750484685425176   T   T   T
  0.2502759195331052  0.0001810345118327  0.0039663019155029   T   T   T
  0.2501643574463193  0.4998554674934608  0.0040415041964433   T   T   T
  0.7498607168641009  0.0001594375913390  0.0039495597369853   T   T   T
  0.7498344274218781  0.4997332119872860  0.0039697140734879   T   T   T
  0.0000733705655605  0.2499949435868491  0.0038393101057465   T   T   T
  0.0000823449294216  0.7499333173895716  0.0033798234161659   T   T   T
  0.5000971629822129  0.2499294038552717  0.0041533606502316   T   T   T
  0.5000190707888523  0.7499522309222136  0.0038599100504266   T   T   T
  0.0003105953353055  0.0009112640499640  0.0928167471209559   T   T   T
  0.9999366870026809  0.4989689508745671  0.0930127442414744   T   T   T
  0.4999234578366329  0.0004428937023545  0.0936930319642096   T   T   T
  0.4999064487825092  0.4993399243485867  0.0936457025522910   T   T   T
  0.2507185955747339  0.2501326507180968  0.0936341924830358   T   T   T
  0.2510660970399696  0.7501149395691710  0.0930244702432315   T   T   T
  0.7495869375135956  0.2501128830878214  0.0936909244332041   T   T   T
  0.7491192185945673  0.7497081471530106  0.0928339060215789   T   T   T
  0.2508557103776222  0.0027916447431042  0.1845169520127959   T   T   T
  0.2521111504519353  0.4979229368964892  0.1847566370850750   T   T   T
  0.7495687115993936  0.0005123861322261  0.1838930761136077   T   T   T
  0.7473170843966940  0.4991623157598857  0.1845117841965934   T   T   T
  0.0022812096371255  0.2501228943898995  0.1837751793429165   T   T   T
  0.0004229239086661  0.7496363002209920  0.1790057443122873   T   T   T
  0.4981595614037800  0.2518675564249988  0.1849596067115100   T   T   T
  0.4999310544100893  0.7478286538841458  0.1837835962865070   T   T   T
  0.0008247168183965  0.0108334857960090  0.2727910111824681   T   T   T
  0.0001664310391431  0.4883617686511834  0.2719382757937807   T   T   T
  0.4999334912135454  0.0019769974546292  0.2733205733264808   T   T   T
  0.4973967985185127  0.4956647027839057  0.2832266380276579   T   T   T
  0.2544215581132949  0.2527106537720030  0.2832735731934855   T   T   T
  0.2617611991517912  0.7499080787906734  0.2719210766353129   T   T   T
  0.7481422894410666  0.2501462827469254  0.2733118067568115   T   T   T
  0.7392013002441202  0.7492412777791535  0.2727883537294321   T   T   T
  0.3706954986706199  0.3799224205492381  0.4008901527438131   T   T   T
  0.0000300355317109  0.0001869717208671  0.0015472188977593   T   T   T
  0.9999922665815008  0.4997416950020799  0.0016248501216681   T   T   T
  0.5001056575290455  0.9999015028601270  0.0018768337044871   T   T   T
  0.5000089464097189  0.4999868934345711  0.0018512536807426   T   T   T
  0.2500485647374222  0.2500085105418178  0.0018436605256053   T   T   T
  0.2502628738979430  0.7500268077913650  0.0016430340607172   T   T   T
  0.7501014560046281  0.2499124520456604  0.0018699469330421   T   T   T
  0.7498355482517434  0.7499841327344073  0.0015848933833442   T   T   T
  0.2495527447558815  0.9996553869008176  0.0936047095226386   T   T   T
  0.2494482273764038  0.5006015081177180  0.0936465168767816   T   T   T
  0.7507038953833624  0.9993354062062579  0.0937031795791662   T   T   T
  0.7503836326623130  0.5004724752258238  0.0936067809319826   T   T   T
  0.0000354220951512  0.2497430846438055  0.0937564698290278   T   T   T
  0.9998731835082346  0.7501858465340863  0.0923715030904694   T   T   T
  0.5002704490016487  0.2497698196708418  0.0936432608165260   T   T   T
  0.5002898927742854  0.7500085152620800  0.0937720652357041   T   T   T
  0.0000050039780796  0.9957744291343343  0.1843002055640345   T   T   T
  0.9988309753145994  0.5039216400293880  0.1837371735729002   T   T   T
  0.5003872385974445  0.9982209311329854  0.1832677050689238   T   T   T
  0.5002698688795837  0.5009711379221904  0.1834009288551913   T   T   T
  0.2490737432706183  0.2498069173534960  0.1833665132389499   T   T   T
  0.2461248695245861  0.7512427371231853  0.1837387247626454   T   T   T
  0.7518538238165909  0.2496519770161943  0.1832471191615956   T   T   T
  0.7542824004504641  0.7500567112563518  0.1843014470660185   T   T   T
  0.2479853595903051  0.9964359583077349  0.2752789074749017   T   T   T
  0.2432960637352320  0.5067737895868312  0.2728182893336546   T   T   T
  0.7525943607381529  0.9974828882548149  0.2751463648611463   T   T   T
  0.7536729143086337  0.5020720474064964  0.2752552540250526   T   T   T
  0.9984051402882709  0.2494086578701441  0.2743846335866678   T   T   T
  0.9982671886813055  0.7518387640766077  0.2898685601791413   T   T   T
  0.5041522975877406  0.2459401402396336  0.2727974180518001   T   T   T
  0.5006548228016650  0.7517262716662856  0.2743871287886500   T   T   T
  0.2812178872408712  0.2863159649260396  0.3723964286910239   T   T   T
  0.4641534610314317  0.4693598635156837  0.3723568418020269   T   T   T
 
  0.00000000E+00  0.00000000E+00  0.00000000E+00
  0.00000000E+00  0.00000000E+00  0.00000000E+00
  0.00000000E+00  0.00000000E+00  0.00000000E+00
  0.00000000E+00  0.00000000E+00  0.00000000E+00
  0.00000000E+00  0.00000000E+00  0.00000000E+00
  0.00000000E+00  0.00000000E+00  0.00000000E+00
  0.00000000E+00  0.00000000E+00  0.00000000E+00
  0.00000000E+00  0.00000000E+00  0.00000000E+00
  0.00000000E+00  0.00000000E+00  0.00000000E+00
  0.00000000E+00  0.00000000E+00  0.00000000E+00
  0.00000000E+00  0.00000000E+00  0.00000000E+00
  0.00000000E+00  0.00000000E+00  0.00000000E+00
  0.00000000E+00  0.00000000E+00  0.00000000E+00
  0.00000000E+00  0.00000000E+00  0.00000000E+00
  0.00000000E+00  0.00000000E+00  0.00000000E+00
  0.00000000E+00  0.00000000E+00  0.00000000E+00
  0.00000000E+00  0.00000000E+00  0.00000000E+00
  0.00000000E+00  0.00000000E+00  0.00000000E+00
  0.00000000E+00  0.00000000E+00  0.00000000E+00
  0.00000000E+00  0.00000000E+00  0.00000000E+00
  0.00000000E+00  0.00000000E+00  0.00000000E+00
  0.00000000E+00  0.00000000E+00  0.00000000E+00
  0.00000000E+00  0.00000000E+00  0.00000000E+00
  0.00000000E+00  0.00000000E+00  0.00000000E+00
  0.00000000E+00  0.00000000E+00  0.00000000E+00
  0.00000000E+00  0.00000000E+00  0.00000000E+00
  0.00000000E+00  0.00000000E+00  0.00000000E+00
  0.00000000E+00  0.00000000E+00  0.00000000E+00
  0.00000000E+00  0.00000000E+00  0.00000000E+00
  0.00000000E+00  0.00000000E+00  0.00000000E+00
  0.00000000E+00  0.00000000E+00  0.00000000E+00
  0.00000000E+00  0.00000000E+00  0.00000000E+00
  0.00000000E+00  0.00000000E+00  0.00000000E+00
  0.00000000E+00  0.00000000E+00  0.00000000E+00
  0.00000000E+00  0.00000000E+00  0.00000000E+00
  0.00000000E+00  0.00000000E+00  0.00000000E+00
  0.00000000E+00  0.00000000E+00  0.00000000E+00
  0.00000000E+00  0.00000000E+00  0.00000000E+00
  0.00000000E+00  0.00000000E+00  0.00000000E+00
  0.00000000E+00  0.00000000E+00  0.00000000E+00
  0.00000000E+00  0.00000000E+00  0.00000000E+00
  0.00000000E+00  0.00000000E+00  0.00000000E+00
  0.00000000E+00  0.00000000E+00  0.00000000E+00
  0.00000000E+00  0.00000000E+00  0.00000000E+00
  0.00000000E+00  0.00000000E+00  0.00000000E+00
  0.00000000E+00  0.00000000E+00  0.00000000E+00
  0.00000000E+00  0.00000000E+00  0.00000000E+00
  0.00000000E+00  0.00000000E+00  0.00000000E+00
  0.00000000E+00  0.00000000E+00  0.00000000E+00
  0.00000000E+00  0.00000000E+00  0.00000000E+00
  0.00000000E+00  0.00000000E+00  0.00000000E+00
  0.00000000E+00  0.00000000E+00  0.00000000E+00
  0.00000000E+00  0.00000000E+00  0.00000000E+00
  0.00000000E+00  0.00000000E+00  0.00000000E+00
  0.00000000E+00  0.00000000E+00  0.00000000E+00
  0.00000000E+00  0.00000000E+00  0.00000000E+00
  0.00000000E+00  0.00000000E+00  0.00000000E+00
  0.00000000E+00  0.00000000E+00  0.00000000E+00
  0.00000000E+00  0.00000000E+00  0.00000000E+00
  0.00000000E+00  0.00000000E+00  0.00000000E+00
  0.00000000E+00  0.00000000E+00  0.00000000E+00
  0.00000000E+00  0.00000000E+00  0.00000000E+00
  0.00000000E+00  0.00000000E+00  0.00000000E+00
  0.00000000E+00  0.00000000E+00  0.00000000E+00
  0.00000000E+00  0.00000000E+00  0.00000000E+00
  0.00000000E+00  0.00000000E+00  0.00000000E+00
  0.00000000E+00  0.00000000E+00  0.00000000E+00
  0.00000000E+00  0.00000000E+00  0.00000000E+00
