Cu Mg N O                               
   1.00000000000000     
     8.4141216974800006    0.0000000000000000    0.0000000000000000
     0.0000000000000000    8.4141216974800006    0.0000000000000000
     0.0000000000000000    0.0000000000000000   23.4141216974799988
   Cu   Mg   N    O 
     1    32     1    34
Selective dynamics
Direct
  0.0062300053991267  0.7442854952045864  0.3636988896863577   T   T   T
  0.2503032138576371  0.0003086500253275  0.0039524489629292   T   T   T
  0.2501998752767505  0.4997905968036497  0.0039984438936247   T   T   T
  0.7497871085890299  0.0002116349334151  0.0039365299545920   T   T   T
  0.7496927514591670  0.4996723898498916  0.0039557212385123   T   T   T
  0.0000691435805543  0.2500438737338663  0.0038304661510764   T   T   T
  0.0000131699841913  0.7499783297346634  0.0033485265905035   T   T   T
  0.5000253923574731  0.2499762492434507  0.0042071177447497   T   T   T
  0.4999362686635151  0.7499229884798675  0.0038169913121101   T   T   T
  0.0002665060163093  0.0008385294519612  0.0928129257055298   T   T   T
 -0.0000974425586697  0.4991639962633423  0.0930342423365429   T   T   T
  0.4999128376721418  0.0002037981860157  0.0937790888227900   T   T   T
  0.4998692577339956  0.4995793208542807  0.0938562013345123   T   T   T
  0.2504481917228830  0.2501555439961741  0.0938499638460380   T   T   T
  0.2508528732782266  0.7501314633403793  0.0930317468052220   T   T   T
  0.7498118339000127  0.2501035723781961  0.0937850126444240   T   T   T
  0.7491767315200086  0.7497419316283971  0.0928122496823748   T   T   T
  0.2507518308121664  0.0026440012613453  0.1846321339429399   T   T   T
  0.2519135573298034  0.4980905340168108  0.1849411319304310   T   T   T
  0.7495868513211800  0.0004964656064755  0.1840058616193565   T   T   T
  0.7474707638146106  0.4992567162781854  0.1846327152692827   T   T   T
  0.0022866834328800  0.2503456596206637  0.1840193156270462   T   T   T
  0.0004370151595353  0.7496151376777643  0.1793779612944545   T   T   T
  0.4982128791165783  0.2518090014567913  0.1848908461478196   T   T   T
  0.4996973278151859  0.7478104451769884  0.1839899571766488   T   T   T
  0.0009240869148518  0.0101742012078579  0.2728690223909461   T   T   T
  0.0003047203761432  0.4896190529589630  0.2724165436466413   T   T   T
  0.4998531339529162  0.0018962481016281  0.2733289213832921   T   T   T
  0.4973366541683325  0.4954461638338095  0.2830155835999615   T   T   T
  0.2546699559404292  0.2527506750859243  0.2831421042887098   T   T   T
  0.2604719801272178  0.7497894197889914  0.2723711687933587   T   T   T
  0.7481999303307667  0.2502306729671275  0.2733635695146764   T   T   T
  0.7398733478616751  0.7491522518643186  0.2728415284302101   T   T   T
  0.3730129658163624  0.3778855096776926  0.4008623309455727   T   T   T
 -0.0000043717383861  0.0002173208453355  0.0014536642667881   T   T   T
  0.9999293705573102  0.4997966777329527  0.0015409003019121   T   T   T
  0.5000816909338863 -0.0000716831278326  0.0019494035504475   T   T   T
  0.4999739383769699  0.4999780310212918  0.0019559607201317   T   T   T
  0.2500154922191591  0.2500312460743622  0.0019573097556479   T   T   T
  0.2502072128918946  0.7500676077938964  0.0015264234722834   T   T   T
  0.7500752654350669  0.2499060347429964  0.0019524608310429   T   T   T
  0.7497578314763198  0.7499866346659755  0.0014349268369144   T   T   T
  0.2495601472232332 -0.0002704903137865  0.0936855652494022   T   T   T
  0.2494747246237135  0.5005626431575735  0.0937617302206663   T   T   T
  0.7506308973443414 -0.0006237813709863  0.0937270633293291   T   T   T
  0.7502863892598033  0.5004576393920208  0.0936932587890622   T   T   T
  0.0001009221759130  0.2498462793740608  0.0938268819872360   T   T   T
 -0.0001482228068713  0.7501873035109520  0.0924611097722739   T   T   T
  0.5001771988960841  0.2498581280167583  0.0938552119044298   T   T   T
  0.5001627977828104  0.7499083092917352  0.0938194144204378   T   T   T
 -0.0000555395178153  0.9960428248752268  0.1842933714627400   T   T   T
 -0.0011637537518790  0.5037895578619775  0.1838391752759584   T   T   T
  0.5003888104927798 -0.0019189981749378  0.1833432371759220   T   T   T
  0.5003425822799549  0.5010896423249689  0.1836820965250820   T   T   T
  0.2489214552700006  0.2497062863733467  0.1836610788214334   T   T   T
  0.2462282771326800  0.7512462259491909  0.1838227019529268   T   T   T
  0.7520203565434485  0.2496411070778416  0.1833568701961780   T   T   T
  0.7540070696965276  0.7501118734133462  0.1842685901361727   T   T   T
  0.2480945736111252  0.9966741842868984  0.2755783997128659   T   T   T
  0.2437084983466036  0.5063711696784164  0.2731353734289367   T   T   T
  0.7524965476107150 -0.0024152877582728  0.2755661262421735   T   T   T
  0.7534410359487874  0.5019949816013618  0.2755450559277187   T   T   T
  0.9982652521207446  0.2495038313457139  0.2748857964427177   T   T   T
 -0.0016518609460789  0.7517474332684581  0.2864181424980600   T   T   T
  0.5041398986971267  0.2459182115048623  0.2727678388378801   T   T   T
  0.5005530317597351  0.7518922236130434  0.2747932541491930   T   T   T
  0.2827221100108778  0.2851431952123050  0.3724185729116643   T   T   T
  0.4656129978424802  0.4680131985081800  0.3722934470411285   T   T   T
 
  0.00000000E+00  0.00000000E+00  0.00000000E+00
  0.00000000E+00  0.00000000E+00  0.00000000E+00
  0.00000000E+00  0.00000000E+00  0.00000000E+00
  0.00000000E+00  0.00000000E+00  0.00000000E+00
  0.00000000E+00  0.00000000E+00  0.00000000E+00
  0.00000000E+00  0.00000000E+00  0.00000000E+00
  0.00000000E+00  0.00000000E+00  0.00000000E+00
  0.00000000E+00  0.00000000E+00  0.00000000E+00
  0.00000000E+00  0.00000000E+00  0.00000000E+00
  0.00000000E+00  0.00000000E+00  0.00000000E+00
  0.00000000E+00  0.00000000E+00  0.00000000E+00
  0.00000000E+00  0.00000000E+00  0.00000000E+00
  0.00000000E+00  0.00000000E+00  0.00000000E+00
  0.00000000E+00  0.00000000E+00  0.00000000E+00
  0.00000000E+00  0.00000000E+00  0.00000000E+00
  0.00000000E+00  0.00000000E+00  0.00000000E+00
  0.00000000E+00  0.00000000E+00  0.00000000E+00
  0.00000000E+00  0.00000000E+00  0.00000000E+00
  0.00000000E+00  0.00000000E+00  0.00000000E+00
  0.00000000E+00  0.00000000E+00  0.00000000E+00
  0.00000000E+00  0.00000000E+00  0.00000000E+00
  0.00000000E+00  0.00000000E+00  0.00000000E+00
  0.00000000E+00  0.00000000E+00  0.00000000E+00
  0.00000000E+00  0.00000000E+00  0.00000000E+00
  0.00000000E+00  0.00000000E+00  0.00000000E+00
  0.00000000E+00  0.00000000E+00  0.00000000E+00
  0.00000000E+00  0.00000000E+00  0.00000000E+00
  0.00000000E+00  0.00000000E+00  0.00000000E+00
  0.00000000E+00  0.00000000E+00  0.00000000E+00
  0.00000000E+00  0.00000000E+00  0.00000000E+00
  0.00000000E+00  0.00000000E+00  0.00000000E+00
  0.00000000E+00  0.00000000E+00  0.00000000E+00
  0.00000000E+00  0.00000000E+00  0.00000000E+00
  0.00000000E+00  0.00000000E+00  0.00000000E+00
  0.00000000E+00  0.00000000E+00  0.00000000E+00
  0.00000000E+00  0.00000000E+00  0.00000000E+00
  0.00000000E+00  0.00000000E+00  0.00000000E+00
  0.00000000E+00  0.00000000E+00  0.00000000E+00
  0.00000000E+00  0.00000000E+00  0.00000000E+00
  0.00000000E+00  0.00000000E+00  0.00000000E+00
  0.00000000E+00  0.00000000E+00  0.00000000E+00
  0.00000000E+00  0.00000000E+00  0.00000000E+00
  0.00000000E+00  0.00000000E+00  0.00000000E+00
  0.00000000E+00  0.00000000E+00  0.00000000E+00
  0.00000000E+00  0.00000000E+00  0.00000000E+00
  0.00000000E+00  0.00000000E+00  0.00000000E+00
  0.00000000E+00  0.00000000E+00  0.00000000E+00
  0.00000000E+00  0.00000000E+00  0.00000000E+00
  0.00000000E+00  0.00000000E+00  0.00000000E+00
  0.00000000E+00  0.00000000E+00  0.00000000E+00
  0.00000000E+00  0.00000000E+00  0.00000000E+00
  0.00000000E+00  0.00000000E+00  0.00000000E+00
  0.00000000E+00  0.00000000E+00  0.00000000E+00
  0.00000000E+00  0.00000000E+00  0.00000000E+00
  0.00000000E+00  0.00000000E+00  0.00000000E+00
  0.00000000E+00  0.00000000E+00  0.00000000E+00
  0.00000000E+00  0.00000000E+00  0.00000000E+00
  0.00000000E+00  0.00000000E+00  0.00000000E+00
  0.00000000E+00  0.00000000E+00  0.00000000E+00
  0.00000000E+00  0.00000000E+00  0.00000000E+00
  0.00000000E+00  0.00000000E+00  0.00000000E+00
  0.00000000E+00  0.00000000E+00  0.00000000E+00
  0.00000000E+00  0.00000000E+00  0.00000000E+00
  0.00000000E+00  0.00000000E+00  0.00000000E+00
  0.00000000E+00  0.00000000E+00  0.00000000E+00
  0.00000000E+00  0.00000000E+00  0.00000000E+00
  0.00000000E+00  0.00000000E+00  0.00000000E+00
  0.00000000E+00  0.00000000E+00  0.00000000E+00
