W Mg N O                                
   1.00000000000000     
     8.4141216974800006    0.0000000000000000    0.0000000000000000
     0.0000000000000000    8.4141216974800006    0.0000000000000000
     0.0000000000000000    0.0000000000000000   23.4141216974799988
   W    Mg   N    O 
     1    32     1    34
Selective dynamics
Direct
  0.0073205716548581  0.7430805313564312  0.3724314438361776   T   T   T
  0.2503097140626995  0.0002425138221462  0.0040167223645733   T   T   T
  0.2502175918743019  0.4997958486343105  0.0040963524665406   T   T   T
  0.7497993597654555  0.0002137438109812  0.0039900960106182   T   T   T
  0.7497607757142348  0.4996957229261992  0.0040178324348469   T   T   T
  0.0000930718054000  0.2500034476978098  0.0038727609378566   T   T   T
  0.0000806533878714  0.7499227950256299  0.0034280927523455   T   T   T
  0.5000616600581810  0.2499561474733397  0.0042229303324947   T   T   T
  0.4999962404533057  0.7499324844909839  0.0038914637024876   T   T   T
  0.0002923952030749  0.0007919201044264  0.0928883642456726   T   T   T
  0.9999266553734659  0.4990944346509567  0.0930811637008472   T   T   T
  0.4999200112942191  0.0003671356659823  0.0937579658248979   T   T   T
  0.4999022462691204  0.4994086115052828  0.0937250343252464   T   T   T
  0.2506570506022101  0.2501264910755994  0.0937078078081018   T   T   T
  0.2509474899182215  0.7501215359061693  0.0930983452744572   T   T   T
  0.7496614230234767  0.2501120476692884  0.0937516946670197   T   T   T
  0.7492163595671242  0.7497173370151697  0.0929033058827571   T   T   T
  0.2509348773857499  0.0028441248058159  0.1845878001866093   T   T   T
  0.2521446113344263  0.4978681597660907  0.1848553239340840   T   T   T
  0.7495118558850350  0.0005619024516260  0.1839556874889394   T   T   T
  0.7472710603104130  0.4990970100222287  0.1845862878494900   T   T   T
  0.0022685950229429  0.2501473041565273  0.1837863153951472   T   T   T
  0.0004186180576310  0.7496280947017644  0.1792168805400967   T   T   T
  0.4981924497010998  0.2518358365356136  0.1850633520309852   T   T   T
  0.4999002042181792  0.7478358892287478  0.1838003643378745   T   T   T
  0.0008720209105648  0.0114930789486529  0.2728574895572153   T   T   T
  0.0001978397048601  0.4878195179166877  0.2720683348081067   T   T   T
  0.5000431969872198  0.0019894032044295  0.2735681656263734   T   T   T
  0.4975817139755332  0.4955891170284473  0.2833889385461195   T   T   T
  0.2545099512656868  0.2525445256995719  0.2834546483860853   T   T   T
  0.2622827235191338  0.7498695083880131  0.2720502621530210   T   T   T
  0.7481311478660831  0.2500357738258387  0.2735518932144614   T   T   T
  0.7385629149507370  0.7492015276120119  0.2728581760807388   T   T   T
  0.3716117683030879  0.3791037247616345  0.4006037792498021   T   T   T
  0.0000243160501407  0.0001434421191328  0.0015866120230122   T   T   T
  0.9999817894859372  0.4997903870543931  0.0016647744977200   T   T   T
  0.5000851863192884  0.9999263740256873  0.0019441095050615   T   T   T
  0.4999995828394593  0.4999669877842278  0.0019189696867619   T   T   T
  0.2500589891774140  0.2500106243596027  0.0019090056470110   T   T   T
  0.2502127033701550  0.7500271626704382  0.0016863059401354   T   T   T
  0.7500768118712959  0.2499275319049676  0.0019342231035363   T   T   T
  0.7498654730340242  0.7499829026010441  0.0016221429000541   T   T   T
  0.2495855304320588  0.9997165490952543  0.0936903267194992   T   T   T
  0.2495040561246164  0.5005422780347032  0.0937524162561477   T   T   T
  0.7506548692465776  0.9993785291282079  0.0937801559819866   T   T   T
  0.7503166088141615  0.5004366975138281  0.0936924873223543   T   T   T
  0.0000669242593444  0.2497458425051888  0.0937889284404206   T   T   T
  0.9998591330115786  0.7501818229619656  0.0925037780370706   T   T   T
  0.5002572452087447  0.2497799996029856  0.0937846007701301   T   T   T
  0.5002779056900176  0.7499786925325033  0.0938084128653754   T   T   T
  0.0000106779347426  0.9959409622824758  0.1843765691910323   T   T   T
  0.9987805477993378  0.5037707052573283  0.1838153189177717   T   T   T
  0.5003907693960543  0.9982117350423704  0.1834178520808090   T   T   T
  0.5002849430308325  0.5009384267558719  0.1835542381414488   T   T   T
  0.2490980044152158  0.2497804790762627  0.1835148750401742   T   T   T
  0.2462579321579606  0.7512924869825347  0.1838141947242070   T   T   T
  0.7518731386849044  0.2496422453181466  0.1834029688219318   T   T   T
  0.7541021027347146  0.7500500521710012  0.1843732352828779   T   T   T
  0.2477871806758233  0.9962140037434900  0.2755377342203787   T   T   T
  0.2429781192897793  0.5070896247864307  0.2729871282893896   T   T   T
  0.7528066432698513  0.9972637837713827  0.2754272884289423   T   T   T
  0.7539154342367062  0.5022907239805097  0.2755129838550223   T   T   T
  0.9983970513130934  0.2494105621365856  0.2743707307510934   T   T   T
  0.9981177721125218  0.7519577635341050  0.2877935336818878   T   T   T
  0.5042917970418090  0.2457878814247545  0.2727813702004562   T   T   T
  0.5006537716154038  0.7517241917882939  0.2743690805714413   T   T   T
  0.2819726133154693  0.2858962352304474  0.3720030439111274   T   T   T
  0.4647095871574244  0.4686651473974894  0.3719650587136502   T   T   T
 
  0.00000000E+00  0.00000000E+00  0.00000000E+00
  0.00000000E+00  0.00000000E+00  0.00000000E+00
  0.00000000E+00  0.00000000E+00  0.00000000E+00
  0.00000000E+00  0.00000000E+00  0.00000000E+00
  0.00000000E+00  0.00000000E+00  0.00000000E+00
  0.00000000E+00  0.00000000E+00  0.00000000E+00
  0.00000000E+00  0.00000000E+00  0.00000000E+00
  0.00000000E+00  0.00000000E+00  0.00000000E+00
  0.00000000E+00  0.00000000E+00  0.00000000E+00
  0.00000000E+00  0.00000000E+00  0.00000000E+00
  0.00000000E+00  0.00000000E+00  0.00000000E+00
  0.00000000E+00  0.00000000E+00  0.00000000E+00
  0.00000000E+00  0.00000000E+00  0.00000000E+00
  0.00000000E+00  0.00000000E+00  0.00000000E+00
  0.00000000E+00  0.00000000E+00  0.00000000E+00
  0.00000000E+00  0.00000000E+00  0.00000000E+00
  0.00000000E+00  0.00000000E+00  0.00000000E+00
  0.00000000E+00  0.00000000E+00  0.00000000E+00
  0.00000000E+00  0.00000000E+00  0.00000000E+00
  0.00000000E+00  0.00000000E+00  0.00000000E+00
  0.00000000E+00  0.00000000E+00  0.00000000E+00
  0.00000000E+00  0.00000000E+00  0.00000000E+00
  0.00000000E+00  0.00000000E+00  0.00000000E+00
  0.00000000E+00  0.00000000E+00  0.00000000E+00
  0.00000000E+00  0.00000000E+00  0.00000000E+00
  0.00000000E+00  0.00000000E+00  0.00000000E+00
  0.00000000E+00  0.00000000E+00  0.00000000E+00
  0.00000000E+00  0.00000000E+00  0.00000000E+00
  0.00000000E+00  0.00000000E+00  0.00000000E+00
  0.00000000E+00  0.00000000E+00  0.00000000E+00
  0.00000000E+00  0.00000000E+00  0.00000000E+00
  0.00000000E+00  0.00000000E+00  0.00000000E+00
  0.00000000E+00  0.00000000E+00  0.00000000E+00
  0.00000000E+00  0.00000000E+00  0.00000000E+00
  0.00000000E+00  0.00000000E+00  0.00000000E+00
  0.00000000E+00  0.00000000E+00  0.00000000E+00
  0.00000000E+00  0.00000000E+00  0.00000000E+00
  0.00000000E+00  0.00000000E+00  0.00000000E+00
  0.00000000E+00  0.00000000E+00  0.00000000E+00
  0.00000000E+00  0.00000000E+00  0.00000000E+00
  0.00000000E+00  0.00000000E+00  0.00000000E+00
  0.00000000E+00  0.00000000E+00  0.00000000E+00
  0.00000000E+00  0.00000000E+00  0.00000000E+00
  0.00000000E+00  0.00000000E+00  0.00000000E+00
  0.00000000E+00  0.00000000E+00  0.00000000E+00
  0.00000000E+00  0.00000000E+00  0.00000000E+00
  0.00000000E+00  0.00000000E+00  0.00000000E+00
  0.00000000E+00  0.00000000E+00  0.00000000E+00
  0.00000000E+00  0.00000000E+00  0.00000000E+00
  0.00000000E+00  0.00000000E+00  0.00000000E+00
  0.00000000E+00  0.00000000E+00  0.00000000E+00
  0.00000000E+00  0.00000000E+00  0.00000000E+00
  0.00000000E+00  0.00000000E+00  0.00000000E+00
  0.00000000E+00  0.00000000E+00  0.00000000E+00
  0.00000000E+00  0.00000000E+00  0.00000000E+00
  0.00000000E+00  0.00000000E+00  0.00000000E+00
  0.00000000E+00  0.00000000E+00  0.00000000E+00
  0.00000000E+00  0.00000000E+00  0.00000000E+00
  0.00000000E+00  0.00000000E+00  0.00000000E+00
  0.00000000E+00  0.00000000E+00  0.00000000E+00
  0.00000000E+00  0.00000000E+00  0.00000000E+00
  0.00000000E+00  0.00000000E+00  0.00000000E+00
  0.00000000E+00  0.00000000E+00  0.00000000E+00
  0.00000000E+00  0.00000000E+00  0.00000000E+00
  0.00000000E+00  0.00000000E+00  0.00000000E+00
  0.00000000E+00  0.00000000E+00  0.00000000E+00
  0.00000000E+00  0.00000000E+00  0.00000000E+00
  0.00000000E+00  0.00000000E+00  0.00000000E+00
