Mg N O Pd                               
   1.00000000000000     
     8.4141216974800006    0.0000000000000000    0.0000000000000000
     0.0000000000000000    8.4141216974800006    0.0000000000000000
     0.0000000000000000    0.0000000000000000   23.4141216974799988
   Mg   N    O    Pd
    32     1    34     1
Selective dynamics
Direct
  0.2501850147445257  0.0002708412976601  0.0044346425256474   T   T   T
  0.2502066868684907  0.4997802956634999  0.0044662898953781   T   T   T
  0.7497758191436441  0.0002047117547141  0.0044110681960553   T   T   T
  0.7497155369472980  0.4998002956910290  0.0044314782746852   T   T   T
  0.0000638527162517  0.2500281540132793  0.0043399264562819   T   T   T
  0.0000056544308746  0.7499776816174667  0.0041886439555557   T   T   T
  0.4999339540755813  0.2500518391716713  0.0044962234550846   T   T   T
  0.4999549793221675  0.7499284545762487  0.0043492128622444   T   T   T
  0.0000764419149083  0.0001851824012182  0.0935476536112262   T   T   T
  0.9998622059483748  0.4998251863049483  0.0936426570436908   T   T   T
  0.4999162497781910  0.0001096327534622  0.0939434145440021   T   T   T
  0.4999836290121497  0.4997930591144970  0.0940134537691502   T   T   T
  0.2502005503345892  0.2500051949293075  0.0940118055239427   T   T   T
  0.2501714261744116  0.7501307325161013  0.0936533903903572   T   T   T
  0.7498885718973506  0.2500699102445399  0.0939361381018977   T   T   T
  0.7497858110173521  0.7499051740896399  0.0935577466965890   T   T   T
  0.2504799089541466  0.0017724791240923  0.1845462596716979   T   T   T
  0.2513537957872506  0.4986387936441461  0.1845324254212828   T   T   T
  0.7496506649074238  0.0003732165258042  0.1841212991718858   T   T   T
  0.7482713465924455  0.4994874658984050  0.1845349041117563   T   T   T
  0.0014800371571678  0.2502400356298891  0.1841355190258249   T   T   T
  0.0001574781854280  0.7498436752927993  0.1822931381802020   T   T   T
  0.4988489013888431  0.2511536594267094  0.1847473713193736   T   T   T
  0.4997633192214914  0.7485634233055426  0.1841368590043254   T   T   T
  0.0004068108294796  0.0074656877608519  0.2730975555516485   T   T   T
  0.9996077748752937  0.4927428703614317  0.2727404317041679   T   T   T
  0.5000362264158652  0.0003787418844145  0.2736495282610711   T   T   T
  0.4994109161679303  0.4983290175122502  0.2793971337596731   T   T   T
  0.2517459064141406  0.2507080022147252  0.2794535567259517   T   T   T
  0.2573309109469586  0.7503984760264939  0.2727329835377491   T   T   T
  0.7496721923589924  0.2500017310693914  0.2736458483182968   T   T   T
  0.7425481566495505  0.7496079462610065  0.2730884168548521   T   T   T
  0.3760494024102245  0.3753620208097533  0.3981337498397163   T   T   T
  0.9999832760066532  0.0000556665345140  0.0020882396561277   T   T   T
  0.9999639795638748  0.4999506473530128  0.0021385023765527   T   T   T
  0.4999765664562789  0.0000360459219349  0.0022884918883112   T   T   T
  0.4999554145915110  0.4999398597858769  0.0022643110463089   T   T   T
  0.2500477410378132  0.2500234716060667  0.0022819096231591   T   T   T
  0.2500350522704418  0.7500204540653141  0.0021693315346643   T   T   T
  0.7499466143585469  0.2500025858132769  0.0022953446208614   T   T   T
  0.7499167219143930  0.7500000978035258  0.0021132101725755   T   T   T
  0.2498591819822281  0.0001053882886784  0.0940712180796929   T   T   T
  0.2499537717081043  0.5000358396114662  0.0941170930722966   T   T   T
  0.7501384939042361 -0.0001476420010538  0.0940252175192504   T   T   T
  0.7498813449873363  0.5001184175898783  0.0940658421237801   T   T   T
  0.0001449859299478  0.2499351106669840  0.0940881227267797   T   T   T
 -0.0000967527956408  0.7500771306132159  0.0935914738801873   T   T   T
  0.4999551424045948  0.2500379582980536  0.0941707461996280   T   T   T
  0.5000470778805493  0.7498535018171594  0.0940983994076597   T   T   T
 -0.0001108047168694  0.9982766619146591  0.1841506258759268   T   T   T
 -0.0006010075985410  0.5017893043778463  0.1838814776637621   T   T   T
  0.5002336642353047 -0.0008193696424978  0.1837354036406431   T   T   T
  0.5001405782346097  0.5004067179167282  0.1842609687191226   T   T   T
  0.2496036459923059  0.2498741045574401  0.1842747017371825   T   T   T
  0.2481934917529734  0.7506252708684594  0.1838778625458580   T   T   T
  0.7508739792913560  0.2497606636614234  0.1837282752151617   T   T   T
  0.7517608074120115  0.7501301868836415  0.1841365014705882   T   T   T
  0.2491228369895042  0.9981968681022572  0.2754433289036187   T   T   T
  0.2462976020335320  0.5037630355980608  0.2738800587402852   T   T   T
  0.7511508055161670 -0.0011236873467013  0.2756496012707707   T   T   T
  0.7518875481491064  0.5008961169734663  0.2754036763843852   T   T   T
  0.9988193519765491  0.2497819559749002  0.2748848203509240   T   T   T
 -0.0007227717661706  0.7506946742102769  0.2770014559836235   T   T   T
  0.5031064208792543  0.2469618433147947  0.2739028708768212   T   T   T
  0.5002521137173860  0.7512748686863587  0.2748359796252219   T   T   T
  0.2843140091508327  0.2832362177022160  0.3722386544101264   T   T   T
  0.4680141434545978  0.4670732645136940  0.3721459816676653   T   T   T
  0.0012688700484762  0.7495332615361175  0.3652381788952088   T   T   T
 
  0.00000000E+00  0.00000000E+00  0.00000000E+00
  0.00000000E+00  0.00000000E+00  0.00000000E+00
  0.00000000E+00  0.00000000E+00  0.00000000E+00
  0.00000000E+00  0.00000000E+00  0.00000000E+00
  0.00000000E+00  0.00000000E+00  0.00000000E+00
  0.00000000E+00  0.00000000E+00  0.00000000E+00
  0.00000000E+00  0.00000000E+00  0.00000000E+00
  0.00000000E+00  0.00000000E+00  0.00000000E+00
  0.00000000E+00  0.00000000E+00  0.00000000E+00
  0.00000000E+00  0.00000000E+00  0.00000000E+00
  0.00000000E+00  0.00000000E+00  0.00000000E+00
  0.00000000E+00  0.00000000E+00  0.00000000E+00
  0.00000000E+00  0.00000000E+00  0.00000000E+00
  0.00000000E+00  0.00000000E+00  0.00000000E+00
  0.00000000E+00  0.00000000E+00  0.00000000E+00
  0.00000000E+00  0.00000000E+00  0.00000000E+00
  0.00000000E+00  0.00000000E+00  0.00000000E+00
  0.00000000E+00  0.00000000E+00  0.00000000E+00
  0.00000000E+00  0.00000000E+00  0.00000000E+00
  0.00000000E+00  0.00000000E+00  0.00000000E+00
  0.00000000E+00  0.00000000E+00  0.00000000E+00
  0.00000000E+00  0.00000000E+00  0.00000000E+00
  0.00000000E+00  0.00000000E+00  0.00000000E+00
  0.00000000E+00  0.00000000E+00  0.00000000E+00
  0.00000000E+00  0.00000000E+00  0.00000000E+00
  0.00000000E+00  0.00000000E+00  0.00000000E+00
  0.00000000E+00  0.00000000E+00  0.00000000E+00
  0.00000000E+00  0.00000000E+00  0.00000000E+00
  0.00000000E+00  0.00000000E+00  0.00000000E+00
  0.00000000E+00  0.00000000E+00  0.00000000E+00
  0.00000000E+00  0.00000000E+00  0.00000000E+00
  0.00000000E+00  0.00000000E+00  0.00000000E+00
  0.00000000E+00  0.00000000E+00  0.00000000E+00
  0.00000000E+00  0.00000000E+00  0.00000000E+00
  0.00000000E+00  0.00000000E+00  0.00000000E+00
  0.00000000E+00  0.00000000E+00  0.00000000E+00
  0.00000000E+00  0.00000000E+00  0.00000000E+00
  0.00000000E+00  0.00000000E+00  0.00000000E+00
  0.00000000E+00  0.00000000E+00  0.00000000E+00
  0.00000000E+00  0.00000000E+00  0.00000000E+00
  0.00000000E+00  0.00000000E+00  0.00000000E+00
  0.00000000E+00  0.00000000E+00  0.00000000E+00
  0.00000000E+00  0.00000000E+00  0.00000000E+00
  0.00000000E+00  0.00000000E+00  0.00000000E+00
  0.00000000E+00  0.00000000E+00  0.00000000E+00
  0.00000000E+00  0.00000000E+00  0.00000000E+00
  0.00000000E+00  0.00000000E+00  0.00000000E+00
  0.00000000E+00  0.00000000E+00  0.00000000E+00
  0.00000000E+00  0.00000000E+00  0.00000000E+00
  0.00000000E+00  0.00000000E+00  0.00000000E+00
  0.00000000E+00  0.00000000E+00  0.00000000E+00
  0.00000000E+00  0.00000000E+00  0.00000000E+00
  0.00000000E+00  0.00000000E+00  0.00000000E+00
  0.00000000E+00  0.00000000E+00  0.00000000E+00
  0.00000000E+00  0.00000000E+00  0.00000000E+00
  0.00000000E+00  0.00000000E+00  0.00000000E+00
  0.00000000E+00  0.00000000E+00  0.00000000E+00
  0.00000000E+00  0.00000000E+00  0.00000000E+00
  0.00000000E+00  0.00000000E+00  0.00000000E+00
  0.00000000E+00  0.00000000E+00  0.00000000E+00
  0.00000000E+00  0.00000000E+00  0.00000000E+00
  0.00000000E+00  0.00000000E+00  0.00000000E+00
  0.00000000E+00  0.00000000E+00  0.00000000E+00
  0.00000000E+00  0.00000000E+00  0.00000000E+00
  0.00000000E+00  0.00000000E+00  0.00000000E+00
  0.00000000E+00  0.00000000E+00  0.00000000E+00
  0.00000000E+00  0.00000000E+00  0.00000000E+00
  0.00000000E+00  0.00000000E+00  0.00000000E+00
