Cr Mg N O                               
   1.00000000000000     
     8.4141216974800006    0.0000000000000000    0.0000000000000000
     0.0000000000000000    8.4141216974800006    0.0000000000000000
     0.0000000000000000    0.0000000000000000   23.4141216974799988
   Cr   Mg   N    O 
     1    32     1    34
Selective dynamics
Direct
  0.0075884952180692  0.7427418897108258  0.3708465036845836   T   T   T
  0.2502616224598970  0.0002080780436268  0.0040293000452956   T   T   T
  0.2501777697261303  0.4998315737475255  0.0041139448885155   T   T   T
  0.7498380574956421  0.0001743891645697  0.0039993487121592   T   T   T
  0.7497978842301856  0.4997427160246154  0.0040311718679859   T   T   T
  0.0000972178645031  0.2500098843012610  0.0038944017419200   T   T   T
  0.0000812357800550  0.7499239770308481  0.0034646974859948   T   T   T
  0.5000450851907097  0.2499687313525116  0.0042341767405452   T   T   T
  0.4999886807081275  0.7499219133737286  0.0039119023500637   T   T   T
  0.0002764868278362  0.0007533965046397  0.0928818493016503   T   T   T
  0.9999101801577224  0.4991376729477544  0.0930694203460168   T   T   T
  0.4999234403547338  0.0003435008807289  0.0937507305185070   T   T   T
  0.4999280176191434  0.4994312348108886  0.0937314402034021   T   T   T
  0.2506221369377747  0.2501002908073306  0.0937126873221948   T   T   T
  0.2509009749628073  0.7501336552481497  0.0930879813506873   T   T   T
  0.7496900298370071  0.2501059122408872  0.0937463830263656   T   T   T
  0.7492571662367448  0.7497361764432882  0.0928975496713541   T   T   T
  0.2510322546333722  0.0029595702288789  0.1846088902509451   T   T   T
  0.2522948122279358  0.4977269171390291  0.1848392075325279   T   T   T
  0.7494196931209071  0.0006577338140664  0.1839755688127826   T   T   T
  0.7471568946935681  0.4989901537099031  0.1846080202164895   T   T   T
  0.0022874431639085  0.2501061389663168  0.1838969662565305   T   T   T
  0.0004006763204389  0.7496684321361191  0.1793571619512824   T   T   T
  0.4982155791545203  0.2518197718726267  0.1849935339153384   T   T   T
  0.4999497744993124  0.7478167103397200  0.1839096163536505   T   T   T
  0.0009011398474018  0.0100903563737653  0.2727836843291780   T   T   T
  0.0002622214286640  0.4891531724250304  0.2718889710164933   T   T   T
  0.5000117796494977  0.0017987947424408  0.2733422611887663   T   T   T
  0.4975246528571719  0.4957757207497315  0.2830268263076067   T   T   T
  0.2542880702355639  0.2525624624575459  0.2830896765756764   T   T   T
  0.2609836472375939  0.7498269904626694  0.2718773185118745   T   T   T
  0.7483287612331038  0.2500669662189994  0.2733404355227864   T   T   T
  0.7399649255566002  0.7491830939403274  0.2727770004125729   T   T   T
  0.3711315047457009  0.3795462796771908  0.4007984561677050   T   T   T
  0.0000251708400127  0.0001829531861532  0.0016121660729192   T   T   T
  0.9999866521172555  0.4997437850796240  0.0016994943746622   T   T   T
  0.5000758629799900  0.9999161445195205  0.0019652089093343   T   T   T
  0.4999980717135071  0.4999799086431840  0.0019436577354609   T   T   T
  0.2500436169181491  0.2500118103966240  0.0019347489134402   T   T   T
  0.2502471883624013  0.7500264363150752  0.0017142774913215   T   T   T
  0.7500841179607954  0.2499376473274370  0.0019564769824050   T   T   T
  0.7498400705489261  0.7499821447453996  0.0016507428260714   T   T   T
  0.2495614851724454  0.9997011420671732  0.0937107170508228   T   T   T
  0.2494916855862848  0.5005526606182311  0.0937686439244089   T   T   T
  0.7506723445295667  0.9993586117342915  0.0937930582646740   T   T   T
  0.7503373817902299  0.5004678694164850  0.0937151627556865   T   T   T
  0.0000744694153083  0.2497413136681318  0.0938148621234843   T   T   T
  0.9998566024363986  0.7501904251662097  0.0926102883137637   T   T   T
  0.5002557056720112  0.2497823404095386  0.0937785464646761   T   T   T
  0.5002860175439213  0.7499686616717872  0.0938318171629475   T   T   T
  0.0000036319720749  0.9958356269815738  0.1843272084176367   T   T   T
  0.9988087401895720  0.5038880197647838  0.1837403102540795   T   T   T
  0.5004239063063397  0.9981677311812955  0.1833169564020071   T   T   T
  0.5003325670282888  0.5009565779317622  0.1834870742057738   T   T   T
  0.2490867894234143  0.2497397602847577  0.1834537212091955   T   T   T
  0.2461420952020340  0.7512674458363519  0.1837377283140955   T   T   T
  0.7519232391596026  0.2496133262806617  0.1833059589868355   T   T   T
  0.7542289668895229  0.7500579198379380  0.1843219546112191   T   T   T
  0.2481357951363026  0.9965268799303061  0.2754738749654077   T   T   T
  0.2434720621194890  0.5066093868803263  0.2728992599847970   T   T   T
  0.7525248048313259  0.9975774729391238  0.2753923798508267   T   T   T
  0.7535623256640709  0.5019115752612261  0.2754503855548185   T   T   T
  0.9984959963861024  0.2493794913235764  0.2745808178539524   T   T   T
  0.9983735428889129  0.7516889905680083  0.2898998394091575   T   T   T
  0.5041514695668681  0.2459306944716915  0.2728226708987495   T   T   T
  0.5006891559582508  0.7516813664220924  0.2745584701706065   T   T   T
  0.2816351524169531  0.2860796255861762  0.3722395059103514   T   T   T
  0.4644890336033851  0.4690400781239623  0.3721944595269745   T   T   T
 
  0.00000000E+00  0.00000000E+00  0.00000000E+00
  0.00000000E+00  0.00000000E+00  0.00000000E+00
  0.00000000E+00  0.00000000E+00  0.00000000E+00
  0.00000000E+00  0.00000000E+00  0.00000000E+00
  0.00000000E+00  0.00000000E+00  0.00000000E+00
  0.00000000E+00  0.00000000E+00  0.00000000E+00
  0.00000000E+00  0.00000000E+00  0.00000000E+00
  0.00000000E+00  0.00000000E+00  0.00000000E+00
  0.00000000E+00  0.00000000E+00  0.00000000E+00
  0.00000000E+00  0.00000000E+00  0.00000000E+00
  0.00000000E+00  0.00000000E+00  0.00000000E+00
  0.00000000E+00  0.00000000E+00  0.00000000E+00
  0.00000000E+00  0.00000000E+00  0.00000000E+00
  0.00000000E+00  0.00000000E+00  0.00000000E+00
  0.00000000E+00  0.00000000E+00  0.00000000E+00
  0.00000000E+00  0.00000000E+00  0.00000000E+00
  0.00000000E+00  0.00000000E+00  0.00000000E+00
  0.00000000E+00  0.00000000E+00  0.00000000E+00
  0.00000000E+00  0.00000000E+00  0.00000000E+00
  0.00000000E+00  0.00000000E+00  0.00000000E+00
  0.00000000E+00  0.00000000E+00  0.00000000E+00
  0.00000000E+00  0.00000000E+00  0.00000000E+00
  0.00000000E+00  0.00000000E+00  0.00000000E+00
  0.00000000E+00  0.00000000E+00  0.00000000E+00
  0.00000000E+00  0.00000000E+00  0.00000000E+00
  0.00000000E+00  0.00000000E+00  0.00000000E+00
  0.00000000E+00  0.00000000E+00  0.00000000E+00
  0.00000000E+00  0.00000000E+00  0.00000000E+00
  0.00000000E+00  0.00000000E+00  0.00000000E+00
  0.00000000E+00  0.00000000E+00  0.00000000E+00
  0.00000000E+00  0.00000000E+00  0.00000000E+00
  0.00000000E+00  0.00000000E+00  0.00000000E+00
  0.00000000E+00  0.00000000E+00  0.00000000E+00
  0.00000000E+00  0.00000000E+00  0.00000000E+00
  0.00000000E+00  0.00000000E+00  0.00000000E+00
  0.00000000E+00  0.00000000E+00  0.00000000E+00
  0.00000000E+00  0.00000000E+00  0.00000000E+00
  0.00000000E+00  0.00000000E+00  0.00000000E+00
  0.00000000E+00  0.00000000E+00  0.00000000E+00
  0.00000000E+00  0.00000000E+00  0.00000000E+00
  0.00000000E+00  0.00000000E+00  0.00000000E+00
  0.00000000E+00  0.00000000E+00  0.00000000E+00
  0.00000000E+00  0.00000000E+00  0.00000000E+00
  0.00000000E+00  0.00000000E+00  0.00000000E+00
  0.00000000E+00  0.00000000E+00  0.00000000E+00
  0.00000000E+00  0.00000000E+00  0.00000000E+00
  0.00000000E+00  0.00000000E+00  0.00000000E+00
  0.00000000E+00  0.00000000E+00  0.00000000E+00
  0.00000000E+00  0.00000000E+00  0.00000000E+00
  0.00000000E+00  0.00000000E+00  0.00000000E+00
  0.00000000E+00  0.00000000E+00  0.00000000E+00
  0.00000000E+00  0.00000000E+00  0.00000000E+00
  0.00000000E+00  0.00000000E+00  0.00000000E+00
  0.00000000E+00  0.00000000E+00  0.00000000E+00
  0.00000000E+00  0.00000000E+00  0.00000000E+00
  0.00000000E+00  0.00000000E+00  0.00000000E+00
  0.00000000E+00  0.00000000E+00  0.00000000E+00
  0.00000000E+00  0.00000000E+00  0.00000000E+00
  0.00000000E+00  0.00000000E+00  0.00000000E+00
  0.00000000E+00  0.00000000E+00  0.00000000E+00
  0.00000000E+00  0.00000000E+00  0.00000000E+00
  0.00000000E+00  0.00000000E+00  0.00000000E+00
  0.00000000E+00  0.00000000E+00  0.00000000E+00
  0.00000000E+00  0.00000000E+00  0.00000000E+00
  0.00000000E+00  0.00000000E+00  0.00000000E+00
  0.00000000E+00  0.00000000E+00  0.00000000E+00
  0.00000000E+00  0.00000000E+00  0.00000000E+00
  0.00000000E+00  0.00000000E+00  0.00000000E+00
