Ir Mg N O                               
   1.00000000000000     
     8.4141216974800006    0.0000000000000000    0.0000000000000000
     0.0000000000000000    8.4141216974800006    0.0000000000000000
     0.0000000000000000    0.0000000000000000   23.4141216974799988
   Ir   Mg   N    O 
     1    32     1    34
Selective dynamics
Direct
  0.0052068913728780  0.7512139431747307  0.3606509363709959   T   T   T
  0.2501829345703956  0.0001903822118199  0.0043049127612864   T   T   T
  0.2501459909443828  0.4998113871191771  0.0043382497850450   T   T   T
  0.7498426666229507  0.0001194122134773  0.0042711535269228   T   T   T
  0.7497660924642386  0.4997681719909249  0.0042909561677152   T   T   T
  0.0000818751396201  0.2500038127117653  0.0041397357042201   T   T   T
  0.0000460196604107  0.7499456882523485  0.0037689572471926   T   T   T
  0.4999453447439752  0.2499901572062161  0.0044636204293713   T   T   T
  0.4999318040319772  0.7498928518660399  0.0041297784522613   T   T   T
  0.0001689641598050  0.0007113206327183  0.0932839970956729   T   T   T
 -0.0000839434911192  0.4991399396886239  0.0934421083540050   T   T   T
  0.4998900440577583  0.0001687430018358  0.0940155952502458   T   T   T
  0.4999099420759406  0.4995791960060441  0.0941070613736045   T   T   T
  0.2503362569586423  0.2500114850890146  0.0941185746540303   T   T   T
  0.2508344626645070  0.7500378742049181  0.0934596850453315   T   T   T
  0.7497487806600084  0.2500329647054365  0.0939919806760489   T   T   T
  0.7492100234414305  0.7497662327976650  0.0932738496935812   T   T   T
  0.2501464038355928  0.0014407531723025  0.1850176901869215   T   T   T
  0.2510239283210698  0.4988263264154557  0.1850687223891087   T   T   T
  0.7500367158020794 -0.0001408639016722  0.1844469730199512   T   T   T
  0.7485187905090156  0.4997509627978996  0.1849298520567625   T   T   T
  0.0016208417477438  0.2502248626641261  0.1840824248987606   T   T   T
  0.0003783098453818  0.7495306869704187  0.1800259132872790   T   T   T
  0.4986598630266336  0.2512014290644518  0.1845930777044116   T   T   T
  0.4997326356672668  0.7483137309569596  0.1840853872408596   T   T   T
  0.0003884802708858  0.0142588007492121  0.2746480880519643   T   T   T
 -0.0000445043406585  0.4858103052317899  0.2743700462616716   T   T   T
  0.5000010646243255  0.0022506718511984  0.2733732118893634   T   T   T
  0.4986956048164292  0.4954407365950221  0.2804794805057182   T   T   T
  0.2544880760673564  0.2512979757712369  0.2805979250220270   T   T   T
  0.2645718342843091  0.7495765981159864  0.2744530362448864   T   T   T
  0.7476917494531866  0.2500107945009965  0.2733157596945812   T   T   T
  0.7360935557083182  0.7490612883734877  0.2745386114183366   T   T   T
  0.3739198518543348  0.3775453074846519  0.3984734603320519   T   T   T
  0.0000065338948498  0.0001366163291664  0.0018669690272230   T   T   T
  0.9999688697316886  0.4998124624832064  0.0019310698542841   T   T   T
  0.5000149909521585 -0.0000904654740429  0.0022216390948346   T   T   T
  0.4999569875585641  0.4999691757130417  0.0021953065778712   T   T   T
  0.2499756125411050  0.2499867750158441  0.0022211742811165   T   T   T
  0.2501598926953194  0.7500076686567916  0.0019341661642956   T   T   T
  0.7500494664690397  0.2499283373226636  0.0022337667089074   T   T   T
  0.7498223370108631  0.7499610234524756  0.0018606999546023   T   T   T
  0.2494556945847175  0.9995997139430256  0.0940302471892157   T   T   T
  0.2494987602922511  0.5004593296693184  0.0940917824043063   T   T   T
  0.7506202785064507 -0.0006823252883261  0.0940096579492304   T   T   T
  0.7503147792184005  0.5004669372894623  0.0939911706327953   T   T   T
  0.0001247454642515  0.2497984210661376  0.0941053729457598   T   T   T
 -0.0000753882782134  0.7500732820897187  0.0929642467044802   T   T   T
  0.4999903784863334  0.2499127005901595  0.0940297408557366   T   T   T
  0.5000880231952173  0.7498064662867530  0.0941062478052901   T   T   T
 -0.0000658967424170  0.9963870516269738  0.1848618001884345   T   T   T
 -0.0008233977980819  0.5031905102726575  0.1844259834145810   T   T   T
  0.5002599242450132 -0.0016523381260544  0.1834799197487051   T   T   T
  0.5001990022627448  0.5008713455290017  0.1840516987168045   T   T   T
  0.2490114882881853  0.2496777204902818  0.1840637197973921   T   T   T
  0.2466687148521078  0.7507692399243865  0.1845128981752292   T   T   T
  0.7515824250211051  0.2496098881648181  0.1834414853142003   T   T   T
  0.7535226759551142  0.7499930109917579  0.1847484726594909   T   T   T
  0.2487251629783108  0.9974925449779302  0.2750865399992651   T   T   T
  0.2449489151408879  0.5048680779012197  0.2731806878215370   T   T   T
  0.7516380872029036 -0.0017493208264519  0.2749945194491608   T   T   T
  0.7524622887302873  0.5011447169776040  0.2748327057498462   T   T   T
  0.9982330461981233  0.2497326540357213  0.2749585329481976   T   T   T
 -0.0015172721623308  0.7503911910806002  0.2809718275048870   T   T   T
  0.5036583273868434  0.2464036134806252  0.2730132600143399   T   T   T
  0.5005103450654586  0.7516583395911356  0.2748905416640876   T   T   T
  0.2830804335172605  0.2847697520231114  0.3716021992623394   T   T   T
  0.4667004465064631  0.4680220355110406  0.3714877402953609   T   T   T
 
  0.00000000E+00  0.00000000E+00  0.00000000E+00
  0.00000000E+00  0.00000000E+00  0.00000000E+00
  0.00000000E+00  0.00000000E+00  0.00000000E+00
  0.00000000E+00  0.00000000E+00  0.00000000E+00
  0.00000000E+00  0.00000000E+00  0.00000000E+00
  0.00000000E+00  0.00000000E+00  0.00000000E+00
  0.00000000E+00  0.00000000E+00  0.00000000E+00
  0.00000000E+00  0.00000000E+00  0.00000000E+00
  0.00000000E+00  0.00000000E+00  0.00000000E+00
  0.00000000E+00  0.00000000E+00  0.00000000E+00
  0.00000000E+00  0.00000000E+00  0.00000000E+00
  0.00000000E+00  0.00000000E+00  0.00000000E+00
  0.00000000E+00  0.00000000E+00  0.00000000E+00
  0.00000000E+00  0.00000000E+00  0.00000000E+00
  0.00000000E+00  0.00000000E+00  0.00000000E+00
  0.00000000E+00  0.00000000E+00  0.00000000E+00
  0.00000000E+00  0.00000000E+00  0.00000000E+00
  0.00000000E+00  0.00000000E+00  0.00000000E+00
  0.00000000E+00  0.00000000E+00  0.00000000E+00
  0.00000000E+00  0.00000000E+00  0.00000000E+00
  0.00000000E+00  0.00000000E+00  0.00000000E+00
  0.00000000E+00  0.00000000E+00  0.00000000E+00
  0.00000000E+00  0.00000000E+00  0.00000000E+00
  0.00000000E+00  0.00000000E+00  0.00000000E+00
  0.00000000E+00  0.00000000E+00  0.00000000E+00
  0.00000000E+00  0.00000000E+00  0.00000000E+00
  0.00000000E+00  0.00000000E+00  0.00000000E+00
  0.00000000E+00  0.00000000E+00  0.00000000E+00
  0.00000000E+00  0.00000000E+00  0.00000000E+00
  0.00000000E+00  0.00000000E+00  0.00000000E+00
  0.00000000E+00  0.00000000E+00  0.00000000E+00
  0.00000000E+00  0.00000000E+00  0.00000000E+00
  0.00000000E+00  0.00000000E+00  0.00000000E+00
  0.00000000E+00  0.00000000E+00  0.00000000E+00
  0.00000000E+00  0.00000000E+00  0.00000000E+00
  0.00000000E+00  0.00000000E+00  0.00000000E+00
  0.00000000E+00  0.00000000E+00  0.00000000E+00
  0.00000000E+00  0.00000000E+00  0.00000000E+00
  0.00000000E+00  0.00000000E+00  0.00000000E+00
  0.00000000E+00  0.00000000E+00  0.00000000E+00
  0.00000000E+00  0.00000000E+00  0.00000000E+00
  0.00000000E+00  0.00000000E+00  0.00000000E+00
  0.00000000E+00  0.00000000E+00  0.00000000E+00
  0.00000000E+00  0.00000000E+00  0.00000000E+00
  0.00000000E+00  0.00000000E+00  0.00000000E+00
  0.00000000E+00  0.00000000E+00  0.00000000E+00
  0.00000000E+00  0.00000000E+00  0.00000000E+00
  0.00000000E+00  0.00000000E+00  0.00000000E+00
  0.00000000E+00  0.00000000E+00  0.00000000E+00
  0.00000000E+00  0.00000000E+00  0.00000000E+00
  0.00000000E+00  0.00000000E+00  0.00000000E+00
  0.00000000E+00  0.00000000E+00  0.00000000E+00
  0.00000000E+00  0.00000000E+00  0.00000000E+00
  0.00000000E+00  0.00000000E+00  0.00000000E+00
  0.00000000E+00  0.00000000E+00  0.00000000E+00
  0.00000000E+00  0.00000000E+00  0.00000000E+00
  0.00000000E+00  0.00000000E+00  0.00000000E+00
  0.00000000E+00  0.00000000E+00  0.00000000E+00
  0.00000000E+00  0.00000000E+00  0.00000000E+00
  0.00000000E+00  0.00000000E+00  0.00000000E+00
  0.00000000E+00  0.00000000E+00  0.00000000E+00
  0.00000000E+00  0.00000000E+00  0.00000000E+00
  0.00000000E+00  0.00000000E+00  0.00000000E+00
  0.00000000E+00  0.00000000E+00  0.00000000E+00
  0.00000000E+00  0.00000000E+00  0.00000000E+00
  0.00000000E+00  0.00000000E+00  0.00000000E+00
  0.00000000E+00  0.00000000E+00  0.00000000E+00
  0.00000000E+00  0.00000000E+00  0.00000000E+00
