Mg N O Rh                               
   1.00000000000000     
     8.4141216974800006    0.0000000000000000    0.0000000000000000
     0.0000000000000000    8.4141216974800006    0.0000000000000000
     0.0000000000000000    0.0000000000000000   23.4141216974799988
   Mg   N    O    Rh
    32     1    34     1
Selective dynamics
Direct
  0.2501777210447245  0.0002210762771259  0.0041081154445822   T   T   T
  0.2502182759965281  0.4997690125958789  0.0041803450208294   T   T   T
  0.7497883801504235  0.0002128004469288  0.0041246953902010   T   T   T
  0.7497817153063546  0.4998018038123485  0.0041080615169333   T   T   T
  0.0001069004395695  0.2500518275014662  0.0040526639631759   T   T   T
  0.0000209963872170  0.7499731865722208  0.0037708133465309   T   T   T
  0.4999769556840584  0.2500185437791398  0.0042941479972287   T   T   T
  0.4999372998777185  0.7498896166897082  0.0040375601607799   T   T   T
  0.0001401378958290  0.0004108404238296  0.0931928420517924   T   T   T
 -0.0000481262974453  0.4995772016021990  0.0933880054818216   T   T   T
  0.4997738632889282  0.0001110743363216  0.0938099378464478   T   T   T
  0.5000059082130224  0.4997297003952862  0.0939267552299586   T   T   T
  0.2502873385992806  0.2499875265460059  0.0939207332893775   T   T   T
  0.2504524323200240  0.7500640737305220  0.0933891473446420   T   T   T
  0.7498911856758967  0.2502443035091613  0.0938102861903119   T   T   T
  0.7495795519557530  0.7498507917200316  0.0931972979498280   T   T   T
  0.2503744224609832  0.0018728135731137  0.1845901935113498   T   T   T
  0.2516740569401228  0.4983207631849328  0.1848301210660415   T   T   T
  0.7494746162813086  0.0005764838790392  0.1840016664854217   T   T   T
  0.7481917422721044  0.4996274993570405  0.1845844196761171   T   T   T
  0.0018725546414861  0.2504360666842552  0.1840214180196586   T   T   T
  0.0004922726906548  0.7495690230115510  0.1812133505187534   T   T   T
  0.4984613136814782  0.2515414641201818  0.1848061438009066   T   T   T
  0.4995951231642753  0.7482065281929365  0.1840163866154812   T   T   T
  0.0001607125487165  0.0106135712197302  0.2730024343567107   T   T   T
  0.0006512374632154  0.4895924774267104  0.2728910471394018   T   T   T
  0.5000960888270285  0.0016756604983593  0.2735553357343135   T   T   T
  0.4979866371590812  0.4964083021804368  0.2815528855323076   T   T   T
  0.2536204138466430  0.2520724751891071  0.2816439315890978   T   T   T
  0.2605140365473305  0.7493462884782286  0.2728890658012533   T   T   T
  0.7483977835786356  0.2499837931993057  0.2735597095786480   T   T   T
  0.7394237355980635  0.7498269495577881  0.2729916522154454   T   T   T
  0.3731812236473886  0.3778110372707394  0.3996495273406994   T   T   T
  0.9999399604766873  0.0000495465054278  0.0017338126382984   T   T   T
 -0.0000111045147361  0.4999664528358064  0.0018089588663580   T   T   T
  0.5000268989757911 -0.0001016181141827  0.0020563750220639   T   T   T
  0.5000076057860771  0.5000186993208297  0.0020536464545506   T   T   T
  0.2499847549175206  0.2499874201671925  0.0020548901835878   T   T   T
  0.2500139749290138  0.7500069260108119  0.0018003763874115   T   T   T
  0.7501034800746379  0.2499641417395455  0.0020627241417843   T   T   T
  0.7499640741818555  0.7500483942152930  0.0017346477534268   T   T   T
  0.2495905356152559 -0.0001913557509371  0.0938247254997385   T   T   T
  0.2497606068507169  0.5002517379554978  0.0939891628244599   T   T   T
  0.7503513782202837 -0.0003516356025760  0.0938702822270715   T   T   T
  0.7501895788888684  0.5004313295617132  0.0938281533631853   T   T   T
  0.0001748020674985  0.2498936027452242  0.0939435700426015   T   T   T
 -0.0000856631535278  0.7501046174087791  0.0931528256091968   T   T   T
  0.5000250711899434  0.2499833856096457  0.0940024994291131   T   T   T
  0.5001149758992086  0.7498398479950067  0.0939418552021161   T   T   T
 -0.0000860662743073  0.9972355288931625  0.1843259221927739   T   T   T
 -0.0009767153739810  0.5026634551378406  0.1840135576288137   T   T   T
  0.4999265240070828 -0.0014935602809094  0.1835723422323894   T   T   T
  0.5006157567379220  0.5009179807172591  0.1841069740669147   T   T   T
  0.2491083835840543  0.2493851167660690  0.1841082873164888   T   T   T
  0.2473604377096411  0.7510428171533838  0.1840171643195667   T   T   T
  0.7515501378707701  0.2500649706996295  0.1835647645312753   T   T   T
  0.7528638495586952  0.7501406457553482  0.1843068088593990   T   T   T
  0.2478714774905914  0.9967167381661020  0.2760978436614918   T   T   T
  0.2448376321212869  0.5051779246054966  0.2730289134702712   T   T   T
  0.7517978489033825 -0.0017681823679360  0.2752012440568150   T   T   T
  0.7533446253776982  0.5021236690875264  0.2760296647439659   T   T   T
  0.9983212808397554  0.2497005303958458  0.2748516119356341   T   T   T
 -0.0018039240112159  0.7517643313676549  0.2810604980626444   T   T   T
  0.5037429433335191  0.2462813288582777  0.2730472282213702   T   T   T
  0.5003494356139300  0.7517770607068386  0.2747888623385466   T   T   T
  0.2826177127578750  0.2851519355731737  0.3721512313851376   T   T   T
  0.4656725436561122  0.4682483346348428  0.3720534349613435   T   T   T
  0.0083307083477398  0.7430833870237209  0.3656530468301407   T   T   T
 
  0.00000000E+00  0.00000000E+00  0.00000000E+00
  0.00000000E+00  0.00000000E+00  0.00000000E+00
  0.00000000E+00  0.00000000E+00  0.00000000E+00
  0.00000000E+00  0.00000000E+00  0.00000000E+00
  0.00000000E+00  0.00000000E+00  0.00000000E+00
  0.00000000E+00  0.00000000E+00  0.00000000E+00
  0.00000000E+00  0.00000000E+00  0.00000000E+00
  0.00000000E+00  0.00000000E+00  0.00000000E+00
  0.00000000E+00  0.00000000E+00  0.00000000E+00
  0.00000000E+00  0.00000000E+00  0.00000000E+00
  0.00000000E+00  0.00000000E+00  0.00000000E+00
  0.00000000E+00  0.00000000E+00  0.00000000E+00
  0.00000000E+00  0.00000000E+00  0.00000000E+00
  0.00000000E+00  0.00000000E+00  0.00000000E+00
  0.00000000E+00  0.00000000E+00  0.00000000E+00
  0.00000000E+00  0.00000000E+00  0.00000000E+00
  0.00000000E+00  0.00000000E+00  0.00000000E+00
  0.00000000E+00  0.00000000E+00  0.00000000E+00
  0.00000000E+00  0.00000000E+00  0.00000000E+00
  0.00000000E+00  0.00000000E+00  0.00000000E+00
  0.00000000E+00  0.00000000E+00  0.00000000E+00
  0.00000000E+00  0.00000000E+00  0.00000000E+00
  0.00000000E+00  0.00000000E+00  0.00000000E+00
  0.00000000E+00  0.00000000E+00  0.00000000E+00
  0.00000000E+00  0.00000000E+00  0.00000000E+00
  0.00000000E+00  0.00000000E+00  0.00000000E+00
  0.00000000E+00  0.00000000E+00  0.00000000E+00
  0.00000000E+00  0.00000000E+00  0.00000000E+00
  0.00000000E+00  0.00000000E+00  0.00000000E+00
  0.00000000E+00  0.00000000E+00  0.00000000E+00
  0.00000000E+00  0.00000000E+00  0.00000000E+00
  0.00000000E+00  0.00000000E+00  0.00000000E+00
  0.00000000E+00  0.00000000E+00  0.00000000E+00
  0.00000000E+00  0.00000000E+00  0.00000000E+00
  0.00000000E+00  0.00000000E+00  0.00000000E+00
  0.00000000E+00  0.00000000E+00  0.00000000E+00
  0.00000000E+00  0.00000000E+00  0.00000000E+00
  0.00000000E+00  0.00000000E+00  0.00000000E+00
  0.00000000E+00  0.00000000E+00  0.00000000E+00
  0.00000000E+00  0.00000000E+00  0.00000000E+00
  0.00000000E+00  0.00000000E+00  0.00000000E+00
  0.00000000E+00  0.00000000E+00  0.00000000E+00
  0.00000000E+00  0.00000000E+00  0.00000000E+00
  0.00000000E+00  0.00000000E+00  0.00000000E+00
  0.00000000E+00  0.00000000E+00  0.00000000E+00
  0.00000000E+00  0.00000000E+00  0.00000000E+00
  0.00000000E+00  0.00000000E+00  0.00000000E+00
  0.00000000E+00  0.00000000E+00  0.00000000E+00
  0.00000000E+00  0.00000000E+00  0.00000000E+00
  0.00000000E+00  0.00000000E+00  0.00000000E+00
  0.00000000E+00  0.00000000E+00  0.00000000E+00
  0.00000000E+00  0.00000000E+00  0.00000000E+00
  0.00000000E+00  0.00000000E+00  0.00000000E+00
  0.00000000E+00  0.00000000E+00  0.00000000E+00
  0.00000000E+00  0.00000000E+00  0.00000000E+00
  0.00000000E+00  0.00000000E+00  0.00000000E+00
  0.00000000E+00  0.00000000E+00  0.00000000E+00
  0.00000000E+00  0.00000000E+00  0.00000000E+00
  0.00000000E+00  0.00000000E+00  0.00000000E+00
  0.00000000E+00  0.00000000E+00  0.00000000E+00
  0.00000000E+00  0.00000000E+00  0.00000000E+00
  0.00000000E+00  0.00000000E+00  0.00000000E+00
  0.00000000E+00  0.00000000E+00  0.00000000E+00
  0.00000000E+00  0.00000000E+00  0.00000000E+00
  0.00000000E+00  0.00000000E+00  0.00000000E+00
  0.00000000E+00  0.00000000E+00  0.00000000E+00
  0.00000000E+00  0.00000000E+00  0.00000000E+00
  0.00000000E+00  0.00000000E+00  0.00000000E+00
