Co Mg N O                               
   1.00000000000000     
     8.4141216974800006    0.0000000000000000    0.0000000000000000
     0.0000000000000000    8.4141216974800006    0.0000000000000000
     0.0000000000000000    0.0000000000000000   23.4141216974799988
   Co   Mg   N    O 
     1    32     1    34
Selective dynamics
Direct
  0.0048501961076313  0.7452805944545946  0.3618997933272387   T   T   T
  0.2502130403023659  0.0001955754329203  0.0040013141148991   T   T   T
  0.2500459830899727  0.4999434015144412  0.0040865158923479   T   T   T
  0.7498913015559705  0.0001186523717345  0.0039679968090596   T   T   T
  0.7498218520600994  0.4997632364926031  0.0039984937704726   T   T   T
  0.0000222319258092  0.2500376791426140  0.0038685959375322   T   T   T
  0.0000081011442659  0.7499823293521306  0.0033243156621077   T   T   T
  0.5000698773518820  0.2499349417845569  0.0042842086397436   T   T   T
  0.4999425248393609  0.7499806147658744  0.0038521982179490   T   T   T
  0.0003298879462868  0.0009119770118828  0.0928572023424127   T   T   T
 -0.0000814508703592  0.4991055708165302  0.0931041979375427   T   T   T
  0.4998827671620221  0.0003173330852231  0.0937866094386040   T   T   T
  0.4997989862327268  0.4995056312148063  0.0938108146106955   T   T   T
  0.2505301402512525  0.2502276255742732  0.0938147851127701   T   T   T
  0.2508972894918413  0.7501257801264209  0.0931049629136998   T   T   T
  0.7497206781312489  0.2501403789944492  0.0937959030035659   T   T   T
  0.7491032553416254  0.7496765494687522  0.0928574222856510   T   T   T
  0.2505760918538950  0.0024613340234231  0.1845606668457385   T   T   T
  0.2516488594795591  0.4983554888863683  0.1848569492350714   T   T   T
  0.7498311721918833  0.0002771742056592  0.1839184382486040   T   T   T
  0.7476717164946715  0.4994193638693364  0.1845518637679715   T   T   T
  0.0021978707315570  0.2503158956942598  0.1838582457868402   T   T   T
  0.0003928690292469  0.7496343293472489  0.1792227417164492   T   T   T
  0.4982516669492432  0.2517921344191552  0.1846806903885667   T   T   T
  0.4997070098625735  0.7479187083510604  0.1838073686666165   T   T   T
  0.0009895543784174  0.0119150418698725  0.2731804637007716   T   T   T
  0.0002663544061215  0.4876467950188054  0.2727265582960329   T   T   T
  0.4998749453170138  0.0021420370065204  0.2731269745429710   T   T   T
  0.4973952580662577  0.4951601156275289  0.2827775059282009   T   T   T
  0.2549999633206133  0.2526714457677360  0.2829220991139316   T   T   T
  0.2624223150785270  0.7498486085415194  0.2726788845698128   T   T   T
  0.7479448846098069  0.2501976503580192  0.2731840936017160   T   T   T
  0.7380878748161543  0.7491033818760340  0.2731118702331106   T   T   T
  0.3734035123386140  0.3776027421430341  0.4005521828429184   T   T   T
  0.0000170654652518  0.0003422753775723  0.0015127958053322   T   T   T
  0.9999434277176370  0.4996793482197672  0.0016212409816363   T   T   T
  0.5000784289567971 -0.0000302124871871  0.0019773345714426   T   T   T
  0.4999361796779249  0.4999562586576194  0.0019601100874960   T   T   T
  0.2500440238723071  0.2500748177253191  0.0019669043296966   T   T   T
  0.2503027391663439  0.7500541280277506  0.0016118322399248   T   T   T
  0.7500455475347058  0.2499136538284879  0.0019856938700517   T   T   T
  0.7496426226085042  0.7499780237700431  0.0015114646843287   T   T   T
  0.2494877305741295 -0.0003423907155084  0.0936722443397192   T   T   T
  0.2493324665201727  0.5007071603788454  0.0937208451215625   T   T   T
  0.7507400594521201 -0.0007199070081945  0.0937303756595510   T   T   T
  0.7503767409773950  0.5005273417930179  0.0936766363597219   T   T   T
  0.0000374392620759  0.2498264738445921  0.0938361810590689   T   T   T
 -0.0001874763272823  0.7502213369313051  0.0924774690348550   T   T   T
  0.5002301267055222  0.2498193641322179  0.0937636512663087   T   T   T
  0.5001761910475320  0.7499795171176057  0.0938170510156614   T   T   T
 -0.0000249016844536  0.9960220267614357  0.1843928967172657   T   T   T
 -0.0011275034834435  0.5038312914110731  0.1839181677973954   T   T   T
  0.5004098700915612 -0.0018871984227410  0.1832684507381367   T   T   T
  0.5002171419703993  0.5010471944854381  0.1836105019454978   T   T   T
  0.2489789998850994  0.2498359814033917  0.1835859130468518   T   T   T
  0.2461671565285289  0.7512281171527736  0.1838963047874508   T   T   T
  0.7520195733378132  0.2496297562244294  0.1832898300541727   T   T   T
  0.7540369621160091  0.7500821074822995  0.1843489830933483   T   T   T
  0.2479934999201939  0.9965610615665090  0.2751628502597486   T   T   T
  0.2435020338771560  0.5066157347816224  0.2728601532439268   T   T   T
  0.7527007227870041 -0.0026034853392152  0.2751604218086969   T   T   T
  0.7535456409376156  0.5021028873130272  0.2751328768825322   T   T   T
  0.9982132759743871  0.2494377781904852  0.2747067904723849   T   T   T
 -0.0015624448198045  0.7514425526382610  0.2868948889361320   T   T   T
  0.5042318252322585  0.2458269373383103  0.2725715365103920   T   T   T
  0.5006002535429074  0.7519508580392237  0.2745862107095108   T   T   T
  0.2830667229290361  0.2848890626852487  0.3720899507967295   T   T   T
  0.4659733072004866  0.4678001105438203  0.3719552643258482   T   T   T
 
  0.00000000E+00  0.00000000E+00  0.00000000E+00
  0.00000000E+00  0.00000000E+00  0.00000000E+00
  0.00000000E+00  0.00000000E+00  0.00000000E+00
  0.00000000E+00  0.00000000E+00  0.00000000E+00
  0.00000000E+00  0.00000000E+00  0.00000000E+00
  0.00000000E+00  0.00000000E+00  0.00000000E+00
  0.00000000E+00  0.00000000E+00  0.00000000E+00
  0.00000000E+00  0.00000000E+00  0.00000000E+00
  0.00000000E+00  0.00000000E+00  0.00000000E+00
  0.00000000E+00  0.00000000E+00  0.00000000E+00
  0.00000000E+00  0.00000000E+00  0.00000000E+00
  0.00000000E+00  0.00000000E+00  0.00000000E+00
  0.00000000E+00  0.00000000E+00  0.00000000E+00
  0.00000000E+00  0.00000000E+00  0.00000000E+00
  0.00000000E+00  0.00000000E+00  0.00000000E+00
  0.00000000E+00  0.00000000E+00  0.00000000E+00
  0.00000000E+00  0.00000000E+00  0.00000000E+00
  0.00000000E+00  0.00000000E+00  0.00000000E+00
  0.00000000E+00  0.00000000E+00  0.00000000E+00
  0.00000000E+00  0.00000000E+00  0.00000000E+00
  0.00000000E+00  0.00000000E+00  0.00000000E+00
  0.00000000E+00  0.00000000E+00  0.00000000E+00
  0.00000000E+00  0.00000000E+00  0.00000000E+00
  0.00000000E+00  0.00000000E+00  0.00000000E+00
  0.00000000E+00  0.00000000E+00  0.00000000E+00
  0.00000000E+00  0.00000000E+00  0.00000000E+00
  0.00000000E+00  0.00000000E+00  0.00000000E+00
  0.00000000E+00  0.00000000E+00  0.00000000E+00
  0.00000000E+00  0.00000000E+00  0.00000000E+00
  0.00000000E+00  0.00000000E+00  0.00000000E+00
  0.00000000E+00  0.00000000E+00  0.00000000E+00
  0.00000000E+00  0.00000000E+00  0.00000000E+00
  0.00000000E+00  0.00000000E+00  0.00000000E+00
  0.00000000E+00  0.00000000E+00  0.00000000E+00
  0.00000000E+00  0.00000000E+00  0.00000000E+00
  0.00000000E+00  0.00000000E+00  0.00000000E+00
  0.00000000E+00  0.00000000E+00  0.00000000E+00
  0.00000000E+00  0.00000000E+00  0.00000000E+00
  0.00000000E+00  0.00000000E+00  0.00000000E+00
  0.00000000E+00  0.00000000E+00  0.00000000E+00
  0.00000000E+00  0.00000000E+00  0.00000000E+00
  0.00000000E+00  0.00000000E+00  0.00000000E+00
  0.00000000E+00  0.00000000E+00  0.00000000E+00
  0.00000000E+00  0.00000000E+00  0.00000000E+00
  0.00000000E+00  0.00000000E+00  0.00000000E+00
  0.00000000E+00  0.00000000E+00  0.00000000E+00
  0.00000000E+00  0.00000000E+00  0.00000000E+00
  0.00000000E+00  0.00000000E+00  0.00000000E+00
  0.00000000E+00  0.00000000E+00  0.00000000E+00
  0.00000000E+00  0.00000000E+00  0.00000000E+00
  0.00000000E+00  0.00000000E+00  0.00000000E+00
  0.00000000E+00  0.00000000E+00  0.00000000E+00
  0.00000000E+00  0.00000000E+00  0.00000000E+00
  0.00000000E+00  0.00000000E+00  0.00000000E+00
  0.00000000E+00  0.00000000E+00  0.00000000E+00
  0.00000000E+00  0.00000000E+00  0.00000000E+00
  0.00000000E+00  0.00000000E+00  0.00000000E+00
  0.00000000E+00  0.00000000E+00  0.00000000E+00
  0.00000000E+00  0.00000000E+00  0.00000000E+00
  0.00000000E+00  0.00000000E+00  0.00000000E+00
  0.00000000E+00  0.00000000E+00  0.00000000E+00
  0.00000000E+00  0.00000000E+00  0.00000000E+00
  0.00000000E+00  0.00000000E+00  0.00000000E+00
  0.00000000E+00  0.00000000E+00  0.00000000E+00
  0.00000000E+00  0.00000000E+00  0.00000000E+00
  0.00000000E+00  0.00000000E+00  0.00000000E+00
  0.00000000E+00  0.00000000E+00  0.00000000E+00
  0.00000000E+00  0.00000000E+00  0.00000000E+00
