Mg N O Pt                               
   1.00000000000000     
     8.4141216974800006    0.0000000000000000    0.0000000000000000
     0.0000000000000000    8.4141216974800006    0.0000000000000000
     0.0000000000000000    0.0000000000000000   23.4141216974799988
   Mg   N    O    Pt
    32     1    34     1
Selective dynamics
Direct
  0.2501570020714233  0.0002315636993909  0.0044831841275695   T   T   T
  0.2501801305200101  0.4998081478121291  0.0044996924214751   T   T   T
  0.7498063308028171  0.0001805953741519  0.0044763162268857   T   T   T
  0.7497613341139557  0.4998315667936110  0.0044800595108103   T   T   T
  0.0000386096664701  0.2500161307896642  0.0043507608452502   T   T   T
  0.9999985741371040  0.7499870003592995  0.0041396124251534   T   T   T
  0.4999430950976742  0.2500453695513999  0.0045019065857749   T   T   T
  0.4999715505529400  0.7499550504910499  0.0043586362147648   T   T   T
  0.0000295259447259  0.0005065532767471  0.0936550320580327   T   T   T
  0.9999072008940066  0.4994604038942043  0.0937025949214875   T   T   T
  0.4999729690427989  0.0000762170173458  0.0940514307594353   T   T   T
  0.5000052302163098  0.4998774971182688  0.0940903450904402   T   T   T
  0.2500954828691371  0.2499924340204398  0.0940950592633957   T   T   T
  0.2505579922746187  0.7500886844209095  0.0937143030260296   T   T   T
  0.7499445478516413  0.2500198405525574  0.0940469572005194   T   T   T
  0.7494508576932253  0.7499594014941862  0.0936678285359591   T   T   T
  0.2499103633858287  0.0008641039212055  0.1848730908890485   T   T   T
  0.2506104659972881  0.4993840492112924  0.1847163695570564   T   T   T
  0.7502622220987402 -0.0002544297159498  0.1845639168783666   T   T   T
  0.7491669345230074  0.5000985209272046  0.1848627793724215   T   T   T
  0.0010927790658915  0.2501280067282979  0.1843541847634384   T   T   T
  0.0002159407120419  0.7498017780741754  0.1817163950157712   T   T   T
  0.4991346491574157  0.2508942464354160  0.1843144134397886   T   T   T
  0.4998617023116108  0.7489352790428306  0.1843518858969114   T   T   T
  0.0003993690231363  0.0096595704333733  0.2751358179472133   T   T   T
  0.9989243310195873  0.4901813632196084  0.2749164868175597   T   T   T
  0.5002210513388585  0.0011416052985209  0.2733880656542393   T   T   T
  0.5002951053586260  0.4979850692037712  0.2776937173079049   T   T   T
  0.2520622570875876  0.2498096614259669  0.2777082641014709   T   T   T
  0.2599196349820201  0.7510819222665732  0.2749359624437268   T   T   T
  0.7489625559420673  0.2498300403994207  0.2733981805332769   T   T   T
  0.7403258546034228  0.7496573417831109  0.2751213451658679   T   T   T
  0.3759029620514402  0.3754953813533925  0.3972605357450991   T   T   T
  0.9999864946854462  0.0000602386987574  0.0021066946214499   T   T   T
  0.9999593892223925  0.4999428105534374  0.0021352564180304   T   T   T
  0.4999735898057578  0.0000142555882156  0.0023400877832856   T   T   T
  0.4999816239664006  0.4999829288621271  0.0023112590851648   T   T   T
  0.2500094717755004  0.2500038915738474  0.0023243939501296   T   T   T
  0.2500622023002658  0.7500299579616696  0.0021672250365656   T   T   T
  0.7499686131897777  0.2500102404695420  0.0023491728352959   T   T   T
  0.7499100292405844  0.7499997920487897  0.0021320131668464   T   T   T
  0.2496264300927703  0.9998250944954141  0.0941767619516686   T   T   T
  0.2497350086310259  0.5002511767478917  0.0941687175904969   T   T   T
  0.7503898615035678 -0.0003841427529958  0.0941198319669569   T   T   T
  0.7501720742310549  0.5003518612890183  0.0941714924765280   T   T   T
  0.0001399178627864  0.2499522598203347  0.0941985988050090   T   T   T
 -0.0000294898083079  0.7500124342616422  0.0936017450831760   T   T   T
  0.4999081035478041  0.2500954429486970  0.0940917902252379   T   T   T
  0.5000329338675666  0.7498549222433847  0.0942119947822193   T   T   T
  0.0000099975650780  0.9980230483003448  0.1845976608702333   T   T   T
 -0.0001347409317725  0.5018491517924448  0.1844614616084630   T   T   T
  0.5001843936045651 -0.0006952491126223  0.1836086550519425   T   T   T
  0.4999038903931676  0.5004570513445531  0.1842171668752150   T   T   T
  0.2495450533849314  0.2501103124044004  0.1842266634042412   T   T   T
  0.2481263467324976  0.7501553515577114  0.1844681153158464   T   T   T
  0.7507427681418449  0.2498425346493360  0.1836070425448829   T   T   T
  0.7520224329212288  0.7499995296300859  0.1845952452129465   T   T   T
  0.2502103906896944  0.9993276912593787  0.2748336655580784   T   T   T
  0.2475319732135984  0.5024730258303830  0.2741496663611426   T   T   T
  0.7502877059499579 -0.0002650848751137  0.2750138412578327   T   T   T
  0.7507774699900063  0.4998647298867551  0.2748239966998736   T   T   T
  0.9988955242754969  0.2497768184581197  0.2752164967052963   T   T   T
 -0.0001487296364974  0.7500796483480646  0.2756279580870609   T   T   T
  0.5023601767840108  0.2476942556548495  0.2740177464572974   T   T   T
  0.5002637820210117  0.7511868706912953  0.2751699398353885   T   T   T
  0.2834861193942283  0.2836268031045951  0.3725987191463174   T   T   T
  0.4677172368011330  0.4679715782268382  0.3724886944492451   T   T   T
  0.0011573727260458  0.7492988838232768  0.3589937017044870   T   T   T
 
  0.00000000E+00  0.00000000E+00  0.00000000E+00
  0.00000000E+00  0.00000000E+00  0.00000000E+00
  0.00000000E+00  0.00000000E+00  0.00000000E+00
  0.00000000E+00  0.00000000E+00  0.00000000E+00
  0.00000000E+00  0.00000000E+00  0.00000000E+00
  0.00000000E+00  0.00000000E+00  0.00000000E+00
  0.00000000E+00  0.00000000E+00  0.00000000E+00
  0.00000000E+00  0.00000000E+00  0.00000000E+00
  0.00000000E+00  0.00000000E+00  0.00000000E+00
  0.00000000E+00  0.00000000E+00  0.00000000E+00
  0.00000000E+00  0.00000000E+00  0.00000000E+00
  0.00000000E+00  0.00000000E+00  0.00000000E+00
  0.00000000E+00  0.00000000E+00  0.00000000E+00
  0.00000000E+00  0.00000000E+00  0.00000000E+00
  0.00000000E+00  0.00000000E+00  0.00000000E+00
  0.00000000E+00  0.00000000E+00  0.00000000E+00
  0.00000000E+00  0.00000000E+00  0.00000000E+00
  0.00000000E+00  0.00000000E+00  0.00000000E+00
  0.00000000E+00  0.00000000E+00  0.00000000E+00
  0.00000000E+00  0.00000000E+00  0.00000000E+00
  0.00000000E+00  0.00000000E+00  0.00000000E+00
  0.00000000E+00  0.00000000E+00  0.00000000E+00
  0.00000000E+00  0.00000000E+00  0.00000000E+00
  0.00000000E+00  0.00000000E+00  0.00000000E+00
  0.00000000E+00  0.00000000E+00  0.00000000E+00
  0.00000000E+00  0.00000000E+00  0.00000000E+00
  0.00000000E+00  0.00000000E+00  0.00000000E+00
  0.00000000E+00  0.00000000E+00  0.00000000E+00
  0.00000000E+00  0.00000000E+00  0.00000000E+00
  0.00000000E+00  0.00000000E+00  0.00000000E+00
  0.00000000E+00  0.00000000E+00  0.00000000E+00
  0.00000000E+00  0.00000000E+00  0.00000000E+00
  0.00000000E+00  0.00000000E+00  0.00000000E+00
  0.00000000E+00  0.00000000E+00  0.00000000E+00
  0.00000000E+00  0.00000000E+00  0.00000000E+00
  0.00000000E+00  0.00000000E+00  0.00000000E+00
  0.00000000E+00  0.00000000E+00  0.00000000E+00
  0.00000000E+00  0.00000000E+00  0.00000000E+00
  0.00000000E+00  0.00000000E+00  0.00000000E+00
  0.00000000E+00  0.00000000E+00  0.00000000E+00
  0.00000000E+00  0.00000000E+00  0.00000000E+00
  0.00000000E+00  0.00000000E+00  0.00000000E+00
  0.00000000E+00  0.00000000E+00  0.00000000E+00
  0.00000000E+00  0.00000000E+00  0.00000000E+00
  0.00000000E+00  0.00000000E+00  0.00000000E+00
  0.00000000E+00  0.00000000E+00  0.00000000E+00
  0.00000000E+00  0.00000000E+00  0.00000000E+00
  0.00000000E+00  0.00000000E+00  0.00000000E+00
  0.00000000E+00  0.00000000E+00  0.00000000E+00
  0.00000000E+00  0.00000000E+00  0.00000000E+00
  0.00000000E+00  0.00000000E+00  0.00000000E+00
  0.00000000E+00  0.00000000E+00  0.00000000E+00
  0.00000000E+00  0.00000000E+00  0.00000000E+00
  0.00000000E+00  0.00000000E+00  0.00000000E+00
  0.00000000E+00  0.00000000E+00  0.00000000E+00
  0.00000000E+00  0.00000000E+00  0.00000000E+00
  0.00000000E+00  0.00000000E+00  0.00000000E+00
  0.00000000E+00  0.00000000E+00  0.00000000E+00
  0.00000000E+00  0.00000000E+00  0.00000000E+00
  0.00000000E+00  0.00000000E+00  0.00000000E+00
  0.00000000E+00  0.00000000E+00  0.00000000E+00
  0.00000000E+00  0.00000000E+00  0.00000000E+00
  0.00000000E+00  0.00000000E+00  0.00000000E+00
  0.00000000E+00  0.00000000E+00  0.00000000E+00
  0.00000000E+00  0.00000000E+00  0.00000000E+00
  0.00000000E+00  0.00000000E+00  0.00000000E+00
  0.00000000E+00  0.00000000E+00  0.00000000E+00
  0.00000000E+00  0.00000000E+00  0.00000000E+00
