Au Mg N O                               
   1.00000000000000     
     8.4141216974800006    0.0000000000000000    0.0000000000000000
     0.0000000000000000    8.4141216974800006    0.0000000000000000
     0.0000000000000000    0.0000000000000000   23.4141216974799988
   Au   Mg   N    O 
     1    32     1    34
Selective dynamics
Direct
  0.0041323531227692  0.7465375014763526  0.3714568954210281   T   T   T
  0.2502045759994645  0.0001961021718448  0.0040686197449829   T   T   T
  0.2500893262596656  0.4998923363698077  0.0041380836045575   T   T   T
  0.7498518300355979  0.0001391186159132  0.0040376134633243   T   T   T
  0.7497908331203512  0.4997728900077765  0.0040687958410010   T   T   T
  0.0000292849340203  0.2500371061210183  0.0039669836893416   T   T   T
  0.0000037675778091  0.7499867152144353  0.0035136084385805   T   T   T
  0.5000241269740814  0.2499574756233812  0.0043486327965771   T   T   T
  0.4999423488464583  0.7499616791160703  0.0039501600606314   T   T   T
  0.0002477510525429  0.0007586205482166  0.0929948024147335   T   T   T
 -0.0000571502280679  0.4992390998633294  0.0932077188243326   T   T   T
  0.4999063386393827  0.0002066560470364  0.0939076668134672   T   T   T
  0.4998419685064719  0.4995958416926795  0.0939497736525669   T   T   T
  0.2504076737126124  0.2501673571323706  0.0939410904796334   T   T   T
  0.2507979999454228  0.7500785610259578  0.0932176157471675   T   T   T
  0.7498117027672653  0.2501069319712276  0.0939065434951712   T   T   T
  0.7492247038720620  0.7497421610155128  0.0930028963330234   T   T   T
  0.2505977097419039  0.0020575255704056  0.1847554453144342   T   T   T
  0.2515058605440322  0.4984982432103922  0.1850697417254682   T   T   T
  0.7497702519709065  0.0002788645081163  0.1841830135143084   T   T   T
  0.7480222895418835  0.4994154924868249  0.1847550244288860   T   T   T
  0.0018984143404161  0.2503311843517164  0.1840918415568658   T   T   T
  0.0004165050876634  0.7496370500629553  0.1796940303339490   T   T   T
  0.4985410989424500  0.2514601628973367  0.1848172640514127   T   T   T
  0.4996955173085162  0.7481902859266013  0.1840841852640623   T   T   T
  0.0008367246775859  0.0105898968907656  0.2733829004333291   T   T   T
  0.0002444977574051  0.4892345036577986  0.2730626300969545   T   T   T
  0.4998530260224996  0.0018235513550825  0.2735555842654376   T   T   T
  0.4980304140507432  0.4959782555929693  0.2815557888558020   T   T   T
  0.2541103274216731  0.2520294635105420  0.2816576851548674   T   T   T
  0.2608429939256989  0.7498257097353470  0.2730537177484247   T   T   T
  0.7482754530173040  0.2502250187531710  0.2735613126994792   T   T   T
  0.7394474476238423  0.7492308817292356  0.2733808079435240   T   T   T
  0.3732927608784097  0.3777228827123313  0.3994837415420371   T   T   T
 -0.0000059832388767  0.0001861935839172  0.0015870479097196   T   T   T
  0.9999434666807108  0.4998435003502655  0.0016803146512881   T   T   T
  0.5000551073709598 -0.0000913116289827  0.0020506299031942   T   T   T
  0.4999531934648413  0.5000207917433669  0.0020383735664158   T   T   T
  0.2499652597200422  0.2500408823596089  0.0020462957291294   T   T   T
  0.2501311074117420  0.7500485152721335  0.0016670506381518   T   T   T
  0.7500902152982554  0.2499274089644555  0.0020606351214492   T   T   T
  0.7498124811569225  0.7499900592775955  0.0015790746928354   T   T   T
  0.2495695486290370 -0.0002884372720499  0.0938009256373665   T   T   T
  0.2494975686806673  0.5005341037436400  0.0938765010204819   T   T   T
  0.7506139674209962 -0.0006147391719827  0.0938263976450004   T   T   T
  0.7502831589993676  0.5004444173754350  0.0938026866240994   T   T   T
  0.0001004713709913  0.2498505621013659  0.0939249167747542   T   T   T
 -0.0001534629620292  0.7501731329739458  0.0926442231153194   T   T   T
  0.5001438096218694  0.2498683756006377  0.0939652381913736   T   T   T
  0.5001533961108153  0.7499007588116707  0.0939204290286544   T   T   T
 -0.0000221302798242  0.9963274047898160  0.1844246039836382   T   T   T
 -0.0009661438919232  0.5034832082943720  0.1840225721555503   T   T   T
  0.5003961129739315 -0.0016736845032957  0.1834623138202260   T   T   T
  0.5002889171223128  0.5008760906841101  0.1839100344542047   T   T   T
  0.2491328099561923  0.2497349049526530  0.1838830272150282   T   T   T
  0.2465264755775204  0.7510304433100046  0.1840232643201728   T   T   T
  0.7517554018725481  0.2496375227855800  0.1834636597902376   T   T   T
  0.7537395091485322  0.7500689165041081  0.1844085823126111   T   T   T
  0.2484273605841642  0.9970586490580037  0.2753015927059893   T   T   T
  0.2444707345663898  0.5055864345126042  0.2731478264013826   T   T   T
  0.7522014899796207 -0.0021263267687845  0.2753946082592181   T   T   T
  0.7530525751561037  0.5016349391762885  0.2752745328411396   T   T   T
  0.9983372246979315  0.2495805732188612  0.2748269707175991   T   T   T
 -0.0011620612330388  0.7512233817427999  0.2837825151115669   T   T   T
  0.5039073671074633  0.2461659804114461  0.2729066303623472   T   T   T
  0.5004500808822684  0.7518146013027368  0.2747659859212296   T   T   T
  0.2831509577427924  0.2845307259725459  0.3720200746375825   T   T   T
  0.4663833148519079  0.4678169759646417  0.3719077794636763   T   T   T
 
  0.00000000E+00  0.00000000E+00  0.00000000E+00
  0.00000000E+00  0.00000000E+00  0.00000000E+00
  0.00000000E+00  0.00000000E+00  0.00000000E+00
  0.00000000E+00  0.00000000E+00  0.00000000E+00
  0.00000000E+00  0.00000000E+00  0.00000000E+00
  0.00000000E+00  0.00000000E+00  0.00000000E+00
  0.00000000E+00  0.00000000E+00  0.00000000E+00
  0.00000000E+00  0.00000000E+00  0.00000000E+00
  0.00000000E+00  0.00000000E+00  0.00000000E+00
  0.00000000E+00  0.00000000E+00  0.00000000E+00
  0.00000000E+00  0.00000000E+00  0.00000000E+00
  0.00000000E+00  0.00000000E+00  0.00000000E+00
  0.00000000E+00  0.00000000E+00  0.00000000E+00
  0.00000000E+00  0.00000000E+00  0.00000000E+00
  0.00000000E+00  0.00000000E+00  0.00000000E+00
  0.00000000E+00  0.00000000E+00  0.00000000E+00
  0.00000000E+00  0.00000000E+00  0.00000000E+00
  0.00000000E+00  0.00000000E+00  0.00000000E+00
  0.00000000E+00  0.00000000E+00  0.00000000E+00
  0.00000000E+00  0.00000000E+00  0.00000000E+00
  0.00000000E+00  0.00000000E+00  0.00000000E+00
  0.00000000E+00  0.00000000E+00  0.00000000E+00
  0.00000000E+00  0.00000000E+00  0.00000000E+00
  0.00000000E+00  0.00000000E+00  0.00000000E+00
  0.00000000E+00  0.00000000E+00  0.00000000E+00
  0.00000000E+00  0.00000000E+00  0.00000000E+00
  0.00000000E+00  0.00000000E+00  0.00000000E+00
  0.00000000E+00  0.00000000E+00  0.00000000E+00
  0.00000000E+00  0.00000000E+00  0.00000000E+00
  0.00000000E+00  0.00000000E+00  0.00000000E+00
  0.00000000E+00  0.00000000E+00  0.00000000E+00
  0.00000000E+00  0.00000000E+00  0.00000000E+00
  0.00000000E+00  0.00000000E+00  0.00000000E+00
  0.00000000E+00  0.00000000E+00  0.00000000E+00
  0.00000000E+00  0.00000000E+00  0.00000000E+00
  0.00000000E+00  0.00000000E+00  0.00000000E+00
  0.00000000E+00  0.00000000E+00  0.00000000E+00
  0.00000000E+00  0.00000000E+00  0.00000000E+00
  0.00000000E+00  0.00000000E+00  0.00000000E+00
  0.00000000E+00  0.00000000E+00  0.00000000E+00
  0.00000000E+00  0.00000000E+00  0.00000000E+00
  0.00000000E+00  0.00000000E+00  0.00000000E+00
  0.00000000E+00  0.00000000E+00  0.00000000E+00
  0.00000000E+00  0.00000000E+00  0.00000000E+00
  0.00000000E+00  0.00000000E+00  0.00000000E+00
  0.00000000E+00  0.00000000E+00  0.00000000E+00
  0.00000000E+00  0.00000000E+00  0.00000000E+00
  0.00000000E+00  0.00000000E+00  0.00000000E+00
  0.00000000E+00  0.00000000E+00  0.00000000E+00
  0.00000000E+00  0.00000000E+00  0.00000000E+00
  0.00000000E+00  0.00000000E+00  0.00000000E+00
  0.00000000E+00  0.00000000E+00  0.00000000E+00
  0.00000000E+00  0.00000000E+00  0.00000000E+00
  0.00000000E+00  0.00000000E+00  0.00000000E+00
  0.00000000E+00  0.00000000E+00  0.00000000E+00
  0.00000000E+00  0.00000000E+00  0.00000000E+00
  0.00000000E+00  0.00000000E+00  0.00000000E+00
  0.00000000E+00  0.00000000E+00  0.00000000E+00
  0.00000000E+00  0.00000000E+00  0.00000000E+00
  0.00000000E+00  0.00000000E+00  0.00000000E+00
  0.00000000E+00  0.00000000E+00  0.00000000E+00
  0.00000000E+00  0.00000000E+00  0.00000000E+00
  0.00000000E+00  0.00000000E+00  0.00000000E+00
  0.00000000E+00  0.00000000E+00  0.00000000E+00
  0.00000000E+00  0.00000000E+00  0.00000000E+00
  0.00000000E+00  0.00000000E+00  0.00000000E+00
  0.00000000E+00  0.00000000E+00  0.00000000E+00
  0.00000000E+00  0.00000000E+00  0.00000000E+00
