Mg N Ni O                               
   1.00000000000000     
     8.4141216974800006    0.0000000000000000    0.0000000000000000
     0.0000000000000000    8.4141216974800006    0.0000000000000000
     0.0000000000000000    0.0000000000000000   23.4141216974799988
   Mg   N    Ni   O 
    32     1     1    34
Selective dynamics
Direct
  0.2502244104812201  0.0002618836701985  0.0042006028881858   T   T   T
  0.2501978458245808  0.4998128080788261  0.0042619648771970   T   T   T
  0.7498325326038585  0.0001746113909766  0.0041574971692641   T   T   T
  0.7497388970456758  0.4997681363423813  0.0042030724330351   T   T   T
  0.0001167603907791  0.2500482591622980  0.0040962033684646   T   T   T
  0.0000526185019176  0.7499516879503657  0.0037696436449401   T   T   T
  0.4999537005156676  0.2500541323682823  0.0043618159846074   T   T   T
  0.4999395381477460  0.7498831185422812  0.0040876126189011   T   T   T
  0.0001929233336451  0.0005746495498071  0.0932420546086120   T   T   T
  0.9999215426634871  0.4994050124631903  0.0933929961806202   T   T   T
  0.4999389719986418  0.0001778717153610  0.0938440873279391   T   T   T
  0.4999158182676900  0.4996656564293396  0.0939573339820146   T   T   T
  0.2503597680120093  0.2501171635333541  0.0939473726004242   T   T   T
  0.2506480769169490  0.7501197235539023  0.0934097736391042   T   T   T
  0.7498456238744556  0.2500878959122361  0.0938366632434081   T   T   T
  0.7494066054283669  0.7498195265416000  0.0932423769924876   T   T   T
  0.2506124319016474  0.0021248430702307  0.1846834583150830   T   T   T
  0.2515039808880252  0.4985422132865034  0.1848968449907485   T   T   T
  0.7497476320787773  0.0003341605177217  0.1841268363676450   T   T   T
  0.7479913322146681  0.4994420367006265  0.1846889787834207   T   T   T
  0.0018569063955914  0.2502855668150357  0.1840047192759496   T   T   T
  0.0003386140612309  0.7496885925371277  0.1807069319531398   T   T   T
  0.4986091193312331  0.2514553196270937  0.1847006280348651   T   T   T
  0.4997101410986995  0.7482249330811680  0.1840148791179175   T   T   T
  0.0009694250678029  0.0107149220101824  0.2733573603315221   T   T   T
  0.9998890559098038  0.4890376472306652  0.2729579635771553   T   T   T
  0.5000134323521026  0.0019000906501119  0.2733485792129151   T   T   T
  0.4983516932901931  0.4961496300161393  0.2810641518404389   T   T   T
  0.2539645327021512  0.2516940529091485  0.2811290157397963   T   T   T
  0.2609719199576387  0.7502719493906100  0.2730017357902618   T   T   T
  0.7483083242322508  0.2500860428670948  0.2733651243155096   T   T   T
  0.7392826875895163  0.7491775151803509  0.2733251041959393   T   T   T
  0.3742739315964219  0.3767718157471346  0.3990233976874295   T   T   T
  0.0029174797599596  0.7465467544081218  0.3578688114267922   T   T   T
  0.0000216181621167  0.0001169503881991  0.0018288174482100   T   T   T
  0.9999729989894424  0.4998816673765560  0.0018913762657744   T   T   T
  0.5000311998197490  0.9999454032887799  0.0020983931698243   T   T   T
  0.4999702584033742  0.4999911145002089  0.0020851833035974   T   T   T
  0.2500038730873242  0.2500310635265375  0.0020907010057182   T   T   T
  0.2501204649513649  0.7500361013429367  0.0018874477753322   T   T   T
  0.7500622507519775  0.2499694968872473  0.0020940356191844   T   T   T
  0.7498808599577060  0.7499828739897653  0.0018308922810238   T   T   T
  0.2495947056984687  0.9997979462817224  0.0939103948242516   T   T   T
  0.2496116681745057  0.5004344949910897  0.0940011962883981   T   T   T
  0.7505522421090044  0.9994797107202257  0.0938875213680636   T   T   T
  0.7502194720587517  0.5004273936414004  0.0939048155955702   T   T   T
  0.0001620623179839  0.2498585982943469  0.0939984893524338   T   T   T
  0.9999058057699860  0.7501269176728216  0.0930961047720801   T   T   T
  0.5000680249616548  0.2499572545938959  0.0939669417839989   T   T   T
  0.5001342798176630  0.7498588305781982  0.0940021176731858   T   T   T
  0.9999196519424812  0.9969703277505730  0.1844582682339773   T   T   T
  0.9990625076799042  0.5028920999633427  0.1840523777750349   T   T   T
  0.5004157606035039  0.9984239709936875  0.1834631529968652   T   T   T
  0.5002214940336703  0.5009301704006246  0.1840051273171468   T   T   T
  0.2491198852925655  0.2498637846651197  0.1839862107710707   T   T   T
  0.2470852409319809  0.7510558949910572  0.1840875422538006   T   T   T
  0.7516688800237571  0.2496582307454794  0.1834517460176699   T   T   T
  0.7530696573671585  0.7501499643129390  0.1844133612935133   T   T   T
  0.2487358091103676  0.9975406624895147  0.2752897845048931   T   T   T
  0.2446189164019499  0.5055179600237586  0.2732846927090379   T   T   T
  0.7520340067535272  0.9981315232264032  0.2754186396251166   T   T   T
  0.7526202515587698  0.5013437983914852  0.2752656129566253   T   T   T
  0.9984587843422583  0.2496306030394609  0.2749176403671900   T   T   T
  0.9986582099855565  0.7510151950057437  0.2822287121129218   T   T   T
  0.5038683590423100  0.2462869108529132  0.2729492615652470   T   T   T
  0.5003960489409729  0.7517716150749041  0.2748697276141737   T   T   T
  0.2833515666899001  0.2843614431617467  0.3717451167145455   T   T   T
  0.4666389403759757  0.4676998860459241  0.3716697541827760   T   T   T
 
  0.00000000E+00  0.00000000E+00  0.00000000E+00
  0.00000000E+00  0.00000000E+00  0.00000000E+00
  0.00000000E+00  0.00000000E+00  0.00000000E+00
  0.00000000E+00  0.00000000E+00  0.00000000E+00
  0.00000000E+00  0.00000000E+00  0.00000000E+00
  0.00000000E+00  0.00000000E+00  0.00000000E+00
  0.00000000E+00  0.00000000E+00  0.00000000E+00
  0.00000000E+00  0.00000000E+00  0.00000000E+00
  0.00000000E+00  0.00000000E+00  0.00000000E+00
  0.00000000E+00  0.00000000E+00  0.00000000E+00
  0.00000000E+00  0.00000000E+00  0.00000000E+00
  0.00000000E+00  0.00000000E+00  0.00000000E+00
  0.00000000E+00  0.00000000E+00  0.00000000E+00
  0.00000000E+00  0.00000000E+00  0.00000000E+00
  0.00000000E+00  0.00000000E+00  0.00000000E+00
  0.00000000E+00  0.00000000E+00  0.00000000E+00
  0.00000000E+00  0.00000000E+00  0.00000000E+00
  0.00000000E+00  0.00000000E+00  0.00000000E+00
  0.00000000E+00  0.00000000E+00  0.00000000E+00
  0.00000000E+00  0.00000000E+00  0.00000000E+00
  0.00000000E+00  0.00000000E+00  0.00000000E+00
  0.00000000E+00  0.00000000E+00  0.00000000E+00
  0.00000000E+00  0.00000000E+00  0.00000000E+00
  0.00000000E+00  0.00000000E+00  0.00000000E+00
  0.00000000E+00  0.00000000E+00  0.00000000E+00
  0.00000000E+00  0.00000000E+00  0.00000000E+00
  0.00000000E+00  0.00000000E+00  0.00000000E+00
  0.00000000E+00  0.00000000E+00  0.00000000E+00
  0.00000000E+00  0.00000000E+00  0.00000000E+00
  0.00000000E+00  0.00000000E+00  0.00000000E+00
  0.00000000E+00  0.00000000E+00  0.00000000E+00
  0.00000000E+00  0.00000000E+00  0.00000000E+00
  0.00000000E+00  0.00000000E+00  0.00000000E+00
  0.00000000E+00  0.00000000E+00  0.00000000E+00
  0.00000000E+00  0.00000000E+00  0.00000000E+00
  0.00000000E+00  0.00000000E+00  0.00000000E+00
  0.00000000E+00  0.00000000E+00  0.00000000E+00
  0.00000000E+00  0.00000000E+00  0.00000000E+00
  0.00000000E+00  0.00000000E+00  0.00000000E+00
  0.00000000E+00  0.00000000E+00  0.00000000E+00
  0.00000000E+00  0.00000000E+00  0.00000000E+00
  0.00000000E+00  0.00000000E+00  0.00000000E+00
  0.00000000E+00  0.00000000E+00  0.00000000E+00
  0.00000000E+00  0.00000000E+00  0.00000000E+00
  0.00000000E+00  0.00000000E+00  0.00000000E+00
  0.00000000E+00  0.00000000E+00  0.00000000E+00
  0.00000000E+00  0.00000000E+00  0.00000000E+00
  0.00000000E+00  0.00000000E+00  0.00000000E+00
  0.00000000E+00  0.00000000E+00  0.00000000E+00
  0.00000000E+00  0.00000000E+00  0.00000000E+00
  0.00000000E+00  0.00000000E+00  0.00000000E+00
  0.00000000E+00  0.00000000E+00  0.00000000E+00
  0.00000000E+00  0.00000000E+00  0.00000000E+00
  0.00000000E+00  0.00000000E+00  0.00000000E+00
  0.00000000E+00  0.00000000E+00  0.00000000E+00
  0.00000000E+00  0.00000000E+00  0.00000000E+00
  0.00000000E+00  0.00000000E+00  0.00000000E+00
  0.00000000E+00  0.00000000E+00  0.00000000E+00
  0.00000000E+00  0.00000000E+00  0.00000000E+00
  0.00000000E+00  0.00000000E+00  0.00000000E+00
  0.00000000E+00  0.00000000E+00  0.00000000E+00
  0.00000000E+00  0.00000000E+00  0.00000000E+00
  0.00000000E+00  0.00000000E+00  0.00000000E+00
  0.00000000E+00  0.00000000E+00  0.00000000E+00
  0.00000000E+00  0.00000000E+00  0.00000000E+00
  0.00000000E+00  0.00000000E+00  0.00000000E+00
  0.00000000E+00  0.00000000E+00  0.00000000E+00
  0.00000000E+00  0.00000000E+00  0.00000000E+00
