Ba O                                    
   1.00000000000000     
    11.1568587867069997    0.0000000000000000    0.0000000000000000
     0.0000000000000000   11.1568587867069997    0.0000000000000000
     0.0000000000000000    0.0000000000000000   26.1568587867070015
   Ba   O 
    32    32
Selective dynamics
Direct
  0.2500000000000000 -0.0000000000000000  0.1065756795798256   T   T   T
  0.7500000000000000 -0.0000000000000000  0.1065756795798256   T   T   T
 -0.0000000000000000  0.2500000000000000  0.1065756795798256   T   T   T
  0.5000000000000000  0.2500000000000000  0.1065756795798256   T   T   T
  0.2500000000000000  0.5000000000000000  0.1065756795798256   T   T   T
  0.7500000000000000  0.5000000000000000  0.1065756795798256   T   T   T
 -0.0000000000000000  0.7500000000000000  0.1065756795798256   T   T   T
  0.5000000000000000  0.7500000000000000  0.1065756795798256   T   T   T
  0.0000000000000000  0.0000000000000000  0.2123099101820535   T   T   T
  0.5000000000000000  0.0000000000000000  0.2123099101820535   T   T   T
  0.2500000000000000  0.2500000000000000  0.2123099101820535   T   T   T
  0.7500000000000000  0.2500000000000000  0.2123099101820535   T   T   T
  0.0000000000000000  0.5000000000000000  0.2123099101820535   T   T   T
  0.5000000000000000  0.5000000000000000  0.2123099101820535   T   T   T
  0.2500000000000000  0.7500000000000000  0.2123099101820535   T   T   T
  0.7500000000000000  0.7500000000000000  0.2123099101820535   T   T   T
  0.2500000000000000  0.0000000000000000  0.3208608958809515   T   T   T
  0.7500000000000000 -0.0000000000000000  0.3208608958809515   T   T   T
 -0.0000000000000000  0.2500000000000000  0.3208608958809515   T   T   T
  0.5000000000000000  0.2500000000000000  0.3208608958809515   T   T   T
  0.2500000000000000  0.5000000000000000  0.3208608958809515   T   T   T
  0.7500000000000000  0.5000000000000000  0.3208608958809515   T   T   T
  0.0000000000000000  0.7500000000000000  0.3208608958809515   T   T   T
  0.5000000000000000  0.7500000000000000  0.3208608958809515   T   T   T
  0.0000000000000000  0.0000000000000000  0.4265951264831793   T   T   T
  0.5000000000000000  0.0000000000000000  0.4265951264831793   T   T   T
  0.2500000000000000  0.2500000000000000  0.4265951264831793   T   T   T
  0.7500000000000000  0.2500000000000000  0.4265951264831793   T   T   T
  0.0000000000000000  0.5000000000000000  0.4265951264831793   T   T   T
  0.5000000000000000  0.5000000000000000  0.4265951264831793   T   T   T
  0.2500000000000000  0.7500000000000000  0.4265951264831793   T   T   T
  0.7500000000000000  0.7500000000000000  0.4265951264831793   T   T   T
  0.0000000000000000  0.0000000000000000  0.1127424349406954   T   T   T
  0.5000000000000000 -0.0000000000000000  0.1127424349406954   T   T   T
  0.2500000000000000  0.2500000000000000  0.1127424349406954   T   T   T
  0.7500000000000000  0.2500000000000000  0.1127424349406954   T   T   T
  0.0000000000000000  0.5000000000000000  0.1127424349406954   T   T   T
  0.5000000000000000  0.5000000000000000  0.1127424349406954   T   T   T
  0.2500000000000000  0.7500000000000000  0.1127424349406954   T   T   T
  0.7500000000000000  0.7500000000000000  0.1127424349406954   T   T   T
  0.2500000000000000 -0.0000000000000000  0.2073797225462240   T   T   T
  0.7500000000000000  0.0000000000000000  0.2073797225462240   T   T   T
  0.0000000000000000  0.2500000000000000  0.2073797225462240   T   T   T
  0.5000000000000000  0.2500000000000000  0.2073797225462240   T   T   T
  0.2500000000000000  0.5000000000000000  0.2073797225462240   T   T   T
  0.7500000000000000  0.5000000000000000  0.2073797225462240   T   T   T
 -0.0000000000000000  0.7500000000000000  0.2073797225462240   T   T   T
  0.5000000000000000  0.7500000000000000  0.2073797225462240   T   T   T
 -0.0000000000000000  0.0000000000000000  0.3257910835167809   T   T   T
  0.5000000000000000  0.0000000000000000  0.3257910835167809   T   T   T
  0.2500000000000000  0.2500000000000000  0.3257910835167809   T   T   T
  0.7500000000000000  0.2500000000000000  0.3257910835167809   T   T   T
 -0.0000000000000000  0.5000000000000000  0.3257910835167809   T   T   T
  0.5000000000000000  0.5000000000000000  0.3257910835167809   T   T   T
  0.2500000000000000  0.7500000000000000  0.3257910835167809   T   T   T
  0.7500000000000000  0.7500000000000000  0.3257910835167809   T   T   T
  0.2500000000000000  0.0000000000000000  0.4204283711223095   T   T   T
  0.7500000000000000 -0.0000000000000000  0.4204283711223095   T   T   T
 -0.0000000000000000  0.2500000000000000  0.4204283711223095   T   T   T
  0.5000000000000000  0.2500000000000000  0.4204283711223095   T   T   T
  0.2500000000000000  0.5000000000000000  0.4204283711223095   T   T   T
  0.7500000000000000  0.5000000000000000  0.4204283711223095   T   T   T
 -0.0000000000000000  0.7500000000000000  0.4204283711223095   T   T   T
  0.5000000000000000  0.7500000000000000  0.4204283711223095   T   T   T
 
  0.00000000E+00  0.00000000E+00  0.00000000E+00
  0.00000000E+00  0.00000000E+00  0.00000000E+00
  0.00000000E+00  0.00000000E+00  0.00000000E+00
  0.00000000E+00  0.00000000E+00  0.00000000E+00
  0.00000000E+00  0.00000000E+00  0.00000000E+00
  0.00000000E+00  0.00000000E+00  0.00000000E+00
  0.00000000E+00  0.00000000E+00  0.00000000E+00
  0.00000000E+00  0.00000000E+00  0.00000000E+00
  0.00000000E+00  0.00000000E+00  0.00000000E+00
  0.00000000E+00  0.00000000E+00  0.00000000E+00
  0.00000000E+00  0.00000000E+00  0.00000000E+00
  0.00000000E+00  0.00000000E+00  0.00000000E+00
  0.00000000E+00  0.00000000E+00  0.00000000E+00
  0.00000000E+00  0.00000000E+00  0.00000000E+00
  0.00000000E+00  0.00000000E+00  0.00000000E+00
  0.00000000E+00  0.00000000E+00  0.00000000E+00
  0.00000000E+00  0.00000000E+00  0.00000000E+00
  0.00000000E+00  0.00000000E+00  0.00000000E+00
  0.00000000E+00  0.00000000E+00  0.00000000E+00
  0.00000000E+00  0.00000000E+00  0.00000000E+00
  0.00000000E+00  0.00000000E+00  0.00000000E+00
  0.00000000E+00  0.00000000E+00  0.00000000E+00
  0.00000000E+00  0.00000000E+00  0.00000000E+00
  0.00000000E+00  0.00000000E+00  0.00000000E+00
  0.00000000E+00  0.00000000E+00  0.00000000E+00
  0.00000000E+00  0.00000000E+00  0.00000000E+00
  0.00000000E+00  0.00000000E+00  0.00000000E+00
  0.00000000E+00  0.00000000E+00  0.00000000E+00
  0.00000000E+00  0.00000000E+00  0.00000000E+00
  0.00000000E+00  0.00000000E+00  0.00000000E+00
  0.00000000E+00  0.00000000E+00  0.00000000E+00
  0.00000000E+00  0.00000000E+00  0.00000000E+00
  0.00000000E+00  0.00000000E+00  0.00000000E+00
  0.00000000E+00  0.00000000E+00  0.00000000E+00
  0.00000000E+00  0.00000000E+00  0.00000000E+00
  0.00000000E+00  0.00000000E+00  0.00000000E+00
  0.00000000E+00  0.00000000E+00  0.00000000E+00
  0.00000000E+00  0.00000000E+00  0.00000000E+00
  0.00000000E+00  0.00000000E+00  0.00000000E+00
  0.00000000E+00  0.00000000E+00  0.00000000E+00
  0.00000000E+00  0.00000000E+00  0.00000000E+00
  0.00000000E+00  0.00000000E+00  0.00000000E+00
  0.00000000E+00  0.00000000E+00  0.00000000E+00
  0.00000000E+00  0.00000000E+00  0.00000000E+00
  0.00000000E+00  0.00000000E+00  0.00000000E+00
  0.00000000E+00  0.00000000E+00  0.00000000E+00
  0.00000000E+00  0.00000000E+00  0.00000000E+00
  0.00000000E+00  0.00000000E+00  0.00000000E+00
  0.00000000E+00  0.00000000E+00  0.00000000E+00
  0.00000000E+00  0.00000000E+00  0.00000000E+00
  0.00000000E+00  0.00000000E+00  0.00000000E+00
  0.00000000E+00  0.00000000E+00  0.00000000E+00
  0.00000000E+00  0.00000000E+00  0.00000000E+00
  0.00000000E+00  0.00000000E+00  0.00000000E+00
  0.00000000E+00  0.00000000E+00  0.00000000E+00
  0.00000000E+00  0.00000000E+00  0.00000000E+00
  0.00000000E+00  0.00000000E+00  0.00000000E+00
  0.00000000E+00  0.00000000E+00  0.00000000E+00
  0.00000000E+00  0.00000000E+00  0.00000000E+00
  0.00000000E+00  0.00000000E+00  0.00000000E+00
  0.00000000E+00  0.00000000E+00  0.00000000E+00
  0.00000000E+00  0.00000000E+00  0.00000000E+00
  0.00000000E+00  0.00000000E+00  0.00000000E+00
  0.00000000E+00  0.00000000E+00  0.00000000E+00
