Ba O Co                                 
   1.00000000000000     
    11.1568587867069997    0.0000000000000000    0.0000000000000000
     0.0000000000000000   11.1568587867069997    0.0000000000000000
     0.0000000000000000    0.0000000000000000   26.1568587867070015
   Ba   O    Co
    32    32     1
Selective dynamics
Direct
  0.2500000000000000  0.0000000000000000  0.1067730944196929   T   T   T
  0.7500000000000000  0.0000000000000000  0.1070073699263223   T   T   T
  0.0002013687715048  0.2497986312284952  0.1066459190106966   T   T   T
  0.4997986312284953  0.2497986312284952  0.1066459190106966   T   T   T
  0.2500000000000000  0.5000000000000000  0.1070073699263223   T   T   T
  0.7500000000000000  0.5000000000000000  0.1077685392005745   T   T   T
  0.0002013687715048  0.7502013687715049  0.1066459190106966   T   T   T
  0.4997986312284953  0.7502013687715049  0.1066459190106966   T   T   T
  0.0003228182937201  0.0000000000000000  0.2125322429056235   T   T   T
  0.4996771817062799  0.0000000000000000  0.2125322429056235   T   T   T
  0.2500000000000000  0.2496771817062799  0.2125322429056235   T   T   T
  0.7500000000000000  0.2491466345818208  0.2124216101995870   T   T   T
  0.0008533654181791  0.5000000000000000  0.2124216101995870   T   T   T
  0.4991466345818208  0.5000000000000000  0.2124216101995870   T   T   T
  0.2500000000000000  0.7503228182937201  0.2125322429056235   T   T   T
  0.7500000000000000  0.7508533654181788  0.2124216101995870   T   T   T
  0.2500000000000000  0.0000000000000000  0.3197713949985459   T   T   T
  0.7500000000000000  0.0000000000000000  0.3202298083510877   T   T   T
 -0.0010000067607190  0.2510000067607190  0.3211188900505474   T   T   T
  0.5010000067607189  0.2510000067607190  0.3211188900505474   T   T   T
  0.2500000000000000  0.5000000000000000  0.3202298083510877   T   T   T
  0.7500000000000000  0.5000000000000000  0.3201648770846173   T   T   T
 -0.0010000067607190  0.7489999932392811  0.3211188900505474   T   T   T
  0.5010000067607189  0.7489999932392811  0.3211188900505474   T   T   T
  0.0034757552986738  0.0000000000000000  0.4262566459442707   T   T   T
  0.4965242447013261  0.0000000000000000  0.4262566459442707   T   T   T
  0.2500000000000000  0.2465242447013261  0.4262566459442707   T   T   T
  0.7500000000000000  0.2383779277416219  0.4286740417600475   T   T   T
  0.0116220722583781  0.5000000000000000  0.4286740417600475   T   T   T
  0.4883779277416219  0.5000000000000000  0.4286740417600475   T   T   T
  0.2500000000000000  0.7534757552986738  0.4262566459442707   T   T   T
  0.7500000000000000  0.7616220722583780  0.4286740417600475   T   T   T
 -0.0002773294693173  0.0000000000000000  0.1128206718311516   T   T   T
  0.5002773294693174 -0.0000000000000000  0.1128206718311516   T   T   T
  0.2500000000000000  0.2502773294693173  0.1128206718311516   T   T   T
  0.7500000000000000  0.2508654837653878  0.1130746043777532   T   T   T
 -0.0008654837653878  0.5000000000000000  0.1130746043777532   T   T   T
  0.5008654837653879  0.5000000000000000  0.1130746043777532   T   T   T
  0.2500000000000000  0.7497226705306826  0.1128206718311516   T   T   T
  0.7500000000000000  0.7491345162346121  0.1130746043777532   T   T   T
  0.2500000000000000  0.0000000000000000  0.2076743001281001   T   T   T
  0.7500000000000000  0.0000000000000000  0.2081280475810255   T   T   T
 -0.0000084560858705  0.2500084560858705  0.2068453812043773   T   T   T
  0.5000084560858703  0.2500084560858705  0.2068453812043773   T   T   T
  0.2500000000000000  0.5000000000000000  0.2081280475810255   T   T   T
  0.7500000000000000  0.5000000000000000  0.2112349171703220   T   T   T
 -0.0000084560858705  0.7499915439141297  0.2068453812043773   T   T   T
  0.5000084560858703  0.7499915439141297  0.2068453812043773   T   T   T
 -0.0002865174490838  0.0000000000000000  0.3250957012477135   T   T   T
  0.5002865174490839  0.0000000000000000  0.3250957012477135   T   T   T
  0.2500000000000000  0.2502865174490838  0.3250957012477135   T   T   T
  0.7500000000000000  0.2512480657738639  0.3260607649537127   T   T   T
 -0.0012480657738639  0.5000000000000000  0.3260607649537127   T   T   T
  0.5012480657738642  0.5000000000000000  0.3260607649537127   T   T   T
  0.2500000000000000  0.7497134825509161  0.3250957012477135   T   T   T
  0.7500000000000000  0.7487519342261358  0.3260607649537127   T   T   T
  0.2500000000000000  0.0000000000000000  0.4196044450871676   T   T   T
  0.7500000000000000  0.0000000000000000  0.4204484546418249   T   T   T
  0.0021021775004657  0.2478978224995343  0.4192425350916575   T   T   T
  0.4978978224995341  0.2478978224995343  0.4192425350916575   T   T   T
  0.2500000000000000  0.5000000000000000  0.4204484546418249   T   T   T
  0.7499996334070005  0.5000000543739986  0.4255115918623892   T   T   T
  0.0021021775004657  0.7521021775004657  0.4192425350916575   T   T   T
  0.4978978768735328  0.7521021775004657  0.4192425350916575   T   T   T
  0.7499996334070005  0.5000000543739986  0.4927166747774437   T   T   T
 
  0.00000000E+00  0.00000000E+00  0.00000000E+00
  0.00000000E+00  0.00000000E+00  0.00000000E+00
  0.00000000E+00  0.00000000E+00  0.00000000E+00
  0.00000000E+00  0.00000000E+00  0.00000000E+00
  0.00000000E+00  0.00000000E+00  0.00000000E+00
  0.00000000E+00  0.00000000E+00  0.00000000E+00
  0.00000000E+00  0.00000000E+00  0.00000000E+00
  0.00000000E+00  0.00000000E+00  0.00000000E+00
  0.00000000E+00  0.00000000E+00  0.00000000E+00
  0.00000000E+00  0.00000000E+00  0.00000000E+00
  0.00000000E+00  0.00000000E+00  0.00000000E+00
  0.00000000E+00  0.00000000E+00  0.00000000E+00
  0.00000000E+00  0.00000000E+00  0.00000000E+00
  0.00000000E+00  0.00000000E+00  0.00000000E+00
  0.00000000E+00  0.00000000E+00  0.00000000E+00
  0.00000000E+00  0.00000000E+00  0.00000000E+00
  0.00000000E+00  0.00000000E+00  0.00000000E+00
  0.00000000E+00  0.00000000E+00  0.00000000E+00
  0.00000000E+00  0.00000000E+00  0.00000000E+00
  0.00000000E+00  0.00000000E+00  0.00000000E+00
  0.00000000E+00  0.00000000E+00  0.00000000E+00
  0.00000000E+00  0.00000000E+00  0.00000000E+00
  0.00000000E+00  0.00000000E+00  0.00000000E+00
  0.00000000E+00  0.00000000E+00  0.00000000E+00
  0.00000000E+00  0.00000000E+00  0.00000000E+00
  0.00000000E+00  0.00000000E+00  0.00000000E+00
  0.00000000E+00  0.00000000E+00  0.00000000E+00
  0.00000000E+00  0.00000000E+00  0.00000000E+00
  0.00000000E+00  0.00000000E+00  0.00000000E+00
  0.00000000E+00  0.00000000E+00  0.00000000E+00
  0.00000000E+00  0.00000000E+00  0.00000000E+00
  0.00000000E+00  0.00000000E+00  0.00000000E+00
  0.00000000E+00  0.00000000E+00  0.00000000E+00
  0.00000000E+00  0.00000000E+00  0.00000000E+00
  0.00000000E+00  0.00000000E+00  0.00000000E+00
  0.00000000E+00  0.00000000E+00  0.00000000E+00
  0.00000000E+00  0.00000000E+00  0.00000000E+00
  0.00000000E+00  0.00000000E+00  0.00000000E+00
  0.00000000E+00  0.00000000E+00  0.00000000E+00
  0.00000000E+00  0.00000000E+00  0.00000000E+00
  0.00000000E+00  0.00000000E+00  0.00000000E+00
  0.00000000E+00  0.00000000E+00  0.00000000E+00
  0.00000000E+00  0.00000000E+00  0.00000000E+00
  0.00000000E+00  0.00000000E+00  0.00000000E+00
  0.00000000E+00  0.00000000E+00  0.00000000E+00
  0.00000000E+00  0.00000000E+00  0.00000000E+00
  0.00000000E+00  0.00000000E+00  0.00000000E+00
  0.00000000E+00  0.00000000E+00  0.00000000E+00
  0.00000000E+00  0.00000000E+00  0.00000000E+00
  0.00000000E+00  0.00000000E+00  0.00000000E+00
  0.00000000E+00  0.00000000E+00  0.00000000E+00
  0.00000000E+00  0.00000000E+00  0.00000000E+00
  0.00000000E+00  0.00000000E+00  0.00000000E+00
  0.00000000E+00  0.00000000E+00  0.00000000E+00
  0.00000000E+00  0.00000000E+00  0.00000000E+00
  0.00000000E+00  0.00000000E+00  0.00000000E+00
  0.00000000E+00  0.00000000E+00  0.00000000E+00
  0.00000000E+00  0.00000000E+00  0.00000000E+00
  0.00000000E+00  0.00000000E+00  0.00000000E+00
  0.00000000E+00  0.00000000E+00  0.00000000E+00
  0.00000000E+00  0.00000000E+00  0.00000000E+00
  0.00000000E+00  0.00000000E+00  0.00000000E+00
  0.00000000E+00  0.00000000E+00  0.00000000E+00
  0.00000000E+00  0.00000000E+00  0.00000000E+00
  0.00000000E+00  0.00000000E+00  0.00000000E+00
