Ba O Rh                                 
   1.00000000000000     
    11.1568587867069997    0.0000000000000000    0.0000000000000000
     0.0000000000000000   11.1568587867069997    0.0000000000000000
     0.0000000000000000    0.0000000000000000   26.1568587867070015
   Ba   O    Rh
    32    32     1
Selective dynamics
Direct
  0.2500000000000000 -0.0000000000000000  0.1068070924014557   T   T   T
  0.7500000000000000 -0.0000000000000000  0.1069450759205513   T   T   T
  0.0001468208450063  0.2498531791549937  0.1067326488839570   T   T   T
  0.4998531791549937  0.2498531791549937  0.1067326488839570   T   T   T
  0.2500000000000000  0.5000000000000000  0.1069450759205513   T   T   T
  0.7500000000000000  0.5000000000000000  0.1076884624432012   T   T   T
  0.0001468208450063  0.7501468208450062  0.1067326488839570   T   T   T
  0.4998531791549937  0.7501468208450062  0.1067326488839570   T   T   T
  0.0003507163262290 -0.0000000000000000  0.2125809408239044   T   T   T
  0.4996492836737709 -0.0000000000000000  0.2125809408239044   T   T   T
  0.2500000000000000  0.2496492836737710  0.2125809408239044   T   T   T
  0.7500000000000000  0.2490580876166298  0.2124630668719938   T   T   T
  0.0009419123833702  0.5000000000000000  0.2124630668719938   T   T   T
  0.4990580876166299  0.5000000000000000  0.2124630668719938   T   T   T
  0.2500000000000000  0.7503507163262290  0.2125809408239044   T   T   T
  0.7500000000000000  0.7509419123833705  0.2124630668719938   T   T   T
  0.2500000000000000 -0.0000000000000000  0.3199594099453258   T   T   T
  0.7500000000000000 -0.0000000000000000  0.3204602844182304   T   T   T
 -0.0011800886046021  0.2511800886046022  0.3211578810142988   T   T   T
  0.5011800886046021  0.2511800886046022  0.3211578810142988   T   T   T
  0.2500000000000000  0.5000000000000000  0.3204602844182304   T   T   T
  0.7500000000000000  0.5000000000000000  0.3197111032122055   T   T   T
 -0.0011800886046021  0.7488199113953978  0.3211578810142988   T   T   T
  0.5011800886046021  0.7488199113953978  0.3211578810142988   T   T   T
  0.0031707266554922 -0.0000000000000000  0.4261257611632831   T   T   T
  0.4968292733445078 -0.0000000000000000  0.4261257611632831   T   T   T
  0.2500000000000000  0.2468292733445077  0.4261257611632831   T   T   T
  0.7500000000000000  0.2396044693677111  0.4285316921981640   T   T   T
  0.0103955306322889  0.5000000000000000  0.4285316921981640   T   T   T
  0.4896044693677111  0.5000000000000000  0.4285316921981640   T   T   T
  0.2500000000000000  0.7531707266554920  0.4261257611632831   T   T   T
  0.7500000000000000  0.7603955306322890  0.4285316921981640   T   T   T
 -0.0002678889494988 -0.0000000000000000  0.1128669422679860   T   T   T
  0.5002678889494989 -0.0000000000000000  0.1128669422679860   T   T   T
  0.2500000000000000  0.2502678889494987  0.1128669422679860   T   T   T
  0.7500000000000000  0.2508143142527585  0.1130227138444560   T   T   T
 -0.0008143142527585  0.5000000000000000  0.1130227138444560   T   T   T
  0.5008143142527585  0.5000000000000000  0.1130227138444560   T   T   T
  0.2500000000000000  0.7497321110505011  0.1128669422679860   T   T   T
  0.7500000000000000  0.7491856857472415  0.1130227138444560   T   T   T
  0.2500000000000000 -0.0000000000000000  0.2077444976088727   T   T   T
  0.7500000000000000 -0.0000000000000000  0.2081554980299855   T   T   T
  0.0000419035060409  0.2499580964939591  0.2069502129903381   T   T   T
  0.4999580964939592  0.2499580964939591  0.2069502129903381   T   T   T
  0.2500000000000000  0.5000000000000000  0.2081554980299855   T   T   T
  0.7500000000000000  0.5000000000000000  0.2111595983853687   T   T   T
  0.0000419035060409  0.7500419035060408  0.2069502129903381   T   T   T
  0.4999580964939592  0.7500419035060408  0.2069502129903381   T   T   T
 -0.0003796229217220 -0.0000000000000000  0.3251785125099761   T   T   T
  0.5003796229217220 -0.0000000000000000  0.3251785125099761   T   T   T
  0.2500000000000000  0.2503796229217219  0.3251785125099761   T   T   T
  0.7500000000000000  0.2512009053756734  0.3256328759056834   T   T   T
 -0.0012009053756734  0.5000000000000000  0.3256328759056834   T   T   T
  0.5012009053756734  0.5000000000000000  0.3256328759056834   T   T   T
  0.2500000000000000  0.7496203770782780  0.3251785125099761   T   T   T
  0.7500000000000000  0.7487990946243266  0.3256328759056834   T   T   T
  0.2500000000000000 -0.0000000000000000  0.4198803370465021   T   T   T
  0.7500000000000000 -0.0000000000000000  0.4208687904282791   T   T   T
  0.0024932425250604  0.2475067574749396  0.4193171178653599   T   T   T
  0.4975067574749396  0.2475067574749396  0.4193171178653599   T   T   T
  0.2500000000000000  0.5000000000000000  0.4208687904282791   T   T   T
  0.7499996334070005  0.5000000543739986  0.4230126057367503   T   T   T
  0.0024932425250604  0.7524932425250604  0.4193171178653599   T   T   T
  0.4975068118489382  0.7524932425250604  0.4193171178653599   T   T   T
  0.7499996334070005  0.5000000543739986  0.4949393603065520   T   T   T
 
  0.00000000E+00  0.00000000E+00  0.00000000E+00
  0.00000000E+00  0.00000000E+00  0.00000000E+00
  0.00000000E+00  0.00000000E+00  0.00000000E+00
  0.00000000E+00  0.00000000E+00  0.00000000E+00
  0.00000000E+00  0.00000000E+00  0.00000000E+00
  0.00000000E+00  0.00000000E+00  0.00000000E+00
  0.00000000E+00  0.00000000E+00  0.00000000E+00
  0.00000000E+00  0.00000000E+00  0.00000000E+00
  0.00000000E+00  0.00000000E+00  0.00000000E+00
  0.00000000E+00  0.00000000E+00  0.00000000E+00
  0.00000000E+00  0.00000000E+00  0.00000000E+00
  0.00000000E+00  0.00000000E+00  0.00000000E+00
  0.00000000E+00  0.00000000E+00  0.00000000E+00
  0.00000000E+00  0.00000000E+00  0.00000000E+00
  0.00000000E+00  0.00000000E+00  0.00000000E+00
  0.00000000E+00  0.00000000E+00  0.00000000E+00
  0.00000000E+00  0.00000000E+00  0.00000000E+00
  0.00000000E+00  0.00000000E+00  0.00000000E+00
  0.00000000E+00  0.00000000E+00  0.00000000E+00
  0.00000000E+00  0.00000000E+00  0.00000000E+00
  0.00000000E+00  0.00000000E+00  0.00000000E+00
  0.00000000E+00  0.00000000E+00  0.00000000E+00
  0.00000000E+00  0.00000000E+00  0.00000000E+00
  0.00000000E+00  0.00000000E+00  0.00000000E+00
  0.00000000E+00  0.00000000E+00  0.00000000E+00
  0.00000000E+00  0.00000000E+00  0.00000000E+00
  0.00000000E+00  0.00000000E+00  0.00000000E+00
  0.00000000E+00  0.00000000E+00  0.00000000E+00
  0.00000000E+00  0.00000000E+00  0.00000000E+00
  0.00000000E+00  0.00000000E+00  0.00000000E+00
  0.00000000E+00  0.00000000E+00  0.00000000E+00
  0.00000000E+00  0.00000000E+00  0.00000000E+00
  0.00000000E+00  0.00000000E+00  0.00000000E+00
  0.00000000E+00  0.00000000E+00  0.00000000E+00
  0.00000000E+00  0.00000000E+00  0.00000000E+00
  0.00000000E+00  0.00000000E+00  0.00000000E+00
  0.00000000E+00  0.00000000E+00  0.00000000E+00
  0.00000000E+00  0.00000000E+00  0.00000000E+00
  0.00000000E+00  0.00000000E+00  0.00000000E+00
  0.00000000E+00  0.00000000E+00  0.00000000E+00
  0.00000000E+00  0.00000000E+00  0.00000000E+00
  0.00000000E+00  0.00000000E+00  0.00000000E+00
  0.00000000E+00  0.00000000E+00  0.00000000E+00
  0.00000000E+00  0.00000000E+00  0.00000000E+00
  0.00000000E+00  0.00000000E+00  0.00000000E+00
  0.00000000E+00  0.00000000E+00  0.00000000E+00
  0.00000000E+00  0.00000000E+00  0.00000000E+00
  0.00000000E+00  0.00000000E+00  0.00000000E+00
  0.00000000E+00  0.00000000E+00  0.00000000E+00
  0.00000000E+00  0.00000000E+00  0.00000000E+00
  0.00000000E+00  0.00000000E+00  0.00000000E+00
  0.00000000E+00  0.00000000E+00  0.00000000E+00
  0.00000000E+00  0.00000000E+00  0.00000000E+00
  0.00000000E+00  0.00000000E+00  0.00000000E+00
  0.00000000E+00  0.00000000E+00  0.00000000E+00
  0.00000000E+00  0.00000000E+00  0.00000000E+00
  0.00000000E+00  0.00000000E+00  0.00000000E+00
  0.00000000E+00  0.00000000E+00  0.00000000E+00
  0.00000000E+00  0.00000000E+00  0.00000000E+00
  0.00000000E+00  0.00000000E+00  0.00000000E+00
  0.00000000E+00  0.00000000E+00  0.00000000E+00
  0.00000000E+00  0.00000000E+00  0.00000000E+00
  0.00000000E+00  0.00000000E+00  0.00000000E+00
  0.00000000E+00  0.00000000E+00  0.00000000E+00
  0.00000000E+00  0.00000000E+00  0.00000000E+00
