Ba O Cu                                 
   1.00000000000000     
    11.1568587867069997    0.0000000000000000    0.0000000000000000
     0.0000000000000000   11.1568587867069997    0.0000000000000000
     0.0000000000000000    0.0000000000000000   26.1568587867070015
   Ba   O    Cu
    32    32     1
Selective dynamics
Direct
  0.2500000000000000 -0.0000000000000000  0.1067728578492968   T   T   T
  0.7500000000000000 -0.0000000000000000  0.1069808594119642   T   T   T
  0.0001023093766795  0.2498976906233206  0.1067427111573299   T   T   T
  0.4998976906233206  0.2498976906233206  0.1067427111573299   T   T   T
  0.2500000000000000  0.5000000000000000  0.1069808594119642   T   T   T
  0.7500000000000000  0.5000000000000000  0.1075815410680441   T   T   T
  0.0001023093766795  0.7501023093766795  0.1067427111573299   T   T   T
  0.4998976906233206  0.7501023093766795  0.1067427111573299   T   T   T
  0.0002041423955839 -0.0000000000000000  0.2124359470102042   T   T   T
  0.4997958576044160 -0.0000000000000000  0.2124359470102042   T   T   T
  0.2500000000000000  0.2497958576044161  0.2124359470102042   T   T   T
  0.7500000000000000  0.2497676784759066  0.2125662877995379   T   T   T
  0.0002323215240934  0.5000000000000000  0.2125662877995379   T   T   T
  0.4997676784759065  0.5000000000000000  0.2125662877995379   T   T   T
  0.2500000000000000  0.7502041423955840  0.2124359470102042   T   T   T
  0.7500000000000000  0.7502323215240935  0.2125662877995379   T   T   T
  0.2500000000000000 -0.0000000000000000  0.3201352431717145   T   T   T
  0.7500000000000000 -0.0000000000000000  0.3200403490022233   T   T   T
 -0.0005262463806492  0.2505262463806492  0.3209112273735058   T   T   T
  0.5005262463806491  0.2505262463806492  0.3209112273735058   T   T   T
  0.2500000000000000  0.5000000000000000  0.3200403490022233   T   T   T
  0.7500000000000000  0.5000000000000000  0.3217230574424660   T   T   T
 -0.0005262463806492  0.7494737536193506  0.3209112273735058   T   T   T
  0.5005262463806491  0.7494737536193506  0.3209112273735058   T   T   T
  0.0025744936378117 -0.0000000000000000  0.4263462573727786   T   T   T
  0.4974255063621882 -0.0000000000000000  0.4263462573727786   T   T   T
  0.2500000000000000  0.2474255063621884  0.4263462573727786   T   T   T
  0.7500000000000000  0.2406254458850577  0.4277423741700052   T   T   T
  0.0093745541149423  0.5000000000000000  0.4277423741700052   T   T   T
  0.4906254458850576  0.5000000000000000  0.4277423741700052   T   T   T
  0.2500000000000000  0.7525744936378118  0.4263462573727786   T   T   T
  0.7500000000000000  0.7593745541149424  0.4277423741700052   T   T   T
 -0.0001539407325181 -0.0000000000000000  0.1128405726085432   T   T   T
  0.5001539407325178 -0.0000000000000000  0.1128405726085432   T   T   T
  0.2500000000000000  0.2501539407325181  0.1128405726085432   T   T   T
  0.7500000000000000  0.2507274456633560  0.1130281298360446   T   T   T
 -0.0007274456633561  0.5000000000000000  0.1130281298360446   T   T   T
  0.5007274456633565  0.5000000000000000  0.1130281298360446   T   T   T
  0.2500000000000000  0.7498460592674822  0.1128405726085432   T   T   T
  0.7500000000000000  0.7492725543366435  0.1130281298360446   T   T   T
  0.2500000000000000 -0.0000000000000000  0.2076559841270937   T   T   T
  0.7500000000000000 -0.0000000000000000  0.2079436803171088   T   T   T
  0.0000398610966652  0.2499601389033348  0.2071232991274251   T   T   T
  0.4999601389033349  0.2499601389033348  0.2071232991274251   T   T   T
  0.2500000000000000  0.5000000000000000  0.2079436803171088   T   T   T
  0.7500000000000000  0.5000000000000000  0.2104995483668372   T   T   T
  0.0000398610966652  0.7500398610966652  0.2071232991274251   T   T   T
  0.4999601389033349  0.7500398610966652  0.2071232991274251   T   T   T
 -0.0001673498597306 -0.0000000000000000  0.3253642931675585   T   T   T
  0.5001673498597304 -0.0000000000000000  0.3253642931675585   T   T   T
  0.2500000000000000  0.2501673498597305  0.3253642931675585   T   T   T
  0.7500000000000000  0.2507022284885190  0.3258818749123425   T   T   T
 -0.0007022284885191  0.5000000000000000  0.3258818749123425   T   T   T
  0.5007022284885190  0.5000000000000000  0.3258818749123425   T   T   T
  0.2500000000000000  0.7498326501402696  0.3253642931675585   T   T   T
  0.7500000000000000  0.7492977715114810  0.3258818749123425   T   T   T
  0.2500000000000000 -0.0000000000000000  0.4198712828499727   T   T   T
  0.7500000000000000  0.0000000000000000  0.4200397838718867   T   T   T
  0.0013525697563404  0.2486474302436596  0.4194338483583749   T   T   T
  0.4986474302436595  0.2486474302436596  0.4194338483583749   T   T   T
  0.2500000000000000  0.5000000000000000  0.4200397838718867   T   T   T
  0.7499996334070005  0.5000000543739986  0.4242396448117595   T   T   T
  0.0013525697563404  0.7513525697563406  0.4194338483583749   T   T   T
  0.4986474846176581  0.7513525697563406  0.4194338483583749   T   T   T
  0.7499996334070005  0.5000000543739986  0.4958474335697761   T   T   T
 
  0.00000000E+00  0.00000000E+00  0.00000000E+00
  0.00000000E+00  0.00000000E+00  0.00000000E+00
  0.00000000E+00  0.00000000E+00  0.00000000E+00
  0.00000000E+00  0.00000000E+00  0.00000000E+00
  0.00000000E+00  0.00000000E+00  0.00000000E+00
  0.00000000E+00  0.00000000E+00  0.00000000E+00
  0.00000000E+00  0.00000000E+00  0.00000000E+00
  0.00000000E+00  0.00000000E+00  0.00000000E+00
  0.00000000E+00  0.00000000E+00  0.00000000E+00
  0.00000000E+00  0.00000000E+00  0.00000000E+00
  0.00000000E+00  0.00000000E+00  0.00000000E+00
  0.00000000E+00  0.00000000E+00  0.00000000E+00
  0.00000000E+00  0.00000000E+00  0.00000000E+00
  0.00000000E+00  0.00000000E+00  0.00000000E+00
  0.00000000E+00  0.00000000E+00  0.00000000E+00
  0.00000000E+00  0.00000000E+00  0.00000000E+00
  0.00000000E+00  0.00000000E+00  0.00000000E+00
  0.00000000E+00  0.00000000E+00  0.00000000E+00
  0.00000000E+00  0.00000000E+00  0.00000000E+00
  0.00000000E+00  0.00000000E+00  0.00000000E+00
  0.00000000E+00  0.00000000E+00  0.00000000E+00
  0.00000000E+00  0.00000000E+00  0.00000000E+00
  0.00000000E+00  0.00000000E+00  0.00000000E+00
  0.00000000E+00  0.00000000E+00  0.00000000E+00
  0.00000000E+00  0.00000000E+00  0.00000000E+00
  0.00000000E+00  0.00000000E+00  0.00000000E+00
  0.00000000E+00  0.00000000E+00  0.00000000E+00
  0.00000000E+00  0.00000000E+00  0.00000000E+00
  0.00000000E+00  0.00000000E+00  0.00000000E+00
  0.00000000E+00  0.00000000E+00  0.00000000E+00
  0.00000000E+00  0.00000000E+00  0.00000000E+00
  0.00000000E+00  0.00000000E+00  0.00000000E+00
  0.00000000E+00  0.00000000E+00  0.00000000E+00
  0.00000000E+00  0.00000000E+00  0.00000000E+00
  0.00000000E+00  0.00000000E+00  0.00000000E+00
  0.00000000E+00  0.00000000E+00  0.00000000E+00
  0.00000000E+00  0.00000000E+00  0.00000000E+00
  0.00000000E+00  0.00000000E+00  0.00000000E+00
  0.00000000E+00  0.00000000E+00  0.00000000E+00
  0.00000000E+00  0.00000000E+00  0.00000000E+00
  0.00000000E+00  0.00000000E+00  0.00000000E+00
  0.00000000E+00  0.00000000E+00  0.00000000E+00
  0.00000000E+00  0.00000000E+00  0.00000000E+00
  0.00000000E+00  0.00000000E+00  0.00000000E+00
  0.00000000E+00  0.00000000E+00  0.00000000E+00
  0.00000000E+00  0.00000000E+00  0.00000000E+00
  0.00000000E+00  0.00000000E+00  0.00000000E+00
  0.00000000E+00  0.00000000E+00  0.00000000E+00
  0.00000000E+00  0.00000000E+00  0.00000000E+00
  0.00000000E+00  0.00000000E+00  0.00000000E+00
  0.00000000E+00  0.00000000E+00  0.00000000E+00
  0.00000000E+00  0.00000000E+00  0.00000000E+00
  0.00000000E+00  0.00000000E+00  0.00000000E+00
  0.00000000E+00  0.00000000E+00  0.00000000E+00
  0.00000000E+00  0.00000000E+00  0.00000000E+00
  0.00000000E+00  0.00000000E+00  0.00000000E+00
  0.00000000E+00  0.00000000E+00  0.00000000E+00
  0.00000000E+00  0.00000000E+00  0.00000000E+00
  0.00000000E+00  0.00000000E+00  0.00000000E+00
  0.00000000E+00  0.00000000E+00  0.00000000E+00
  0.00000000E+00  0.00000000E+00  0.00000000E+00
  0.00000000E+00  0.00000000E+00  0.00000000E+00
  0.00000000E+00  0.00000000E+00  0.00000000E+00
  0.00000000E+00  0.00000000E+00  0.00000000E+00
  0.00000000E+00  0.00000000E+00  0.00000000E+00
