Ba O V                                  
   1.00000000000000     
    11.1568587867069997    0.0000000000000000    0.0000000000000000
     0.0000000000000000   11.1568587867069997    0.0000000000000000
     0.0000000000000000    0.0000000000000000   26.1568587867070015
   Ba   O    V 
    32    32     1
Selective dynamics
Direct
  0.2500000000000000 -0.0000000000000000  0.1066937319814716   T   T   T
  0.7500000000000000 -0.0000000000000000  0.1070746548095924   T   T   T
  0.0000635164380242  0.2499364835619758  0.1066084551727817   T   T   T
  0.4999364835619757  0.2499364835619758  0.1066084551727817   T   T   T
  0.2500000000000000  0.5000000000000000  0.1070746548095924   T   T   T
  0.7500000000000000  0.5000000000000000  0.1078765197171216   T   T   T
  0.0000635164380242  0.7500635164380242  0.1066084551727817   T   T   T
  0.4999364835619757  0.7500635164380242  0.1066084551727817   T   T   T
  0.0004771068354439 -0.0000000000000000  0.2123772204925235   T   T   T
  0.4995228931645562 -0.0000000000000000  0.2123772204925235   T   T   T
  0.2500000000000000  0.2495228931645561  0.2123772204925235   T   T   T
  0.7500000000000000  0.2494469022314787  0.2125944721146330   T   T   T
  0.0005530977685213  0.5000000000000000  0.2125944721146330   T   T   T
  0.4994469022314787  0.5000000000000000  0.2125944721146330   T   T   T
  0.2500000000000000  0.7504771068354440  0.2123772204925235   T   T   T
  0.7500000000000000  0.7505530977685213  0.2125944721146330   T   T   T
  0.2500000000000000 -0.0000000000000000  0.3194407545529446   T   T   T
  0.7500000000000000 -0.0000000000000000  0.3195771236198209   T   T   T
  0.9992355919799460  0.2507644080200540  0.3208124166362488   T   T   T
  0.5007644080200540  0.2507644080200540  0.3208124166362488   T   T   T
  0.2500000000000000  0.5000000000000000  0.3195771236198209   T   T   T
  0.7500000000000000  0.5000000000000000  0.3204899470002898   T   T   T
  0.9992355919799460  0.7492355919799460  0.3208124166362488   T   T   T
  0.5007644080200540  0.7492355919799460  0.3208124166362488   T   T   T
  0.0041791272056639 -0.0000000000000000  0.4261633962625976   T   T   T
  0.4958208727943361 -0.0000000000000000  0.4261633962625976   T   T   T
  0.2500000000000000  0.2458208727943361  0.4261633962625976   T   T   T
  0.7500000000000000  0.2355447668981468  0.4282699684392136   T   T   T
  0.0144552331018532  0.5000000000000000  0.4282699684392136   T   T   T
  0.4855447668981468  0.5000000000000000  0.4282699684392136   T   T   T
  0.2500000000000000  0.7541791272056639  0.4261633962625976   T   T   T
  0.7500000000000000  0.7644552331018533  0.4282699684392136   T   T   T
  0.9996596219776203 -0.0000000000000000  0.1127026355883220   T   T   T
  0.5003403780223797 -0.0000000000000000  0.1127026355883220   T   T   T
  0.2500000000000000  0.2503403780223796  0.1127026355883220   T   T   T
  0.7500000000000000  0.2511192164989335  0.1131045341613378   T   T   T
  0.9988807835010662  0.5000000000000000  0.1131045341613378   T   T   T
  0.5011192164989338  0.5000000000000000  0.1131045341613378   T   T   T
  0.2500000000000000  0.7496596219776203  0.1127026355883220   T   T   T
  0.7500000000000000  0.7488807835010662  0.1131045341613378   T   T   T
  0.2500000000000000 -0.0000000000000000  0.2075684098303045   T   T   T
  0.7500000000000000 -0.0000000000000000  0.2082264779033500   T   T   T
  0.0000443945367130  0.2499556054632870  0.2066231756935885   T   T   T
  0.4999556054632870  0.2499556054632870  0.2066231756935885   T   T   T
  0.2500000000000000  0.5000000000000000  0.2082264779033500   T   T   T
  0.7500000000000000  0.5000000000000000  0.2121856420615816   T   T   T
  0.0000443945367130  0.7500443945367130  0.2066231756935885   T   T   T
  0.4999556054632870  0.7500443945367130  0.2066231756935885   T   T   T
  0.9996062441917226 -0.0000000000000000  0.3246956896996677   T   T   T
  0.5003937558082774 -0.0000000000000000  0.3246956896996677   T   T   T
  0.2500000000000000  0.2503937558082773  0.3246956896996677   T   T   T
  0.7500000000000000  0.2519038586699751  0.3254837243263474   T   T   T
  0.9980961413300251  0.5000000000000000  0.3254837243263474   T   T   T
  0.5019038586699749  0.5000000000000000  0.3254837243263474   T   T   T
  0.2500000000000000  0.7496062441917226  0.3246956896996677   T   T   T
  0.7500000000000000  0.7480961413300251  0.3254837243263474   T   T   T
  0.2500000000000000 -0.0000000000000000  0.4193473330048487   T   T   T
  0.7500000000000000 -0.0000000000000000  0.4199247473104271   T   T   T
  0.0030450816288874  0.2469549183711127  0.4183561883782793   T   T   T
  0.4969549183711126  0.2469549183711127  0.4183561883782793   T   T   T
  0.2500000000000000  0.5000000000000000  0.4199247473104271   T   T   T
  0.7499996334070005  0.5000000543739986  0.4318401650302721   T   T   T
  0.0030450816288874  0.7530450816288873  0.4183561883782793   T   T   T
  0.4969549727451112  0.7530450816288873  0.4183561883782793   T   T   T
  0.7499996334070005  0.5000000543739986  0.4997872117106003   T   T   T
 
  0.00000000E+00  0.00000000E+00  0.00000000E+00
  0.00000000E+00  0.00000000E+00  0.00000000E+00
  0.00000000E+00  0.00000000E+00  0.00000000E+00
  0.00000000E+00  0.00000000E+00  0.00000000E+00
  0.00000000E+00  0.00000000E+00  0.00000000E+00
  0.00000000E+00  0.00000000E+00  0.00000000E+00
  0.00000000E+00  0.00000000E+00  0.00000000E+00
  0.00000000E+00  0.00000000E+00  0.00000000E+00
  0.00000000E+00  0.00000000E+00  0.00000000E+00
  0.00000000E+00  0.00000000E+00  0.00000000E+00
  0.00000000E+00  0.00000000E+00  0.00000000E+00
  0.00000000E+00  0.00000000E+00  0.00000000E+00
  0.00000000E+00  0.00000000E+00  0.00000000E+00
  0.00000000E+00  0.00000000E+00  0.00000000E+00
  0.00000000E+00  0.00000000E+00  0.00000000E+00
  0.00000000E+00  0.00000000E+00  0.00000000E+00
  0.00000000E+00  0.00000000E+00  0.00000000E+00
  0.00000000E+00  0.00000000E+00  0.00000000E+00
  0.00000000E+00  0.00000000E+00  0.00000000E+00
  0.00000000E+00  0.00000000E+00  0.00000000E+00
  0.00000000E+00  0.00000000E+00  0.00000000E+00
  0.00000000E+00  0.00000000E+00  0.00000000E+00
  0.00000000E+00  0.00000000E+00  0.00000000E+00
  0.00000000E+00  0.00000000E+00  0.00000000E+00
  0.00000000E+00  0.00000000E+00  0.00000000E+00
  0.00000000E+00  0.00000000E+00  0.00000000E+00
  0.00000000E+00  0.00000000E+00  0.00000000E+00
  0.00000000E+00  0.00000000E+00  0.00000000E+00
  0.00000000E+00  0.00000000E+00  0.00000000E+00
  0.00000000E+00  0.00000000E+00  0.00000000E+00
  0.00000000E+00  0.00000000E+00  0.00000000E+00
  0.00000000E+00  0.00000000E+00  0.00000000E+00
  0.00000000E+00  0.00000000E+00  0.00000000E+00
  0.00000000E+00  0.00000000E+00  0.00000000E+00
  0.00000000E+00  0.00000000E+00  0.00000000E+00
  0.00000000E+00  0.00000000E+00  0.00000000E+00
  0.00000000E+00  0.00000000E+00  0.00000000E+00
  0.00000000E+00  0.00000000E+00  0.00000000E+00
  0.00000000E+00  0.00000000E+00  0.00000000E+00
  0.00000000E+00  0.00000000E+00  0.00000000E+00
  0.00000000E+00  0.00000000E+00  0.00000000E+00
  0.00000000E+00  0.00000000E+00  0.00000000E+00
  0.00000000E+00  0.00000000E+00  0.00000000E+00
  0.00000000E+00  0.00000000E+00  0.00000000E+00
  0.00000000E+00  0.00000000E+00  0.00000000E+00
  0.00000000E+00  0.00000000E+00  0.00000000E+00
  0.00000000E+00  0.00000000E+00  0.00000000E+00
  0.00000000E+00  0.00000000E+00  0.00000000E+00
  0.00000000E+00  0.00000000E+00  0.00000000E+00
  0.00000000E+00  0.00000000E+00  0.00000000E+00
  0.00000000E+00  0.00000000E+00  0.00000000E+00
  0.00000000E+00  0.00000000E+00  0.00000000E+00
  0.00000000E+00  0.00000000E+00  0.00000000E+00
  0.00000000E+00  0.00000000E+00  0.00000000E+00
  0.00000000E+00  0.00000000E+00  0.00000000E+00
  0.00000000E+00  0.00000000E+00  0.00000000E+00
  0.00000000E+00  0.00000000E+00  0.00000000E+00
  0.00000000E+00  0.00000000E+00  0.00000000E+00
  0.00000000E+00  0.00000000E+00  0.00000000E+00
  0.00000000E+00  0.00000000E+00  0.00000000E+00
  0.00000000E+00  0.00000000E+00  0.00000000E+00
  0.00000000E+00  0.00000000E+00  0.00000000E+00
  0.00000000E+00  0.00000000E+00  0.00000000E+00
  0.00000000E+00  0.00000000E+00  0.00000000E+00
  0.00000000E+00  0.00000000E+00  0.00000000E+00
