Ba O Ni                                 
   1.00000000000000     
    11.1568587867069997    0.0000000000000000    0.0000000000000000
     0.0000000000000000   11.1568587867069997    0.0000000000000000
     0.0000000000000000    0.0000000000000000   26.1568587867070015
   Ba   O    Ni
    32    32     1
Selective dynamics
Direct
  0.2500000000000000  0.0000000000000000  0.1068876685705501   T   T   T
  0.7500000000000000  0.0000000000000000  0.1072055639081307   T   T   T
  0.0001208211436175  0.2498791788563825  0.1067889424550557   T   T   T
  0.4998791788563824  0.2498791788563825  0.1067889424550557   T   T   T
  0.2500000000000000  0.5000000000000000  0.1072055639081307   T   T   T
  0.7500000000000000  0.5000000000000000  0.1079058200326229   T   T   T
  0.0001208211436175  0.7501208211436174  0.1067889424550557   T   T   T
  0.4998791788563824  0.7501208211436174  0.1067889424550557   T   T   T
  0.0001189602961932  0.0000000000000000  0.2125730796900955   T   T   T
  0.4998810397038070  0.0000000000000000  0.2125730796900955   T   T   T
  0.2500000000000000  0.2498810397038068  0.2125730796900955   T   T   T
  0.7500000000000000  0.2494808034830054  0.2127063005308989   T   T   T
  0.0005191965169946  0.5000000000000000  0.2127063005308989   T   T   T
  0.4994808034830053  0.5000000000000000  0.2127063005308989   T   T   T
  0.2500000000000000  0.7501189602961932  0.2125730796900955   T   T   T
  0.7500000000000000  0.7505191965169946  0.2127063005308989   T   T   T
  0.2500000000000000  0.0000000000000000  0.3197731462397624   T   T   T
  0.7500000000000000  0.0000000000000000  0.3204119502214215   T   T   T
 -0.0007769766370276  0.2507769766370276  0.3211020411664225   T   T   T
  0.5007769766370277  0.2507769766370276  0.3211020411664225   T   T   T
  0.2500000000000000  0.5000000000000000  0.3204119502214215   T   T   T
  0.7500000000000000  0.5000000000000000  0.3211878607089909   T   T   T
 -0.0007769766370276  0.7492230233629723  0.3211020411664225   T   T   T
  0.5007769766370277  0.7492230233629723  0.3211020411664225   T   T   T
  0.0027928680581441  0.0000000000000000  0.4261076632422580   T   T   T
  0.4972071319418559  0.0000000000000000  0.4261076632422580   T   T   T
  0.2500000000000000  0.2472071319418560  0.4261076632422580   T   T   T
  0.7500000000000000  0.2403858971963987  0.4282456031493663   T   T   T
  0.0096141028036013  0.5000000000000000  0.4282456031493663   T   T   T
  0.4903858971963986  0.5000000000000000  0.4282456031493663   T   T   T
  0.2500000000000000  0.7527928680581442  0.4261076632422580   T   T   T
  0.7500000000000000  0.7596141028036014  0.4282456031493663   T   T   T
 -0.0003028570606601  0.0000000000000000  0.1128582886102697   T   T   T
  0.5003028570606601  0.0000000000000000  0.1128582886102697   T   T   T
  0.2500000000000000  0.2503028570606600  0.1128582886102697   T   T   T
  0.7500000000000000  0.2509336249393164  0.1132632789306561   T   T   T
 -0.0009336249393165  0.5000000000000000  0.1132632789306561   T   T   T
  0.5009336249393165  0.5000000000000000  0.1132632789306561   T   T   T
  0.2500000000000000  0.7496971429393399  0.1128582886102697   T   T   T
  0.7500000000000000  0.7490663750606835  0.1132632789306561   T   T   T
  0.2500000000000000  0.0000000000000000  0.2077566830970431   T   T   T
  0.7500000000000000  0.0000000000000000  0.2081797825087887   T   T   T
 -0.0000547884495847  0.2500547884495847  0.2071200742351153   T   T   T
  0.5000547884495848  0.2500547884495847  0.2071200742351153   T   T   T
  0.2500000000000000  0.5000000000000000  0.2081797825087887   T   T   T
  0.7500000000000000  0.5000000000000000  0.2113495281521109   T   T   T
 -0.0000547884495847  0.7499452115504152  0.2071200742351153   T   T   T
  0.5000547884495848  0.7499452115504152  0.2071200742351153   T   T   T
 -0.0001043780214844  0.0000000000000000  0.3250505115973429   T   T   T
  0.5001043780214846  0.0000000000000000  0.3250505115973429   T   T   T
  0.2500000000000000  0.2501043780214843  0.3250505115973429   T   T   T
  0.7500000000000000  0.2505135914426262  0.3260268745181457   T   T   T
 -0.0005135914426263  0.5000000000000000  0.3260268745181457   T   T   T
  0.5005135914426261  0.5000000000000000  0.3260268745181457   T   T   T
  0.2500000000000000  0.7498956219785154  0.3250505115973429   T   T   T
  0.7500000000000000  0.7494864085573739  0.3260268745181457   T   T   T
  0.2500000000000000  0.0000000000000000  0.4196462809289503   T   T   T
  0.7500000000000000  0.0000000000000000  0.4206026227421885   T   T   T
  0.0020095297797952  0.2479904702202048  0.4194671336255683   T   T   T
  0.4979904702202048  0.2479904702202048  0.4194671336255683   T   T   T
  0.2500000000000000  0.5000000000000000  0.4206026227421885   T   T   T
  0.7499996334070005  0.5000000543739986  0.4232892709021534   T   T   T
  0.0020095297797952  0.7520095297797952  0.4194671336255683   T   T   T
  0.4979905245942034  0.7520095297797952  0.4194671336255683   T   T   T
  0.7499996334070005  0.5000000543739986  0.4901679656399054   T   T   T
 
  0.00000000E+00  0.00000000E+00  0.00000000E+00
  0.00000000E+00  0.00000000E+00  0.00000000E+00
  0.00000000E+00  0.00000000E+00  0.00000000E+00
  0.00000000E+00  0.00000000E+00  0.00000000E+00
  0.00000000E+00  0.00000000E+00  0.00000000E+00
  0.00000000E+00  0.00000000E+00  0.00000000E+00
  0.00000000E+00  0.00000000E+00  0.00000000E+00
  0.00000000E+00  0.00000000E+00  0.00000000E+00
  0.00000000E+00  0.00000000E+00  0.00000000E+00
  0.00000000E+00  0.00000000E+00  0.00000000E+00
  0.00000000E+00  0.00000000E+00  0.00000000E+00
  0.00000000E+00  0.00000000E+00  0.00000000E+00
  0.00000000E+00  0.00000000E+00  0.00000000E+00
  0.00000000E+00  0.00000000E+00  0.00000000E+00
  0.00000000E+00  0.00000000E+00  0.00000000E+00
  0.00000000E+00  0.00000000E+00  0.00000000E+00
  0.00000000E+00  0.00000000E+00  0.00000000E+00
  0.00000000E+00  0.00000000E+00  0.00000000E+00
  0.00000000E+00  0.00000000E+00  0.00000000E+00
  0.00000000E+00  0.00000000E+00  0.00000000E+00
  0.00000000E+00  0.00000000E+00  0.00000000E+00
  0.00000000E+00  0.00000000E+00  0.00000000E+00
  0.00000000E+00  0.00000000E+00  0.00000000E+00
  0.00000000E+00  0.00000000E+00  0.00000000E+00
  0.00000000E+00  0.00000000E+00  0.00000000E+00
  0.00000000E+00  0.00000000E+00  0.00000000E+00
  0.00000000E+00  0.00000000E+00  0.00000000E+00
  0.00000000E+00  0.00000000E+00  0.00000000E+00
  0.00000000E+00  0.00000000E+00  0.00000000E+00
  0.00000000E+00  0.00000000E+00  0.00000000E+00
  0.00000000E+00  0.00000000E+00  0.00000000E+00
  0.00000000E+00  0.00000000E+00  0.00000000E+00
  0.00000000E+00  0.00000000E+00  0.00000000E+00
  0.00000000E+00  0.00000000E+00  0.00000000E+00
  0.00000000E+00  0.00000000E+00  0.00000000E+00
  0.00000000E+00  0.00000000E+00  0.00000000E+00
  0.00000000E+00  0.00000000E+00  0.00000000E+00
  0.00000000E+00  0.00000000E+00  0.00000000E+00
  0.00000000E+00  0.00000000E+00  0.00000000E+00
  0.00000000E+00  0.00000000E+00  0.00000000E+00
  0.00000000E+00  0.00000000E+00  0.00000000E+00
  0.00000000E+00  0.00000000E+00  0.00000000E+00
  0.00000000E+00  0.00000000E+00  0.00000000E+00
  0.00000000E+00  0.00000000E+00  0.00000000E+00
  0.00000000E+00  0.00000000E+00  0.00000000E+00
  0.00000000E+00  0.00000000E+00  0.00000000E+00
  0.00000000E+00  0.00000000E+00  0.00000000E+00
  0.00000000E+00  0.00000000E+00  0.00000000E+00
  0.00000000E+00  0.00000000E+00  0.00000000E+00
  0.00000000E+00  0.00000000E+00  0.00000000E+00
  0.00000000E+00  0.00000000E+00  0.00000000E+00
  0.00000000E+00  0.00000000E+00  0.00000000E+00
  0.00000000E+00  0.00000000E+00  0.00000000E+00
  0.00000000E+00  0.00000000E+00  0.00000000E+00
  0.00000000E+00  0.00000000E+00  0.00000000E+00
  0.00000000E+00  0.00000000E+00  0.00000000E+00
  0.00000000E+00  0.00000000E+00  0.00000000E+00
  0.00000000E+00  0.00000000E+00  0.00000000E+00
  0.00000000E+00  0.00000000E+00  0.00000000E+00
  0.00000000E+00  0.00000000E+00  0.00000000E+00
  0.00000000E+00  0.00000000E+00  0.00000000E+00
  0.00000000E+00  0.00000000E+00  0.00000000E+00
  0.00000000E+00  0.00000000E+00  0.00000000E+00
  0.00000000E+00  0.00000000E+00  0.00000000E+00
  0.00000000E+00  0.00000000E+00  0.00000000E+00
