Ba O Pd                                 
   1.00000000000000     
    11.1568587867069997    0.0000000000000000    0.0000000000000000
     0.0000000000000000   11.1568587867069997    0.0000000000000000
     0.0000000000000000    0.0000000000000000   26.1568587867070015
   Ba   O    Pd
    32    32     1
Selective dynamics
Direct
  0.2500000000000000  0.0000000000000000  0.1067644421345823   T   T   T
  0.7500000000000000  0.0000000000000000  0.1067908797056876   T   T   T
  0.0000705738961037  0.2499294261038964  0.1067764904373659   T   T   T
  0.4999294261038962  0.2499294261038964  0.1067764904373659   T   T   T
  0.2500000000000000  0.5000000000000000  0.1067908797056876   T   T   T
  0.7500000000000000  0.5000000000000000  0.1074210547995514   T   T   T
  0.0000705738961037  0.7500705738961038  0.1067764904373659   T   T   T
  0.4999294261038962  0.7500705738961038  0.1067764904373659   T   T   T
  0.0002973241796601  0.0000000000000000  0.2124498374572810   T   T   T
  0.4997026758203399  0.0000000000000000  0.2124498374572810   T   T   T
  0.2500000000000000  0.2497026758203399  0.2124498374572810   T   T   T
  0.7500000000000000  0.2496308329571243  0.2125252320215887   T   T   T
  0.0003691670428757  0.5000000000000000  0.2125252320215887   T   T   T
  0.4996308329571242  0.5000000000000000  0.2125252320215887   T   T   T
  0.2500000000000000  0.7502973241796601  0.2124498374572810   T   T   T
  0.7500000000000000  0.7503691670428756  0.2125252320215887   T   T   T
  0.2500000000000000  0.0000000000000000  0.3204286438279613   T   T   T
  0.7500000000000000 -0.0000000000000000  0.3203411117099481   T   T   T
 -0.0008944982278186  0.2508944982278185  0.3210532491301117   T   T   T
  0.5008944982278187  0.2508944982278185  0.3210532491301117   T   T   T
  0.2500000000000000  0.5000000000000000  0.3203411117099481   T   T   T
  0.7500000000000000  0.5000000000000000  0.3209420109881335   T   T   T
 -0.0008944982278186  0.7491055017721812  0.3210532491301117   T   T   T
  0.5008944982278187  0.7491055017721812  0.3210532491301117   T   T   T
  0.0022593989081363  0.0000000000000000  0.4263080075222151   T   T   T
  0.4977406010918636  0.0000000000000000  0.4263080075222151   T   T   T
  0.2500000000000000  0.2477406010918637  0.4263080075222151   T   T   T
  0.7500000000000000  0.2423624757118239  0.4277849517783639   T   T   T
  0.0076375242881761  0.5000000000000000  0.4277849517783639   T   T   T
  0.4923624757118240  0.5000000000000000  0.4277849517783639   T   T   T
  0.2500000000000000  0.7522593989081363  0.4263080075222151   T   T   T
  0.7500000000000000  0.7576375242881761  0.4277849517783639   T   T   T
 -0.0001414754778619  0.0000000000000000  0.1128723652611153   T   T   T
  0.5001414754778618 -0.0000000000000000  0.1128723652611153   T   T   T
  0.2500000000000000  0.2501414754778619  0.1128723652611153   T   T   T
  0.7500000000000000  0.2505968063893456  0.1128870760285004   T   T   T
 -0.0005968063893456  0.5000000000000000  0.1128870760285004   T   T   T
  0.5005968063893459  0.5000000000000000  0.1128870760285004   T   T   T
  0.2500000000000000  0.7498585245221382  0.1128723652611153   T   T   T
  0.7500000000000000  0.7494031936106541  0.1128870760285004   T   T   T
  0.2500000000000000 -0.0000000000000000  0.2076732744116094   T   T   T
  0.7500000000000000 -0.0000000000000000  0.2078942593639144   T   T   T
  0.0001213948182606  0.2498786051817395  0.2072106427859030   T   T   T
  0.4998786051817393  0.2498786051817395  0.2072106427859030   T   T   T
  0.2500000000000000  0.5000000000000000  0.2078942593639144   T   T   T
  0.7500000000000000  0.5000000000000000  0.2102505753696561   T   T   T
  0.0001213948182606  0.7501213948182607  0.2072106427859030   T   T   T
  0.4998786051817393  0.7501213948182607  0.2072106427859030   T   T   T
 -0.0003826039106282  0.0000000000000000  0.3255014279546897   T   T   T
  0.5003826039106283 -0.0000000000000000  0.3255014279546897   T   T   T
  0.2500000000000000  0.2503826039106282  0.3255014279546897   T   T   T
  0.7500000000000000  0.2508603232446984  0.3254748086680717   T   T   T
 -0.0008603232446984  0.5000000000000000  0.3254748086680717   T   T   T
  0.5008603232446983  0.5000000000000000  0.3254748086680717   T   T   T
  0.2500000000000000  0.7496173960893717  0.3255014279546897   T   T   T
  0.7500000000000000  0.7491396767553017  0.3254748086680717   T   T   T
  0.2500000000000000  0.0000000000000000  0.4202072444859064   T   T   T
  0.7500000000000000 -0.0000000000000000  0.4204883752061446   T   T   T
  0.0017569058697917  0.2482430941302083  0.4195655176670924   T   T   T
  0.4982430941302082  0.2482430941302083  0.4195655176670924   T   T   T
  0.2500000000000000  0.5000000000000000  0.4204883752061446   T   T   T
  0.7499996334070005  0.5000000543739986  0.4216719472726232   T   T   T
  0.0017569058697917  0.7517569058697916  0.4195655176670924   T   T   T
  0.4982431485042069  0.7517569058697916  0.4195655176670924   T   T   T
  0.7499996334070005  0.5000000543739986  0.4979763579273206   T   T   T
 
  0.00000000E+00  0.00000000E+00  0.00000000E+00
  0.00000000E+00  0.00000000E+00  0.00000000E+00
  0.00000000E+00  0.00000000E+00  0.00000000E+00
  0.00000000E+00  0.00000000E+00  0.00000000E+00
  0.00000000E+00  0.00000000E+00  0.00000000E+00
  0.00000000E+00  0.00000000E+00  0.00000000E+00
  0.00000000E+00  0.00000000E+00  0.00000000E+00
  0.00000000E+00  0.00000000E+00  0.00000000E+00
  0.00000000E+00  0.00000000E+00  0.00000000E+00
  0.00000000E+00  0.00000000E+00  0.00000000E+00
  0.00000000E+00  0.00000000E+00  0.00000000E+00
  0.00000000E+00  0.00000000E+00  0.00000000E+00
  0.00000000E+00  0.00000000E+00  0.00000000E+00
  0.00000000E+00  0.00000000E+00  0.00000000E+00
  0.00000000E+00  0.00000000E+00  0.00000000E+00
  0.00000000E+00  0.00000000E+00  0.00000000E+00
  0.00000000E+00  0.00000000E+00  0.00000000E+00
  0.00000000E+00  0.00000000E+00  0.00000000E+00
  0.00000000E+00  0.00000000E+00  0.00000000E+00
  0.00000000E+00  0.00000000E+00  0.00000000E+00
  0.00000000E+00  0.00000000E+00  0.00000000E+00
  0.00000000E+00  0.00000000E+00  0.00000000E+00
  0.00000000E+00  0.00000000E+00  0.00000000E+00
  0.00000000E+00  0.00000000E+00  0.00000000E+00
  0.00000000E+00  0.00000000E+00  0.00000000E+00
  0.00000000E+00  0.00000000E+00  0.00000000E+00
  0.00000000E+00  0.00000000E+00  0.00000000E+00
  0.00000000E+00  0.00000000E+00  0.00000000E+00
  0.00000000E+00  0.00000000E+00  0.00000000E+00
  0.00000000E+00  0.00000000E+00  0.00000000E+00
  0.00000000E+00  0.00000000E+00  0.00000000E+00
  0.00000000E+00  0.00000000E+00  0.00000000E+00
  0.00000000E+00  0.00000000E+00  0.00000000E+00
  0.00000000E+00  0.00000000E+00  0.00000000E+00
  0.00000000E+00  0.00000000E+00  0.00000000E+00
  0.00000000E+00  0.00000000E+00  0.00000000E+00
  0.00000000E+00  0.00000000E+00  0.00000000E+00
  0.00000000E+00  0.00000000E+00  0.00000000E+00
  0.00000000E+00  0.00000000E+00  0.00000000E+00
  0.00000000E+00  0.00000000E+00  0.00000000E+00
  0.00000000E+00  0.00000000E+00  0.00000000E+00
  0.00000000E+00  0.00000000E+00  0.00000000E+00
  0.00000000E+00  0.00000000E+00  0.00000000E+00
  0.00000000E+00  0.00000000E+00  0.00000000E+00
  0.00000000E+00  0.00000000E+00  0.00000000E+00
  0.00000000E+00  0.00000000E+00  0.00000000E+00
  0.00000000E+00  0.00000000E+00  0.00000000E+00
  0.00000000E+00  0.00000000E+00  0.00000000E+00
  0.00000000E+00  0.00000000E+00  0.00000000E+00
  0.00000000E+00  0.00000000E+00  0.00000000E+00
  0.00000000E+00  0.00000000E+00  0.00000000E+00
  0.00000000E+00  0.00000000E+00  0.00000000E+00
  0.00000000E+00  0.00000000E+00  0.00000000E+00
  0.00000000E+00  0.00000000E+00  0.00000000E+00
  0.00000000E+00  0.00000000E+00  0.00000000E+00
  0.00000000E+00  0.00000000E+00  0.00000000E+00
  0.00000000E+00  0.00000000E+00  0.00000000E+00
  0.00000000E+00  0.00000000E+00  0.00000000E+00
  0.00000000E+00  0.00000000E+00  0.00000000E+00
  0.00000000E+00  0.00000000E+00  0.00000000E+00
  0.00000000E+00  0.00000000E+00  0.00000000E+00
  0.00000000E+00  0.00000000E+00  0.00000000E+00
  0.00000000E+00  0.00000000E+00  0.00000000E+00
  0.00000000E+00  0.00000000E+00  0.00000000E+00
  0.00000000E+00  0.00000000E+00  0.00000000E+00
