Ba O Ir                                 
   1.00000000000000     
    11.1568587867069997    0.0000000000000000    0.0000000000000000
     0.0000000000000000   11.1568587867069997    0.0000000000000000
     0.0000000000000000    0.0000000000000000   26.1568587867070015
   Ba   O    Ir
    32    32     1
Selective dynamics
Direct
  0.2500000000000000 -0.0000000000000000  0.1067529427812952   T   T   T
  0.7500000000000000 -0.0000000000000000  0.1068590845974685   T   T   T
  0.0001518964764286  0.2498481035235714  0.1067068706210960   T   T   T
  0.4998481035235715  0.2498481035235714  0.1067068706210960   T   T   T
  0.2500000000000000  0.5000000000000000  0.1068590845974685   T   T   T
  0.7500000000000000  0.5000000000000000  0.1076655712088006   T   T   T
  0.0001518964764286  0.7501518964764285  0.1067068706210960   T   T   T
  0.4998481035235715  0.7501518964764285  0.1067068706210960   T   T   T
  0.0004609825605846 -0.0000000000000000  0.2126081747085117   T   T   T
  0.4995390174394154 -0.0000000000000000  0.2126081747085117   T   T   T
  0.2500000000000000  0.2495390174394155  0.2126081747085117   T   T   T
  0.7500000000000000  0.2487432441430562  0.2124051808797898   T   T   T
  0.0012567558569438  0.5000000000000000  0.2124051808797898   T   T   T
  0.4987432441430562  0.5000000000000000  0.2124051808797898   T   T   T
  0.2500000000000000  0.7504609825605845  0.2126081747085117   T   T   T
  0.7500000000000000  0.7512567558569441  0.2124051808797898   T   T   T
  0.2500000000000000 -0.0000000000000000  0.3199484184470901   T   T   T
  0.7500000000000000 -0.0000000000000000  0.3205148082849887   T   T   T
 -0.0015587985290566  0.2515587985290567  0.3213882490787202   T   T   T
  0.5015587985290565  0.2515587985290567  0.3213882490787202   T   T   T
  0.2500000000000000  0.5000000000000000  0.3205148082849887   T   T   T
  0.7500000000000000  0.5000000000000000  0.3187670043091808   T   T   T
 -0.0015587985290566  0.7484412014709434  0.3213882490787202   T   T   T
  0.5015587985290565  0.7484412014709434  0.3213882490787202   T   T   T
  0.0035567354062677 -0.0000000000000000  0.4261311951611418   T   T   T
  0.4964432645937324 -0.0000000000000000  0.4261311951611418   T   T   T
  0.2500000000000000  0.2464432645937324  0.4261311951611418   T   T   T
  0.7500000000000000  0.2382778647061775  0.4292472237602611   T   T   T
  0.0117221352938225  0.5000000000000000  0.4292472237602611   T   T   T
  0.4882778647061775  0.5000000000000000  0.4292472237602611   T   T   T
  0.2500000000000000  0.7535567354062674  0.4261311951611418   T   T   T
  0.7500000000000000  0.7617221352938222  0.4292472237602611   T   T   T
 -0.0003009461316465  0.0000000000000000  0.1128530113366852   T   T   T
  0.5003009461316463 -0.0000000000000000  0.1128530113366852   T   T   T
  0.2500000000000000  0.2503009461316465  0.1128530113366852   T   T   T
  0.7500000000000000  0.2508871065201543  0.1129934009575514   T   T   T
 -0.0008871065201542  0.5000000000000000  0.1129934009575514   T   T   T
  0.5008871065201547  0.5000000000000000  0.1129934009575514   T   T   T
  0.2500000000000000  0.7496990538683537  0.1128530113366852   T   T   T
  0.7500000000000000  0.7491128934798453  0.1129934009575514   T   T   T
  0.2500000000000000 -0.0000000000000000  0.2076973447597766   T   T   T
  0.7500000000000000 -0.0000000000000000  0.2081244357454774   T   T   T
  0.0000312170654797  0.2499687829345202  0.2068499411485227   T   T   T
  0.4999687829345204  0.2499687829345202  0.2068499411485227   T   T   T
  0.2500000000000000  0.5000000000000000  0.2081244357454774   T   T   T
  0.7500000000000000  0.5000000000000000  0.2114189496961695   T   T   T
  0.0000312170654797  0.7500312170654796  0.2068499411485227   T   T   T
  0.4999687829345204  0.7500312170654796  0.2068499411485227   T   T   T
 -0.0004501522698497  0.0000000000000000  0.3252572586847739   T   T   T
  0.5004501522698499 -0.0000000000000000  0.3252572586847739   T   T   T
  0.2500000000000000  0.2504501522698496  0.3252572586847739   T   T   T
  0.7500000000000000  0.2512935486896560  0.3256758359487289   T   T   T
 -0.0012935486896561  0.5000000000000000  0.3256758359487289   T   T   T
  0.5012935486896561  0.5000000000000000  0.3256758359487289   T   T   T
  0.2500000000000000  0.7495498477301501  0.3252572586847739   T   T   T
  0.7500000000000000  0.7487064513103439  0.3256758359487289   T   T   T
  0.2500000000000000 -0.0000000000000000  0.4199186680434374   T   T   T
  0.7500000000000000 -0.0000000000000000  0.4210656303872476   T   T   T
  0.0027528320046928  0.2472471679953073  0.4193774292196941   T   T   T
  0.4972471679953069  0.2472471679953073  0.4193774292196941   T   T   T
  0.2500000000000000  0.5000000000000000  0.4210656303872476   T   T   T
  0.7499996334070005  0.5000000543739986  0.4218631049506349   T   T   T
  0.0027528320046928  0.7527528320046929  0.4193774292196941   T   T   T
  0.4972472223693056  0.7527528320046929  0.4193774292196941   T   T   T
  0.7499996334070005  0.5000000543739986  0.4928682217892719   T   T   T
 
  0.00000000E+00  0.00000000E+00  0.00000000E+00
  0.00000000E+00  0.00000000E+00  0.00000000E+00
  0.00000000E+00  0.00000000E+00  0.00000000E+00
  0.00000000E+00  0.00000000E+00  0.00000000E+00
  0.00000000E+00  0.00000000E+00  0.00000000E+00
  0.00000000E+00  0.00000000E+00  0.00000000E+00
  0.00000000E+00  0.00000000E+00  0.00000000E+00
  0.00000000E+00  0.00000000E+00  0.00000000E+00
  0.00000000E+00  0.00000000E+00  0.00000000E+00
  0.00000000E+00  0.00000000E+00  0.00000000E+00
  0.00000000E+00  0.00000000E+00  0.00000000E+00
  0.00000000E+00  0.00000000E+00  0.00000000E+00
  0.00000000E+00  0.00000000E+00  0.00000000E+00
  0.00000000E+00  0.00000000E+00  0.00000000E+00
  0.00000000E+00  0.00000000E+00  0.00000000E+00
  0.00000000E+00  0.00000000E+00  0.00000000E+00
  0.00000000E+00  0.00000000E+00  0.00000000E+00
  0.00000000E+00  0.00000000E+00  0.00000000E+00
  0.00000000E+00  0.00000000E+00  0.00000000E+00
  0.00000000E+00  0.00000000E+00  0.00000000E+00
  0.00000000E+00  0.00000000E+00  0.00000000E+00
  0.00000000E+00  0.00000000E+00  0.00000000E+00
  0.00000000E+00  0.00000000E+00  0.00000000E+00
  0.00000000E+00  0.00000000E+00  0.00000000E+00
  0.00000000E+00  0.00000000E+00  0.00000000E+00
  0.00000000E+00  0.00000000E+00  0.00000000E+00
  0.00000000E+00  0.00000000E+00  0.00000000E+00
  0.00000000E+00  0.00000000E+00  0.00000000E+00
  0.00000000E+00  0.00000000E+00  0.00000000E+00
  0.00000000E+00  0.00000000E+00  0.00000000E+00
  0.00000000E+00  0.00000000E+00  0.00000000E+00
  0.00000000E+00  0.00000000E+00  0.00000000E+00
  0.00000000E+00  0.00000000E+00  0.00000000E+00
  0.00000000E+00  0.00000000E+00  0.00000000E+00
  0.00000000E+00  0.00000000E+00  0.00000000E+00
  0.00000000E+00  0.00000000E+00  0.00000000E+00
  0.00000000E+00  0.00000000E+00  0.00000000E+00
  0.00000000E+00  0.00000000E+00  0.00000000E+00
  0.00000000E+00  0.00000000E+00  0.00000000E+00
  0.00000000E+00  0.00000000E+00  0.00000000E+00
  0.00000000E+00  0.00000000E+00  0.00000000E+00
  0.00000000E+00  0.00000000E+00  0.00000000E+00
  0.00000000E+00  0.00000000E+00  0.00000000E+00
  0.00000000E+00  0.00000000E+00  0.00000000E+00
  0.00000000E+00  0.00000000E+00  0.00000000E+00
  0.00000000E+00  0.00000000E+00  0.00000000E+00
  0.00000000E+00  0.00000000E+00  0.00000000E+00
  0.00000000E+00  0.00000000E+00  0.00000000E+00
  0.00000000E+00  0.00000000E+00  0.00000000E+00
  0.00000000E+00  0.00000000E+00  0.00000000E+00
  0.00000000E+00  0.00000000E+00  0.00000000E+00
  0.00000000E+00  0.00000000E+00  0.00000000E+00
  0.00000000E+00  0.00000000E+00  0.00000000E+00
  0.00000000E+00  0.00000000E+00  0.00000000E+00
  0.00000000E+00  0.00000000E+00  0.00000000E+00
  0.00000000E+00  0.00000000E+00  0.00000000E+00
  0.00000000E+00  0.00000000E+00  0.00000000E+00
  0.00000000E+00  0.00000000E+00  0.00000000E+00
  0.00000000E+00  0.00000000E+00  0.00000000E+00
  0.00000000E+00  0.00000000E+00  0.00000000E+00
  0.00000000E+00  0.00000000E+00  0.00000000E+00
  0.00000000E+00  0.00000000E+00  0.00000000E+00
  0.00000000E+00  0.00000000E+00  0.00000000E+00
  0.00000000E+00  0.00000000E+00  0.00000000E+00
  0.00000000E+00  0.00000000E+00  0.00000000E+00
