Ba O Fe                                 
   1.00000000000000     
    11.1568587867069997    0.0000000000000000    0.0000000000000000
     0.0000000000000000   11.1568587867069997    0.0000000000000000
     0.0000000000000000    0.0000000000000000   26.1568587867070015
   Ba   O    Fe
    32    32     1
Selective dynamics
Direct
  0.2500000000000000 -0.0000000000000000  0.1066996248202693   T   T   T
  0.7500000000000000 -0.0000000000000000  0.1068284432505342   T   T   T
  0.0001426716473318  0.2498573283526682  0.1066656988156131   T   T   T
  0.4998573283526682  0.2498573283526682  0.1066656988156131   T   T   T
  0.2500000000000000  0.5000000000000000  0.1068284432505342   T   T   T
  0.7500000000000000  0.5000000000000000  0.1075238786306256   T   T   T
  0.0001426716473318  0.7501426716473318  0.1066656988156131   T   T   T
  0.4998573283526682  0.7501426716473318  0.1066656988156131   T   T   T
  0.0004403927582531 -0.0000000000000000  0.2124344273204695   T   T   T
  0.4995596072417470 -0.0000000000000000  0.2124344273204695   T   T   T
  0.2500000000000000  0.2495596072417468  0.2124344273204695   T   T   T
  0.7500000000000000  0.2494903408358202  0.2123902240319929   T   T   T
  0.0005096591641798  0.5000000000000000  0.2123902240319929   T   T   T
  0.4994903408358202  0.5000000000000000  0.2123902240319929   T   T   T
  0.2500000000000000  0.7504403927582529  0.2124344273204695   T   T   T
  0.7500000000000000  0.7505096591641798  0.2123902240319929   T   T   T
  0.2500000000000000 -0.0000000000000000  0.3202271886914798   T   T   T
  0.7500000000000000 -0.0000000000000000  0.3199755449200168   T   T   T
 -0.0006675108937456  0.2506675108937456  0.3209906887364568   T   T   T
  0.5006675108937455  0.2506675108937456  0.3209906887364568   T   T   T
  0.2500000000000000  0.5000000000000000  0.3199755449200168   T   T   T
  0.7500000000000000  0.5000000000000000  0.3208521624153237   T   T   T
 -0.0006675108937456  0.7493324891062545  0.3209906887364568   T   T   T
  0.5006675108937455  0.7493324891062545  0.3209906887364568   T   T   T
  0.0032734368381512 -0.0000000000000000  0.4264241487499832   T   T   T
  0.4967265631618488 -0.0000000000000000  0.4264241487499832   T   T   T
  0.2500000000000000  0.2467265631618488  0.4264241487499832   T   T   T
  0.7500000000000000  0.2384759743358099  0.4279772938688488   T   T   T
  0.0115240256641901  0.5000000000000000  0.4279772938688488   T   T   T
  0.4884759743358100  0.5000000000000000  0.4279772938688488   T   T   T
  0.2500000000000000  0.7532734368381511  0.4264241487499832   T   T   T
  0.7500000000000000  0.7615240256641900  0.4279772938688488   T   T   T
 -0.0001798554662719 -0.0000000000000000  0.1128456702811572   T   T   T
  0.5001798554662719 -0.0000000000000000  0.1128456702811572   T   T   T
  0.2500000000000000  0.2501798554662719  0.1128456702811572   T   T   T
  0.7500000000000000  0.2507342167307882  0.1129095490459002   T   T   T
 -0.0007342167307882  0.5000000000000000  0.1129095490459002   T   T   T
  0.5007342167307882  0.5000000000000000  0.1129095490459002   T   T   T
  0.2500000000000000  0.7498201445337281  0.1128456702811572   T   T   T
  0.7500000000000000  0.7492657832692118  0.1129095490459002   T   T   T
  0.2500000000000000 -0.0000000000000000  0.2076163306992596   T   T   T
  0.7500000000000000 -0.0000000000000000  0.2079590539050465   T   T   T
  0.0001154912615300  0.2498845087384700  0.2068600042614846   T   T   T
  0.4998845087384701  0.2498845087384700  0.2068600042614846   T   T   T
  0.2500000000000000  0.5000000000000000  0.2079590539050465   T   T   T
  0.7500000000000000  0.5000000000000000  0.2108521756526204   T   T   T
  0.0001154912615300  0.7501154912615299  0.2068600042614846   T   T   T
  0.4998845087384701  0.7501154912615299  0.2068600042614846   T   T   T
 -0.0003733933910213 -0.0000000000000000  0.3252618455525604   T   T   T
  0.5003733933910213 -0.0000000000000000  0.3252618455525604   T   T   T
  0.2500000000000000  0.2503733933910214  0.3252618455525604   T   T   T
  0.7500000000000000  0.2514329740241055  0.3256436908510249   T   T   T
 -0.0014329740241056  0.5000000000000000  0.3256436908510249   T   T   T
  0.5014329740241057  0.5000000000000000  0.3256436908510249   T   T   T
  0.2500000000000000  0.7496266066089787  0.3252618455525604   T   T   T
  0.7500000000000000  0.7485670259758943  0.3256436908510249   T   T   T
  0.2500000000000000 -0.0000000000000000  0.4198912397068391   T   T   T
  0.7500000000000000 -0.0000000000000000  0.4200097893682969   T   T   T
  0.0022498690874724  0.2477501309125276  0.4189533022664230   T   T   T
  0.4977501309125277  0.2477501309125276  0.4189533022664230   T   T   T
  0.2500000000000000  0.5000000000000000  0.4200097893682969   T   T   T
  0.7499996334070005  0.5000000543739986  0.4278952815622305   T   T   T
  0.0022498690874724  0.7522498690874723  0.4189533022664230   T   T   T
  0.4977501852865264  0.7522498690874723  0.4189533022664230   T   T   T
  0.7499996334070005  0.5000000543739986  0.4974735098438348   T   T   T
 
  0.00000000E+00  0.00000000E+00  0.00000000E+00
  0.00000000E+00  0.00000000E+00  0.00000000E+00
  0.00000000E+00  0.00000000E+00  0.00000000E+00
  0.00000000E+00  0.00000000E+00  0.00000000E+00
  0.00000000E+00  0.00000000E+00  0.00000000E+00
  0.00000000E+00  0.00000000E+00  0.00000000E+00
  0.00000000E+00  0.00000000E+00  0.00000000E+00
  0.00000000E+00  0.00000000E+00  0.00000000E+00
  0.00000000E+00  0.00000000E+00  0.00000000E+00
  0.00000000E+00  0.00000000E+00  0.00000000E+00
  0.00000000E+00  0.00000000E+00  0.00000000E+00
  0.00000000E+00  0.00000000E+00  0.00000000E+00
  0.00000000E+00  0.00000000E+00  0.00000000E+00
  0.00000000E+00  0.00000000E+00  0.00000000E+00
  0.00000000E+00  0.00000000E+00  0.00000000E+00
  0.00000000E+00  0.00000000E+00  0.00000000E+00
  0.00000000E+00  0.00000000E+00  0.00000000E+00
  0.00000000E+00  0.00000000E+00  0.00000000E+00
  0.00000000E+00  0.00000000E+00  0.00000000E+00
  0.00000000E+00  0.00000000E+00  0.00000000E+00
  0.00000000E+00  0.00000000E+00  0.00000000E+00
  0.00000000E+00  0.00000000E+00  0.00000000E+00
  0.00000000E+00  0.00000000E+00  0.00000000E+00
  0.00000000E+00  0.00000000E+00  0.00000000E+00
  0.00000000E+00  0.00000000E+00  0.00000000E+00
  0.00000000E+00  0.00000000E+00  0.00000000E+00
  0.00000000E+00  0.00000000E+00  0.00000000E+00
  0.00000000E+00  0.00000000E+00  0.00000000E+00
  0.00000000E+00  0.00000000E+00  0.00000000E+00
  0.00000000E+00  0.00000000E+00  0.00000000E+00
  0.00000000E+00  0.00000000E+00  0.00000000E+00
  0.00000000E+00  0.00000000E+00  0.00000000E+00
  0.00000000E+00  0.00000000E+00  0.00000000E+00
  0.00000000E+00  0.00000000E+00  0.00000000E+00
  0.00000000E+00  0.00000000E+00  0.00000000E+00
  0.00000000E+00  0.00000000E+00  0.00000000E+00
  0.00000000E+00  0.00000000E+00  0.00000000E+00
  0.00000000E+00  0.00000000E+00  0.00000000E+00
  0.00000000E+00  0.00000000E+00  0.00000000E+00
  0.00000000E+00  0.00000000E+00  0.00000000E+00
  0.00000000E+00  0.00000000E+00  0.00000000E+00
  0.00000000E+00  0.00000000E+00  0.00000000E+00
  0.00000000E+00  0.00000000E+00  0.00000000E+00
  0.00000000E+00  0.00000000E+00  0.00000000E+00
  0.00000000E+00  0.00000000E+00  0.00000000E+00
  0.00000000E+00  0.00000000E+00  0.00000000E+00
  0.00000000E+00  0.00000000E+00  0.00000000E+00
  0.00000000E+00  0.00000000E+00  0.00000000E+00
  0.00000000E+00  0.00000000E+00  0.00000000E+00
  0.00000000E+00  0.00000000E+00  0.00000000E+00
  0.00000000E+00  0.00000000E+00  0.00000000E+00
  0.00000000E+00  0.00000000E+00  0.00000000E+00
  0.00000000E+00  0.00000000E+00  0.00000000E+00
  0.00000000E+00  0.00000000E+00  0.00000000E+00
  0.00000000E+00  0.00000000E+00  0.00000000E+00
  0.00000000E+00  0.00000000E+00  0.00000000E+00
  0.00000000E+00  0.00000000E+00  0.00000000E+00
  0.00000000E+00  0.00000000E+00  0.00000000E+00
  0.00000000E+00  0.00000000E+00  0.00000000E+00
  0.00000000E+00  0.00000000E+00  0.00000000E+00
  0.00000000E+00  0.00000000E+00  0.00000000E+00
  0.00000000E+00  0.00000000E+00  0.00000000E+00
  0.00000000E+00  0.00000000E+00  0.00000000E+00
  0.00000000E+00  0.00000000E+00  0.00000000E+00
  0.00000000E+00  0.00000000E+00  0.00000000E+00
