Ba O Au                                 
   1.00000000000000     
    11.1568587867069997    0.0000000000000000    0.0000000000000000
     0.0000000000000000   11.1568587867069997    0.0000000000000000
     0.0000000000000000    0.0000000000000000   26.1568587867070015
   Ba   O    Au
    32    32     1
Selective dynamics
Direct
  0.2500000000000000 -0.0000000000000000  0.1067169903475227   T   T   T
  0.7500000000000000 -0.0000000000000000  0.1066493769766532   T   T   T
  0.0000986770765285  0.2499013229234715  0.1067624436901787   T   T   T
  0.4999013229234714  0.2499013229234715  0.1067624436901787   T   T   T
  0.2500000000000000  0.5000000000000000  0.1066493769766532   T   T   T
  0.7500000000000000  0.5000000000000000  0.1070707405017688   T   T   T
  0.0000986770765285  0.7500986770765284  0.1067624436901787   T   T   T
  0.4999013229234714  0.7500986770765284  0.1067624436901787   T   T   T
  0.0003510464544409 -0.0000000000000000  0.2124010406117100   T   T   T
  0.4996489535455590 -0.0000000000000000  0.2124010406117100   T   T   T
  0.2500000000000000  0.2496489535455591  0.2124010406117100   T   T   T
  0.7500000000000000  0.2493763693311499  0.2123689325908523   T   T   T
  0.0006236306688501  0.5000000000000000  0.2123689325908523   T   T   T
  0.4993763693311499  0.5000000000000000  0.2123689325908523   T   T   T
  0.2500000000000000  0.7503510464544408  0.2124010406117100   T   T   T
  0.7500000000000000  0.7506236306688501  0.2123689325908523   T   T   T
  0.2500000000000000 -0.0000000000000000  0.3207130636896103   T   T   T
  0.7500000000000000 -0.0000000000000000  0.3200870585667757   T   T   T
 -0.0006012183346967  0.2506012183346966  0.3211174718856832   T   T   T
  0.5006012183346966  0.2506012183346966  0.3211174718856832   T   T   T
  0.2500000000000000  0.5000000000000000  0.3200870585667757   T   T   T
  0.7500000000000000  0.5000000000000000  0.3200107508509213   T   T   T
 -0.0006012183346967  0.7493987816653033  0.3211174718856832   T   T   T
  0.5006012183346966  0.7493987816653033  0.3211174718856832   T   T   T
  0.0021202114004346 -0.0000000000000000  0.4267199348272220   T   T   T
  0.4978797885995654 -0.0000000000000000  0.4267199348272220   T   T   T
  0.2500000000000000  0.2478797885995654  0.4267199348272220   T   T   T
  0.7500000000000000  0.2421466361964684  0.4275783964484178   T   T   T
  0.0078533638035316  0.5000000000000000  0.4275783964484178   T   T   T
  0.4921466361964683  0.5000000000000000  0.4275783964484178   T   T   T
  0.2500000000000000  0.7521202114004345  0.4267199348272220   T   T   T
  0.7500000000000000  0.7578533638035316  0.4275783964484178   T   T   T
 -0.0001167793849207 -0.0000000000000000  0.1128337373814122   T   T   T
  0.5001167793849208 -0.0000000000000000  0.1128337373814122   T   T   T
  0.2500000000000000  0.2501167793849208  0.1128337373814122   T   T   T
  0.7500000000000000  0.2504177038864409  0.1127806457693560   T   T   T
 -0.0004177038864409  0.5000000000000000  0.1127806457693560   T   T   T
  0.5004177038864410  0.5000000000000000  0.1127806457693560   T   T   T
  0.2500000000000000  0.7498832206150792  0.1128337373814122   T   T   T
  0.7500000000000000  0.7495822961135590  0.1127806457693560   T   T   T
  0.2500000000000000 -0.0000000000000000  0.2074978848159222   T   T   T
  0.7500000000000000 -0.0000000000000000  0.2076637856167643   T   T   T
  0.0000605609700951  0.2499394390299049  0.2072157244569216   T   T   T
  0.4999394390299048  0.2499394390299049  0.2072157244569216   T   T   T
  0.2500000000000000  0.5000000000000000  0.2076637856167643   T   T   T
  0.7500000000000000  0.5000000000000000  0.2094557905380099   T   T   T
  0.0000605609700951  0.7500605609700951  0.2072157244569216   T   T   T
  0.4999394390299048  0.7500605609700951  0.2072157244569216   T   T   T
 -0.0004014906857213 -0.0000000000000000  0.3256397182660153   T   T   T
  0.5004014906857213 -0.0000000000000000  0.3256397182660153   T   T   T
  0.2500000000000000  0.2504014906857213  0.3256397182660153   T   T   T
  0.7500000000000000  0.2507558096561318  0.3253129322554921   T   T   T
 -0.0007558096561319  0.5000000000000000  0.3253129322554921   T   T   T
  0.5007558096561320  0.5000000000000000  0.3253129322554921   T   T   T
  0.2500000000000000  0.7495985093142787  0.3256397182660153   T   T   T
  0.7500000000000000  0.7492441903438680  0.3253129322554921   T   T   T
  0.2500000000000000 -0.0000000000000000  0.4201772602235228   T   T   T
  0.7500000000000000 -0.0000000000000000  0.4200542086780205   T   T   T
  0.0011502356381965  0.2488497643618034  0.4194400578679102   T   T   T
  0.4988497643618035  0.2488497643618034  0.4194400578679102   T   T   T
  0.2500000000000000  0.5000000000000000  0.4200542086780205   T   T   T
  0.7499996334070005  0.5000000543739986  0.4205033432430639   T   T   T
  0.0011502356381965  0.7511502356381965  0.4194400578679102   T   T   T
  0.4988498187358021  0.7511502356381965  0.4194400578679102   T   T   T
  0.7499996334070005  0.5000000543739986  0.5042644019464728   T   T   T
 
  0.00000000E+00  0.00000000E+00  0.00000000E+00
  0.00000000E+00  0.00000000E+00  0.00000000E+00
  0.00000000E+00  0.00000000E+00  0.00000000E+00
  0.00000000E+00  0.00000000E+00  0.00000000E+00
  0.00000000E+00  0.00000000E+00  0.00000000E+00
  0.00000000E+00  0.00000000E+00  0.00000000E+00
  0.00000000E+00  0.00000000E+00  0.00000000E+00
  0.00000000E+00  0.00000000E+00  0.00000000E+00
  0.00000000E+00  0.00000000E+00  0.00000000E+00
  0.00000000E+00  0.00000000E+00  0.00000000E+00
  0.00000000E+00  0.00000000E+00  0.00000000E+00
  0.00000000E+00  0.00000000E+00  0.00000000E+00
  0.00000000E+00  0.00000000E+00  0.00000000E+00
  0.00000000E+00  0.00000000E+00  0.00000000E+00
  0.00000000E+00  0.00000000E+00  0.00000000E+00
  0.00000000E+00  0.00000000E+00  0.00000000E+00
  0.00000000E+00  0.00000000E+00  0.00000000E+00
  0.00000000E+00  0.00000000E+00  0.00000000E+00
  0.00000000E+00  0.00000000E+00  0.00000000E+00
  0.00000000E+00  0.00000000E+00  0.00000000E+00
  0.00000000E+00  0.00000000E+00  0.00000000E+00
  0.00000000E+00  0.00000000E+00  0.00000000E+00
  0.00000000E+00  0.00000000E+00  0.00000000E+00
  0.00000000E+00  0.00000000E+00  0.00000000E+00
  0.00000000E+00  0.00000000E+00  0.00000000E+00
  0.00000000E+00  0.00000000E+00  0.00000000E+00
  0.00000000E+00  0.00000000E+00  0.00000000E+00
  0.00000000E+00  0.00000000E+00  0.00000000E+00
  0.00000000E+00  0.00000000E+00  0.00000000E+00
  0.00000000E+00  0.00000000E+00  0.00000000E+00
  0.00000000E+00  0.00000000E+00  0.00000000E+00
  0.00000000E+00  0.00000000E+00  0.00000000E+00
  0.00000000E+00  0.00000000E+00  0.00000000E+00
  0.00000000E+00  0.00000000E+00  0.00000000E+00
  0.00000000E+00  0.00000000E+00  0.00000000E+00
  0.00000000E+00  0.00000000E+00  0.00000000E+00
  0.00000000E+00  0.00000000E+00  0.00000000E+00
  0.00000000E+00  0.00000000E+00  0.00000000E+00
  0.00000000E+00  0.00000000E+00  0.00000000E+00
  0.00000000E+00  0.00000000E+00  0.00000000E+00
  0.00000000E+00  0.00000000E+00  0.00000000E+00
  0.00000000E+00  0.00000000E+00  0.00000000E+00
  0.00000000E+00  0.00000000E+00  0.00000000E+00
  0.00000000E+00  0.00000000E+00  0.00000000E+00
  0.00000000E+00  0.00000000E+00  0.00000000E+00
  0.00000000E+00  0.00000000E+00  0.00000000E+00
  0.00000000E+00  0.00000000E+00  0.00000000E+00
  0.00000000E+00  0.00000000E+00  0.00000000E+00
  0.00000000E+00  0.00000000E+00  0.00000000E+00
  0.00000000E+00  0.00000000E+00  0.00000000E+00
  0.00000000E+00  0.00000000E+00  0.00000000E+00
  0.00000000E+00  0.00000000E+00  0.00000000E+00
  0.00000000E+00  0.00000000E+00  0.00000000E+00
  0.00000000E+00  0.00000000E+00  0.00000000E+00
  0.00000000E+00  0.00000000E+00  0.00000000E+00
  0.00000000E+00  0.00000000E+00  0.00000000E+00
  0.00000000E+00  0.00000000E+00  0.00000000E+00
  0.00000000E+00  0.00000000E+00  0.00000000E+00
  0.00000000E+00  0.00000000E+00  0.00000000E+00
  0.00000000E+00  0.00000000E+00  0.00000000E+00
  0.00000000E+00  0.00000000E+00  0.00000000E+00
  0.00000000E+00  0.00000000E+00  0.00000000E+00
  0.00000000E+00  0.00000000E+00  0.00000000E+00
  0.00000000E+00  0.00000000E+00  0.00000000E+00
  0.00000000E+00  0.00000000E+00  0.00000000E+00
