Ba O Ag                                 
   1.00000000000000     
    11.1568587867069997    0.0000000000000000    0.0000000000000000
     0.0000000000000000   11.1568587867069997    0.0000000000000000
     0.0000000000000000    0.0000000000000000   26.1568587867070015
   Ba   O    Ag
    32    32     1
Selective dynamics
Direct
  0.2500000000000000 -0.0000000000000000  0.1067181164632302   T   T   T
  0.7500000000000000 -0.0000000000000000  0.1066958706518322   T   T   T
  0.0000731387376583  0.2499268612623417  0.1067551836535600   T   T   T
  0.4999268612623416  0.2499268612623417  0.1067551836535600   T   T   T
  0.2500000000000000  0.5000000000000000  0.1066958706518322   T   T   T
  0.7500000000000000  0.5000000000000000  0.1071350037322309   T   T   T
  0.0000731387376583  0.7500731387376584  0.1067551836535600   T   T   T
  0.4999268612623416  0.7500731387376584  0.1067551836535600   T   T   T
  0.0003389899891818 -0.0000000000000000  0.2123850601112891   T   T   T
  0.4996610100108181 -0.0000000000000000  0.2123850601112891   T   T   T
  0.2500000000000000  0.2496610100108183  0.2123850601112891   T   T   T
  0.7500000000000000  0.2496623957606173  0.2123348764613589   T   T   T
  0.0003376042393827  0.5000000000000000  0.2123348764613589   T   T   T
  0.4996623957606173  0.5000000000000000  0.2123348764613589   T   T   T
  0.2500000000000000  0.7503389899891817  0.2123850601112891   T   T   T
  0.7500000000000000  0.7503376042393826  0.2123348764613589   T   T   T
  0.2500000000000000 -0.0000000000000000  0.3205725783286617   T   T   T
  0.7500000000000000 -0.0000000000000000  0.3198989642187667   T   T   T
 -0.0002125743910839  0.2502125743910840  0.3208948501136870   T   T   T
  0.5002125743910839  0.2502125743910840  0.3208948501136870   T   T   T
  0.2500000000000000  0.5000000000000000  0.3198989642187667   T   T   T
  0.7500000000000000  0.5000000000000000  0.3209823476345804   T   T   T
 -0.0002125743910839  0.7497874256089161  0.3208948501136870   T   T   T
  0.5002125743910839  0.7497874256089161  0.3208948501136870   T   T   T
  0.0020022975641235 -0.0000000000000000  0.4266605697490823   T   T   T
  0.4979977024358765 -0.0000000000000000  0.4266605697490823   T   T   T
  0.2500000000000000  0.2479977024358765  0.4266605697490823   T   T   T
  0.7500000000000000  0.2422347565080269  0.4268709346636969   T   T   T
  0.0077652434919731  0.5000000000000000  0.4268709346636969   T   T   T
  0.4922347565080268  0.5000000000000000  0.4268709346636969   T   T   T
  0.2500000000000000  0.7520022975641235  0.4266605697490823   T   T   T
  0.7500000000000000  0.7577652434919732  0.4268709346636969   T   T   T
 -0.0000928289343459 -0.0000000000000000  0.1128663313132052   T   T   T
  0.5000928289343459 -0.0000000000000000  0.1128663313132052   T   T   T
  0.2500000000000000  0.2500928289343459  0.1128663313132052   T   T   T
  0.7500000000000000  0.2503340078427638  0.1128185586188235   T   T   T
 -0.0003340078427638  0.5000000000000000  0.1128185586188235   T   T   T
  0.5003340078427639  0.5000000000000000  0.1128185586188235   T   T   T
  0.2500000000000000  0.7499071710656541  0.1128663313132052   T   T   T
  0.7500000000000000  0.7496659921572361  0.1128185586188235   T   T   T
  0.2500000000000000 -0.0000000000000000  0.2075587671516166   T   T   T
  0.7500000000000000 -0.0000000000000000  0.2077024220963676   T   T   T
  0.0000842073037260  0.2499157926962739  0.2072508680087727   T   T   T
  0.4999157926962741  0.2499157926962739  0.2072508680087727   T   T   T
  0.2500000000000000  0.5000000000000000  0.2077024220963676   T   T   T
  0.7500000000000000  0.5000000000000000  0.2092949924903633   T   T   T
  0.0000842073037260  0.7500842073037259  0.2072508680087727   T   T   T
  0.4999157926962741  0.7500842073037259  0.2072508680087727   T   T   T
 -0.0002353233628326 -0.0000000000000000  0.3255891318395714   T   T   T
  0.5002353233628326 -0.0000000000000000  0.3255891318395714   T   T   T
  0.2500000000000000  0.2502353233628327  0.3255891318395714   T   T   T
  0.7500000000000000  0.2504573330915865  0.3252347992761717   T   T   T
 -0.0004573330915865  0.5000000000000000  0.3252347992761717   T   T   T
  0.5004573330915867  0.5000000000000000  0.3252347992761717   T   T   T
  0.2500000000000000  0.7497646766371674  0.3255891318395714   T   T   T
  0.7500000000000000  0.7495426669084133  0.3252347992761717   T   T   T
  0.2500000000000000 -0.0000000000000000  0.4201383947105862   T   T   T
  0.7500000000000000 -0.0000000000000000  0.4197732659847773   T   T   T
  0.0012042788720484  0.2487957211279516  0.4194003662165617   T   T   T
  0.4987957211279517  0.2487957211279516  0.4194003662165617   T   T   T
  0.2500000000000000  0.5000000000000000  0.4197732659847773   T   T   T
  0.7499996334070005  0.5000000543739986  0.4221832695453826   T   T   T
  0.0012042788720484  0.7512042788720484  0.4194003662165617   T   T   T
  0.4987957755019504  0.7512042788720484  0.4194003662165617   T   T   T
  0.7499996334070005  0.5000000543739986  0.5070325939746683   T   T   T
 
  0.00000000E+00  0.00000000E+00  0.00000000E+00
  0.00000000E+00  0.00000000E+00  0.00000000E+00
  0.00000000E+00  0.00000000E+00  0.00000000E+00
  0.00000000E+00  0.00000000E+00  0.00000000E+00
  0.00000000E+00  0.00000000E+00  0.00000000E+00
  0.00000000E+00  0.00000000E+00  0.00000000E+00
  0.00000000E+00  0.00000000E+00  0.00000000E+00
  0.00000000E+00  0.00000000E+00  0.00000000E+00
  0.00000000E+00  0.00000000E+00  0.00000000E+00
  0.00000000E+00  0.00000000E+00  0.00000000E+00
  0.00000000E+00  0.00000000E+00  0.00000000E+00
  0.00000000E+00  0.00000000E+00  0.00000000E+00
  0.00000000E+00  0.00000000E+00  0.00000000E+00
  0.00000000E+00  0.00000000E+00  0.00000000E+00
  0.00000000E+00  0.00000000E+00  0.00000000E+00
  0.00000000E+00  0.00000000E+00  0.00000000E+00
  0.00000000E+00  0.00000000E+00  0.00000000E+00
  0.00000000E+00  0.00000000E+00  0.00000000E+00
  0.00000000E+00  0.00000000E+00  0.00000000E+00
  0.00000000E+00  0.00000000E+00  0.00000000E+00
  0.00000000E+00  0.00000000E+00  0.00000000E+00
  0.00000000E+00  0.00000000E+00  0.00000000E+00
  0.00000000E+00  0.00000000E+00  0.00000000E+00
  0.00000000E+00  0.00000000E+00  0.00000000E+00
  0.00000000E+00  0.00000000E+00  0.00000000E+00
  0.00000000E+00  0.00000000E+00  0.00000000E+00
  0.00000000E+00  0.00000000E+00  0.00000000E+00
  0.00000000E+00  0.00000000E+00  0.00000000E+00
  0.00000000E+00  0.00000000E+00  0.00000000E+00
  0.00000000E+00  0.00000000E+00  0.00000000E+00
  0.00000000E+00  0.00000000E+00  0.00000000E+00
  0.00000000E+00  0.00000000E+00  0.00000000E+00
  0.00000000E+00  0.00000000E+00  0.00000000E+00
  0.00000000E+00  0.00000000E+00  0.00000000E+00
  0.00000000E+00  0.00000000E+00  0.00000000E+00
  0.00000000E+00  0.00000000E+00  0.00000000E+00
  0.00000000E+00  0.00000000E+00  0.00000000E+00
  0.00000000E+00  0.00000000E+00  0.00000000E+00
  0.00000000E+00  0.00000000E+00  0.00000000E+00
  0.00000000E+00  0.00000000E+00  0.00000000E+00
  0.00000000E+00  0.00000000E+00  0.00000000E+00
  0.00000000E+00  0.00000000E+00  0.00000000E+00
  0.00000000E+00  0.00000000E+00  0.00000000E+00
  0.00000000E+00  0.00000000E+00  0.00000000E+00
  0.00000000E+00  0.00000000E+00  0.00000000E+00
  0.00000000E+00  0.00000000E+00  0.00000000E+00
  0.00000000E+00  0.00000000E+00  0.00000000E+00
  0.00000000E+00  0.00000000E+00  0.00000000E+00
  0.00000000E+00  0.00000000E+00  0.00000000E+00
  0.00000000E+00  0.00000000E+00  0.00000000E+00
  0.00000000E+00  0.00000000E+00  0.00000000E+00
  0.00000000E+00  0.00000000E+00  0.00000000E+00
  0.00000000E+00  0.00000000E+00  0.00000000E+00
  0.00000000E+00  0.00000000E+00  0.00000000E+00
  0.00000000E+00  0.00000000E+00  0.00000000E+00
  0.00000000E+00  0.00000000E+00  0.00000000E+00
  0.00000000E+00  0.00000000E+00  0.00000000E+00
  0.00000000E+00  0.00000000E+00  0.00000000E+00
  0.00000000E+00  0.00000000E+00  0.00000000E+00
  0.00000000E+00  0.00000000E+00  0.00000000E+00
  0.00000000E+00  0.00000000E+00  0.00000000E+00
  0.00000000E+00  0.00000000E+00  0.00000000E+00
  0.00000000E+00  0.00000000E+00  0.00000000E+00
  0.00000000E+00  0.00000000E+00  0.00000000E+00
  0.00000000E+00  0.00000000E+00  0.00000000E+00
