Ba O Mn                                 
   1.00000000000000     
    11.1568587867069997    0.0000000000000000    0.0000000000000000
     0.0000000000000000   11.1568587867069997    0.0000000000000000
     0.0000000000000000    0.0000000000000000   26.1568587867070015
   Ba   O    Mn
    32    32     1
Selective dynamics
Direct
  0.2500000000000000 -0.0000000000000000  0.1066682416021601   T   T   T
  0.7500000000000000 -0.0000000000000000  0.1066818166620379   T   T   T
  0.0000993719127202  0.2499006280872798  0.1067111242456386   T   T   T
  0.4999006280872798  0.2499006280872798  0.1067111242456386   T   T   T
  0.2500000000000000  0.5000000000000000  0.1066818166620379   T   T   T
  0.7500000000000000  0.5000000000000000  0.1072805941494834   T   T   T
  0.0000993719127202  0.7500993719127205  0.1067111242456386   T   T   T
  0.4999006280872798  0.7500993719127205  0.1067111242456386   T   T   T
  0.0004542174573462 -0.0000000000000000  0.2123475884577046   T   T   T
  0.4995457825426537 -0.0000000000000000  0.2123475884577046   T   T   T
  0.2500000000000000  0.2495457825426538  0.2123475884577046   T   T   T
  0.7500000000000000  0.2497621706918485  0.2123609503752206   T   T   T
  0.0002378293081515  0.5000000000000000  0.2123609503752206   T   T   T
  0.4997621706918484  0.5000000000000000  0.2123609503752206   T   T   T
  0.2500000000000000  0.7504542174573463  0.2123475884577046   T   T   T
  0.7500000000000000  0.7502378293081515  0.2123609503752206   T   T   T
  0.2500000000000000 -0.0000000000000000  0.3204915558922248   T   T   T
  0.7500000000000000 -0.0000000000000000  0.3195439706490330   T   T   T
 -0.0002422974777942  0.2502422974777941  0.3208039356576369   T   T   T
  0.5002422974777941  0.2502422974777941  0.3208039356576369   T   T   T
  0.2500000000000000  0.5000000000000000  0.3195439706490330   T   T   T
  0.7500000000000000  0.5000000000000000  0.3210815835665028   T   T   T
 -0.0002422974777942  0.7497577025222057  0.3208039356576369   T   T   T
  0.5002422974777941  0.7497577025222057  0.3208039356576369   T   T   T
  0.0030011600021717 -0.0000000000000000  0.4267734598108464   T   T   T
  0.4969988399978283 -0.0000000000000000  0.4267734598108464   T   T   T
  0.2500000000000000  0.2469988399978283  0.4267734598108464   T   T   T
  0.7500000000000000  0.2381261836958509  0.4272202273656099   T   T   T
  0.0118738163041491  0.5000000000000000  0.4272202273656099   T   T   T
  0.4881261836958509  0.5000000000000000  0.4272202273656099   T   T   T
  0.2500000000000000  0.7530011600021717  0.4267734598108464   T   T   T
  0.7500000000000000  0.7618738163041493  0.4272202273656099   T   T   T
 -0.0001316750564169 -0.0000000000000000  0.1128656443734734   T   T   T
  0.5001316750564170 -0.0000000000000000  0.1128656443734734   T   T   T
  0.2500000000000000  0.2501316750564169  0.1128656443734734   T   T   T
  0.7500000000000000  0.2505199620767538  0.1127511925560167   T   T   T
 -0.0005199620767539  0.5000000000000000  0.1127511925560167   T   T   T
  0.5005199620767538  0.5000000000000000  0.1127511925560167   T   T   T
  0.2500000000000000  0.7498683249435830  0.1128656443734734   T   T   T
  0.7500000000000000  0.7494800379232462  0.1127511925560167   T   T   T
  0.2500000000000000 -0.0000000000000000  0.2075729710872682   T   T   T
  0.7500000000000000 -0.0000000000000000  0.2078244161844753   T   T   T
  0.0002011708610720  0.2497988291389280  0.2070011567969373   T   T   T
  0.4997988291389280  0.2497988291389280  0.2070011567969373   T   T   T
  0.2500000000000000  0.5000000000000000  0.2078244161844753   T   T   T
  0.7500000000000000  0.5000000000000000  0.2102566890689299   T   T   T
  0.0002011708610720  0.7502011708610721  0.2070011567969373   T   T   T
  0.4997988291389280  0.7502011708610721  0.2070011567969373   T   T   T
 -0.0004441303004185 -0.0000000000000000  0.3255143983471924   T   T   T
  0.5004441303004187 -0.0000000000000000  0.3255143983471924   T   T   T
  0.2500000000000000  0.2504441303004185  0.3255143983471924   T   T   T
  0.7500000000000000  0.2516121853814536  0.3251176969873034   T   T   T
 -0.0016121853814538  0.5000000000000000  0.3251176969873034   T   T   T
  0.5016121853814539  0.5000000000000000  0.3251176969873034   T   T   T
  0.2500000000000000  0.7495558696995813  0.3255143983471924   T   T   T
  0.7500000000000000  0.7483878146185461  0.3251176969873034   T   T   T
  0.2500000000000000 -0.0000000000000000  0.4200599844292152   T   T   T
  0.7500000000000000 -0.0000000000000000  0.4196410877051100   T   T   T
  0.0018892106971105  0.2481107893028895  0.4188394897236221   T   T   T
  0.4981107893028895  0.2481107893028895  0.4188394897236221   T   T   T
  0.2500000000000000  0.5000000000000000  0.4196410877051100   T   T   T
  0.7499996334070005  0.5000000543739986  0.4297324286934912   T   T   T
  0.0018892106971105  0.7518892106971106  0.4188394897236221   T   T   T
  0.4981108436768881  0.7518892106971106  0.4188394897236221   T   T   T
  0.7499996334070005  0.5000000543739986  0.5022491403585314   T   T   T
 
  0.00000000E+00  0.00000000E+00  0.00000000E+00
  0.00000000E+00  0.00000000E+00  0.00000000E+00
  0.00000000E+00  0.00000000E+00  0.00000000E+00
  0.00000000E+00  0.00000000E+00  0.00000000E+00
  0.00000000E+00  0.00000000E+00  0.00000000E+00
  0.00000000E+00  0.00000000E+00  0.00000000E+00
  0.00000000E+00  0.00000000E+00  0.00000000E+00
  0.00000000E+00  0.00000000E+00  0.00000000E+00
  0.00000000E+00  0.00000000E+00  0.00000000E+00
  0.00000000E+00  0.00000000E+00  0.00000000E+00
  0.00000000E+00  0.00000000E+00  0.00000000E+00
  0.00000000E+00  0.00000000E+00  0.00000000E+00
  0.00000000E+00  0.00000000E+00  0.00000000E+00
  0.00000000E+00  0.00000000E+00  0.00000000E+00
  0.00000000E+00  0.00000000E+00  0.00000000E+00
  0.00000000E+00  0.00000000E+00  0.00000000E+00
  0.00000000E+00  0.00000000E+00  0.00000000E+00
  0.00000000E+00  0.00000000E+00  0.00000000E+00
  0.00000000E+00  0.00000000E+00  0.00000000E+00
  0.00000000E+00  0.00000000E+00  0.00000000E+00
  0.00000000E+00  0.00000000E+00  0.00000000E+00
  0.00000000E+00  0.00000000E+00  0.00000000E+00
  0.00000000E+00  0.00000000E+00  0.00000000E+00
  0.00000000E+00  0.00000000E+00  0.00000000E+00
  0.00000000E+00  0.00000000E+00  0.00000000E+00
  0.00000000E+00  0.00000000E+00  0.00000000E+00
  0.00000000E+00  0.00000000E+00  0.00000000E+00
  0.00000000E+00  0.00000000E+00  0.00000000E+00
  0.00000000E+00  0.00000000E+00  0.00000000E+00
  0.00000000E+00  0.00000000E+00  0.00000000E+00
  0.00000000E+00  0.00000000E+00  0.00000000E+00
  0.00000000E+00  0.00000000E+00  0.00000000E+00
  0.00000000E+00  0.00000000E+00  0.00000000E+00
  0.00000000E+00  0.00000000E+00  0.00000000E+00
  0.00000000E+00  0.00000000E+00  0.00000000E+00
  0.00000000E+00  0.00000000E+00  0.00000000E+00
  0.00000000E+00  0.00000000E+00  0.00000000E+00
  0.00000000E+00  0.00000000E+00  0.00000000E+00
  0.00000000E+00  0.00000000E+00  0.00000000E+00
  0.00000000E+00  0.00000000E+00  0.00000000E+00
  0.00000000E+00  0.00000000E+00  0.00000000E+00
  0.00000000E+00  0.00000000E+00  0.00000000E+00
  0.00000000E+00  0.00000000E+00  0.00000000E+00
  0.00000000E+00  0.00000000E+00  0.00000000E+00
  0.00000000E+00  0.00000000E+00  0.00000000E+00
  0.00000000E+00  0.00000000E+00  0.00000000E+00
  0.00000000E+00  0.00000000E+00  0.00000000E+00
  0.00000000E+00  0.00000000E+00  0.00000000E+00
  0.00000000E+00  0.00000000E+00  0.00000000E+00
  0.00000000E+00  0.00000000E+00  0.00000000E+00
  0.00000000E+00  0.00000000E+00  0.00000000E+00
  0.00000000E+00  0.00000000E+00  0.00000000E+00
  0.00000000E+00  0.00000000E+00  0.00000000E+00
  0.00000000E+00  0.00000000E+00  0.00000000E+00
  0.00000000E+00  0.00000000E+00  0.00000000E+00
  0.00000000E+00  0.00000000E+00  0.00000000E+00
  0.00000000E+00  0.00000000E+00  0.00000000E+00
  0.00000000E+00  0.00000000E+00  0.00000000E+00
  0.00000000E+00  0.00000000E+00  0.00000000E+00
  0.00000000E+00  0.00000000E+00  0.00000000E+00
  0.00000000E+00  0.00000000E+00  0.00000000E+00
  0.00000000E+00  0.00000000E+00  0.00000000E+00
  0.00000000E+00  0.00000000E+00  0.00000000E+00
  0.00000000E+00  0.00000000E+00  0.00000000E+00
  0.00000000E+00  0.00000000E+00  0.00000000E+00
