Ba O Ru                                 
   1.00000000000000     
    11.1568587867069997    0.0000000000000000    0.0000000000000000
     0.0000000000000000   11.1568587867069997    0.0000000000000000
     0.0000000000000000    0.0000000000000000   26.1568587867070015
   Ba   O    Ru
    32    32     1
Selective dynamics
Direct
  0.2500000000000000  0.0000000000000000  0.1067528404386978   T   T   T
  0.7500000000000000  0.0000000000000000  0.1067618068752761   T   T   T
  0.0001639417253769  0.2498360582746231  0.1067188011538463   T   T   T
  0.4998360582746231  0.2498360582746231  0.1067188011538463   T   T   T
  0.2500000000000000  0.5000000000000000  0.1067618068752761   T   T   T
  0.7500000000000000  0.5000000000000000  0.1074768466689277   T   T   T
  0.0001639417253769  0.7501639417253770  0.1067188011538463   T   T   T
  0.4998360582746231  0.7501639417253770  0.1067188011538463   T   T   T
  0.0005756133469886  0.0000000000000000  0.2125569615737339   T   T   T
  0.4994243866530112  0.0000000000000000  0.2125569615737339   T   T   T
  0.2500000000000000  0.2494243866530114  0.2125569615737339   T   T   T
  0.7500000000000000  0.2488404488843024  0.2123484786737933   T   T   T
  0.0011595511156976  0.5000000000000000  0.2123484786737933   T   T   T
  0.4988404488843025  0.5000000000000000  0.2123484786737933   T   T   T
  0.2500000000000000  0.7505756133469885  0.2125569615737339   T   T   T
  0.7500000000000000  0.7511595511156977  0.2123484786737933   T   T   T
  0.2500000000000000  0.0000000000000000  0.3202245860871551   T   T   T
  0.7500000000000000  0.0000000000000000  0.3203385042244191   T   T   T
 -0.0013553288304946  0.2513553288304947  0.3213309226894286   T   T   T
  0.5013553288304946  0.2513553288304947  0.3213309226894286   T   T   T
  0.2500000000000000  0.5000000000000000  0.3203385042244191   T   T   T
  0.7500000000000000  0.5000000000000000  0.3185460997026126   T   T   T
 -0.0013553288304946  0.7486446711695053  0.3213309226894286   T   T   T
  0.5013553288304946  0.7486446711695053  0.3213309226894286   T   T   T
  0.0035996625954272  0.0000000000000000  0.4262862852700652   T   T   T
  0.4964003374045727  0.0000000000000000  0.4262862852700652   T   T   T
  0.2500000000000000  0.2464003374045730  0.4262862852700652   T   T   T
  0.7500000000000000  0.2374187540194594  0.4289879397294479   T   T   T
  0.0125812459805405  0.5000000000000000  0.4289879397294479   T   T   T
  0.4874187540194594  0.5000000000000000  0.4289879397294479   T   T   T
  0.2500000000000000  0.7535996625954273  0.4262862852700652   T   T   T
  0.7500000000000000  0.7625812459805403  0.4289879397294479   T   T   T
 -0.0002631894867222  0.0000000000000000  0.1128707253375509   T   T   T
  0.5002631894867223  0.0000000000000000  0.1128707253375509   T   T   T
  0.2500000000000000  0.2502631894867222  0.1128707253375509   T   T   T
  0.7500000000000000  0.2507970936962555  0.1128857542388868   T   T   T
 -0.0007970936962555  0.5000000000000000  0.1128857542388868   T   T   T
  0.5007970936962555  0.5000000000000000  0.1128857542388868   T   T   T
  0.2500000000000000  0.7497368105132777  0.1128707253375509   T   T   T
  0.7500000000000000  0.7492029063037445  0.1128857542388868   T   T   T
  0.2500000000000000  0.0000000000000000  0.2076799721369515   T   T   T
  0.7500000000000000  0.0000000000000000  0.2081129409826123   T   T   T
  0.0000985996413472  0.2499014003586527  0.2068434365612526   T   T   T
  0.4999014003586530  0.2499014003586527  0.2068434365612526   T   T   T
  0.2500000000000000  0.5000000000000000  0.2081129409826123   T   T   T
  0.7500000000000000  0.5000000000000000  0.2111607995860371   T   T   T
  0.0000985996413472  0.7500985996413471  0.2068434365612526   T   T   T
  0.4999014003586530  0.7500985996413471  0.2068434365612526   T   T   T
 -0.0006784544096178  0.0000000000000000  0.3253038869363032   T   T   T
  0.5006784544096176  0.0000000000000000  0.3253038869363032   T   T   T
  0.2500000000000000  0.2506784544096177  0.3253038869363032   T   T   T
  0.7500000000000000  0.2522076271501328  0.3253729127383921   T   T   T
 -0.0022076271501328  0.5000000000000000  0.3253729127383921   T   T   T
  0.5022076271501330  0.5000000000000000  0.3253729127383921   T   T   T
  0.2500000000000000  0.7493215455903824  0.3253038869363032   T   T   T
  0.7500000000000000  0.7477923728498670  0.3253729127383921   T   T   T
  0.2500000000000000  0.0000000000000000  0.4200823958561617   T   T   T
  0.7500000000000000  0.0000000000000000  0.4209346267426451   T   T   T
  0.0032365639602426  0.2467634360397574  0.4189775629626339   T   T   T
  0.4967634360397574  0.2467634360397574  0.4189775629626339   T   T   T
  0.2500000000000000  0.5000000000000000  0.4209346267426451   T   T   T
  0.7499996334070005  0.5000000543739986  0.4252646248316638   T   T   T
  0.0032365639602426  0.7532365639602424  0.4189775629626339   T   T   T
  0.4967634904137561  0.7532365639602424  0.4189775629626339   T   T   T
  0.7499996334070005  0.5000000543739986  0.4945846356184760   T   T   T
 
  0.00000000E+00  0.00000000E+00  0.00000000E+00
  0.00000000E+00  0.00000000E+00  0.00000000E+00
  0.00000000E+00  0.00000000E+00  0.00000000E+00
  0.00000000E+00  0.00000000E+00  0.00000000E+00
  0.00000000E+00  0.00000000E+00  0.00000000E+00
  0.00000000E+00  0.00000000E+00  0.00000000E+00
  0.00000000E+00  0.00000000E+00  0.00000000E+00
  0.00000000E+00  0.00000000E+00  0.00000000E+00
  0.00000000E+00  0.00000000E+00  0.00000000E+00
  0.00000000E+00  0.00000000E+00  0.00000000E+00
  0.00000000E+00  0.00000000E+00  0.00000000E+00
  0.00000000E+00  0.00000000E+00  0.00000000E+00
  0.00000000E+00  0.00000000E+00  0.00000000E+00
  0.00000000E+00  0.00000000E+00  0.00000000E+00
  0.00000000E+00  0.00000000E+00  0.00000000E+00
  0.00000000E+00  0.00000000E+00  0.00000000E+00
  0.00000000E+00  0.00000000E+00  0.00000000E+00
  0.00000000E+00  0.00000000E+00  0.00000000E+00
  0.00000000E+00  0.00000000E+00  0.00000000E+00
  0.00000000E+00  0.00000000E+00  0.00000000E+00
  0.00000000E+00  0.00000000E+00  0.00000000E+00
  0.00000000E+00  0.00000000E+00  0.00000000E+00
  0.00000000E+00  0.00000000E+00  0.00000000E+00
  0.00000000E+00  0.00000000E+00  0.00000000E+00
  0.00000000E+00  0.00000000E+00  0.00000000E+00
  0.00000000E+00  0.00000000E+00  0.00000000E+00
  0.00000000E+00  0.00000000E+00  0.00000000E+00
  0.00000000E+00  0.00000000E+00  0.00000000E+00
  0.00000000E+00  0.00000000E+00  0.00000000E+00
  0.00000000E+00  0.00000000E+00  0.00000000E+00
  0.00000000E+00  0.00000000E+00  0.00000000E+00
  0.00000000E+00  0.00000000E+00  0.00000000E+00
  0.00000000E+00  0.00000000E+00  0.00000000E+00
  0.00000000E+00  0.00000000E+00  0.00000000E+00
  0.00000000E+00  0.00000000E+00  0.00000000E+00
  0.00000000E+00  0.00000000E+00  0.00000000E+00
  0.00000000E+00  0.00000000E+00  0.00000000E+00
  0.00000000E+00  0.00000000E+00  0.00000000E+00
  0.00000000E+00  0.00000000E+00  0.00000000E+00
  0.00000000E+00  0.00000000E+00  0.00000000E+00
  0.00000000E+00  0.00000000E+00  0.00000000E+00
  0.00000000E+00  0.00000000E+00  0.00000000E+00
  0.00000000E+00  0.00000000E+00  0.00000000E+00
  0.00000000E+00  0.00000000E+00  0.00000000E+00
  0.00000000E+00  0.00000000E+00  0.00000000E+00
  0.00000000E+00  0.00000000E+00  0.00000000E+00
  0.00000000E+00  0.00000000E+00  0.00000000E+00
  0.00000000E+00  0.00000000E+00  0.00000000E+00
  0.00000000E+00  0.00000000E+00  0.00000000E+00
  0.00000000E+00  0.00000000E+00  0.00000000E+00
  0.00000000E+00  0.00000000E+00  0.00000000E+00
  0.00000000E+00  0.00000000E+00  0.00000000E+00
  0.00000000E+00  0.00000000E+00  0.00000000E+00
  0.00000000E+00  0.00000000E+00  0.00000000E+00
  0.00000000E+00  0.00000000E+00  0.00000000E+00
  0.00000000E+00  0.00000000E+00  0.00000000E+00
  0.00000000E+00  0.00000000E+00  0.00000000E+00
  0.00000000E+00  0.00000000E+00  0.00000000E+00
  0.00000000E+00  0.00000000E+00  0.00000000E+00
  0.00000000E+00  0.00000000E+00  0.00000000E+00
  0.00000000E+00  0.00000000E+00  0.00000000E+00
  0.00000000E+00  0.00000000E+00  0.00000000E+00
  0.00000000E+00  0.00000000E+00  0.00000000E+00
  0.00000000E+00  0.00000000E+00  0.00000000E+00
  0.00000000E+00  0.00000000E+00  0.00000000E+00
