Ba O Pt                                 
   1.00000000000000     
    11.1568587867069997    0.0000000000000000    0.0000000000000000
     0.0000000000000000   11.1568587867069997    0.0000000000000000
     0.0000000000000000    0.0000000000000000   26.1568587867070015
   Ba   O    Pt
    32    32     1
Selective dynamics
Direct
  0.2500000000000000  0.0000000000000000  0.1068086687884769   T   T   T
  0.7500000000000000  0.0000000000000000  0.1069968484695142   T   T   T
  0.0001173493962214  0.2498826506037786  0.1067551265910343   T   T   T
  0.4998826506037786  0.2498826506037786  0.1067551265910343   T   T   T
  0.2500000000000000  0.5000000000000000  0.1069968484695142   T   T   T
  0.7500000000000000  0.5000000000000000  0.1077504262475811   T   T   T
  0.0001173493962214  0.7501173493962215  0.1067551265910343   T   T   T
  0.4998826506037786  0.7501173493962215  0.1067551265910343   T   T   T
  0.0002939581816913  0.0000000000000000  0.2126013403301461   T   T   T
  0.4997060418183087  0.0000000000000000  0.2126013403301461   T   T   T
  0.2500000000000000  0.2497060418183087  0.2126013403301461   T   T   T
  0.7500000000000000  0.2491648417795119  0.2125563119022508   T   T   T
  0.0008351582204882  0.5000000000000000  0.2125563119022508   T   T   T
  0.4991648417795118  0.5000000000000000  0.2125563119022508   T   T   T
  0.2500000000000000  0.7502939581816911  0.2126013403301461   T   T   T
  0.7500000000000000  0.7508351582204881  0.2125563119022508   T   T   T
  0.2500000000000000  0.0000000000000000  0.3199381467920708   T   T   T
  0.7500000000000000  0.0000000000000000  0.3204907515056850   T   T   T
 -0.0011403573107732  0.2511403573107732  0.3212517040591287   T   T   T
  0.5011403573107733  0.2511403573107732  0.3212517040591287   T   T   T
  0.2500000000000000  0.5000000000000000  0.3204907515056850   T   T   T
  0.7500000000000000  0.5000000000000000  0.3202179178925837   T   T   T
 -0.0011403573107732  0.7488596426892267  0.3212517040591287   T   T   T
  0.5011403573107733  0.7488596426892267  0.3212517040591287   T   T   T
  0.0028956086881215  0.0000000000000000  0.4261279477261858   T   T   T
  0.4971043913118785  0.0000000000000000  0.4261279477261858   T   T   T
  0.2500000000000000  0.2471043913118785  0.4261279477261858   T   T   T
  0.7500000000000000  0.2402306305417571  0.4284078317596477   T   T   T
  0.0097693694582429  0.5000000000000000  0.4284078317596477   T   T   T
  0.4902306305417571  0.5000000000000000  0.4284078317596477   T   T   T
  0.2500000000000000  0.7528956086881216  0.4261279477261858   T   T   T
  0.7500000000000000  0.7597693694582429  0.4284078317596477   T   T   T
 -0.0002584398288641  0.0000000000000000  0.1128699123877981   T   T   T
  0.5002584398288641  0.0000000000000000  0.1128699123877981   T   T   T
  0.2500000000000000  0.2502584398288641  0.1128699123877981   T   T   T
  0.7500000000000000  0.2509185835911739  0.1131034187117747   T   T   T
 -0.0009185835911738  0.5000000000000000  0.1131034187117747   T   T   T
  0.5009185835911738  0.5000000000000000  0.1131034187117747   T   T   T
  0.2500000000000000  0.7497415601711359  0.1128699123877981   T   T   T
  0.7500000000000000  0.7490814164088262  0.1131034187117747   T   T   T
  0.2500000000000000  0.0000000000000000  0.2077254326757039   T   T   T
  0.7500000000000000  0.0000000000000000  0.2080714128015073   T   T   T
 -0.0000021149445393  0.2500021149445393  0.2070566232632275   T   T   T
  0.5000021149445393  0.2500021149445393  0.2070566232632275   T   T   T
  0.2500000000000000  0.5000000000000000  0.2080714128015073   T   T   T
  0.7500000000000000  0.5000000000000000  0.2113381427622968   T   T   T
 -0.0000021149445393  0.7499978850554608  0.2070566232632275   T   T   T
  0.5000021149445393  0.7499978850554608  0.2070566232632275   T   T   T
 -0.0001870854635060  0.0000000000000000  0.3252693725882863   T   T   T
  0.5001870854635059  0.0000000000000000  0.3252693725882863   T   T   T
  0.2500000000000000  0.2501870854635059  0.3252693725882863   T   T   T
  0.7500000000000000  0.2504509261558294  0.3257042382518570   T   T   T
 -0.0004509261558294  0.5000000000000000  0.3257042382518570   T   T   T
  0.5004509261558295  0.5000000000000000  0.3257042382518570   T   T   T
  0.2500000000000000  0.7498129145364941  0.3252693725882863   T   T   T
  0.7500000000000000  0.7495490738441705  0.3257042382518570   T   T   T
  0.2500000000000000  0.0000000000000000  0.4198883576051430   T   T   T
  0.7500000000000000  0.0000000000000000  0.4207365425211693   T   T   T
  0.0020060969907652  0.2479939030092348  0.4195857905424565   T   T   T
  0.4979939030092349  0.2479939030092348  0.4195857905424565   T   T   T
  0.2500000000000000  0.5000000000000000  0.4207365425211693   T   T   T
  0.7499996334070005  0.5000000543739986  0.4203084229819684   T   T   T
  0.0020060969907652  0.7520060969907654  0.4195857905424565   T   T   T
  0.4979939573832335  0.7520060969907654  0.4195857905424565   T   T   T
  0.7499996334070005  0.5000000543739986  0.4942781312411771   T   T   T
 
  0.00000000E+00  0.00000000E+00  0.00000000E+00
  0.00000000E+00  0.00000000E+00  0.00000000E+00
  0.00000000E+00  0.00000000E+00  0.00000000E+00
  0.00000000E+00  0.00000000E+00  0.00000000E+00
  0.00000000E+00  0.00000000E+00  0.00000000E+00
  0.00000000E+00  0.00000000E+00  0.00000000E+00
  0.00000000E+00  0.00000000E+00  0.00000000E+00
  0.00000000E+00  0.00000000E+00  0.00000000E+00
  0.00000000E+00  0.00000000E+00  0.00000000E+00
  0.00000000E+00  0.00000000E+00  0.00000000E+00
  0.00000000E+00  0.00000000E+00  0.00000000E+00
  0.00000000E+00  0.00000000E+00  0.00000000E+00
  0.00000000E+00  0.00000000E+00  0.00000000E+00
  0.00000000E+00  0.00000000E+00  0.00000000E+00
  0.00000000E+00  0.00000000E+00  0.00000000E+00
  0.00000000E+00  0.00000000E+00  0.00000000E+00
  0.00000000E+00  0.00000000E+00  0.00000000E+00
  0.00000000E+00  0.00000000E+00  0.00000000E+00
  0.00000000E+00  0.00000000E+00  0.00000000E+00
  0.00000000E+00  0.00000000E+00  0.00000000E+00
  0.00000000E+00  0.00000000E+00  0.00000000E+00
  0.00000000E+00  0.00000000E+00  0.00000000E+00
  0.00000000E+00  0.00000000E+00  0.00000000E+00
  0.00000000E+00  0.00000000E+00  0.00000000E+00
  0.00000000E+00  0.00000000E+00  0.00000000E+00
  0.00000000E+00  0.00000000E+00  0.00000000E+00
  0.00000000E+00  0.00000000E+00  0.00000000E+00
  0.00000000E+00  0.00000000E+00  0.00000000E+00
  0.00000000E+00  0.00000000E+00  0.00000000E+00
  0.00000000E+00  0.00000000E+00  0.00000000E+00
  0.00000000E+00  0.00000000E+00  0.00000000E+00
  0.00000000E+00  0.00000000E+00  0.00000000E+00
  0.00000000E+00  0.00000000E+00  0.00000000E+00
  0.00000000E+00  0.00000000E+00  0.00000000E+00
  0.00000000E+00  0.00000000E+00  0.00000000E+00
  0.00000000E+00  0.00000000E+00  0.00000000E+00
  0.00000000E+00  0.00000000E+00  0.00000000E+00
  0.00000000E+00  0.00000000E+00  0.00000000E+00
  0.00000000E+00  0.00000000E+00  0.00000000E+00
  0.00000000E+00  0.00000000E+00  0.00000000E+00
  0.00000000E+00  0.00000000E+00  0.00000000E+00
  0.00000000E+00  0.00000000E+00  0.00000000E+00
  0.00000000E+00  0.00000000E+00  0.00000000E+00
  0.00000000E+00  0.00000000E+00  0.00000000E+00
  0.00000000E+00  0.00000000E+00  0.00000000E+00
  0.00000000E+00  0.00000000E+00  0.00000000E+00
  0.00000000E+00  0.00000000E+00  0.00000000E+00
  0.00000000E+00  0.00000000E+00  0.00000000E+00
  0.00000000E+00  0.00000000E+00  0.00000000E+00
  0.00000000E+00  0.00000000E+00  0.00000000E+00
  0.00000000E+00  0.00000000E+00  0.00000000E+00
  0.00000000E+00  0.00000000E+00  0.00000000E+00
  0.00000000E+00  0.00000000E+00  0.00000000E+00
  0.00000000E+00  0.00000000E+00  0.00000000E+00
  0.00000000E+00  0.00000000E+00  0.00000000E+00
  0.00000000E+00  0.00000000E+00  0.00000000E+00
  0.00000000E+00  0.00000000E+00  0.00000000E+00
  0.00000000E+00  0.00000000E+00  0.00000000E+00
  0.00000000E+00  0.00000000E+00  0.00000000E+00
  0.00000000E+00  0.00000000E+00  0.00000000E+00
  0.00000000E+00  0.00000000E+00  0.00000000E+00
  0.00000000E+00  0.00000000E+00  0.00000000E+00
  0.00000000E+00  0.00000000E+00  0.00000000E+00
  0.00000000E+00  0.00000000E+00  0.00000000E+00
  0.00000000E+00  0.00000000E+00  0.00000000E+00
