Mg Na O Pd                              
   1.00000000000000     
     8.4141216974800006    0.0000000000000000    0.0000000000000000
     0.0000000000000000    8.4141216974800006    0.0000000000000000
     0.0000000000000000    0.0000000000000000   23.4141216974799988
   Mg   Na   O    Pd
    31     1    32     1
Selective dynamics
Direct
  0.2500000000000000  0.0010993394392489  0.0051932505221156   T   T   T
  0.2500000000000000  0.5016407422009677  0.0050819527316093   T   T   T
  0.7500000000000000  0.0010771855545435  0.0050386869047403   T   T   T
  0.7500000000000000  0.5011446204820014  0.0048337354046875   T   T   T
  0.0000322469206742  0.2511522371622562  0.0050071772789461   T   T   T
  0.0002963154643615  0.7514125752993626  0.0051898659679786   T   T   T
  0.4999677530793257  0.2511522371622562  0.0050071772789461   T   T   T
  0.4997036845356387  0.7514125752993626  0.0051898659679786   T   T   T
  0.0011595256889736  0.0018237606307583  0.0947000186377701   T   T   T
  0.0009430342350717  0.5009151146696083  0.0943445666809367   T   T   T
  0.4988404743110265  0.0018237606307583  0.0947000186377701   T   T   T
  0.4990569657649283  0.5009151146696083  0.0943445666809367   T   T   T
  0.2500000000000000  0.2511942801313065  0.0944025710232999   T   T   T
  0.2500000000000000  0.7517639368258596  0.0951090186430990   T   T   T
  0.7500000000000000  0.2506223243889747  0.0942328036981318   T   T   T
  0.7500000000000000  0.7507925822487427  0.0941609703395650   T   T   T
  0.2500000000000000  0.0061670961292693  0.1872005059247989   T   T   T
  0.2500000000000000  0.4975323305022866  0.1862736839566257   T   T   T
  0.7500000000000000 -0.0008731424165451  0.1840606724198105   T   T   T
  0.7500000000000000  0.4995751614599844  0.1829485448123860   T   T   T
  0.0052444168770569  0.2516908583258979  0.1857119021627360   T   T   T
  0.0013090374840753  0.7514865164020442  0.1852824172531753   T   T   T
  0.4947555831229432  0.2516908583258979  0.1857119021627360   T   T   T
  0.4986909625159249  0.7514865164020442  0.1852824172531753   T   T   T
  0.0034219802260386 -0.0000379141717820  0.2751993200529059   T   T   T
  0.0104031918740633  0.5028733854810921  0.2737955389696354   T   T   T
  0.4965780197739614 -0.0000379141717820  0.2751993200529059   T   T   T
  0.4895968081259365  0.5028733854810921  0.2737955389696354   T   T   T
  0.2500000000000000  0.7524874662165498  0.2748002742497937   T   T   T
  0.7500000000000000  0.2332570456233209  0.2701497621457890   T   T   T
  0.7500000000000000  0.7574795961456219  0.2740302356306859   T   T   T
  0.2500000000000000  0.2517803190018941  0.3003811171654189   T   T   T
 -0.0001191289485113  0.0011164498277145  0.0030141555189911   T   T   T
 -0.0000467397768649  0.5014804503229959  0.0028773412605757   T   T   T
  0.5001191289485116  0.0011164498277145  0.0030141555189911   T   T   T
  0.5000467397768651  0.5014804503229959  0.0028773412605757   T   T   T
  0.2500000000000000  0.2513529229331594  0.0027547448703457   T   T   T
  0.2500000000000000  0.7513818826215553  0.0029459020683678   T   T   T
  0.7500000000000000  0.2509778801950721  0.0026492513809354   T   T   T
  0.7500000000000000  0.7512117921886092  0.0029040743594889   T   T   T
  0.2500000000000000  0.0008127502983324  0.0948017629723034   T   T   T
  0.2500000000000000  0.5021743308965877  0.0948018520449885   T   T   T
  0.7500000000000000  0.0003866265093263  0.0950174770124338   T   T   T
  0.7500000000000000  0.5010869417369694  0.0945008350121619   T   T   T
 -0.0009123268313816  0.2514523340828281  0.0946132016916046   T   T   T
 -0.0005094703318905  0.7512697980023857  0.0951852728778055   T   T   T
  0.5009123268313815  0.2514523340828281  0.0946132016916046   T   T   T
  0.5005094703318902  0.7512697980023857  0.0951852728778055   T   T   T
 -0.0002633774888326  0.0029097949161325  0.1856650448597106   T   T   T
 -0.0018053904898390  0.5002545942137590  0.1855552034798927   T   T   T
  0.5002633774888329  0.0029097949161325  0.1856650448597106   T   T   T
  0.5018053904898390  0.5002545942137590  0.1855552034798927   T   T   T
  0.2500000000000000  0.2520608516634851  0.1822682400969934   T   T   T
  0.2500000000000000  0.7514107466429197  0.1844179319672067   T   T   T
  0.7500000000000000  0.2516055448429380  0.1840572230956378   T   T   T
  0.7500000000000000  0.7479924597623914  0.1847644915231631   T   T   T
  0.2499999495650016 -0.0114599221707410  0.2783408885171685   T   T   T
  0.2499999495650016  0.5158926936223637  0.2774730840091289   T   T   T
  0.7499999495650016 -0.0038925131022435  0.2754071844159480   T   T   T
  0.7499999495650016  0.5094255253145675  0.2794917180280577   T   T   T
 -0.0171545803823244  0.2549010232295485  0.2806604216964161   T   T   T
 -0.0039453575624093  0.7507590362612747  0.2766307045703617   T   T   T
  0.5171545803823245  0.2549010232295485  0.2806604216964161   T   T   T
  0.5039453575624095  0.7507590362612747  0.2766307045703617   T   T   T
  0.7499999495650016  0.4199185727989289  0.3600440636331582   T   T   T
 
  0.00000000E+00  0.00000000E+00  0.00000000E+00
  0.00000000E+00  0.00000000E+00  0.00000000E+00
  0.00000000E+00  0.00000000E+00  0.00000000E+00
  0.00000000E+00  0.00000000E+00  0.00000000E+00
  0.00000000E+00  0.00000000E+00  0.00000000E+00
  0.00000000E+00  0.00000000E+00  0.00000000E+00
  0.00000000E+00  0.00000000E+00  0.00000000E+00
  0.00000000E+00  0.00000000E+00  0.00000000E+00
  0.00000000E+00  0.00000000E+00  0.00000000E+00
  0.00000000E+00  0.00000000E+00  0.00000000E+00
  0.00000000E+00  0.00000000E+00  0.00000000E+00
  0.00000000E+00  0.00000000E+00  0.00000000E+00
  0.00000000E+00  0.00000000E+00  0.00000000E+00
  0.00000000E+00  0.00000000E+00  0.00000000E+00
  0.00000000E+00  0.00000000E+00  0.00000000E+00
  0.00000000E+00  0.00000000E+00  0.00000000E+00
  0.00000000E+00  0.00000000E+00  0.00000000E+00
  0.00000000E+00  0.00000000E+00  0.00000000E+00
  0.00000000E+00  0.00000000E+00  0.00000000E+00
  0.00000000E+00  0.00000000E+00  0.00000000E+00
  0.00000000E+00  0.00000000E+00  0.00000000E+00
  0.00000000E+00  0.00000000E+00  0.00000000E+00
  0.00000000E+00  0.00000000E+00  0.00000000E+00
  0.00000000E+00  0.00000000E+00  0.00000000E+00
  0.00000000E+00  0.00000000E+00  0.00000000E+00
  0.00000000E+00  0.00000000E+00  0.00000000E+00
  0.00000000E+00  0.00000000E+00  0.00000000E+00
  0.00000000E+00  0.00000000E+00  0.00000000E+00
  0.00000000E+00  0.00000000E+00  0.00000000E+00
  0.00000000E+00  0.00000000E+00  0.00000000E+00
  0.00000000E+00  0.00000000E+00  0.00000000E+00
  0.00000000E+00  0.00000000E+00  0.00000000E+00
  0.00000000E+00  0.00000000E+00  0.00000000E+00
  0.00000000E+00  0.00000000E+00  0.00000000E+00
  0.00000000E+00  0.00000000E+00  0.00000000E+00
  0.00000000E+00  0.00000000E+00  0.00000000E+00
  0.00000000E+00  0.00000000E+00  0.00000000E+00
  0.00000000E+00  0.00000000E+00  0.00000000E+00
  0.00000000E+00  0.00000000E+00  0.00000000E+00
  0.00000000E+00  0.00000000E+00  0.00000000E+00
  0.00000000E+00  0.00000000E+00  0.00000000E+00
  0.00000000E+00  0.00000000E+00  0.00000000E+00
  0.00000000E+00  0.00000000E+00  0.00000000E+00
  0.00000000E+00  0.00000000E+00  0.00000000E+00
  0.00000000E+00  0.00000000E+00  0.00000000E+00
  0.00000000E+00  0.00000000E+00  0.00000000E+00
  0.00000000E+00  0.00000000E+00  0.00000000E+00
  0.00000000E+00  0.00000000E+00  0.00000000E+00
  0.00000000E+00  0.00000000E+00  0.00000000E+00
  0.00000000E+00  0.00000000E+00  0.00000000E+00
  0.00000000E+00  0.00000000E+00  0.00000000E+00
  0.00000000E+00  0.00000000E+00  0.00000000E+00
  0.00000000E+00  0.00000000E+00  0.00000000E+00
  0.00000000E+00  0.00000000E+00  0.00000000E+00
  0.00000000E+00  0.00000000E+00  0.00000000E+00
  0.00000000E+00  0.00000000E+00  0.00000000E+00
  0.00000000E+00  0.00000000E+00  0.00000000E+00
  0.00000000E+00  0.00000000E+00  0.00000000E+00
  0.00000000E+00  0.00000000E+00  0.00000000E+00
  0.00000000E+00  0.00000000E+00  0.00000000E+00
  0.00000000E+00  0.00000000E+00  0.00000000E+00
  0.00000000E+00  0.00000000E+00  0.00000000E+00
  0.00000000E+00  0.00000000E+00  0.00000000E+00
  0.00000000E+00  0.00000000E+00  0.00000000E+00
  0.00000000E+00  0.00000000E+00  0.00000000E+00
