Cu Mg Na O                              
   1.00000000000000     
     8.4141216974800006    0.0000000000000000    0.0000000000000000
     0.0000000000000000    8.4141216974800006    0.0000000000000000
     0.0000000000000000    0.0000000000000000   23.4141216974799988
   Cu   Mg   Na   O 
     1    31     1    32
Selective dynamics
Direct
  0.7499999495650016  0.4690448824101810  0.3586110086927617   T   T   T
  0.2500000000000000  0.0001316185515006  0.0047008918535854   T   T   T
  0.2500000000000000  0.5004657154347026  0.0042148705091826   T   T   T
  0.7500000000000000  0.0002765974139867  0.0042921266871582   T   T   T
  0.7500000000000000  0.5001643378729633  0.0038215364238035   T   T   T
  0.0000975017573649  0.2499966038584153  0.0043739715635958   T   T   T
  0.0003562865702149  0.7505480082523731  0.0044505389506593   T   T   T
  0.4999024982426351  0.2499966038584153  0.0043739715635958   T   T   T
  0.4996437134297851  0.7505480082523731  0.0044505389506593   T   T   T
  0.0010886997130102  0.0010082553815307  0.0941877303271114   T   T   T
  0.0009930795972826  0.4996808231209556  0.0934479870791296   T   T   T
  0.4989113002869899  0.0010082553815307  0.0941877303271114   T   T   T
  0.4990069204027173  0.4996808231209556  0.0934479870791296   T   T   T
  0.2500000000000000  0.2499659550226662  0.0939994042918240   T   T   T
  0.2500000000000000  0.7506943976711806  0.0943582288807391   T   T   T
  0.7500000000000000  0.2497973257761467  0.0936389804996108   T   T   T
  0.7500000000000000  0.7504619520616127  0.0933333068632872   T   T   T
  0.2500000000000000  0.0050161052313010  0.1864461633326540   T   T   T
  0.2500000000000000  0.4964457263977728  0.1853526452443262   T   T   T
  0.7500000000000000  0.0003877836817214  0.1837482728844602   T   T   T
  0.7500000000000000  0.4992230569703458  0.1810943616002253   T   T   T
  0.0049827149812131  0.2503774314770020  0.1859361446000931   T   T   T
  0.0014383718437540  0.7508858975841277  0.1846053995185040   T   T   T
  0.4950172850187869  0.2503774314770020  0.1859361446000931   T   T   T
  0.4985616281562459  0.7508858975841277  0.1846053995185040   T   T   T
  0.0037786259346861  0.0014048042799429  0.2743669550592432   T   T   T
  0.0119396356318707  0.5000195631913401  0.2731489334643596   T   T   T
  0.4962213740653139  0.0014048042799429  0.2743669550592432   T   T   T
  0.4880603643681293  0.5000195631913401  0.2731489334643596   T   T   T
  0.2500000000000000  0.7516534664743668  0.2740567478362143   T   T   T
  0.7500000000000000  0.2364837099991276  0.2718826708924854   T   T   T
  0.7500000000000000  0.7595746019648442  0.2726516283360836   T   T   T
  0.2500000000000000  0.2499277040322554  0.2973972442530152   T   T   T
  0.9999288996957365  0.0001192706651773  0.0023983047328868   T   T   T
  0.0000405595369147  0.5004341348225209  0.0020008877871354   T   T   T
  0.5000711003042635  0.0001192706651773  0.0023983047328868   T   T   T
  0.4999594404630854  0.5004341348225209  0.0020008877871354   T   T   T
  0.2500000000000000  0.2501771700157657  0.0021747320245524   T   T   T
  0.2500000000000000  0.7504008128418842  0.0022700618033875   T   T   T
  0.7500000000000000  0.2500002734365696  0.0018713040834581   T   T   T
  0.7500000000000000  0.7504120188188136  0.0021022673944695   T   T   T
  0.2500000000000000  0.9995606892862092  0.0941907018342854   T   T   T
  0.2500000000000000  0.5011333523377987  0.0940687414886289   T   T   T
  0.7500000000000000  0.9998659437636017  0.0944272702139359   T   T   T
  0.7500000000000000  0.5004124174626839  0.0935379318765171   T   T   T
  0.9988109461217656  0.2506694112327369  0.0940191041003104   T   T   T
  0.9993438076246129  0.7500213334349327  0.0944201096150112   T   T   T
  0.5011890538782344  0.2506694112327369  0.0940191041003104   T   T   T
  0.5006561923753871  0.7500213334349327  0.0944201096150112   T   T   T
  0.9995088947661027  0.0012891762165452  0.1848626869056749   T   T   T
  0.9971972794488465  0.4998896684470018  0.1851021290979203   T   T   T
  0.5004911052338973  0.0012891762165452  0.1848626869056749   T   T   T
  0.5028027205511535  0.4998896684470018  0.1851021290979203   T   T   T
  0.2500000000000000  0.2513807288592395  0.1815330795162264   T   T   T
  0.2500000000000000  0.7497433494576741  0.1836769066135360   T   T   T
  0.7500000000000000  0.2525647772867168  0.1840560877064497   T   T   T
  0.7500000000000000  0.7471657789038314  0.1841536061820467   T   T   T
  0.2499999495650016  0.9868129778241111  0.2775057118136236   T   T   T
  0.2499999495650016  0.5154097946119326  0.2769691774363129   T   T   T
  0.7499999495650016  0.9971364475887378  0.2752783154469608   T   T   T
  0.7499999495650016  0.5089712859625947  0.2827638608670303   T   T   T
  0.9833737040605977  0.2538053212878605  0.2791485088262966   T   T   T
  0.9953907541452187  0.7494189190381192  0.2761705767746362   T   T   T
  0.5166262959394023  0.2538053212878605  0.2791485088262966   T   T   T
  0.5046092458547813  0.7494189190381192  0.2761705767746362   T   T   T
 
  0.00000000E+00  0.00000000E+00  0.00000000E+00
  0.00000000E+00  0.00000000E+00  0.00000000E+00
  0.00000000E+00  0.00000000E+00  0.00000000E+00
  0.00000000E+00  0.00000000E+00  0.00000000E+00
  0.00000000E+00  0.00000000E+00  0.00000000E+00
  0.00000000E+00  0.00000000E+00  0.00000000E+00
  0.00000000E+00  0.00000000E+00  0.00000000E+00
  0.00000000E+00  0.00000000E+00  0.00000000E+00
  0.00000000E+00  0.00000000E+00  0.00000000E+00
  0.00000000E+00  0.00000000E+00  0.00000000E+00
  0.00000000E+00  0.00000000E+00  0.00000000E+00
  0.00000000E+00  0.00000000E+00  0.00000000E+00
  0.00000000E+00  0.00000000E+00  0.00000000E+00
  0.00000000E+00  0.00000000E+00  0.00000000E+00
  0.00000000E+00  0.00000000E+00  0.00000000E+00
  0.00000000E+00  0.00000000E+00  0.00000000E+00
  0.00000000E+00  0.00000000E+00  0.00000000E+00
  0.00000000E+00  0.00000000E+00  0.00000000E+00
  0.00000000E+00  0.00000000E+00  0.00000000E+00
  0.00000000E+00  0.00000000E+00  0.00000000E+00
  0.00000000E+00  0.00000000E+00  0.00000000E+00
  0.00000000E+00  0.00000000E+00  0.00000000E+00
  0.00000000E+00  0.00000000E+00  0.00000000E+00
  0.00000000E+00  0.00000000E+00  0.00000000E+00
  0.00000000E+00  0.00000000E+00  0.00000000E+00
  0.00000000E+00  0.00000000E+00  0.00000000E+00
  0.00000000E+00  0.00000000E+00  0.00000000E+00
  0.00000000E+00  0.00000000E+00  0.00000000E+00
  0.00000000E+00  0.00000000E+00  0.00000000E+00
  0.00000000E+00  0.00000000E+00  0.00000000E+00
  0.00000000E+00  0.00000000E+00  0.00000000E+00
  0.00000000E+00  0.00000000E+00  0.00000000E+00
  0.00000000E+00  0.00000000E+00  0.00000000E+00
  0.00000000E+00  0.00000000E+00  0.00000000E+00
  0.00000000E+00  0.00000000E+00  0.00000000E+00
  0.00000000E+00  0.00000000E+00  0.00000000E+00
  0.00000000E+00  0.00000000E+00  0.00000000E+00
  0.00000000E+00  0.00000000E+00  0.00000000E+00
  0.00000000E+00  0.00000000E+00  0.00000000E+00
  0.00000000E+00  0.00000000E+00  0.00000000E+00
  0.00000000E+00  0.00000000E+00  0.00000000E+00
  0.00000000E+00  0.00000000E+00  0.00000000E+00
  0.00000000E+00  0.00000000E+00  0.00000000E+00
  0.00000000E+00  0.00000000E+00  0.00000000E+00
  0.00000000E+00  0.00000000E+00  0.00000000E+00
  0.00000000E+00  0.00000000E+00  0.00000000E+00
  0.00000000E+00  0.00000000E+00  0.00000000E+00
  0.00000000E+00  0.00000000E+00  0.00000000E+00
  0.00000000E+00  0.00000000E+00  0.00000000E+00
  0.00000000E+00  0.00000000E+00  0.00000000E+00
  0.00000000E+00  0.00000000E+00  0.00000000E+00
  0.00000000E+00  0.00000000E+00  0.00000000E+00
  0.00000000E+00  0.00000000E+00  0.00000000E+00
  0.00000000E+00  0.00000000E+00  0.00000000E+00
  0.00000000E+00  0.00000000E+00  0.00000000E+00
  0.00000000E+00  0.00000000E+00  0.00000000E+00
  0.00000000E+00  0.00000000E+00  0.00000000E+00
  0.00000000E+00  0.00000000E+00  0.00000000E+00
  0.00000000E+00  0.00000000E+00  0.00000000E+00
  0.00000000E+00  0.00000000E+00  0.00000000E+00
  0.00000000E+00  0.00000000E+00  0.00000000E+00
  0.00000000E+00  0.00000000E+00  0.00000000E+00
  0.00000000E+00  0.00000000E+00  0.00000000E+00
  0.00000000E+00  0.00000000E+00  0.00000000E+00
  0.00000000E+00  0.00000000E+00  0.00000000E+00
