Cd Mg Na O                              
   1.00000000000000     
     8.4141216974800006    0.0000000000000000    0.0000000000000000
     0.0000000000000000    8.4141216974800006    0.0000000000000000
     0.0000000000000000    0.0000000000000000   23.4141216974799988
   Cd   Mg   Na   O 
     1    31     1    32
Selective dynamics
Direct
  0.7499999495650016  0.4195810312171429  0.3708839205396400   T   T   T
  0.2500000000000000  0.0006876260158277  0.0045354938417450   T   T   T
  0.2500000000000000  0.5012846334108756  0.0046618446319450   T   T   T
  0.7500000000000000  0.0007633439488027  0.0045604507913267   T   T   T
  0.7500000000000000  0.5008697865736035  0.0045260464592036   T   T   T
  0.0000274880420130  0.2507573360501574  0.0045570584073525   T   T   T
  0.0002691817147774  0.7510242539897316  0.0047023810440730   T   T   T
  0.4999725119579871  0.2507573360501574  0.0045570584073525   T   T   T
  0.4997308182852225  0.7510242539897316  0.0047023810440730   T   T   T
  0.0012319738526306  0.0017497407179262  0.0941059144357992   T   T   T
  0.0010801351822608  0.5006598334309150  0.0937636558564546   T   T   T
  0.4987680261473694  0.0017497407179262  0.0941059144357992   T   T   T
  0.4989198648177393  0.5006598334309150  0.0937636558564546   T   T   T
  0.2500000000000000  0.2508480339263725  0.0937738233080389   T   T   T
  0.2500000000000000  0.7517934007561701  0.0944568731398498   T   T   T
  0.7500000000000000  0.2504197040473718  0.0937008790117328   T   T   T
  0.7500000000000000  0.7511281644349089  0.0936107494124196   T   T   T
  0.2500000000000000  0.0062681765588361  0.1865615510150466   T   T   T
  0.2500000000000000  0.4976068381378247  0.1855391071966151   T   T   T
  0.7500000000000000 -0.0003675795760290  0.1834969374757338   T   T   T
  0.7500000000000000  0.5005027532407178  0.1818264610722462   T   T   T
  0.0058393418992954  0.2513406217712401  0.1852260290339119   T   T   T
  0.0014174814062163  0.7520686392677852  0.1845832115934211   T   T   T
  0.4941606581007046  0.2513406217712401  0.1852260290339119   T   T   T
  0.4985825185937838  0.7520686392677852  0.1845832115934211   T   T   T
  0.0035407052034689  0.0012301640726559  0.2744155232977666   T   T   T
  0.0100636438504544  0.5023792202900021  0.2726953437010006   T   T   T
  0.4964592947965311  0.0012301640726559  0.2744155232977666   T   T   T
  0.4899363561495456  0.5023792202900021  0.2726953437010006   T   T   T
  0.2500000000000000  0.7526905276892052  0.2740009575401035   T   T   T
  0.7500000000000000  0.2362197547918569  0.2689735897112848   T   T   T
  0.7500000000000000  0.7575346210097650  0.2727675130083950   T   T   T
  0.2500000000000000  0.2513528904047335  0.2999363478004076   T   T   T
 -0.0001799385738611  0.0007461411597609  0.0023928522764304   T   T   T
  0.0000972376539810  0.5011165664035627  0.0024994264668956   T   T   T
  0.5001799385738611  0.0007461411597609  0.0023928522764304   T   T   T
  0.4999027623460189  0.5011165664035627  0.0024994264668956   T   T   T
  0.2500000000000000  0.2511123137996569  0.0022047672018654   T   T   T
  0.2500000000000000  0.7508945812900960  0.0023606884331073   T   T   T
  0.7500000000000000  0.2506371168021784  0.0022546819451262   T   T   T
  0.7500000000000000  0.7509787856998118  0.0025426263941766   T   T   T
  0.2500000000000000  0.0006411846903277  0.0940771810497158   T   T   T
  0.2500000000000000  0.5021782705684196  0.0942458201003048   T   T   T
  0.7500000000000000  0.0004438911611177  0.0944750420004229   T   T   T
  0.7500000000000000  0.5011175994157061  0.0939829526640576   T   T   T
  0.9990790150127183  0.2513187117504458  0.0940457123186635   T   T   T
  0.9994855754761330  0.7511002637085392  0.0945945288204274   T   T   T
  0.5009209849872817  0.2513187117504458  0.0940457123186635   T   T   T
  0.5005144245238670  0.7511002637085392  0.0945945288204274   T   T   T
 -0.0002478049301448  0.0030393870359209  0.1848129474870362   T   T   T
  0.9977972857346082  0.5001999863909204  0.1849048228464438   T   T   T
  0.5002478049301448  0.0030393870359209  0.1848129474870362   T   T   T
  0.5022027142653918  0.5001999863909204  0.1849048228464438   T   T   T
  0.2500000000000000  0.2522481019217545  0.1814186564572327   T   T   T
  0.2500000000000000  0.7512721672212794  0.1836215232785686   T   T   T
  0.7500000000000000  0.2525535447528846  0.1833160204791044   T   T   T
  0.7500000000000000  0.7483078631218204  0.1839401518511138   T   T   T
  0.2499999495650016  0.9884651510290386  0.2774435624022412   T   T   T
  0.2499999495650016  0.5158351868106932  0.2767639013117446   T   T   T
  0.7499999495650016  0.9971553313612651  0.2745282984186599   T   T   T
  0.7499999495650016  0.5082062047713359  0.2821589117676218   T   T   T
  0.9819945155177029  0.2549901213295711  0.2804098729625760   T   T   T
  0.9958853492241587  0.7506635121311828  0.2757075202608341   T   T   T
  0.5180054844822971  0.2549901213295711  0.2804098729625760   T   T   T
  0.5041146507758413  0.7506635121311828  0.2757075202608341   T   T   T
 
  0.00000000E+00  0.00000000E+00  0.00000000E+00
  0.00000000E+00  0.00000000E+00  0.00000000E+00
  0.00000000E+00  0.00000000E+00  0.00000000E+00
  0.00000000E+00  0.00000000E+00  0.00000000E+00
  0.00000000E+00  0.00000000E+00  0.00000000E+00
  0.00000000E+00  0.00000000E+00  0.00000000E+00
  0.00000000E+00  0.00000000E+00  0.00000000E+00
  0.00000000E+00  0.00000000E+00  0.00000000E+00
  0.00000000E+00  0.00000000E+00  0.00000000E+00
  0.00000000E+00  0.00000000E+00  0.00000000E+00
  0.00000000E+00  0.00000000E+00  0.00000000E+00
  0.00000000E+00  0.00000000E+00  0.00000000E+00
  0.00000000E+00  0.00000000E+00  0.00000000E+00
  0.00000000E+00  0.00000000E+00  0.00000000E+00
  0.00000000E+00  0.00000000E+00  0.00000000E+00
  0.00000000E+00  0.00000000E+00  0.00000000E+00
  0.00000000E+00  0.00000000E+00  0.00000000E+00
  0.00000000E+00  0.00000000E+00  0.00000000E+00
  0.00000000E+00  0.00000000E+00  0.00000000E+00
  0.00000000E+00  0.00000000E+00  0.00000000E+00
  0.00000000E+00  0.00000000E+00  0.00000000E+00
  0.00000000E+00  0.00000000E+00  0.00000000E+00
  0.00000000E+00  0.00000000E+00  0.00000000E+00
  0.00000000E+00  0.00000000E+00  0.00000000E+00
  0.00000000E+00  0.00000000E+00  0.00000000E+00
  0.00000000E+00  0.00000000E+00  0.00000000E+00
  0.00000000E+00  0.00000000E+00  0.00000000E+00
  0.00000000E+00  0.00000000E+00  0.00000000E+00
  0.00000000E+00  0.00000000E+00  0.00000000E+00
  0.00000000E+00  0.00000000E+00  0.00000000E+00
  0.00000000E+00  0.00000000E+00  0.00000000E+00
  0.00000000E+00  0.00000000E+00  0.00000000E+00
  0.00000000E+00  0.00000000E+00  0.00000000E+00
  0.00000000E+00  0.00000000E+00  0.00000000E+00
  0.00000000E+00  0.00000000E+00  0.00000000E+00
  0.00000000E+00  0.00000000E+00  0.00000000E+00
  0.00000000E+00  0.00000000E+00  0.00000000E+00
  0.00000000E+00  0.00000000E+00  0.00000000E+00
  0.00000000E+00  0.00000000E+00  0.00000000E+00
  0.00000000E+00  0.00000000E+00  0.00000000E+00
  0.00000000E+00  0.00000000E+00  0.00000000E+00
  0.00000000E+00  0.00000000E+00  0.00000000E+00
  0.00000000E+00  0.00000000E+00  0.00000000E+00
  0.00000000E+00  0.00000000E+00  0.00000000E+00
  0.00000000E+00  0.00000000E+00  0.00000000E+00
  0.00000000E+00  0.00000000E+00  0.00000000E+00
  0.00000000E+00  0.00000000E+00  0.00000000E+00
  0.00000000E+00  0.00000000E+00  0.00000000E+00
  0.00000000E+00  0.00000000E+00  0.00000000E+00
  0.00000000E+00  0.00000000E+00  0.00000000E+00
  0.00000000E+00  0.00000000E+00  0.00000000E+00
  0.00000000E+00  0.00000000E+00  0.00000000E+00
  0.00000000E+00  0.00000000E+00  0.00000000E+00
  0.00000000E+00  0.00000000E+00  0.00000000E+00
  0.00000000E+00  0.00000000E+00  0.00000000E+00
  0.00000000E+00  0.00000000E+00  0.00000000E+00
  0.00000000E+00  0.00000000E+00  0.00000000E+00
  0.00000000E+00  0.00000000E+00  0.00000000E+00
  0.00000000E+00  0.00000000E+00  0.00000000E+00
  0.00000000E+00  0.00000000E+00  0.00000000E+00
  0.00000000E+00  0.00000000E+00  0.00000000E+00
  0.00000000E+00  0.00000000E+00  0.00000000E+00
  0.00000000E+00  0.00000000E+00  0.00000000E+00
  0.00000000E+00  0.00000000E+00  0.00000000E+00
  0.00000000E+00  0.00000000E+00  0.00000000E+00
