Mo Mg Na O                              
   1.00000000000000     
     8.4141216974800006    0.0000000000000000    0.0000000000000000
     0.0000000000000000    8.4141216974800006    0.0000000000000000
     0.0000000000000000    0.0000000000000000   23.4141216974799988
   Mo   Mg   Na   O 
     1    31     1    32
Selective dynamics
Direct
  0.7499999495650016  0.4776634610270528  0.3747873380471925   T   T   T
  0.2500000000000000  0.0001625366185996  0.0044090309130105   T   T   T
  0.2500000000000000  0.5005607282650363  0.0040741453980531   T   T   T
  0.7500000000000000  0.0003306363516950  0.0041270314699658   T   T   T
  0.7500000000000000  0.5001832996586230  0.0036855908421771   T   T   T
 -0.0000074570523368  0.2501476538042146  0.0042123429668151   T   T   T
  0.0002514667331927  0.7505087992697503  0.0042933751903135   T   T   T
  0.5000074570523367  0.2501476538042146  0.0042123429668151   T   T   T
  0.4997485332668073  0.7505087992697503  0.0042933751903135   T   T   T
  0.0012495371440318  0.0010717017800332  0.0940123076419909   T   T   T
  0.0014283440759571  0.4997007345013211  0.0932037438695635   T   T   T
  0.4987504628559681  0.0010717017800332  0.0940123076419909   T   T   T
  0.4985716559240428  0.4997007345013211  0.0932037438695635   T   T   T
  0.2500000000000000  0.2499305365323180  0.0937998204204652   T   T   T
  0.2500000000000000  0.7509473961428096  0.0942187423429269   T   T   T
  0.7500000000000000  0.2493339642843717  0.0934200089613785   T   T   T
  0.7500000000000000  0.7508842024619249  0.0931119930728906   T   T   T
  0.2500000000000000  0.0052247723026034  0.1861438824916764   T   T   T
  0.2500000000000000  0.4963534510540608  0.1851621659933641   T   T   T
  0.7500000000000000  0.0003993618814766  0.1836761750351943   T   T   T
  0.7500000000000000  0.4989421629190757  0.1793344832116986   T   T   T
  0.0049520442849202  0.2504070418597111  0.1860672948675219   T   T   T
  0.0011313464173464  0.7504843283596586  0.1846153370296821   T   T   T
  0.4950479557150869  0.2504070418597111  0.1860672948675219   T   T   T
  0.4988686535826536  0.7504843283596586  0.1846153370296821   T   T   T
  0.0040216727587314  0.0012827987049594  0.2739797993659540   T   T   T
  0.0135870372072292  0.4990749821915553  0.2732437038644956   T   T   T
  0.4959783272412686  0.0012827987049594  0.2739797993659540   T   T   T
  0.4864129627927708  0.4990749821915553  0.2732437038644956   T   T   T
  0.2500000000000000  0.7514108521630861  0.2738270805771212   T   T   T
  0.7500000000000000  0.2351364426558152  0.2721341578710449   T   T   T
  0.7500000000000000  0.7600231436227413  0.2729941029667350   T   T   T
  0.2500000000000000  0.2490445771401012  0.2983956141469363   T   T   T
  0.9998081065992955  0.0001583805318890  0.0022128124867690   T   T   T
  0.0001726423559584  0.5004994962031662  0.0018884931807009   T   T   T
  0.5001918934007045  0.0001583805318890  0.0022128124867690   T   T   T
  0.4998273576440416  0.5004994962031662  0.0018884931807009   T   T   T
  0.2500000000000000  0.2503841394143261  0.0020075141209306   T   T   T
  0.2500000000000000  0.7503148925626386  0.0020708978463459   T   T   T
  0.7500000000000000  0.2499175028195780  0.0017494765723810   T   T   T
  0.7500000000000000  0.7505852859625970  0.0019734435243670   T   T   T
  0.2500000000000000  0.9995805418867543  0.0938898705656745   T   T   T
  0.2500000000000000  0.5013210751062323  0.0940400113891078   T   T   T
  0.7500000000000000  0.9998359222715962  0.0944233887547387   T   T   T
  0.7500000000000000  0.5004266947645831  0.0929509812328404   T   T   T
  0.9986277387180496  0.2508541757716504  0.0938843314131828   T   T   T
  0.9991719391046473  0.7498594614900137  0.0943225153052261   T   T   T
  0.5013722612819504  0.2508541757716504  0.0938843314131828   T   T   T
  0.5008280608953527  0.7498594614900137  0.0943225153052261   T   T   T
  0.9993687739304676  0.0009743148009966  0.1845710611988087   T   T   T
  0.9959273235028506  0.4998689595144177  0.1852443506130098   T   T   T
  0.5006312260695324  0.0009743148009966  0.1845710611988087   T   T   T
  0.5040726764971494  0.4998689595144177  0.1852443506130098   T   T   T
  0.2500000000000000  0.2515691958035962  0.1811191429854984   T   T   T
  0.2500000000000000  0.7494225285908078  0.1834765948399297   T   T   T
  0.7500000000000000  0.2536210796495770  0.1841214850870804   T   T   T
  0.7500000000000000  0.7456045905240434  0.1843812927962646   T   T   T
  0.2499999495650016  0.9865321653048232  0.2771880045692876   T   T   T
  0.2499999495650016  0.5151193338317248  0.2767104223777666   T   T   T
  0.7499999495650016  0.9967611384420095  0.2749830464487400   T   T   T
  0.7499999495650016  0.5079177871702828  0.2921888210720347   T   T   T
  0.9832327235230424  0.2539741389322177  0.2782218709772856   T   T   T
  0.9948890945372736  0.7484103326941555  0.2757292477207667   T   T   T
  0.5167672764769576  0.2539741389322177  0.2782218709772856   T   T   T
  0.5051109054627264  0.7484103326941555  0.2757292477207667   T   T   T
 
  0.00000000E+00  0.00000000E+00  0.00000000E+00
  0.00000000E+00  0.00000000E+00  0.00000000E+00
  0.00000000E+00  0.00000000E+00  0.00000000E+00
  0.00000000E+00  0.00000000E+00  0.00000000E+00
  0.00000000E+00  0.00000000E+00  0.00000000E+00
  0.00000000E+00  0.00000000E+00  0.00000000E+00
  0.00000000E+00  0.00000000E+00  0.00000000E+00
  0.00000000E+00  0.00000000E+00  0.00000000E+00
  0.00000000E+00  0.00000000E+00  0.00000000E+00
  0.00000000E+00  0.00000000E+00  0.00000000E+00
  0.00000000E+00  0.00000000E+00  0.00000000E+00
  0.00000000E+00  0.00000000E+00  0.00000000E+00
  0.00000000E+00  0.00000000E+00  0.00000000E+00
  0.00000000E+00  0.00000000E+00  0.00000000E+00
  0.00000000E+00  0.00000000E+00  0.00000000E+00
  0.00000000E+00  0.00000000E+00  0.00000000E+00
  0.00000000E+00  0.00000000E+00  0.00000000E+00
  0.00000000E+00  0.00000000E+00  0.00000000E+00
  0.00000000E+00  0.00000000E+00  0.00000000E+00
  0.00000000E+00  0.00000000E+00  0.00000000E+00
  0.00000000E+00  0.00000000E+00  0.00000000E+00
  0.00000000E+00  0.00000000E+00  0.00000000E+00
  0.00000000E+00  0.00000000E+00  0.00000000E+00
  0.00000000E+00  0.00000000E+00  0.00000000E+00
  0.00000000E+00  0.00000000E+00  0.00000000E+00
  0.00000000E+00  0.00000000E+00  0.00000000E+00
  0.00000000E+00  0.00000000E+00  0.00000000E+00
  0.00000000E+00  0.00000000E+00  0.00000000E+00
  0.00000000E+00  0.00000000E+00  0.00000000E+00
  0.00000000E+00  0.00000000E+00  0.00000000E+00
  0.00000000E+00  0.00000000E+00  0.00000000E+00
  0.00000000E+00  0.00000000E+00  0.00000000E+00
  0.00000000E+00  0.00000000E+00  0.00000000E+00
  0.00000000E+00  0.00000000E+00  0.00000000E+00
  0.00000000E+00  0.00000000E+00  0.00000000E+00
  0.00000000E+00  0.00000000E+00  0.00000000E+00
  0.00000000E+00  0.00000000E+00  0.00000000E+00
  0.00000000E+00  0.00000000E+00  0.00000000E+00
  0.00000000E+00  0.00000000E+00  0.00000000E+00
  0.00000000E+00  0.00000000E+00  0.00000000E+00
  0.00000000E+00  0.00000000E+00  0.00000000E+00
  0.00000000E+00  0.00000000E+00  0.00000000E+00
  0.00000000E+00  0.00000000E+00  0.00000000E+00
  0.00000000E+00  0.00000000E+00  0.00000000E+00
  0.00000000E+00  0.00000000E+00  0.00000000E+00
  0.00000000E+00  0.00000000E+00  0.00000000E+00
  0.00000000E+00  0.00000000E+00  0.00000000E+00
  0.00000000E+00  0.00000000E+00  0.00000000E+00
  0.00000000E+00  0.00000000E+00  0.00000000E+00
  0.00000000E+00  0.00000000E+00  0.00000000E+00
  0.00000000E+00  0.00000000E+00  0.00000000E+00
  0.00000000E+00  0.00000000E+00  0.00000000E+00
  0.00000000E+00  0.00000000E+00  0.00000000E+00
  0.00000000E+00  0.00000000E+00  0.00000000E+00
  0.00000000E+00  0.00000000E+00  0.00000000E+00
  0.00000000E+00  0.00000000E+00  0.00000000E+00
  0.00000000E+00  0.00000000E+00  0.00000000E+00
  0.00000000E+00  0.00000000E+00  0.00000000E+00
  0.00000000E+00  0.00000000E+00  0.00000000E+00
  0.00000000E+00  0.00000000E+00  0.00000000E+00
  0.00000000E+00  0.00000000E+00  0.00000000E+00
  0.00000000E+00  0.00000000E+00  0.00000000E+00
  0.00000000E+00  0.00000000E+00  0.00000000E+00
  0.00000000E+00  0.00000000E+00  0.00000000E+00
  0.00000000E+00  0.00000000E+00  0.00000000E+00
