Zn Mg Na O                              
   1.00000000000000     
     8.4141216974800006    0.0000000000000000    0.0000000000000000
     0.0000000000000000    8.4141216974800006    0.0000000000000000
     0.0000000000000000    0.0000000000000000   23.4141216974799988
   Zn   Mg   Na   O 
     1    31     1    32
Selective dynamics
Direct
  0.7499999495650016  0.4581787050075635  0.3650672299753636   T   T   T
  0.2500000000000000  0.0001753572554576  0.0046650557758487   T   T   T
  0.2500000000000000  0.5005378272193213  0.0044709205595356   T   T   T
  0.7500000000000000  0.0003690815496903  0.0044877101865750   T   T   T
  0.7500000000000000  0.5002083427071680  0.0041219469090254   T   T   T
  0.0000697098930838  0.2500874049434100  0.0045147198595616   T   T   T
  0.0003423193589335  0.7505592956830166  0.0045988142474904   T   T   T
  0.4999302901069163  0.2500874049434100  0.0045147198595616   T   T   T
  0.4996576806410664  0.7505592956830166  0.0045988142474904   T   T   T
  0.0011253071489471  0.0011569299038497  0.0942279167921315   T   T   T
  0.0012049009864704  0.4998865245357195  0.0935758200888879   T   T   T
  0.4988746928510528  0.0011569299038497  0.0942279167921315   T   T   T
  0.4987950990135295  0.4998865245357195  0.0935758200888879   T   T   T
  0.2500000000000000  0.2501087708556459  0.0939498175345294   T   T   T
  0.2500000000000000  0.7510610559769881  0.0944324648892664   T   T   T
  0.7500000000000000  0.2496635428847651  0.0937408804418306   T   T   T
  0.7500000000000000  0.7508388595814420  0.0934546711455108   T   T   T
  0.2500000000000000  0.0055620907465690  0.1865711913392169   T   T   T
  0.2500000000000000  0.4968173420631377  0.1853917270850794   T   T   T
  0.7500000000000000  0.0002725385837719  0.1838103881715745   T   T   T
  0.7500000000000000  0.4995198793784288  0.1807026904531284   T   T   T
  0.0053253025286663  0.2506954596418581  0.1859389300574217   T   T   T
  0.0012464954586003  0.7511829939137589  0.1847004522828504   T   T   T
  0.4946746974713336  0.2506954596418581  0.1859389300574217   T   T   T
  0.4987535045413996  0.7511829939137589  0.1847004522828504   T   T   T
  0.0037585962235381  0.0014139601913509  0.2744654040607496   T   T   T
  0.0122525543681594  0.5004620218935697  0.2728683184976787   T   T   T
  0.4962414037764619  0.0014139601913509  0.2744654040607496   T   T   T
  0.4877474456318406  0.5004620218935697  0.2728683184976787   T   T   T
  0.2500000000000000  0.7520931600977786  0.2740912215373687   T   T   T
  0.7500000000000000  0.2360496501150383  0.2711768387681566   T   T   T
  0.7500000000000000  0.7592178442010915  0.2727738016537506   T   T   T
  0.2500000000000000  0.2502472226100825  0.2995124284157442   T   T   T
 -0.0001464174418787  0.0001753572063054  0.0024468323711535   T   T   T
  0.0001231153573185  0.5005265511230013  0.0022489697231921   T   T   T
  0.5001464174418788  0.0001753572063054  0.0024468323711535   T   T   T
  0.4998768846426816  0.5005265511230013  0.0022489697231921   T   T   T
  0.2500000000000000  0.2503616934295671  0.0022849668925183   T   T   T
  0.2500000000000000  0.7503636245027038  0.0023265299858411   T   T   T
  0.7500000000000000  0.2500497932707675  0.0020721526232781   T   T   T
  0.7500000000000000  0.7505146714542894  0.0023026822510056   T   T   T
  0.2500000000000000  0.9998520663657819  0.0941730151096041   T   T   T
  0.2500000000000000  0.5014849227274419  0.0942180338206019   T   T   T
  0.7500000000000000  0.0000284412756598  0.0946032228918000   T   T   T
  0.7500000000000000  0.5005387285820468  0.0935436638898175   T   T   T
  0.9988119048022365  0.2507985983074069  0.0941277652525509   T   T   T
  0.9993462106043721  0.7502503833991407  0.0945544380923293   T   T   T
  0.5011880951977635  0.2507985983074069  0.0941277652525509   T   T   T
  0.5006537893956279  0.7502503833991407  0.0945544380923293   T   T   T
  0.9995529543150024  0.0017610458590158  0.1848818775831151   T   T   T
  0.9969612101273835  0.5000244163844552  0.1851526952129740   T   T   T
  0.5004470456849976  0.0017610458590158  0.1848818775831151   T   T   T
  0.5030387898726165  0.5000244163844552  0.1851526952129740   T   T   T
  0.2500000000000000  0.2517441094032813  0.1814209981780048   T   T   T
  0.2500000000000000  0.7502416379820548  0.1836899568785076   T   T   T
  0.7500000000000000  0.2529328884680894  0.1840411817103494   T   T   T
  0.7500000000000000  0.7470400776749579  0.1842742715349092   T   T   T
  0.2499999495650016  0.9873211839376133  0.2775199609227578   T   T   T
  0.2499999495650016  0.5153486119962977  0.2767947346032089   T   T   T
  0.7499999495650016  0.9971778745099860  0.2749863046961329   T   T   T
  0.7499999495650016  0.5082047387619459  0.2859621828067039   T   T   T
  0.9827778639343780  0.2546217724941683  0.2793834843849067   T   T   T
  0.9952986820846728  0.7493341169347619  0.2759866063392188   T   T   T
  0.5172221360656220  0.2546217724941683  0.2793834843849067   T   T   T
  0.5047013179153272  0.7493341169347619  0.2759866063392188   T   T   T
 
  0.00000000E+00  0.00000000E+00  0.00000000E+00
  0.00000000E+00  0.00000000E+00  0.00000000E+00
  0.00000000E+00  0.00000000E+00  0.00000000E+00
  0.00000000E+00  0.00000000E+00  0.00000000E+00
  0.00000000E+00  0.00000000E+00  0.00000000E+00
  0.00000000E+00  0.00000000E+00  0.00000000E+00
  0.00000000E+00  0.00000000E+00  0.00000000E+00
  0.00000000E+00  0.00000000E+00  0.00000000E+00
  0.00000000E+00  0.00000000E+00  0.00000000E+00
  0.00000000E+00  0.00000000E+00  0.00000000E+00
  0.00000000E+00  0.00000000E+00  0.00000000E+00
  0.00000000E+00  0.00000000E+00  0.00000000E+00
  0.00000000E+00  0.00000000E+00  0.00000000E+00
  0.00000000E+00  0.00000000E+00  0.00000000E+00
  0.00000000E+00  0.00000000E+00  0.00000000E+00
  0.00000000E+00  0.00000000E+00  0.00000000E+00
  0.00000000E+00  0.00000000E+00  0.00000000E+00
  0.00000000E+00  0.00000000E+00  0.00000000E+00
  0.00000000E+00  0.00000000E+00  0.00000000E+00
  0.00000000E+00  0.00000000E+00  0.00000000E+00
  0.00000000E+00  0.00000000E+00  0.00000000E+00
  0.00000000E+00  0.00000000E+00  0.00000000E+00
  0.00000000E+00  0.00000000E+00  0.00000000E+00
  0.00000000E+00  0.00000000E+00  0.00000000E+00
  0.00000000E+00  0.00000000E+00  0.00000000E+00
  0.00000000E+00  0.00000000E+00  0.00000000E+00
  0.00000000E+00  0.00000000E+00  0.00000000E+00
  0.00000000E+00  0.00000000E+00  0.00000000E+00
  0.00000000E+00  0.00000000E+00  0.00000000E+00
  0.00000000E+00  0.00000000E+00  0.00000000E+00
  0.00000000E+00  0.00000000E+00  0.00000000E+00
  0.00000000E+00  0.00000000E+00  0.00000000E+00
  0.00000000E+00  0.00000000E+00  0.00000000E+00
  0.00000000E+00  0.00000000E+00  0.00000000E+00
  0.00000000E+00  0.00000000E+00  0.00000000E+00
  0.00000000E+00  0.00000000E+00  0.00000000E+00
  0.00000000E+00  0.00000000E+00  0.00000000E+00
  0.00000000E+00  0.00000000E+00  0.00000000E+00
  0.00000000E+00  0.00000000E+00  0.00000000E+00
  0.00000000E+00  0.00000000E+00  0.00000000E+00
  0.00000000E+00  0.00000000E+00  0.00000000E+00
  0.00000000E+00  0.00000000E+00  0.00000000E+00
  0.00000000E+00  0.00000000E+00  0.00000000E+00
  0.00000000E+00  0.00000000E+00  0.00000000E+00
  0.00000000E+00  0.00000000E+00  0.00000000E+00
  0.00000000E+00  0.00000000E+00  0.00000000E+00
  0.00000000E+00  0.00000000E+00  0.00000000E+00
  0.00000000E+00  0.00000000E+00  0.00000000E+00
  0.00000000E+00  0.00000000E+00  0.00000000E+00
  0.00000000E+00  0.00000000E+00  0.00000000E+00
  0.00000000E+00  0.00000000E+00  0.00000000E+00
  0.00000000E+00  0.00000000E+00  0.00000000E+00
  0.00000000E+00  0.00000000E+00  0.00000000E+00
  0.00000000E+00  0.00000000E+00  0.00000000E+00
  0.00000000E+00  0.00000000E+00  0.00000000E+00
  0.00000000E+00  0.00000000E+00  0.00000000E+00
  0.00000000E+00  0.00000000E+00  0.00000000E+00
  0.00000000E+00  0.00000000E+00  0.00000000E+00
  0.00000000E+00  0.00000000E+00  0.00000000E+00
  0.00000000E+00  0.00000000E+00  0.00000000E+00
  0.00000000E+00  0.00000000E+00  0.00000000E+00
  0.00000000E+00  0.00000000E+00  0.00000000E+00
  0.00000000E+00  0.00000000E+00  0.00000000E+00
  0.00000000E+00  0.00000000E+00  0.00000000E+00
  0.00000000E+00  0.00000000E+00  0.00000000E+00
