Au Mg Na O                              
   1.00000000000000     
     8.4141216974800006    0.0000000000000000    0.0000000000000000
     0.0000000000000000    8.4141216974800006    0.0000000000000000
     0.0000000000000000    0.0000000000000000   23.4141216974799988
   Au   Mg   Na   O 
     1    31     1    32
Selective dynamics
Direct
  0.7499999495650016  0.4807581212120633  0.3706012809800361   T   T   T
  0.2500000000000000  0.0000648824993023  0.0046431341320134   T   T   T
  0.2500000000000000  0.5005141924780974  0.0040782135448951   T   T   T
  0.7500000000000000  0.0001983187194851  0.0041948428733997   T   T   T
  0.7500000000000000  0.5001375502233255  0.0036000661764434   T   T   T
  0.0001913123534738  0.2498163373092880  0.0043514887761255   T   T   T
  0.0004677885081739  0.7506652054950540  0.0044699133465152   T   T   T
  0.4998086876465264  0.2498163373092880  0.0043514887761255   T   T   T
  0.4995322114918262  0.7506652054950540  0.0044699133465152   T   T   T
  0.0010589424898542  0.0008514237311108  0.0943086801307433   T   T   T
  0.0013514099889384  0.4995769541317249  0.0932529280279037   T   T   T
  0.4989410575101459  0.0008514237311108  0.0943086801307433   T   T   T
  0.4986485900110615  0.4995769541317249  0.0932529280279037   T   T   T
  0.2500000000000000  0.2499060262369888  0.0939607914553935   T   T   T
  0.2500000000000000  0.7506984909512712  0.0944960097783330   T   T   T
  0.7500000000000000  0.2492084707595036  0.0934832776632643   T   T   T
  0.7500000000000000  0.7507006197399416  0.0931937392001710   T   T   T
  0.2500000000000000  0.0048968889862787  0.1864618772799721   T   T   T
  0.2500000000000000  0.4961845654173911  0.1855657929331392   T   T   T
  0.7500000000000000  0.0006093125180546  0.1840990758883955   T   T   T
  0.7500000000000000  0.4986254903816978  0.1796234198810016   T   T   T
  0.0048756457553638  0.2502405832847606  0.1863081660184012   T   T   T
  0.0011713565225363  0.7502965190130019  0.1849161330853940   T   T   T
  0.4951243542446362  0.2502405832847606  0.1863081660184012   T   T   T
  0.4988286434774636  0.7502965190130019  0.1849161330853940   T   T   T
  0.0039556932696705  0.0014138562634299  0.2742299720893034   T   T   T
  0.0126596242505267  0.4990927720494457  0.2737111550243783   T   T   T
  0.4960443067303296  0.0014138562634299  0.2742299720893034   T   T   T
  0.4873403757494734  0.4990927720494457  0.2737111550243783   T   T   T
  0.2500000000000000  0.7513736867775994  0.2742087898522457   T   T   T
  0.7500000000000000  0.2368220170603912  0.2730097991933970   T   T   T
  0.7500000000000000  0.7605391012687901  0.2733883911007752   T   T   T
  0.2500000000000000  0.2489454898432450  0.2984997904229488   T   T   T
  0.9999112552904886  0.0000534447101956  0.0024441107594189   T   T   T
  0.0001044310391992  0.5004324736607315  0.0018674692794620   T   T   T
  0.5000887447095114  0.0000534447101956  0.0024441107594189   T   T   T
  0.4998955689608008  0.5004324736607315  0.0018674692794620   T   T   T
  0.2500000000000000  0.2501863961774805  0.0022021063948787   T   T   T
  0.2500000000000000  0.7503771654046347  0.0023079813820213   T   T   T
  0.7500000000000000  0.2498792343404918  0.0017389409083897   T   T   T
  0.7500000000000000  0.7504423145876372  0.0019822138401066   T   T   T
  0.2500000000000000  0.9994522474243785  0.0942155031781373   T   T   T
  0.2500000000000000  0.5011306312496483  0.0940736118424492   T   T   T
  0.7500000000000000  0.9996619776935094  0.0945404469264877   T   T   T
  0.7500000000000000  0.5002968319107293  0.0929007251149588   T   T   T
  0.9987199845019801  0.2506550536192086  0.0939885247532730   T   T   T
  0.9992245946181659  0.7497525176132450  0.0944955279226817   T   T   T
  0.5012800154980199  0.2506550536192086  0.0939885247532730   T   T   T
  0.5007754053818341  0.7497525176132450  0.0944955279226817   T   T   T
  0.9994219739403521  0.0007072482353421  0.1846956854981473   T   T   T
  0.9963976466295530  0.4998243485870255  0.1852931899148096   T   T   T
  0.5005780260596479  0.0007072482353421  0.1846956854981473   T   T   T
  0.5036023533704470  0.4998243485870255  0.1852931899148096   T   T   T
  0.2500000000000000  0.2513191086546860  0.1812770611739214   T   T   T
  0.2500000000000000  0.7492164339922500  0.1836925209800478   T   T   T
  0.7500000000000000  0.2530903216425182  0.1842146239464812   T   T   T
  0.7500000000000000  0.7459498504822033  0.1845293057710232   T   T   T
  0.2499999495650016  0.9864612346592401  0.2772529367680797   T   T   T
  0.2499999495650016  0.5146517033646827  0.2770254715561929   T   T   T
  0.7499999495650016  0.9973943143496412  0.2753248109389060   T   T   T
  0.7499999495650016  0.5088897331059883  0.2848106796557202   T   T   T
  0.9838206095093635  0.2531757991657250  0.2780393274159693   T   T   T
  0.9955592397141423  0.7491541010771400  0.2760195782551457   T   T   T
  0.5161793904906365  0.2531757991657250  0.2780393274159693   T   T   T
  0.5044407602858577  0.7491541010771400  0.2760195782551457   T   T   T
 
  0.00000000E+00  0.00000000E+00  0.00000000E+00
  0.00000000E+00  0.00000000E+00  0.00000000E+00
  0.00000000E+00  0.00000000E+00  0.00000000E+00
  0.00000000E+00  0.00000000E+00  0.00000000E+00
  0.00000000E+00  0.00000000E+00  0.00000000E+00
  0.00000000E+00  0.00000000E+00  0.00000000E+00
  0.00000000E+00  0.00000000E+00  0.00000000E+00
  0.00000000E+00  0.00000000E+00  0.00000000E+00
  0.00000000E+00  0.00000000E+00  0.00000000E+00
  0.00000000E+00  0.00000000E+00  0.00000000E+00
  0.00000000E+00  0.00000000E+00  0.00000000E+00
  0.00000000E+00  0.00000000E+00  0.00000000E+00
  0.00000000E+00  0.00000000E+00  0.00000000E+00
  0.00000000E+00  0.00000000E+00  0.00000000E+00
  0.00000000E+00  0.00000000E+00  0.00000000E+00
  0.00000000E+00  0.00000000E+00  0.00000000E+00
  0.00000000E+00  0.00000000E+00  0.00000000E+00
  0.00000000E+00  0.00000000E+00  0.00000000E+00
  0.00000000E+00  0.00000000E+00  0.00000000E+00
  0.00000000E+00  0.00000000E+00  0.00000000E+00
  0.00000000E+00  0.00000000E+00  0.00000000E+00
  0.00000000E+00  0.00000000E+00  0.00000000E+00
  0.00000000E+00  0.00000000E+00  0.00000000E+00
  0.00000000E+00  0.00000000E+00  0.00000000E+00
  0.00000000E+00  0.00000000E+00  0.00000000E+00
  0.00000000E+00  0.00000000E+00  0.00000000E+00
  0.00000000E+00  0.00000000E+00  0.00000000E+00
  0.00000000E+00  0.00000000E+00  0.00000000E+00
  0.00000000E+00  0.00000000E+00  0.00000000E+00
  0.00000000E+00  0.00000000E+00  0.00000000E+00
  0.00000000E+00  0.00000000E+00  0.00000000E+00
  0.00000000E+00  0.00000000E+00  0.00000000E+00
  0.00000000E+00  0.00000000E+00  0.00000000E+00
  0.00000000E+00  0.00000000E+00  0.00000000E+00
  0.00000000E+00  0.00000000E+00  0.00000000E+00
  0.00000000E+00  0.00000000E+00  0.00000000E+00
  0.00000000E+00  0.00000000E+00  0.00000000E+00
  0.00000000E+00  0.00000000E+00  0.00000000E+00
  0.00000000E+00  0.00000000E+00  0.00000000E+00
  0.00000000E+00  0.00000000E+00  0.00000000E+00
  0.00000000E+00  0.00000000E+00  0.00000000E+00
  0.00000000E+00  0.00000000E+00  0.00000000E+00
  0.00000000E+00  0.00000000E+00  0.00000000E+00
  0.00000000E+00  0.00000000E+00  0.00000000E+00
  0.00000000E+00  0.00000000E+00  0.00000000E+00
  0.00000000E+00  0.00000000E+00  0.00000000E+00
  0.00000000E+00  0.00000000E+00  0.00000000E+00
  0.00000000E+00  0.00000000E+00  0.00000000E+00
  0.00000000E+00  0.00000000E+00  0.00000000E+00
  0.00000000E+00  0.00000000E+00  0.00000000E+00
  0.00000000E+00  0.00000000E+00  0.00000000E+00
  0.00000000E+00  0.00000000E+00  0.00000000E+00
  0.00000000E+00  0.00000000E+00  0.00000000E+00
  0.00000000E+00  0.00000000E+00  0.00000000E+00
  0.00000000E+00  0.00000000E+00  0.00000000E+00
  0.00000000E+00  0.00000000E+00  0.00000000E+00
  0.00000000E+00  0.00000000E+00  0.00000000E+00
  0.00000000E+00  0.00000000E+00  0.00000000E+00
  0.00000000E+00  0.00000000E+00  0.00000000E+00
  0.00000000E+00  0.00000000E+00  0.00000000E+00
  0.00000000E+00  0.00000000E+00  0.00000000E+00
  0.00000000E+00  0.00000000E+00  0.00000000E+00
  0.00000000E+00  0.00000000E+00  0.00000000E+00
  0.00000000E+00  0.00000000E+00  0.00000000E+00
  0.00000000E+00  0.00000000E+00  0.00000000E+00
