Mg Mn Na O                              
   1.00000000000000     
     8.4141216974800006    0.0000000000000000    0.0000000000000000
     0.0000000000000000    8.4141216974800006    0.0000000000000000
     0.0000000000000000    0.0000000000000000   23.4141216974799988
   Mg   Mn   Na   O 
    31     1     1    32
Selective dynamics
Direct
  0.2500000000000000  0.0004767662556878  0.0044751399864646   T   T   T
  0.2500000000000000  0.5008837414297505  0.0042205199108128   T   T   T
  0.7500000000000000  0.0005395607707496  0.0042698594427236   T   T   T
  0.7500000000000000  0.5003940713772875  0.0039157670565715   T   T   T
 -0.0000219839250337  0.2505420842180510  0.0041712085451669   T   T   T
  0.0002677335251299  0.7507113283985325  0.0043242485897054   T   T   T
  0.5000219839250338  0.2505420842180510  0.0041712085451669   T   T   T
  0.4997322664748702  0.7507113283985325  0.0043242485897054   T   T   T
  0.0011862609269021  0.0016635337695222  0.0939708993613526   T   T   T
  0.0009869462535316  0.5004028906465365  0.0934299387625390   T   T   T
  0.4988137390730980  0.0016635337695222  0.0939708993613526   T   T   T
  0.4990130537464683  0.5004028906465365  0.0934299387625390   T   T   T
  0.2500000000000000  0.2507966616354289  0.0936831515579628   T   T   T
  0.2500000000000000  0.7514221725913535  0.0942536617526251   T   T   T
  0.7500000000000000  0.2502366209945304  0.0934336143006020   T   T   T
  0.7500000000000000  0.7507481156202717  0.0932129046929659   T   T   T
  0.2500000000000000  0.0065675346643638  0.1865911230475747   T   T   T
  0.2500000000000000  0.4975728492563061  0.1853667547396729   T   T   T
  0.7500000000000000 -0.0012104765977465  0.1832238383089563   T   T   T
  0.7500000000000000  0.5004519580635212  0.1811805208904012   T   T   T
  0.0060546461443544  0.2515078911230980  0.1853792973736112   T   T   T
  0.0014389039512671  0.7519531460294562  0.1845177008743590   T   T   T
  0.4939453538556456  0.2515078911230980  0.1853792973736112   T   T   T
  0.4985610960487329  0.7519531460294562  0.1845177008743590   T   T   T
  0.0037150852983977  0.0011058970406685  0.2747551882249526   T   T   T
  0.0118774914044356  0.5025090174085631  0.2728595235835685   T   T   T
  0.4962849147016023  0.0011058970406685  0.2747551882249526   T   T   T
  0.4881225085955643  0.5025090174085631  0.2728595235835685   T   T   T
  0.2500000000000000  0.7530942638562379  0.2739601117069365   T   T   T
  0.7500000000000000  0.2319175673645166  0.2686118492554739   T   T   T
  0.7500000000000000  0.7578334140477885  0.2728550503926326   T   T   T
  0.7499999495650016  0.4280039977801114  0.3634574484507589   T   T   T
  0.2500000000000000  0.2519917562421737  0.3022733425141860   T   T   T
 -0.0001720933305579  0.0004716556741916  0.0022306625320330   T   T   T
 -0.0000247916621041  0.5008194667422489  0.0019651459784411   T   T   T
  0.5001720933305578  0.0004716556741916  0.0022306625320330   T   T   T
  0.5000247916621043  0.5008194667422489  0.0019651459784411   T   T   T
  0.2500000000000000  0.2506846599211429  0.0020170607480630   T   T   T
  0.2500000000000000  0.7506688123123676  0.0021071621179885   T   T   T
  0.7500000000000000  0.2503384278713073  0.0017948616174744   T   T   T
  0.7500000000000000  0.7506091073863593  0.0020222021847584   T   T   T
  0.2500000000000000  0.0004323840841205  0.0940132377714935   T   T   T
  0.2500000000000000  0.5018386188741101  0.0940411537129202   T   T   T
  0.7500000000000000  0.0002909652054759  0.0943229358996655   T   T   T
  0.7500000000000000  0.5007952147721021  0.0934276570420261   T   T   T
  0.9989162370108950  0.2512528556324600  0.0938533694532352   T   T   T
  0.9993978700351805  0.7508025450503637  0.0943892124403870   T   T   T
  0.5010837629891050  0.2512528556324600  0.0938533694532352   T   T   T
  0.5006021299648195  0.7508025450503637  0.0943892124403870   T   T   T
  0.9996320101116004  0.0032196399517325  0.1849528817358767   T   T   T
  0.9971169576281136  0.5001270326711624  0.1850494976163987   T   T   T
  0.5003679898883996  0.0032196399517325  0.1849528817358767   T   T   T
  0.5028830423718864  0.5001270326711624  0.1850494976163987   T   T   T
  0.2500000000000000  0.2525511618340378  0.1813646722802268   T   T   T
  0.2500000000000000  0.7510554934316092  0.1835146588638732   T   T   T
  0.7500000000000000  0.2529891761216682  0.1833488635060243   T   T   T
  0.7500000000000000  0.7475137448686573  0.1838690944504599   T   T   T
  0.2499999495650016  0.9891577925037224  0.2775189890652489   T   T   T
  0.2499999495650016  0.5159812437369449  0.2766424127551282   T   T   T
  0.7499999495650016  0.9958477073883807  0.2742735050291710   T   T   T
  0.7499999495650016  0.5092747156497489  0.2862519265524178   T   T   T
  0.9800050267152204  0.2567510315250275  0.2812200783222999   T   T   T
  0.9958045828498511  0.7502850834643434  0.2754659931479281   T   T   T
  0.5199949732847796  0.2567510315250275  0.2812200783222999   T   T   T
  0.5041954171501489  0.7502850834643434  0.2754659931479281   T   T   T
 
  0.00000000E+00  0.00000000E+00  0.00000000E+00
  0.00000000E+00  0.00000000E+00  0.00000000E+00
  0.00000000E+00  0.00000000E+00  0.00000000E+00
  0.00000000E+00  0.00000000E+00  0.00000000E+00
  0.00000000E+00  0.00000000E+00  0.00000000E+00
  0.00000000E+00  0.00000000E+00  0.00000000E+00
  0.00000000E+00  0.00000000E+00  0.00000000E+00
  0.00000000E+00  0.00000000E+00  0.00000000E+00
  0.00000000E+00  0.00000000E+00  0.00000000E+00
  0.00000000E+00  0.00000000E+00  0.00000000E+00
  0.00000000E+00  0.00000000E+00  0.00000000E+00
  0.00000000E+00  0.00000000E+00  0.00000000E+00
  0.00000000E+00  0.00000000E+00  0.00000000E+00
  0.00000000E+00  0.00000000E+00  0.00000000E+00
  0.00000000E+00  0.00000000E+00  0.00000000E+00
  0.00000000E+00  0.00000000E+00  0.00000000E+00
  0.00000000E+00  0.00000000E+00  0.00000000E+00
  0.00000000E+00  0.00000000E+00  0.00000000E+00
  0.00000000E+00  0.00000000E+00  0.00000000E+00
  0.00000000E+00  0.00000000E+00  0.00000000E+00
  0.00000000E+00  0.00000000E+00  0.00000000E+00
  0.00000000E+00  0.00000000E+00  0.00000000E+00
  0.00000000E+00  0.00000000E+00  0.00000000E+00
  0.00000000E+00  0.00000000E+00  0.00000000E+00
  0.00000000E+00  0.00000000E+00  0.00000000E+00
  0.00000000E+00  0.00000000E+00  0.00000000E+00
  0.00000000E+00  0.00000000E+00  0.00000000E+00
  0.00000000E+00  0.00000000E+00  0.00000000E+00
  0.00000000E+00  0.00000000E+00  0.00000000E+00
  0.00000000E+00  0.00000000E+00  0.00000000E+00
  0.00000000E+00  0.00000000E+00  0.00000000E+00
  0.00000000E+00  0.00000000E+00  0.00000000E+00
  0.00000000E+00  0.00000000E+00  0.00000000E+00
  0.00000000E+00  0.00000000E+00  0.00000000E+00
  0.00000000E+00  0.00000000E+00  0.00000000E+00
  0.00000000E+00  0.00000000E+00  0.00000000E+00
  0.00000000E+00  0.00000000E+00  0.00000000E+00
  0.00000000E+00  0.00000000E+00  0.00000000E+00
  0.00000000E+00  0.00000000E+00  0.00000000E+00
  0.00000000E+00  0.00000000E+00  0.00000000E+00
  0.00000000E+00  0.00000000E+00  0.00000000E+00
  0.00000000E+00  0.00000000E+00  0.00000000E+00
  0.00000000E+00  0.00000000E+00  0.00000000E+00
  0.00000000E+00  0.00000000E+00  0.00000000E+00
  0.00000000E+00  0.00000000E+00  0.00000000E+00
  0.00000000E+00  0.00000000E+00  0.00000000E+00
  0.00000000E+00  0.00000000E+00  0.00000000E+00
  0.00000000E+00  0.00000000E+00  0.00000000E+00
  0.00000000E+00  0.00000000E+00  0.00000000E+00
  0.00000000E+00  0.00000000E+00  0.00000000E+00
  0.00000000E+00  0.00000000E+00  0.00000000E+00
  0.00000000E+00  0.00000000E+00  0.00000000E+00
  0.00000000E+00  0.00000000E+00  0.00000000E+00
  0.00000000E+00  0.00000000E+00  0.00000000E+00
  0.00000000E+00  0.00000000E+00  0.00000000E+00
  0.00000000E+00  0.00000000E+00  0.00000000E+00
  0.00000000E+00  0.00000000E+00  0.00000000E+00
  0.00000000E+00  0.00000000E+00  0.00000000E+00
  0.00000000E+00  0.00000000E+00  0.00000000E+00
  0.00000000E+00  0.00000000E+00  0.00000000E+00
  0.00000000E+00  0.00000000E+00  0.00000000E+00
  0.00000000E+00  0.00000000E+00  0.00000000E+00
  0.00000000E+00  0.00000000E+00  0.00000000E+00
  0.00000000E+00  0.00000000E+00  0.00000000E+00
  0.00000000E+00  0.00000000E+00  0.00000000E+00
