Ag Mg Na O                              
   1.00000000000000     
     8.4141216974800006    0.0000000000000000    0.0000000000000000
     0.0000000000000000    8.4141216974800006    0.0000000000000000
     0.0000000000000000    0.0000000000000000   23.4141216974799988
   Ag   Mg   Na   O 
     1    31     1    32
Selective dynamics
Direct
  0.7499999495650016  0.4197852171762487  0.3660258972265563   T   T   T
  0.2500000000000000  0.0009667387115098  0.0052835110056649   T   T   T
  0.2500000000000000  0.5014725600993518  0.0050977047137639   T   T   T
  0.7500000000000000  0.0009966412396939  0.0050539341227262   T   T   T
  0.7500000000000000  0.5010105147257509  0.0047995412662365   T   T   T
  0.0000772716298110  0.2509846571526306  0.0050417519775670   T   T   T
  0.0003396296437154  0.7512899639825864  0.0052006845939745   T   T   T
  0.4999227283701890  0.2509846571526306  0.0050417519775670   T   T   T
  0.4996603703562846  0.7512899639825864  0.0052006845939745   T   T   T
  0.0011206588793288  0.0017986153860327  0.0947454004657520   T   T   T
  0.0008967437119980  0.5007402830609100  0.0942959655703524   T   T   T
  0.4988793411206713  0.0017986153860327  0.0947454004657520   T   T   T
  0.4991032562880020  0.5007402830609100  0.0942959655703524   T   T   T
  0.2500000000000000  0.2510813963730794  0.0945246304308108   T   T   T
  0.2500000000000000  0.7516441630102142  0.0951034381202251   T   T   T
  0.7500000000000000  0.2506827342663263  0.0942215687911952   T   T   T
  0.7500000000000000  0.7509245240298342  0.0940967806714962   T   T   T
  0.2500000000000000  0.0059929344494675  0.1872805367188096   T   T   T
  0.2500000000000000  0.4975257086535699  0.1862476389600143   T   T   T
  0.7500000000000000  0.9993458034345779  0.1841507291002334   T   T   T
  0.7500000000000000  0.5003455621665266  0.1828216768513831   T   T   T
  0.0054648361687653  0.2513368966068147  0.1859210252126184   T   T   T
  0.0013498603353534  0.7517827920301112  0.1853044950408507   T   T   T
  0.4945351638312346  0.2513368966068147  0.1859210252126184   T   T   T
  0.4986501396646466  0.7517827920301112  0.1853044950408507   T   T   T
  0.0033799047210896  0.0010899501260735  0.2752113556915085   T   T   T
  0.0096573308503421  0.5023107684931947  0.2735264660587239   T   T   T
  0.4966200952789104  0.0010899501260735  0.2752113556915085   T   T   T
  0.4903426691496580  0.5023107684931947  0.2735264660587239   T   T   T
  0.2500000000000000  0.7525555304089102  0.2747453899202943   T   T   T
  0.7500000000000000  0.2355873870498263  0.2699356277495756   T   T   T
  0.7500000000000000  0.7567203261812865  0.2736846918214366   T   T   T
  0.2500000000000000  0.2513521304495779  0.2988860698861211   T   T   T
  0.9998896868348266  0.0009908976721551  0.0030526843524776   T   T   T
 -0.0000052285101294  0.5013141982132454  0.0028446189776726   T   T   T
  0.5001103131651734  0.0009908976721551  0.0030526843524776   T   T   T
  0.5000052285101294  0.5013141982132454  0.0028446189776726   T   T   T
  0.2500000000000000  0.2512056926295548  0.0028161907639646   T   T   T
  0.2500000000000000  0.7512275216842685  0.0029677644974425   T   T   T
  0.7500000000000000  0.2508776230305436  0.0026087819799502   T   T   T
  0.7500000000000000  0.7511212521663840  0.0028533135949470   T   T   T
  0.2500000000000000  0.0006763890868505  0.0948584922769583   T   T   T
  0.2500000000000000  0.5020455805199929  0.0948469574170821   T   T   T
  0.7500000000000000  0.0005584091211633  0.0950391474180189   T   T   T
  0.7500000000000000  0.5010962547641187  0.0944487240582691   T   T   T
  0.9990537967070204  0.2514181394615010  0.0946542080013367   T   T   T
  0.9995276442443147  0.7511013595052767  0.0951905523555633   T   T   T
  0.5009462032929796  0.2514181394615010  0.0946542080013367   T   T   T
  0.5004723557556853  0.7511013595052767  0.0951905523555633   T   T   T
  0.9997114321711594  0.0028414320839001  0.1856253000662285   T   T   T
  0.9979996009498004  0.5001215486729862  0.1856141393953693   T   T   T
  0.5002885678288406  0.0028414320839001  0.1856253000662285   T   T   T
  0.5020003990501996  0.5001215486729862  0.1856141393953693   T   T   T
  0.2500000000000000  0.2521039010820980  0.1823364201401892   T   T   T
  0.2500000000000000  0.7510927548468492  0.1843937637608271   T   T   T
  0.7500000000000000  0.2522056097759100  0.1840789533108632   T   T   T
  0.7500000000000000  0.7484272415899441  0.1845825718235471   T   T   T
  0.2499999495650016  0.9881578697952855  0.2783631553401296   T   T   T
  0.2499999495650016  0.5159291743364099  0.2776568584406315   T   T   T
  0.7499999495650016  0.9965132269598677  0.2755398158226507   T   T   T
  0.7499999495650016  0.5098813847830028  0.2808042614762132   T   T   T
  0.9819639539449945  0.2545743657572355  0.2813816942044188   T   T   T
  0.9961046951662041  0.7507492524963267  0.2767517405029740   T   T   T
  0.5180360460550055  0.2545743657572355  0.2813816942044188   T   T   T
  0.5038953048337959  0.7507492524963267  0.2767517405029740   T   T   T
 
  0.00000000E+00  0.00000000E+00  0.00000000E+00
  0.00000000E+00  0.00000000E+00  0.00000000E+00
  0.00000000E+00  0.00000000E+00  0.00000000E+00
  0.00000000E+00  0.00000000E+00  0.00000000E+00
  0.00000000E+00  0.00000000E+00  0.00000000E+00
  0.00000000E+00  0.00000000E+00  0.00000000E+00
  0.00000000E+00  0.00000000E+00  0.00000000E+00
  0.00000000E+00  0.00000000E+00  0.00000000E+00
  0.00000000E+00  0.00000000E+00  0.00000000E+00
  0.00000000E+00  0.00000000E+00  0.00000000E+00
  0.00000000E+00  0.00000000E+00  0.00000000E+00
  0.00000000E+00  0.00000000E+00  0.00000000E+00
  0.00000000E+00  0.00000000E+00  0.00000000E+00
  0.00000000E+00  0.00000000E+00  0.00000000E+00
  0.00000000E+00  0.00000000E+00  0.00000000E+00
  0.00000000E+00  0.00000000E+00  0.00000000E+00
  0.00000000E+00  0.00000000E+00  0.00000000E+00
  0.00000000E+00  0.00000000E+00  0.00000000E+00
  0.00000000E+00  0.00000000E+00  0.00000000E+00
  0.00000000E+00  0.00000000E+00  0.00000000E+00
  0.00000000E+00  0.00000000E+00  0.00000000E+00
  0.00000000E+00  0.00000000E+00  0.00000000E+00
  0.00000000E+00  0.00000000E+00  0.00000000E+00
  0.00000000E+00  0.00000000E+00  0.00000000E+00
  0.00000000E+00  0.00000000E+00  0.00000000E+00
  0.00000000E+00  0.00000000E+00  0.00000000E+00
  0.00000000E+00  0.00000000E+00  0.00000000E+00
  0.00000000E+00  0.00000000E+00  0.00000000E+00
  0.00000000E+00  0.00000000E+00  0.00000000E+00
  0.00000000E+00  0.00000000E+00  0.00000000E+00
  0.00000000E+00  0.00000000E+00  0.00000000E+00
  0.00000000E+00  0.00000000E+00  0.00000000E+00
  0.00000000E+00  0.00000000E+00  0.00000000E+00
  0.00000000E+00  0.00000000E+00  0.00000000E+00
  0.00000000E+00  0.00000000E+00  0.00000000E+00
  0.00000000E+00  0.00000000E+00  0.00000000E+00
  0.00000000E+00  0.00000000E+00  0.00000000E+00
  0.00000000E+00  0.00000000E+00  0.00000000E+00
  0.00000000E+00  0.00000000E+00  0.00000000E+00
  0.00000000E+00  0.00000000E+00  0.00000000E+00
  0.00000000E+00  0.00000000E+00  0.00000000E+00
  0.00000000E+00  0.00000000E+00  0.00000000E+00
  0.00000000E+00  0.00000000E+00  0.00000000E+00
  0.00000000E+00  0.00000000E+00  0.00000000E+00
  0.00000000E+00  0.00000000E+00  0.00000000E+00
  0.00000000E+00  0.00000000E+00  0.00000000E+00
  0.00000000E+00  0.00000000E+00  0.00000000E+00
  0.00000000E+00  0.00000000E+00  0.00000000E+00
  0.00000000E+00  0.00000000E+00  0.00000000E+00
  0.00000000E+00  0.00000000E+00  0.00000000E+00
  0.00000000E+00  0.00000000E+00  0.00000000E+00
  0.00000000E+00  0.00000000E+00  0.00000000E+00
  0.00000000E+00  0.00000000E+00  0.00000000E+00
  0.00000000E+00  0.00000000E+00  0.00000000E+00
  0.00000000E+00  0.00000000E+00  0.00000000E+00
  0.00000000E+00  0.00000000E+00  0.00000000E+00
  0.00000000E+00  0.00000000E+00  0.00000000E+00
  0.00000000E+00  0.00000000E+00  0.00000000E+00
  0.00000000E+00  0.00000000E+00  0.00000000E+00
  0.00000000E+00  0.00000000E+00  0.00000000E+00
  0.00000000E+00  0.00000000E+00  0.00000000E+00
  0.00000000E+00  0.00000000E+00  0.00000000E+00
  0.00000000E+00  0.00000000E+00  0.00000000E+00
  0.00000000E+00  0.00000000E+00  0.00000000E+00
  0.00000000E+00  0.00000000E+00  0.00000000E+00
