Mg Na O Rh                              
   1.00000000000000     
     8.4141216974800006    0.0000000000000000    0.0000000000000000
     0.0000000000000000    8.4141216974800006    0.0000000000000000
     0.0000000000000000    0.0000000000000000   23.4141216974799988
   Mg   Na   O    Rh
    31     1    32     1
Selective dynamics
Direct
  0.2500000000000000  0.0001575250421496  0.0046042477242901   T   T   T
  0.2500000000000000  0.5005471752289760  0.0043348152410961   T   T   T
  0.7500000000000000  0.0003227362392256  0.0043057662273760   T   T   T
  0.7500000000000000  0.5001906157194826  0.0039379460181012   T   T   T
 -0.0000742182794795  0.2502198709540803  0.0043804980374407   T   T   T
  0.0002097121296720  0.7504487794304956  0.0044795475540669   T   T   T
  0.5000742182794796  0.2502198709540803  0.0043804980374407   T   T   T
  0.4997902878703281  0.7504487794304956  0.0044795475540669   T   T   T
  0.0011839243871903  0.0011004577769974  0.0940910885501343   T   T   T
  0.0011600601301229  0.4998865981126652  0.0935725087512125   T   T   T
  0.4988160756128096  0.0011004577769974  0.0940910885501343   T   T   T
  0.4988399398698772  0.4998865981126652  0.0935725087512125   T   T   T
  0.2500000000000000  0.2503035609536711  0.0938735889297568   T   T   T
  0.2500000000000000  0.7507052052580374  0.0943348920426547   T   T   T
  0.7500000000000000  0.2498314735813942  0.0936574157926549   T   T   T
  0.7500000000000000  0.7504132901532798  0.0933916310087752   T   T   T
  0.2500000000000000  0.0054547216332923  0.1863575588081278   T   T   T
  0.2500000000000000  0.4965689471264156  0.1854195479800894   T   T   T
  0.7500000000000000  0.0003231881312274  0.1834718029639326   T   T   T
  0.7500000000000000  0.4991293864374806  0.1812870988052700   T   T   T
  0.0047909907930752  0.2507755834910358  0.1857276650442638   T   T   T
  0.0011814068528256  0.7506928769799849  0.1845152064512579   T   T   T
  0.4952090092069247  0.2507755834910358  0.1857276650442638   T   T   T
  0.4988185931471744  0.7506928769799849  0.1845152064512579   T   T   T
  0.0036249533989331  0.0010149376888331  0.2741212951846117   T   T   T
  0.0143423335779789  0.5000061223470590  0.2736943074624183   T   T   T
  0.4963750466010668  0.0010149376888331  0.2741212951846117   T   T   T
  0.4856576664220211  0.5000061223470590  0.2736943074624183   T   T   T
  0.2500000000000000  0.7519566727315701  0.2740222854276028   T   T   T
  0.7500000000000000  0.2354163238621056  0.2715895315407205   T   T   T
  0.7500000000000000  0.7606947220572039  0.2725240101934908   T   T   T
  0.2500000000000000  0.2496731402206475  0.2990497594922997   T   T   T
  0.9998974503537217  0.0001858593442370  0.0023807754717414   T   T   T
  0.0001640715367636  0.5005158846830019  0.0021348946298233   T   T   T
  0.5001025496462783  0.0001858593442370  0.0023807754717414   T   T   T
  0.4998359284632364  0.5005158846830019  0.0021348946298233   T   T   T
  0.2500000000000000  0.2503631639508838  0.0021271856295760   T   T   T
  0.2500000000000000  0.7503470435764864  0.0022546611171419   T   T   T
  0.7500000000000000  0.2499940302837949  0.0019698679921308   T   T   T
  0.7500000000000000  0.7504981171863193  0.0021907468967114   T   T   T
  0.2500000000000000  0.9996999624049183  0.0940858340240266   T   T   T
  0.2500000000000000  0.5013723527761533  0.0941953602759953   T   T   T
  0.7500000000000000  0.9998548430108080  0.0943909990089675   T   T   T
  0.7500000000000000  0.5004428996497543  0.0936214875717560   T   T   T
  0.9988596288760297  0.2508432632895849  0.0940024369629735   T   T   T
  0.9993910050140166  0.7500976261353027  0.0944458379771581   T   T   T
  0.5011403711239703  0.2508432632895849  0.0940024369629735   T   T   T
  0.5006089949859834  0.7500976261353027  0.0944458379771581   T   T   T
  0.9997276779701482  0.0014617959054056  0.1847956775490354   T   T   T
  0.9973948585990718  0.4999560434827319  0.1853294249650309   T   T   T
  0.5002723220298518  0.0014617959054056  0.1847956775490354   T   T   T
  0.5026051414009282  0.4999560434827319  0.1853294249650309   T   T   T
  0.2500000000000000  0.2516199258661441  0.1814378407858211   T   T   T
  0.2500000000000000  0.7498203137978405  0.1837429732780323   T   T   T
  0.7500000000000000  0.2522464036692909  0.1838289194481584   T   T   T
  0.7500000000000000  0.7473675056008515  0.1840600299954019   T   T   T
  0.2499999495650016  0.9870296614417240  0.2775149011626729   T   T   T
  0.2499999495650016  0.5154256916457322  0.2770821753064961   T   T   T
  0.7499999495650016  0.9972144195598304  0.2748648782325483   T   T   T
  0.7499999495650016  0.5103200895013659  0.2816678338690572   T   T   T
  0.9835227783585989  0.2540219321384594  0.2786700124371552   T   T   T
  0.9952530060527310  0.7493580934590651  0.2759096555382917   T   T   T
  0.5164772216414011  0.2540219321384594  0.2786700124371552   T   T   T
  0.5047469939472690  0.7493580934590651  0.2759096555382917   T   T   T
  0.7499999495650016  0.4635234412700682  0.3623229306800075   T   T   T
 
  0.00000000E+00  0.00000000E+00  0.00000000E+00
  0.00000000E+00  0.00000000E+00  0.00000000E+00
  0.00000000E+00  0.00000000E+00  0.00000000E+00
  0.00000000E+00  0.00000000E+00  0.00000000E+00
  0.00000000E+00  0.00000000E+00  0.00000000E+00
  0.00000000E+00  0.00000000E+00  0.00000000E+00
  0.00000000E+00  0.00000000E+00  0.00000000E+00
  0.00000000E+00  0.00000000E+00  0.00000000E+00
  0.00000000E+00  0.00000000E+00  0.00000000E+00
  0.00000000E+00  0.00000000E+00  0.00000000E+00
  0.00000000E+00  0.00000000E+00  0.00000000E+00
  0.00000000E+00  0.00000000E+00  0.00000000E+00
  0.00000000E+00  0.00000000E+00  0.00000000E+00
  0.00000000E+00  0.00000000E+00  0.00000000E+00
  0.00000000E+00  0.00000000E+00  0.00000000E+00
  0.00000000E+00  0.00000000E+00  0.00000000E+00
  0.00000000E+00  0.00000000E+00  0.00000000E+00
  0.00000000E+00  0.00000000E+00  0.00000000E+00
  0.00000000E+00  0.00000000E+00  0.00000000E+00
  0.00000000E+00  0.00000000E+00  0.00000000E+00
  0.00000000E+00  0.00000000E+00  0.00000000E+00
  0.00000000E+00  0.00000000E+00  0.00000000E+00
  0.00000000E+00  0.00000000E+00  0.00000000E+00
  0.00000000E+00  0.00000000E+00  0.00000000E+00
  0.00000000E+00  0.00000000E+00  0.00000000E+00
  0.00000000E+00  0.00000000E+00  0.00000000E+00
  0.00000000E+00  0.00000000E+00  0.00000000E+00
  0.00000000E+00  0.00000000E+00  0.00000000E+00
  0.00000000E+00  0.00000000E+00  0.00000000E+00
  0.00000000E+00  0.00000000E+00  0.00000000E+00
  0.00000000E+00  0.00000000E+00  0.00000000E+00
  0.00000000E+00  0.00000000E+00  0.00000000E+00
  0.00000000E+00  0.00000000E+00  0.00000000E+00
  0.00000000E+00  0.00000000E+00  0.00000000E+00
  0.00000000E+00  0.00000000E+00  0.00000000E+00
  0.00000000E+00  0.00000000E+00  0.00000000E+00
  0.00000000E+00  0.00000000E+00  0.00000000E+00
  0.00000000E+00  0.00000000E+00  0.00000000E+00
  0.00000000E+00  0.00000000E+00  0.00000000E+00
  0.00000000E+00  0.00000000E+00  0.00000000E+00
  0.00000000E+00  0.00000000E+00  0.00000000E+00
  0.00000000E+00  0.00000000E+00  0.00000000E+00
  0.00000000E+00  0.00000000E+00  0.00000000E+00
  0.00000000E+00  0.00000000E+00  0.00000000E+00
  0.00000000E+00  0.00000000E+00  0.00000000E+00
  0.00000000E+00  0.00000000E+00  0.00000000E+00
  0.00000000E+00  0.00000000E+00  0.00000000E+00
  0.00000000E+00  0.00000000E+00  0.00000000E+00
  0.00000000E+00  0.00000000E+00  0.00000000E+00
  0.00000000E+00  0.00000000E+00  0.00000000E+00
  0.00000000E+00  0.00000000E+00  0.00000000E+00
  0.00000000E+00  0.00000000E+00  0.00000000E+00
  0.00000000E+00  0.00000000E+00  0.00000000E+00
  0.00000000E+00  0.00000000E+00  0.00000000E+00
  0.00000000E+00  0.00000000E+00  0.00000000E+00
  0.00000000E+00  0.00000000E+00  0.00000000E+00
  0.00000000E+00  0.00000000E+00  0.00000000E+00
  0.00000000E+00  0.00000000E+00  0.00000000E+00
  0.00000000E+00  0.00000000E+00  0.00000000E+00
  0.00000000E+00  0.00000000E+00  0.00000000E+00
  0.00000000E+00  0.00000000E+00  0.00000000E+00
  0.00000000E+00  0.00000000E+00  0.00000000E+00
  0.00000000E+00  0.00000000E+00  0.00000000E+00
  0.00000000E+00  0.00000000E+00  0.00000000E+00
  0.00000000E+00  0.00000000E+00  0.00000000E+00
