W Mg Na O                               
   1.00000000000000     
     8.4141216974800006    0.0000000000000000    0.0000000000000000
     0.0000000000000000    8.4141216974800006    0.0000000000000000
     0.0000000000000000    0.0000000000000000   23.4141216974799988
   W    Mg   Na   O 
     1    31     1    32
Selective dynamics
Direct
  0.7499999495650016  0.4706690155676726  0.3714831368423324   T   T   T
  0.2500000000000000  0.0001860154172160  0.0045601495255178   T   T   T
  0.2500000000000000  0.5006042263177628  0.0041395026445710   T   T   T
  0.7500000000000000  0.0002726093171418  0.0042469637064928   T   T   T
  0.7500000000000000  0.5001641849803519  0.0036689520003410   T   T   T
  0.0000275097281672  0.2500720506693814  0.0042714449706979   T   T   T
  0.0002960934037482  0.7506001720822927  0.0044010324543519   T   T   T
  0.4999724902718325  0.2500720506693814  0.0042714449706979   T   T   T
  0.4997039065962519  0.7506001720822927  0.0044010324543519   T   T   T
  0.0011931775402681  0.0010980027616505  0.0941262371805813   T   T   T
  0.0012960988836173  0.4997329232371707  0.0932761405938138   T   T   T
  0.4988068224597318  0.0010980027616505  0.0941262371805813   T   T   T
  0.4987039011163825  0.4997329232371707  0.0932761405938138   T   T   T
  0.2500000000000000  0.2500282547898458  0.0938692116737192   T   T   T
  0.2500000000000000  0.7509286195666209  0.0943066382704481   T   T   T
  0.7500000000000000  0.2494362901528711  0.0934753146353804   T   T   T
  0.7500000000000000  0.7506440787814747  0.0931568449411594   T   T   T
  0.2500000000000000  0.0054478490354197  0.1863777614791197   T   T   T
  0.2500000000000000  0.4964085129904772  0.1851771011565699   T   T   T
  0.7500000000000000  0.0001446380076712  0.1835921728775617   T   T   T
  0.7500000000000000  0.4990188643679211  0.1797478273193137   T   T   T
  0.0050221074520361  0.2505267281003231  0.1859966546509267   T   T   T
  0.0012687866319952  0.7506809390856790  0.1845740347832821   T   T   T
  0.4949778925479639  0.2505267281003231  0.1859966546509267   T   T   T
  0.4987312133680049  0.7506809390856790  0.1845740347832821   T   T   T
  0.0041898083402358  0.0012696483726313  0.2743169694550728   T   T   T
  0.0140240169139548  0.4996228998527680  0.2732318411611325   T   T   T
  0.4958101916597641  0.0012696483726313  0.2743169694550728   T   T   T
  0.4859759830860450  0.4996228998527680  0.2732318411611325   T   T   T
  0.2500000000000000  0.7518271900563427  0.2740308708422697   T   T   T
  0.7500000000000000  0.2340502527150410  0.2720490404711545   T   T   T
  0.7500000000000000  0.7605914009534587  0.2729216187826310   T   T   T
  0.2500000000000000  0.2497001530262248  0.2998705712672918   T   T   T
  0.9998659927842657  0.0001630939996360  0.0023162221959545   T   T   T
  0.0001529366347070  0.5005048055574590  0.0018713931733537   T   T   T
  0.5001340072157343  0.0001630939996360  0.0023162221959545   T   T   T
  0.4998470633652929  0.5005048055574590  0.0018713931733537   T   T   T
  0.2500000000000000  0.2503312510263148  0.0020659153103850   T   T   T
  0.2500000000000000  0.7504257152629925  0.0021818742126559   T   T   T
  0.7500000000000000  0.2499241323156183  0.0017446761569434   T   T   T
  0.7500000000000000  0.7505131464957034  0.0019697976414083   T   T   T
  0.2500000000000000  0.9996554786756803  0.0940597007906174   T   T   T
  0.2500000000000000  0.5013339711229735  0.0940483956459886   T   T   T
  0.7500000000000000  0.9997468261839131  0.0944151804153119   T   T   T
  0.7500000000000000  0.5003980435240917  0.0930735520791258   T   T   T
  0.9986757661123229  0.2507973494650230  0.0939354768552111   T   T   T
  0.9992193765457564  0.7499926800835578  0.0943545791969380   T   T   T
  0.5013242338876771  0.2507973494650230  0.0939354768552111   T   T   T
  0.5007806234542436  0.7499926800835578  0.0943545791969380   T   T   T
  0.9994541938253777  0.0012824013227465  0.1847665795882255   T   T   T
  0.9962296314477386  0.4999252214952871  0.1852029820746658   T   T   T
  0.5005458061746223  0.0012824013227465  0.1847665795882255   T   T   T
  0.5037703685522614  0.4999252214952871  0.1852029820746658   T   T   T
  0.2500000000000000  0.2515588116676427  0.1812617374719284   T   T   T
  0.2500000000000000  0.7497681261575683  0.1835749831339955   T   T   T
  0.7500000000000000  0.2532074977614456  0.1841318865856795   T   T   T
  0.7500000000000000  0.7460573373412830  0.1842819877864284   T   T   T
  0.2499999495650016  0.9870760656257119  0.2773513943355970   T   T   T
  0.2499999495650016  0.5152285326445274  0.2765433387285025   T   T   T
  0.7499999495650016  0.9967915206087772  0.2748334981103105   T   T   T
  0.7499999495650016  0.5085993407589980  0.2894224443999077   T   T   T
  0.9829458992689871  0.2546961190278067  0.2787415456513634   T   T   T
  0.9949821939360071  0.7486659882811825  0.2757903120585949   T   T   T
  0.5170541007310129  0.2546961190278067  0.2787415456513634   T   T   T
  0.5050178060639929  0.7486659882811825  0.2757903120585949   T   T   T
 
  0.00000000E+00  0.00000000E+00  0.00000000E+00
  0.00000000E+00  0.00000000E+00  0.00000000E+00
  0.00000000E+00  0.00000000E+00  0.00000000E+00
  0.00000000E+00  0.00000000E+00  0.00000000E+00
  0.00000000E+00  0.00000000E+00  0.00000000E+00
  0.00000000E+00  0.00000000E+00  0.00000000E+00
  0.00000000E+00  0.00000000E+00  0.00000000E+00
  0.00000000E+00  0.00000000E+00  0.00000000E+00
  0.00000000E+00  0.00000000E+00  0.00000000E+00
  0.00000000E+00  0.00000000E+00  0.00000000E+00
  0.00000000E+00  0.00000000E+00  0.00000000E+00
  0.00000000E+00  0.00000000E+00  0.00000000E+00
  0.00000000E+00  0.00000000E+00  0.00000000E+00
  0.00000000E+00  0.00000000E+00  0.00000000E+00
  0.00000000E+00  0.00000000E+00  0.00000000E+00
  0.00000000E+00  0.00000000E+00  0.00000000E+00
  0.00000000E+00  0.00000000E+00  0.00000000E+00
  0.00000000E+00  0.00000000E+00  0.00000000E+00
  0.00000000E+00  0.00000000E+00  0.00000000E+00
  0.00000000E+00  0.00000000E+00  0.00000000E+00
  0.00000000E+00  0.00000000E+00  0.00000000E+00
  0.00000000E+00  0.00000000E+00  0.00000000E+00
  0.00000000E+00  0.00000000E+00  0.00000000E+00
  0.00000000E+00  0.00000000E+00  0.00000000E+00
  0.00000000E+00  0.00000000E+00  0.00000000E+00
  0.00000000E+00  0.00000000E+00  0.00000000E+00
  0.00000000E+00  0.00000000E+00  0.00000000E+00
  0.00000000E+00  0.00000000E+00  0.00000000E+00
  0.00000000E+00  0.00000000E+00  0.00000000E+00
  0.00000000E+00  0.00000000E+00  0.00000000E+00
  0.00000000E+00  0.00000000E+00  0.00000000E+00
  0.00000000E+00  0.00000000E+00  0.00000000E+00
  0.00000000E+00  0.00000000E+00  0.00000000E+00
  0.00000000E+00  0.00000000E+00  0.00000000E+00
  0.00000000E+00  0.00000000E+00  0.00000000E+00
  0.00000000E+00  0.00000000E+00  0.00000000E+00
  0.00000000E+00  0.00000000E+00  0.00000000E+00
  0.00000000E+00  0.00000000E+00  0.00000000E+00
  0.00000000E+00  0.00000000E+00  0.00000000E+00
  0.00000000E+00  0.00000000E+00  0.00000000E+00
  0.00000000E+00  0.00000000E+00  0.00000000E+00
  0.00000000E+00  0.00000000E+00  0.00000000E+00
  0.00000000E+00  0.00000000E+00  0.00000000E+00
  0.00000000E+00  0.00000000E+00  0.00000000E+00
  0.00000000E+00  0.00000000E+00  0.00000000E+00
  0.00000000E+00  0.00000000E+00  0.00000000E+00
  0.00000000E+00  0.00000000E+00  0.00000000E+00
  0.00000000E+00  0.00000000E+00  0.00000000E+00
  0.00000000E+00  0.00000000E+00  0.00000000E+00
  0.00000000E+00  0.00000000E+00  0.00000000E+00
  0.00000000E+00  0.00000000E+00  0.00000000E+00
  0.00000000E+00  0.00000000E+00  0.00000000E+00
  0.00000000E+00  0.00000000E+00  0.00000000E+00
  0.00000000E+00  0.00000000E+00  0.00000000E+00
  0.00000000E+00  0.00000000E+00  0.00000000E+00
  0.00000000E+00  0.00000000E+00  0.00000000E+00
  0.00000000E+00  0.00000000E+00  0.00000000E+00
  0.00000000E+00  0.00000000E+00  0.00000000E+00
  0.00000000E+00  0.00000000E+00  0.00000000E+00
  0.00000000E+00  0.00000000E+00  0.00000000E+00
  0.00000000E+00  0.00000000E+00  0.00000000E+00
  0.00000000E+00  0.00000000E+00  0.00000000E+00
  0.00000000E+00  0.00000000E+00  0.00000000E+00
  0.00000000E+00  0.00000000E+00  0.00000000E+00
  0.00000000E+00  0.00000000E+00  0.00000000E+00
