Fe Mg Na O                              
   1.00000000000000     
     8.4141216974800006    0.0000000000000000    0.0000000000000000
     0.0000000000000000    8.4141216974800006    0.0000000000000000
     0.0000000000000000    0.0000000000000000   23.4141216974799988
   Fe   Mg   Na   O 
     1    31     1    32
Selective dynamics
Direct
  0.7499999495650016  0.4786617607806919  0.3619895835524085   T   T   T
  0.2500000000000000  0.0001595001747208  0.0043777451148642   T   T   T
  0.2500000000000000  0.5005639423697630  0.0040551582382787   T   T   T
  0.7500000000000000  0.0003382712952616  0.0041180003539646   T   T   T
  0.7500000000000000  0.5001493158943839  0.0036387606818251   T   T   T
  0.0000185888382298  0.2500832239111357  0.0042319266846236   T   T   T
  0.0003040366479385  0.7505467469639207  0.0043257912396550   T   T   T
  0.4999814111617703  0.2500832239111357  0.0042319266846236   T   T   T
  0.4996959633520613  0.7505467469639207  0.0043257912396550   T   T   T
  0.0010790335201199  0.0009910165435085  0.0940533013610664   T   T   T
  0.0014388827276418  0.4996983175658037  0.0931786556642168   T   T   T
  0.4989209664798802  0.0009910165435085  0.0940533013610664   T   T   T
  0.4985611172723582  0.4996983175658037  0.0931786556642168   T   T   T
  0.2500000000000000  0.2500574568338449  0.0938051261111640   T   T   T
  0.2500000000000000  0.7508187940985050  0.0942488366296148   T   T   T
  0.7500000000000000  0.2492645512226997  0.0934245237926509   T   T   T
  0.7500000000000000  0.7509344419829137  0.0930836727631093   T   T   T
  0.2500000000000000  0.0052871265856007  0.1860190865022645   T   T   T
  0.2500000000000000  0.4962478578735833  0.1851788026813481   T   T   T
  0.7500000000000000  0.0005331863265258  0.1836640575914578   T   T   T
  0.7500000000000000  0.4989830753314726  0.1795170785564505   T   T   T
  0.0047350599654724  0.2505663394139741  0.1860711127374057   T   T   T
  0.0008845514910119  0.7500977838606546  0.1845696085855242   T   T   T
  0.4952649400345278  0.2505663394139741  0.1860711127374057   T   T   T
  0.4991154485089880  0.7500977838606546  0.1845696085855242   T   T   T
  0.0044811301738503  0.0010287661224416  0.2737290230384773   T   T   T
  0.0143430814236221  0.4988670395939362  0.2736814365416855   T   T   T
  0.4955188698261497  0.0010287661224416  0.2737290230384773   T   T   T
  0.4856569185763779  0.4988670395939362  0.2736814365416855   T   T   T
  0.2500000000000000  0.7516091109259774  0.2736227695982104   T   T   T
  0.7500000000000000  0.2341728672269774  0.2727890388997742   T   T   T
  0.7500000000000000  0.7614127005696356  0.2731657128583942   T   T   T
  0.2500000000000000  0.2486200608103855  0.2980169136108575   T   T   T
  0.9998746565366006  0.0001407805230190  0.0022428668429913   T   T   T
  0.0001765104716245  0.5004841054326650  0.0018177211783994   T   T   T
  0.5001253434633994  0.0001407805230190  0.0022428668429913   T   T   T
  0.4998234895283755  0.5004841054326650  0.0018177211783994   T   T   T
  0.2500000000000000  0.2503255618008745  0.0020492789175158   T   T   T
  0.2500000000000000  0.7503733200242175  0.0020944396129725   T   T   T
  0.7500000000000000  0.2499209814704511  0.0016785828203180   T   T   T
  0.7500000000000000  0.7505750083142890  0.0018964914027310   T   T   T
  0.2500000000000000  0.9996264384580954  0.0939297169057113   T   T   T
  0.2500000000000000  0.5012927853549439  0.0940218768989076   T   T   T
  0.7500000000000000  0.9999045725401405  0.0943996168727596   T   T   T
  0.7500000000000000  0.5003752232186737  0.0929589638001487   T   T   T
  0.9986831839602281  0.2507934954484989  0.0939119478909281   T   T   T
  0.9992326498048976  0.7498347564329539  0.0943398452931783   T   T   T
  0.5013168160397719  0.2507934954484989  0.0939119478909281   T   T   T
  0.5007673501951024  0.7498347564329539  0.0943398452931783   T   T   T
  0.9994781954791184  0.0008531116884816  0.1845010304840696   T   T   T
  0.9963148733532351  0.4998889602937759  0.1853412517815032   T   T   T
  0.5005218045208816  0.0008531116884816  0.1845010304840696   T   T   T
  0.5036851266467649  0.4998889602937759  0.1853412517815032   T   T   T
  0.2500000000000000  0.2514634639940501  0.1811515239684250   T   T   T
  0.2500000000000000  0.7494511899738865  0.1835025492781476   T   T   T
  0.7500000000000000  0.2533107997442609  0.1842658756840609   T   T   T
  0.7500000000000000  0.7461856230697416  0.1843842872152344   T   T   T
  0.2499999495650016  0.9863632177035205  0.2771949610578846   T   T   T
  0.2499999495650016  0.5149978854690660  0.2770574316922949   T   T   T
  0.7499999495650016  0.9969634263374794  0.2752553856579384   T   T   T
  0.7499999495650016  0.5092168793291046  0.2879397164632171   T   T   T
  0.9834497144694322  0.2534691777153968  0.2779590104490853   T   T   T
  0.9951199226894096  0.7485761799399667  0.2756733182337231   T   T   T
  0.5165502855305678  0.2534691777153968  0.2779590104490853   T   T   T
  0.5048800773105904  0.7485761799399667  0.2756733182337231   T   T   T
 
  0.00000000E+00  0.00000000E+00  0.00000000E+00
  0.00000000E+00  0.00000000E+00  0.00000000E+00
  0.00000000E+00  0.00000000E+00  0.00000000E+00
  0.00000000E+00  0.00000000E+00  0.00000000E+00
  0.00000000E+00  0.00000000E+00  0.00000000E+00
  0.00000000E+00  0.00000000E+00  0.00000000E+00
  0.00000000E+00  0.00000000E+00  0.00000000E+00
  0.00000000E+00  0.00000000E+00  0.00000000E+00
  0.00000000E+00  0.00000000E+00  0.00000000E+00
  0.00000000E+00  0.00000000E+00  0.00000000E+00
  0.00000000E+00  0.00000000E+00  0.00000000E+00
  0.00000000E+00  0.00000000E+00  0.00000000E+00
  0.00000000E+00  0.00000000E+00  0.00000000E+00
  0.00000000E+00  0.00000000E+00  0.00000000E+00
  0.00000000E+00  0.00000000E+00  0.00000000E+00
  0.00000000E+00  0.00000000E+00  0.00000000E+00
  0.00000000E+00  0.00000000E+00  0.00000000E+00
  0.00000000E+00  0.00000000E+00  0.00000000E+00
  0.00000000E+00  0.00000000E+00  0.00000000E+00
  0.00000000E+00  0.00000000E+00  0.00000000E+00
  0.00000000E+00  0.00000000E+00  0.00000000E+00
  0.00000000E+00  0.00000000E+00  0.00000000E+00
  0.00000000E+00  0.00000000E+00  0.00000000E+00
  0.00000000E+00  0.00000000E+00  0.00000000E+00
  0.00000000E+00  0.00000000E+00  0.00000000E+00
  0.00000000E+00  0.00000000E+00  0.00000000E+00
  0.00000000E+00  0.00000000E+00  0.00000000E+00
  0.00000000E+00  0.00000000E+00  0.00000000E+00
  0.00000000E+00  0.00000000E+00  0.00000000E+00
  0.00000000E+00  0.00000000E+00  0.00000000E+00
  0.00000000E+00  0.00000000E+00  0.00000000E+00
  0.00000000E+00  0.00000000E+00  0.00000000E+00
  0.00000000E+00  0.00000000E+00  0.00000000E+00
  0.00000000E+00  0.00000000E+00  0.00000000E+00
  0.00000000E+00  0.00000000E+00  0.00000000E+00
  0.00000000E+00  0.00000000E+00  0.00000000E+00
  0.00000000E+00  0.00000000E+00  0.00000000E+00
  0.00000000E+00  0.00000000E+00  0.00000000E+00
  0.00000000E+00  0.00000000E+00  0.00000000E+00
  0.00000000E+00  0.00000000E+00  0.00000000E+00
  0.00000000E+00  0.00000000E+00  0.00000000E+00
  0.00000000E+00  0.00000000E+00  0.00000000E+00
  0.00000000E+00  0.00000000E+00  0.00000000E+00
  0.00000000E+00  0.00000000E+00  0.00000000E+00
  0.00000000E+00  0.00000000E+00  0.00000000E+00
  0.00000000E+00  0.00000000E+00  0.00000000E+00
  0.00000000E+00  0.00000000E+00  0.00000000E+00
  0.00000000E+00  0.00000000E+00  0.00000000E+00
  0.00000000E+00  0.00000000E+00  0.00000000E+00
  0.00000000E+00  0.00000000E+00  0.00000000E+00
  0.00000000E+00  0.00000000E+00  0.00000000E+00
  0.00000000E+00  0.00000000E+00  0.00000000E+00
  0.00000000E+00  0.00000000E+00  0.00000000E+00
  0.00000000E+00  0.00000000E+00  0.00000000E+00
  0.00000000E+00  0.00000000E+00  0.00000000E+00
  0.00000000E+00  0.00000000E+00  0.00000000E+00
  0.00000000E+00  0.00000000E+00  0.00000000E+00
  0.00000000E+00  0.00000000E+00  0.00000000E+00
  0.00000000E+00  0.00000000E+00  0.00000000E+00
  0.00000000E+00  0.00000000E+00  0.00000000E+00
  0.00000000E+00  0.00000000E+00  0.00000000E+00
  0.00000000E+00  0.00000000E+00  0.00000000E+00
  0.00000000E+00  0.00000000E+00  0.00000000E+00
  0.00000000E+00  0.00000000E+00  0.00000000E+00
  0.00000000E+00  0.00000000E+00  0.00000000E+00
