Mg Na O                                 
   1.00000000000000     
     8.4141216974800006    0.0000000000000000    0.0000000000000000
     0.0000000000000000    8.4141216974800006    0.0000000000000000
     0.0000000000000000    0.0000000000000000   23.4141216974799988
   Mg   Na   O 
    31     1    32
Selective dynamics
Direct
  0.2500000000000000 -0.0002110867241640  0.0048079380049237   T   T   T
  0.2500000000000000  0.5002110867241640  0.0048079380049237   T   T   T
  0.7500000000000000  0.0000546325484831  0.0049667349322947   T   T   T
  0.7500000000000000  0.4999453674515170  0.0049667349322947   T   T   T
 -0.0002193922709282  0.2500000000000000  0.0048119303067595   T   T   T
  0.0000391840256139  0.7500000000000000  0.0049687371048402   T   T   T
  0.5002193922709282  0.2500000000000000  0.0048119303067595   T   T   T
  0.4999608159743861  0.7500000000000000  0.0049687371048402   T   T   T
  0.0005704489667971  0.0005758527708992  0.0944999033625430   T   T   T
  0.0005704489667971  0.4994241472291008  0.0944999033625430   T   T   T
  0.4994295510332029  0.0005758527708992  0.0944999033625430   T   T   T
  0.4994295510332029  0.4994241472291008  0.0944999033625430   T   T   T
  0.2500000000000000  0.2500000000000000  0.0938991885345258   T   T   T
  0.2500000000000000  0.7500000000000000  0.0946513296335823   T   T   T
  0.7500000000000000  0.2500000000000000  0.0946562417195885   T   T   T
  0.7500000000000000  0.7500000000000000  0.0943081414238553   T   T   T
  0.2500000000000000  0.0045198931572371  0.1863579818612295   T   T   T
  0.2500000000000000  0.4954801068427629  0.1863579818612295   T   T   T
  0.7500000000000000  0.0007865074682921  0.1847091125317190   T   T   T
  0.7500000000000000  0.4992134925317079  0.1847091125317190   T   T   T
  0.0044832375588309  0.2500000000000000  0.1863130363824457   T   T   T
  0.0007593008829948  0.7500000000000000  0.1846535604475548   T   T   T
  0.4955167624411690  0.2500000000000000  0.1863130363824457   T   T   T
  0.4992406991170051  0.7500000000000000  0.1846535604475548   T   T   T
  0.0012679040827601  0.0012345446048388  0.2740277175001427   T   T   T
  0.0012679040827601  0.4987654553951612  0.2740277175001427   T   T   T
  0.4987320959172399  0.0012345446048388  0.2740277175001427   T   T   T
  0.4987320959172399  0.4987654553951612  0.2740277175001427   T   T   T
  0.2500000000000000  0.7500000000000000  0.2741157075764874   T   T   T
  0.7500000000000000  0.2500000000000000  0.2741552573282128   T   T   T
  0.7500000000000000  0.7500000000000000  0.2735277779790304   T   T   T
  0.2500000000000000  0.2500000000000000  0.3005559539529402   T   T   T
 -0.0001139989839448 -0.0001125423634997  0.0026151375741710   T   T   T
 -0.0001139989839448  0.5001125423634999  0.0026151375741710   T   T   T
  0.5001139989839447 -0.0001125423634997  0.0026151375741710   T   T   T
  0.5001139989839447  0.5001125423634999  0.0026151375741710   T   T   T
  0.2500000000000000  0.2500000000000000  0.0024013660360047   T   T   T
  0.2500000000000000  0.7500000000000000  0.0025085341590362   T   T   T
  0.7500000000000000  0.2500000000000000  0.0025038686606179   T   T   T
  0.7500000000000000  0.7500000000000000  0.0026850688218246   T   T   T
  0.2500000000000000 -0.0007478418215153  0.0942569546482234   T   T   T
  0.2500000000000000  0.5007478418215153  0.0942569546482234   T   T   T
  0.7500000000000000 -0.0001368017854738  0.0945858459267090   T   T   T
  0.7500000000000000  0.5001368017854738  0.0945858459267090   T   T   T
 -0.0007516446900126  0.2500000000000000  0.0942507137527243   T   T   T
 -0.0001489792641427  0.7500000000000000  0.0945554420964979   T   T   T
  0.5007516446900125  0.2500000000000000  0.0942507137527243   T   T   T
  0.5001489792641426  0.7500000000000000  0.0945554420964979   T   T   T
  0.0003253715903981  0.0003309715540892  0.1847212910110251   T   T   T
  0.0003253715903981  0.4996690284459108  0.1847212910110251   T   T   T
  0.4996746284096016  0.0003309715540892  0.1847212910110251   T   T   T
  0.4996746284096016  0.4996690284459108  0.1847212910110251   T   T   T
  0.2500000000000000  0.2500000000000000  0.1813537024590106   T   T   T
  0.2500000000000000  0.7500000000000000  0.1840598941733574   T   T   T
  0.7500000000000000  0.2500000000000000  0.1840859376305621   T   T   T
  0.7500000000000000  0.7500000000000000  0.1839044208568878   T   T   T
  0.2499999495650016 -0.0132788767692527  0.2773507074760354   T   T   T
  0.2499999495650016  0.5132788767692528  0.2773507074760354   T   T   T
  0.7499999495650016 -0.0027827106646081  0.2758456999744240   T   T   T
  0.7499999495650016  0.5027827106646081  0.2758456999744240   T   T   T
 -0.0132209093671490  0.2500000000000000  0.2773462255249115   T   T   T
 -0.0028156615171780  0.7500000000000000  0.2758141683141741   T   T   T
  0.5132209093671491  0.2500000000000000  0.2773462255249115   T   T   T
  0.5028156615171779  0.7500000000000000  0.2758141683141741   T   T   T
 
  0.00000000E+00  0.00000000E+00  0.00000000E+00
  0.00000000E+00  0.00000000E+00  0.00000000E+00
  0.00000000E+00  0.00000000E+00  0.00000000E+00
  0.00000000E+00  0.00000000E+00  0.00000000E+00
  0.00000000E+00  0.00000000E+00  0.00000000E+00
  0.00000000E+00  0.00000000E+00  0.00000000E+00
  0.00000000E+00  0.00000000E+00  0.00000000E+00
  0.00000000E+00  0.00000000E+00  0.00000000E+00
  0.00000000E+00  0.00000000E+00  0.00000000E+00
  0.00000000E+00  0.00000000E+00  0.00000000E+00
  0.00000000E+00  0.00000000E+00  0.00000000E+00
  0.00000000E+00  0.00000000E+00  0.00000000E+00
  0.00000000E+00  0.00000000E+00  0.00000000E+00
  0.00000000E+00  0.00000000E+00  0.00000000E+00
  0.00000000E+00  0.00000000E+00  0.00000000E+00
  0.00000000E+00  0.00000000E+00  0.00000000E+00
  0.00000000E+00  0.00000000E+00  0.00000000E+00
  0.00000000E+00  0.00000000E+00  0.00000000E+00
  0.00000000E+00  0.00000000E+00  0.00000000E+00
  0.00000000E+00  0.00000000E+00  0.00000000E+00
  0.00000000E+00  0.00000000E+00  0.00000000E+00
  0.00000000E+00  0.00000000E+00  0.00000000E+00
  0.00000000E+00  0.00000000E+00  0.00000000E+00
  0.00000000E+00  0.00000000E+00  0.00000000E+00
  0.00000000E+00  0.00000000E+00  0.00000000E+00
  0.00000000E+00  0.00000000E+00  0.00000000E+00
  0.00000000E+00  0.00000000E+00  0.00000000E+00
  0.00000000E+00  0.00000000E+00  0.00000000E+00
  0.00000000E+00  0.00000000E+00  0.00000000E+00
  0.00000000E+00  0.00000000E+00  0.00000000E+00
  0.00000000E+00  0.00000000E+00  0.00000000E+00
  0.00000000E+00  0.00000000E+00  0.00000000E+00
  0.00000000E+00  0.00000000E+00  0.00000000E+00
  0.00000000E+00  0.00000000E+00  0.00000000E+00
  0.00000000E+00  0.00000000E+00  0.00000000E+00
  0.00000000E+00  0.00000000E+00  0.00000000E+00
  0.00000000E+00  0.00000000E+00  0.00000000E+00
  0.00000000E+00  0.00000000E+00  0.00000000E+00
  0.00000000E+00  0.00000000E+00  0.00000000E+00
  0.00000000E+00  0.00000000E+00  0.00000000E+00
  0.00000000E+00  0.00000000E+00  0.00000000E+00
  0.00000000E+00  0.00000000E+00  0.00000000E+00
  0.00000000E+00  0.00000000E+00  0.00000000E+00
  0.00000000E+00  0.00000000E+00  0.00000000E+00
  0.00000000E+00  0.00000000E+00  0.00000000E+00
  0.00000000E+00  0.00000000E+00  0.00000000E+00
  0.00000000E+00  0.00000000E+00  0.00000000E+00
  0.00000000E+00  0.00000000E+00  0.00000000E+00
  0.00000000E+00  0.00000000E+00  0.00000000E+00
  0.00000000E+00  0.00000000E+00  0.00000000E+00
  0.00000000E+00  0.00000000E+00  0.00000000E+00
  0.00000000E+00  0.00000000E+00  0.00000000E+00
  0.00000000E+00  0.00000000E+00  0.00000000E+00
  0.00000000E+00  0.00000000E+00  0.00000000E+00
  0.00000000E+00  0.00000000E+00  0.00000000E+00
  0.00000000E+00  0.00000000E+00  0.00000000E+00
  0.00000000E+00  0.00000000E+00  0.00000000E+00
  0.00000000E+00  0.00000000E+00  0.00000000E+00
  0.00000000E+00  0.00000000E+00  0.00000000E+00
  0.00000000E+00  0.00000000E+00  0.00000000E+00
  0.00000000E+00  0.00000000E+00  0.00000000E+00
  0.00000000E+00  0.00000000E+00  0.00000000E+00
  0.00000000E+00  0.00000000E+00  0.00000000E+00
  0.00000000E+00  0.00000000E+00  0.00000000E+00
