Ir Mg Na O                              
   1.00000000000000     
     8.4141216974800006    0.0000000000000000    0.0000000000000000
     0.0000000000000000    8.4141216974800006    0.0000000000000000
     0.0000000000000000    0.0000000000000000   23.4141216974799988
   Ir   Mg   Na   O 
     1    31     1    32
Selective dynamics
Direct
  0.7499999495650016  0.5175916895070707  0.3694482655055433   T   T   T
  0.2500000000000000 -0.0002491117414360  0.0042392704350106   T   T   T
  0.2500000000000000  0.5001847784681436  0.0037579976446668   T   T   T
  0.7500000000000000  0.0000564645486911  0.0038566149869838   T   T   T
  0.7500000000000000  0.4998195662533654  0.0031955247523817   T   T   T
  0.0000612970221415  0.2496999878882163  0.0039361475462565   T   T   T
  0.0003887291129648  0.7502448472297926  0.0040986800153483   T   T   T
  0.4999387029778586  0.2496999878882163  0.0039361475462565   T   T   T
  0.4996112708870353  0.7502448472297926  0.0040986800153483   T   T   T
  0.0012313320873943  0.0006027766187376  0.0939631687945710   T   T   T
  0.0017586112325031  0.4991052894595673  0.0928616350181157   T   T   T
  0.4987686679126058  0.0006027766187376  0.0939631687945710   T   T   T
  0.4982413887674969  0.4991052894595673  0.0928616350181157   T   T   T
  0.2500000000000000  0.2494138436553506  0.0936303479517900   T   T   T
  0.2500000000000000  0.7504325654357497  0.0941541672095411   T   T   T
  0.7500000000000000  0.2485671281189436  0.0931200844600309   T   T   T
  0.7500000000000000  0.7507698722984225  0.0927974282295769   T   T   T
  0.2500000000000000  0.0049319575384487  0.1857459293194100   T   T   T
  0.2500000000000000  0.4954459831398628  0.1850333821448102   T   T   T
  0.7500000000000000  0.0006449086400871  0.1835246367370293   T   T   T
  0.7500000000000000  0.4981256984586008  0.1778757429890886   T   T   T
  0.0045562645467316  0.2502301174466780  0.1862385113801332   T   T   T
  0.0006142463115432  0.7491698380628192  0.1845891741845404   T   T   T
  0.4954437354532685  0.2502301174466780  0.1862385113801332   T   T   T
  0.4993857536884568  0.7491698380628192  0.1845891741845404   T   T   T
  0.0045754252206197  0.0009002775337747  0.2734442264680362   T   T   T
  0.0173930406340631  0.4971157942117796  0.2746196624302366   T   T   T
  0.4954245747793802  0.0009002775337747  0.2734442264680362   T   T   T
  0.4826069593659369  0.4971157942117796  0.2746196624302366   T   T   T
  0.2500000000000000  0.7509279463870082  0.2734279744537474   T   T   T
  0.7500000000000000  0.2324774973072969  0.2741385191103007   T   T   T
  0.7500000000000000  0.7646476917158807  0.2740296162016303   T   T   T
  0.2500000000000000  0.2474928994002361  0.2996323310194929   T   T   T
  0.9998988337191690 -0.0002366427880787  0.0020813079092157   T   T   T
  0.0002510409485328  0.5001713654064446  0.0015262462698348   T   T   T
  0.5001011662808310 -0.0002366427880787  0.0020813079092157   T   T   T
  0.4997489590514673  0.5001713654064446  0.0015262462698348   T   T   T
  0.2500000000000000  0.2499505215735174  0.0018219370018330   T   T   T
  0.2500000000000000  0.7499954780748399  0.0019490902441468   T   T   T
  0.7500000000000000  0.2495321856211895  0.0013171502036721   T   T   T
  0.7500000000000000  0.7503486149767153  0.0016532067978358   T   T   T
  0.2500000000000000  0.9990778097670107  0.0936768453695050   T   T   T
  0.2500000000000000  0.5008105639142202  0.0938522799172210   T   T   T
  0.7500000000000000  0.9994123472157348  0.0942115854715168   T   T   T
  0.7500000000000000  0.4999968578969079  0.0922396340344429   T   T   T
  0.9985014821989795  0.2505315574708762  0.0936297852362381   T   T   T
  0.9990484393872239  0.7491191496693551  0.0941181248993667   T   T   T
  0.5014985178010205  0.2505315574708762  0.0936297852362381   T   T   T
  0.5009515606127761  0.7491191496693551  0.0941181248993667   T   T   T
  0.9993415482852632  0.0000716466304002  0.1842431661574838   T   T   T
  0.9954243703557770  0.4993791238895182  0.1854921626628934   T   T   T
  0.5006584517147368  0.0000716466304002  0.1842431661574838   T   T   T
  0.5045756296442230  0.4993791238895182  0.1854921626628934   T   T   T
  0.2500000000000000  0.2511380782480881  0.1807862116207666   T   T   T
  0.2500000000000000  0.7487040011139673  0.1833228450782323   T   T   T
  0.7500000000000000  0.2535482378878817  0.1842078070293536   T   T   T
  0.7500000000000000  0.7446167050829531  0.1846199950928753   T   T   T
  0.2499999495650016  0.9857688952118405  0.2770447080582111   T   T   T
  0.2499999495650016  0.5145010347497354  0.2767720096000553   T   T   T
  0.7499999495650016  0.9975284026900445  0.2749125718995877   T   T   T
  0.7499999495650016  0.5009078337979458  0.2919965332171856   T   T   T
  0.9837951500271345  0.2533732139722051  0.2767630045361846   T   T   T
  0.9939989560515452  0.7469621838237580  0.2749151445177923   T   T   T
  0.5162048499728655  0.2533732139722051  0.2767630045361846   T   T   T
  0.5060010439484548  0.7469621838237580  0.2749151445177923   T   T   T
 
  0.00000000E+00  0.00000000E+00  0.00000000E+00
  0.00000000E+00  0.00000000E+00  0.00000000E+00
  0.00000000E+00  0.00000000E+00  0.00000000E+00
  0.00000000E+00  0.00000000E+00  0.00000000E+00
  0.00000000E+00  0.00000000E+00  0.00000000E+00
  0.00000000E+00  0.00000000E+00  0.00000000E+00
  0.00000000E+00  0.00000000E+00  0.00000000E+00
  0.00000000E+00  0.00000000E+00  0.00000000E+00
  0.00000000E+00  0.00000000E+00  0.00000000E+00
  0.00000000E+00  0.00000000E+00  0.00000000E+00
  0.00000000E+00  0.00000000E+00  0.00000000E+00
  0.00000000E+00  0.00000000E+00  0.00000000E+00
  0.00000000E+00  0.00000000E+00  0.00000000E+00
  0.00000000E+00  0.00000000E+00  0.00000000E+00
  0.00000000E+00  0.00000000E+00  0.00000000E+00
  0.00000000E+00  0.00000000E+00  0.00000000E+00
  0.00000000E+00  0.00000000E+00  0.00000000E+00
  0.00000000E+00  0.00000000E+00  0.00000000E+00
  0.00000000E+00  0.00000000E+00  0.00000000E+00
  0.00000000E+00  0.00000000E+00  0.00000000E+00
  0.00000000E+00  0.00000000E+00  0.00000000E+00
  0.00000000E+00  0.00000000E+00  0.00000000E+00
  0.00000000E+00  0.00000000E+00  0.00000000E+00
  0.00000000E+00  0.00000000E+00  0.00000000E+00
  0.00000000E+00  0.00000000E+00  0.00000000E+00
  0.00000000E+00  0.00000000E+00  0.00000000E+00
  0.00000000E+00  0.00000000E+00  0.00000000E+00
  0.00000000E+00  0.00000000E+00  0.00000000E+00
  0.00000000E+00  0.00000000E+00  0.00000000E+00
  0.00000000E+00  0.00000000E+00  0.00000000E+00
  0.00000000E+00  0.00000000E+00  0.00000000E+00
  0.00000000E+00  0.00000000E+00  0.00000000E+00
  0.00000000E+00  0.00000000E+00  0.00000000E+00
  0.00000000E+00  0.00000000E+00  0.00000000E+00
  0.00000000E+00  0.00000000E+00  0.00000000E+00
  0.00000000E+00  0.00000000E+00  0.00000000E+00
  0.00000000E+00  0.00000000E+00  0.00000000E+00
  0.00000000E+00  0.00000000E+00  0.00000000E+00
  0.00000000E+00  0.00000000E+00  0.00000000E+00
  0.00000000E+00  0.00000000E+00  0.00000000E+00
  0.00000000E+00  0.00000000E+00  0.00000000E+00
  0.00000000E+00  0.00000000E+00  0.00000000E+00
  0.00000000E+00  0.00000000E+00  0.00000000E+00
  0.00000000E+00  0.00000000E+00  0.00000000E+00
  0.00000000E+00  0.00000000E+00  0.00000000E+00
  0.00000000E+00  0.00000000E+00  0.00000000E+00
  0.00000000E+00  0.00000000E+00  0.00000000E+00
  0.00000000E+00  0.00000000E+00  0.00000000E+00
  0.00000000E+00  0.00000000E+00  0.00000000E+00
  0.00000000E+00  0.00000000E+00  0.00000000E+00
  0.00000000E+00  0.00000000E+00  0.00000000E+00
  0.00000000E+00  0.00000000E+00  0.00000000E+00
  0.00000000E+00  0.00000000E+00  0.00000000E+00
  0.00000000E+00  0.00000000E+00  0.00000000E+00
  0.00000000E+00  0.00000000E+00  0.00000000E+00
  0.00000000E+00  0.00000000E+00  0.00000000E+00
  0.00000000E+00  0.00000000E+00  0.00000000E+00
  0.00000000E+00  0.00000000E+00  0.00000000E+00
  0.00000000E+00  0.00000000E+00  0.00000000E+00
  0.00000000E+00  0.00000000E+00  0.00000000E+00
  0.00000000E+00  0.00000000E+00  0.00000000E+00
  0.00000000E+00  0.00000000E+00  0.00000000E+00
  0.00000000E+00  0.00000000E+00  0.00000000E+00
  0.00000000E+00  0.00000000E+00  0.00000000E+00
  0.00000000E+00  0.00000000E+00  0.00000000E+00
