Co Mg Na O                              
   1.00000000000000     
     8.4141216974800006    0.0000000000000000    0.0000000000000000
     0.0000000000000000    8.4141216974800006    0.0000000000000000
     0.0000000000000000    0.0000000000000000   23.4141216974799988
   Co   Mg   Na   O 
     1    31     1    32
Selective dynamics
Direct
  0.7499999495650016  0.4785285930013643  0.3613533988935619   T   T   T
  0.2500000000000000  0.0001584822521086  0.0043887242511545   T   T   T
  0.2500000000000000  0.5005581007740355  0.0040959764457164   T   T   T
  0.7500000000000000  0.0003378633389783  0.0041450827621806   T   T   T
  0.7500000000000000  0.5001836092854007  0.0037369713294409   T   T   T
  0.0000330017026723  0.2501092540448696  0.0042108630305486   T   T   T
  0.0003008670494665  0.7505378794380948  0.0042950519414550   T   T   T
  0.4999669982973277  0.2501092540448696  0.0042108630305486   T   T   T
  0.4996991329505336  0.7505378794380948  0.0042950519414550   T   T   T
  0.0010908805060878  0.0010633173281471  0.0939496921763879   T   T   T
  0.0013453684058028  0.4997045205301368  0.0932712551243975   T   T   T
  0.4989091194939122  0.0010633173281471  0.0939496921763879   T   T   T
  0.4986546315941973  0.4997045205301368  0.0932712551243975   T   T   T
  0.2500000000000000  0.2500850689000551  0.0937280850626401   T   T   T
  0.2500000000000000  0.7507936134961736  0.0941655317910252   T   T   T
  0.7500000000000000  0.2494419283406260  0.0934752827730269   T   T   T
  0.7500000000000000  0.7508294586579563  0.0931634122301444   T   T   T
  0.2500000000000000  0.0052613794943317  0.1860421944422061   T   T   T
  0.2500000000000000  0.4962791198885188  0.1851340923108296   T   T   T
  0.7500000000000000  0.0005981274699993  0.1835649134766350   T   T   T
  0.7500000000000000  0.4989594793482823  0.1795824046634200   T   T   T
  0.0048154403629354  0.2505334941945088  0.1859676627558667   T   T   T
  0.0010295687868146  0.7503591454769271  0.1844754850449720   T   T   T
  0.4951845596370646  0.2505334941945088  0.1859676627558667   T   T   T
  0.4989704312131853  0.7503591454769271  0.1844754850449720   T   T   T
  0.0041466348908573  0.0012775755118957  0.2737151242293422   T   T   T
  0.0138891687093581  0.4988378903076686  0.2736105406790900   T   T   T
  0.4958533651091427  0.0012775755118957  0.2737151242293422   T   T   T
  0.4861108312906420  0.4988378903076686  0.2736105406790900   T   T   T
  0.2500000000000000  0.7516357745045019  0.2736052452362480   T   T   T
  0.7500000000000000  0.2349839879645999  0.2727988599553716   T   T   T
  0.7500000000000000  0.7608274230912034  0.2730889710579156   T   T   T
  0.2500000000000000  0.2490241656434203  0.2980063088525244   T   T   T
  0.9998337436605124  0.0001490399906536  0.0021878679152911   T   T   T
  0.0000444620909180  0.5005030643363324  0.0018826353801186   T   T   T
  0.5001662563394876  0.0001490399906536  0.0021878679152911   T   T   T
  0.4999555379090820  0.5005030643363324  0.0018826353801186   T   T   T
  0.2500000000000000  0.2503660002499718  0.0019891541517823   T   T   T
  0.2500000000000000  0.7503272756725823  0.0020563252454937   T   T   T
  0.7500000000000000  0.2500601708443653  0.0017346809893256   T   T   T
  0.7500000000000000  0.7504510200465824  0.0019627767855775   T   T   T
  0.2500000000000000  0.9995935702798028  0.0938773621878037   T   T   T
  0.2500000000000000  0.5013081258607817  0.0939946130547908   T   T   T
  0.7500000000000000  0.9998707738583981  0.0943459631118157   T   T   T
  0.7500000000000000  0.5004572041833328  0.0929426081413749   T   T   T
  0.9987102175248438  0.2507923180101957  0.0938183286456193   T   T   T
  0.9992579352820010  0.7499168502625698  0.0942371649618164   T   T   T
  0.5012897824751562  0.2507923180101957  0.0938183286456193   T   T   T
  0.5007420647179990  0.7499168502625698  0.0942371649618164   T   T   T
  0.9995219061726635  0.0009232840826999  0.1844522734190439   T   T   T
  0.9964058175424336  0.4999109112632945  0.1852856841181483   T   T   T
  0.5004780938273365  0.0009232840826999  0.1844522734190439   T   T   T
  0.5035941824575664  0.4999109112632945  0.1852856841181483   T   T   T
  0.2500000000000000  0.2514463770772392  0.1810610159175406   T   T   T
  0.2500000000000000  0.7495714468555260  0.1834522292329505   T   T   T
  0.7500000000000000  0.2532379514319475  0.1841938367644412   T   T   T
  0.7500000000000000  0.7461518019231104  0.1843542001001154   T   T   T
  0.2499999495650016  0.9863082020233688  0.2772175195847035   T   T   T
  0.2499999495650016  0.5151085329274587  0.2769313053539784   T   T   T
  0.7499999495650016  0.9971588026487108  0.2751041796363545   T   T   T
  0.7499999495650016  0.5071218519337694  0.2877717081329517   T   T   T
  0.9839433664445992  0.2533496569455227  0.2777628991944250   T   T   T
  0.9947767053037629  0.7485191566452325  0.2755122645974413   T   T   T
  0.5160566335554008  0.2533496569455227  0.2777628991944250   T   T   T
  0.5052232946962371  0.7485191566452325  0.2755122645974413   T   T   T
 
  0.00000000E+00  0.00000000E+00  0.00000000E+00
  0.00000000E+00  0.00000000E+00  0.00000000E+00
  0.00000000E+00  0.00000000E+00  0.00000000E+00
  0.00000000E+00  0.00000000E+00  0.00000000E+00
  0.00000000E+00  0.00000000E+00  0.00000000E+00
  0.00000000E+00  0.00000000E+00  0.00000000E+00
  0.00000000E+00  0.00000000E+00  0.00000000E+00
  0.00000000E+00  0.00000000E+00  0.00000000E+00
  0.00000000E+00  0.00000000E+00  0.00000000E+00
  0.00000000E+00  0.00000000E+00  0.00000000E+00
  0.00000000E+00  0.00000000E+00  0.00000000E+00
  0.00000000E+00  0.00000000E+00  0.00000000E+00
  0.00000000E+00  0.00000000E+00  0.00000000E+00
  0.00000000E+00  0.00000000E+00  0.00000000E+00
  0.00000000E+00  0.00000000E+00  0.00000000E+00
  0.00000000E+00  0.00000000E+00  0.00000000E+00
  0.00000000E+00  0.00000000E+00  0.00000000E+00
  0.00000000E+00  0.00000000E+00  0.00000000E+00
  0.00000000E+00  0.00000000E+00  0.00000000E+00
  0.00000000E+00  0.00000000E+00  0.00000000E+00
  0.00000000E+00  0.00000000E+00  0.00000000E+00
  0.00000000E+00  0.00000000E+00  0.00000000E+00
  0.00000000E+00  0.00000000E+00  0.00000000E+00
  0.00000000E+00  0.00000000E+00  0.00000000E+00
  0.00000000E+00  0.00000000E+00  0.00000000E+00
  0.00000000E+00  0.00000000E+00  0.00000000E+00
  0.00000000E+00  0.00000000E+00  0.00000000E+00
  0.00000000E+00  0.00000000E+00  0.00000000E+00
  0.00000000E+00  0.00000000E+00  0.00000000E+00
  0.00000000E+00  0.00000000E+00  0.00000000E+00
  0.00000000E+00  0.00000000E+00  0.00000000E+00
  0.00000000E+00  0.00000000E+00  0.00000000E+00
  0.00000000E+00  0.00000000E+00  0.00000000E+00
  0.00000000E+00  0.00000000E+00  0.00000000E+00
  0.00000000E+00  0.00000000E+00  0.00000000E+00
  0.00000000E+00  0.00000000E+00  0.00000000E+00
  0.00000000E+00  0.00000000E+00  0.00000000E+00
  0.00000000E+00  0.00000000E+00  0.00000000E+00
  0.00000000E+00  0.00000000E+00  0.00000000E+00
  0.00000000E+00  0.00000000E+00  0.00000000E+00
  0.00000000E+00  0.00000000E+00  0.00000000E+00
  0.00000000E+00  0.00000000E+00  0.00000000E+00
  0.00000000E+00  0.00000000E+00  0.00000000E+00
  0.00000000E+00  0.00000000E+00  0.00000000E+00
  0.00000000E+00  0.00000000E+00  0.00000000E+00
  0.00000000E+00  0.00000000E+00  0.00000000E+00
  0.00000000E+00  0.00000000E+00  0.00000000E+00
  0.00000000E+00  0.00000000E+00  0.00000000E+00
  0.00000000E+00  0.00000000E+00  0.00000000E+00
  0.00000000E+00  0.00000000E+00  0.00000000E+00
  0.00000000E+00  0.00000000E+00  0.00000000E+00
  0.00000000E+00  0.00000000E+00  0.00000000E+00
  0.00000000E+00  0.00000000E+00  0.00000000E+00
  0.00000000E+00  0.00000000E+00  0.00000000E+00
  0.00000000E+00  0.00000000E+00  0.00000000E+00
  0.00000000E+00  0.00000000E+00  0.00000000E+00
  0.00000000E+00  0.00000000E+00  0.00000000E+00
  0.00000000E+00  0.00000000E+00  0.00000000E+00
  0.00000000E+00  0.00000000E+00  0.00000000E+00
  0.00000000E+00  0.00000000E+00  0.00000000E+00
  0.00000000E+00  0.00000000E+00  0.00000000E+00
  0.00000000E+00  0.00000000E+00  0.00000000E+00
  0.00000000E+00  0.00000000E+00  0.00000000E+00
  0.00000000E+00  0.00000000E+00  0.00000000E+00
  0.00000000E+00  0.00000000E+00  0.00000000E+00
