Nb Mg Na O                              
   1.00000000000000     
     8.4141216974800006    0.0000000000000000    0.0000000000000000
     0.0000000000000000    8.4141216974800006    0.0000000000000000
     0.0000000000000000    0.0000000000000000   23.4141216974799988
   Nb   Mg   Na   O 
     1    31     1    32
Selective dynamics
Direct
  0.7499999495650016  0.4792967776785696  0.3755071220834292   T   T   T
  0.2500000000000000  0.0001898148236158  0.0043658681420792   T   T   T
  0.2500000000000000  0.5005681672605741  0.0040202900426326   T   T   T
  0.7500000000000000  0.0003495690225311  0.0040321638376230   T   T   T
  0.7500000000000000  0.5001956826624142  0.0035548867333798   T   T   T
  0.0000311795363944  0.2501182234041306  0.0041599675093343   T   T   T
  0.0003040590629618  0.7505708263825182  0.0042311118862665   T   T   T
  0.4999688204636056  0.2501182234041306  0.0041599675093343   T   T   T
  0.4996959409370381  0.7505708263825182  0.0042311118862665   T   T   T
  0.0011799230714023  0.0010804476643693  0.0940047941793432   T   T   T
  0.0014255343555771  0.4997202242344342  0.0931214137423823   T   T   T
  0.4988200769285977  0.0010804476643693  0.0940047941793432   T   T   T
  0.4985744656444230  0.4997202242344342  0.0931214137423823   T   T   T
  0.2500000000000000  0.2499396903143645  0.0937764055329430   T   T   T
  0.2500000000000000  0.7509869550802116  0.0942000246616694   T   T   T
  0.7500000000000000  0.2492410438581945  0.0933639663681840   T   T   T
  0.7500000000000000  0.7509685267378122  0.0930375619785845   T   T   T
  0.2500000000000000  0.0053343631960471  0.1861441021860945   T   T   T
  0.2500000000000000  0.4963859183838891  0.1849400715227937   T   T   T
  0.7500000000000000  0.0004312594201082  0.1836105191076468   T   T   T
  0.7500000000000000  0.4988227240681012  0.1789157434409037   T   T   T
  0.0048208799247440  0.2503949122200613  0.1861116585807407   T   T   T
  0.0009793636620415  0.7504497595728820  0.1846190606300465   T   T   T
  0.4951791200752560  0.2503949122200613  0.1861116585807407   T   T   T
  0.4990206363379584  0.7504497595728820  0.1846190606300465   T   T   T
  0.0041686285846451  0.0014073884131281  0.2740271095600995   T   T   T
  0.0159612547823866  0.4985403350184078  0.2732472607841755   T   T   T
  0.4958313714153549  0.0014073884131281  0.2740271095600995   T   T   T
  0.4840387452176205  0.4985403350184078  0.2732472607841755   T   T   T
  0.2500000000000000  0.7517201816415802  0.2738313475876381   T   T   T
  0.7500000000000000  0.2338042497252179  0.2726776117670992   T   T   T
  0.7500000000000000  0.7611964805579877  0.2733020113774448   T   T   T
  0.2500000000000000  0.2486362032663513  0.2988131829598793   T   T   T
  0.9998283744871085  0.0001587879521927  0.0021376762760135   T   T   T
  0.0001412920234312  0.5005277212681900  0.0017842220138116   T   T   T
  0.5001716255128915  0.0001587879521927  0.0021376762760135   T   T   T
  0.4998587079765688  0.5005277212681900  0.0017842220138116   T   T   T
  0.2500000000000000  0.2504018708896959  0.0019575067641285   T   T   T
  0.2500000000000000  0.7503402268533329  0.0020216689541322   T   T   T
  0.7500000000000000  0.2499814561809916  0.0016245722349983   T   T   T
  0.7500000000000000  0.7505534500361025  0.0018365051486072   T   T   T
  0.2500000000000000  0.9996096710514670  0.0938560515419855   T   T   T
  0.2500000000000000  0.5013657366174065  0.0939925254169147   T   T   T
  0.7500000000000000  0.9998272993805192  0.0943325589314404   T   T   T
  0.7500000000000000  0.5004386559946119  0.0927475874002441   T   T   T
  0.9986428970222939  0.2508872383602047  0.0938135039051045   T   T   T
  0.9991850013697331  0.7498489351305214  0.0942564737356253   T   T   T
  0.5013571029777061  0.2508872383602047  0.0938135039051045   T   T   T
  0.5008149986302669  0.7498489351305214  0.0942564737356253   T   T   T
  0.9994563777684632  0.0008721884999591  0.1845191640028106   T   T   T
  0.9957015272903632  0.4999443093575962  0.1853474336334214   T   T   T
  0.5005436222315368  0.0008721884999591  0.1845191640028106   T   T   T
  0.5042984727096368  0.4999443093575962  0.1853474336334214   T   T   T
  0.2500000000000000  0.2516433590362531  0.1810265554033377   T   T   T
  0.2500000000000000  0.7494809110294157  0.1834467255764040   T   T   T
  0.7500000000000000  0.2536799438871447  0.1841552565472362   T   T   T
  0.7500000000000000  0.7453890038329237  0.1844455761192771   T   T   T
  0.2499999495650016  0.9864518966358012  0.2772019081925422   T   T   T
  0.2499999495650016  0.5151014109992849  0.2765629089843374   T   T   T
  0.7499999495650016  0.9968343005209375  0.2747949696933051   T   T   T
  0.7499999495650016  0.5078831844076417  0.2946548104167520   T   T   T
  0.9833549370750245  0.2543316637202320  0.2777068138784793   T   T   T
  0.9946002836322630  0.7476220462786072  0.2755275190189934   T   T   T
  0.5166450629249755  0.2543316637202320  0.2777068138784793   T   T   T
  0.5053997163677370  0.7476220462786072  0.2755275190189934   T   T   T
 
  0.00000000E+00  0.00000000E+00  0.00000000E+00
  0.00000000E+00  0.00000000E+00  0.00000000E+00
  0.00000000E+00  0.00000000E+00  0.00000000E+00
  0.00000000E+00  0.00000000E+00  0.00000000E+00
  0.00000000E+00  0.00000000E+00  0.00000000E+00
  0.00000000E+00  0.00000000E+00  0.00000000E+00
  0.00000000E+00  0.00000000E+00  0.00000000E+00
  0.00000000E+00  0.00000000E+00  0.00000000E+00
  0.00000000E+00  0.00000000E+00  0.00000000E+00
  0.00000000E+00  0.00000000E+00  0.00000000E+00
  0.00000000E+00  0.00000000E+00  0.00000000E+00
  0.00000000E+00  0.00000000E+00  0.00000000E+00
  0.00000000E+00  0.00000000E+00  0.00000000E+00
  0.00000000E+00  0.00000000E+00  0.00000000E+00
  0.00000000E+00  0.00000000E+00  0.00000000E+00
  0.00000000E+00  0.00000000E+00  0.00000000E+00
  0.00000000E+00  0.00000000E+00  0.00000000E+00
  0.00000000E+00  0.00000000E+00  0.00000000E+00
  0.00000000E+00  0.00000000E+00  0.00000000E+00
  0.00000000E+00  0.00000000E+00  0.00000000E+00
  0.00000000E+00  0.00000000E+00  0.00000000E+00
  0.00000000E+00  0.00000000E+00  0.00000000E+00
  0.00000000E+00  0.00000000E+00  0.00000000E+00
  0.00000000E+00  0.00000000E+00  0.00000000E+00
  0.00000000E+00  0.00000000E+00  0.00000000E+00
  0.00000000E+00  0.00000000E+00  0.00000000E+00
  0.00000000E+00  0.00000000E+00  0.00000000E+00
  0.00000000E+00  0.00000000E+00  0.00000000E+00
  0.00000000E+00  0.00000000E+00  0.00000000E+00
  0.00000000E+00  0.00000000E+00  0.00000000E+00
  0.00000000E+00  0.00000000E+00  0.00000000E+00
  0.00000000E+00  0.00000000E+00  0.00000000E+00
  0.00000000E+00  0.00000000E+00  0.00000000E+00
  0.00000000E+00  0.00000000E+00  0.00000000E+00
  0.00000000E+00  0.00000000E+00  0.00000000E+00
  0.00000000E+00  0.00000000E+00  0.00000000E+00
  0.00000000E+00  0.00000000E+00  0.00000000E+00
  0.00000000E+00  0.00000000E+00  0.00000000E+00
  0.00000000E+00  0.00000000E+00  0.00000000E+00
  0.00000000E+00  0.00000000E+00  0.00000000E+00
  0.00000000E+00  0.00000000E+00  0.00000000E+00
  0.00000000E+00  0.00000000E+00  0.00000000E+00
  0.00000000E+00  0.00000000E+00  0.00000000E+00
  0.00000000E+00  0.00000000E+00  0.00000000E+00
  0.00000000E+00  0.00000000E+00  0.00000000E+00
  0.00000000E+00  0.00000000E+00  0.00000000E+00
  0.00000000E+00  0.00000000E+00  0.00000000E+00
  0.00000000E+00  0.00000000E+00  0.00000000E+00
  0.00000000E+00  0.00000000E+00  0.00000000E+00
  0.00000000E+00  0.00000000E+00  0.00000000E+00
  0.00000000E+00  0.00000000E+00  0.00000000E+00
  0.00000000E+00  0.00000000E+00  0.00000000E+00
  0.00000000E+00  0.00000000E+00  0.00000000E+00
  0.00000000E+00  0.00000000E+00  0.00000000E+00
  0.00000000E+00  0.00000000E+00  0.00000000E+00
  0.00000000E+00  0.00000000E+00  0.00000000E+00
  0.00000000E+00  0.00000000E+00  0.00000000E+00
  0.00000000E+00  0.00000000E+00  0.00000000E+00
  0.00000000E+00  0.00000000E+00  0.00000000E+00
  0.00000000E+00  0.00000000E+00  0.00000000E+00
  0.00000000E+00  0.00000000E+00  0.00000000E+00
  0.00000000E+00  0.00000000E+00  0.00000000E+00
  0.00000000E+00  0.00000000E+00  0.00000000E+00
  0.00000000E+00  0.00000000E+00  0.00000000E+00
  0.00000000E+00  0.00000000E+00  0.00000000E+00
