Mg Na Ni O                              
   1.00000000000000     
     8.4141216974800006    0.0000000000000000    0.0000000000000000
     0.0000000000000000    8.4141216974800006    0.0000000000000000
     0.0000000000000000    0.0000000000000000   23.4141216974799988
   Mg   Na   Ni   O 
    31     1     1    32
Selective dynamics
Direct
  0.2500000000000000  0.0001746871192428  0.0043733890509868   T   T   T
  0.2500000000000000  0.5005497848531137  0.0040786967533415   T   T   T
  0.7500000000000000  0.0003436704625771  0.0041375117089509   T   T   T
  0.7500000000000000  0.5001836873081881  0.0037630293803538   T   T   T
  0.0000314135837514  0.2501478135647259  0.0041893852845463   T   T   T
  0.0002896723473933  0.7505421952485340  0.0042891312899914   T   T   T
  0.4999685864162484  0.2501478135647259  0.0041893852845463   T   T   T
  0.4997103276526069  0.7505421952485340  0.0042891312899914   T   T   T
  0.0010721596171588  0.0010509817861844  0.0939342780026813   T   T   T
  0.0012051708457707  0.4997323479969176  0.0932866306830359   T   T   T
  0.4989278403828413  0.0010509817861844  0.0939342780026813   T   T   T
  0.4987948291542366  0.4997323479969176  0.0932866306830359   T   T   T
  0.2500000000000000  0.2501034425549660  0.0936913291128247   T   T   T
  0.2500000000000000  0.7507525504684619  0.0941657527177221   T   T   T
  0.7500000000000000  0.2496482188279809  0.0934653807634403   T   T   T
  0.7500000000000000  0.7506768986624749  0.0931504025663571   T   T   T
  0.2500000000000000  0.0052472846888621  0.1859574914364221   T   T   T
  0.2500000000000000  0.4962483832175894  0.1851633302865886   T   T   T
  0.7500000000000000  0.0006092909815457  0.1834951319994318   T   T   T
  0.7500000000000000  0.4990063769787352  0.1803241460763796   T   T   T
  0.0048190151563782  0.2505702823617679  0.1858001160942555   T   T   T
  0.0011210601420866  0.7503528416709779  0.1843791423615929   T   T   T
  0.4951809848436216  0.2505702823617679  0.1858001160942555   T   T   T
  0.4988789398579134  0.7503528416709779  0.1843791423615929   T   T   T
  0.0038653334826046  0.0010783752233685  0.2737111504051506   T   T   T
  0.0130994353112386  0.4991551873015528  0.2734477862845008   T   T   T
  0.4961346665173952  0.0010783752233685  0.2737111504051506   T   T   T
  0.4869005646887612  0.4991551873015528  0.2734477862845008   T   T   T
  0.2500000000000000  0.7513553709257762  0.2736062113162258   T   T   T
  0.7500000000000000  0.2353181094219102  0.2724095638813100   T   T   T
  0.7500000000000000  0.7608403776671284  0.2727945293214252   T   T   T
  0.2500000000000000  0.2493348498480348  0.2981911341602169   T   T   T
  0.7499999495650016  0.4766726797444766  0.3579227499189746   T   T   T
  0.9998420258493668  0.0001741713927181  0.0021911912518821   T   T   T
  0.0000496846339642  0.5004851578111962  0.0018807708047300   T   T   T
  0.5001579741506332  0.0001741713927181  0.0021911912518821   T   T   T
  0.4999503153660358  0.5004851578111962  0.0018807708047300   T   T   T
  0.2500000000000000  0.2503569041140229  0.0019936460491316   T   T   T
  0.2500000000000000  0.7503466825453431  0.0020629084894239   T   T   T
  0.7500000000000000  0.2500250254453935  0.0017430046769400   T   T   T
  0.7500000000000000  0.7504750285779097  0.0019610917212186   T   T   T
  0.2500000000000000  0.9996317292408382  0.0938860676518280   T   T   T
  0.2500000000000000  0.5012584820028488  0.0939422336585807   T   T   T
  0.7500000000000000  0.9998800660045891  0.0942901151280504   T   T   T
  0.7500000000000000  0.5004546381916085  0.0931864823957622   T   T   T
  0.9987748132456096  0.2507271438615761  0.0938231855519841   T   T   T
  0.9993219027719524  0.7499944035543369  0.0942427885385667   T   T   T
  0.5012251867543904  0.2507271438615761  0.0938231855519841   T   T   T
  0.5006780972280476  0.7499944035543369  0.0942427885385667   T   T   T
  0.9995809331706548  0.0010016624895314  0.1844832262408361   T   T   T
  0.9969488775777621  0.4999220688889247  0.1850682742362500   T   T   T
  0.5004190668293452  0.0010016624895314  0.1844832262408361   T   T   T
  0.5030511224222379  0.4999220688889247  0.1850682742362500   T   T   T
  0.2500000000000000  0.2512945916642971  0.1811164899218033   T   T   T
  0.2500000000000000  0.7497230732786949  0.1834698406813147   T   T   T
  0.7500000000000000  0.2528049050226268  0.1840151782436107   T   T   T
  0.7500000000000000  0.7467190232877329  0.1841700003628271   T   T   T
  0.2499999495650016  0.9864530220962777  0.2772279302266572   T   T   T
  0.2499999495650016  0.5150848707309398  0.2769229535486262   T   T   T
  0.7499999495650016  0.9971802570859662  0.2751222603983861   T   T   T
  0.7499999495650016  0.5071623832789042  0.2840714999946506   T   T   T
  0.9840212449217648  0.2531531140865759  0.2778625488491983   T   T   T
  0.9950211382949312  0.7489540796115983  0.2755669144769022   T   T   T
  0.5159787550782352  0.2531531140865759  0.2778625488491983   T   T   T
  0.5049788617050688  0.7489540796115983  0.2755669144769022   T   T   T
 
  0.00000000E+00  0.00000000E+00  0.00000000E+00
  0.00000000E+00  0.00000000E+00  0.00000000E+00
  0.00000000E+00  0.00000000E+00  0.00000000E+00
  0.00000000E+00  0.00000000E+00  0.00000000E+00
  0.00000000E+00  0.00000000E+00  0.00000000E+00
  0.00000000E+00  0.00000000E+00  0.00000000E+00
  0.00000000E+00  0.00000000E+00  0.00000000E+00
  0.00000000E+00  0.00000000E+00  0.00000000E+00
  0.00000000E+00  0.00000000E+00  0.00000000E+00
  0.00000000E+00  0.00000000E+00  0.00000000E+00
  0.00000000E+00  0.00000000E+00  0.00000000E+00
  0.00000000E+00  0.00000000E+00  0.00000000E+00
  0.00000000E+00  0.00000000E+00  0.00000000E+00
  0.00000000E+00  0.00000000E+00  0.00000000E+00
  0.00000000E+00  0.00000000E+00  0.00000000E+00
  0.00000000E+00  0.00000000E+00  0.00000000E+00
  0.00000000E+00  0.00000000E+00  0.00000000E+00
  0.00000000E+00  0.00000000E+00  0.00000000E+00
  0.00000000E+00  0.00000000E+00  0.00000000E+00
  0.00000000E+00  0.00000000E+00  0.00000000E+00
  0.00000000E+00  0.00000000E+00  0.00000000E+00
  0.00000000E+00  0.00000000E+00  0.00000000E+00
  0.00000000E+00  0.00000000E+00  0.00000000E+00
  0.00000000E+00  0.00000000E+00  0.00000000E+00
  0.00000000E+00  0.00000000E+00  0.00000000E+00
  0.00000000E+00  0.00000000E+00  0.00000000E+00
  0.00000000E+00  0.00000000E+00  0.00000000E+00
  0.00000000E+00  0.00000000E+00  0.00000000E+00
  0.00000000E+00  0.00000000E+00  0.00000000E+00
  0.00000000E+00  0.00000000E+00  0.00000000E+00
  0.00000000E+00  0.00000000E+00  0.00000000E+00
  0.00000000E+00  0.00000000E+00  0.00000000E+00
  0.00000000E+00  0.00000000E+00  0.00000000E+00
  0.00000000E+00  0.00000000E+00  0.00000000E+00
  0.00000000E+00  0.00000000E+00  0.00000000E+00
  0.00000000E+00  0.00000000E+00  0.00000000E+00
  0.00000000E+00  0.00000000E+00  0.00000000E+00
  0.00000000E+00  0.00000000E+00  0.00000000E+00
  0.00000000E+00  0.00000000E+00  0.00000000E+00
  0.00000000E+00  0.00000000E+00  0.00000000E+00
  0.00000000E+00  0.00000000E+00  0.00000000E+00
  0.00000000E+00  0.00000000E+00  0.00000000E+00
  0.00000000E+00  0.00000000E+00  0.00000000E+00
  0.00000000E+00  0.00000000E+00  0.00000000E+00
  0.00000000E+00  0.00000000E+00  0.00000000E+00
  0.00000000E+00  0.00000000E+00  0.00000000E+00
  0.00000000E+00  0.00000000E+00  0.00000000E+00
  0.00000000E+00  0.00000000E+00  0.00000000E+00
  0.00000000E+00  0.00000000E+00  0.00000000E+00
  0.00000000E+00  0.00000000E+00  0.00000000E+00
  0.00000000E+00  0.00000000E+00  0.00000000E+00
  0.00000000E+00  0.00000000E+00  0.00000000E+00
  0.00000000E+00  0.00000000E+00  0.00000000E+00
  0.00000000E+00  0.00000000E+00  0.00000000E+00
  0.00000000E+00  0.00000000E+00  0.00000000E+00
  0.00000000E+00  0.00000000E+00  0.00000000E+00
  0.00000000E+00  0.00000000E+00  0.00000000E+00
  0.00000000E+00  0.00000000E+00  0.00000000E+00
  0.00000000E+00  0.00000000E+00  0.00000000E+00
  0.00000000E+00  0.00000000E+00  0.00000000E+00
  0.00000000E+00  0.00000000E+00  0.00000000E+00
  0.00000000E+00  0.00000000E+00  0.00000000E+00
  0.00000000E+00  0.00000000E+00  0.00000000E+00
  0.00000000E+00  0.00000000E+00  0.00000000E+00
  0.00000000E+00  0.00000000E+00  0.00000000E+00
