Mg Na O Ru                              
   1.00000000000000     
     8.4141216974800006    0.0000000000000000    0.0000000000000000
     0.0000000000000000    8.4141216974800006    0.0000000000000000
     0.0000000000000000    0.0000000000000000   23.4141216974799988
   Mg   Na   O    Ru
    31     1    32     1
Selective dynamics
Direct
  0.2500000000000000  0.0010212814687422  0.0051971364347383   T   T   T
  0.2500000000000000  0.5014981672782632  0.0050347572917255   T   T   T
  0.7500000000000000  0.0009576069125055  0.0049591482777407   T   T   T
  0.7500000000000000  0.5009326712801376  0.0047014320728405   T   T   T
  0.0000789067955646  0.2509990638904746  0.0049874082428867   T   T   T
  0.0003360354651488  0.7512845433700792  0.0051563237374765   T   T   T
  0.4999210932044356  0.2509990638904746  0.0049874082428867   T   T   T
  0.4996639645348512  0.7512845433700792  0.0051563237374765   T   T   T
  0.0012516640098677  0.0018599230787123  0.0947067303006814   T   T   T
  0.0009736913464606  0.5006859993622863  0.0942530042215868   T   T   T
  0.4987483359901322  0.0018599230787123  0.0947067303006814   T   T   T
  0.4990263086535394  0.5006859993622863  0.0942530042215868   T   T   T
  0.2500000000000000  0.2510298865336220  0.0944740255003531   T   T   T
  0.2500000000000000  0.7517312925617586  0.0950690666631429   T   T   T
  0.7500000000000000  0.2504915392436585  0.0941740808210648   T   T   T
  0.7500000000000000  0.7507857728393322  0.0940239295181951   T   T   T
  0.2500000000000000  0.0062778488425090  0.1871344263977316   T   T   T
  0.2500000000000000  0.4974258772038736  0.1860676425843828   T   T   T
  0.7500000000000000 -0.0012395083769173  0.1837715784479109   T   T   T
  0.7500000000000000  0.4998032312252296  0.1824407636521514   T   T   T
  0.0054672331292826  0.2517407948135715  0.1860545626594622   T   T   T
  0.0013517761349196  0.7514384946714699  0.1852317360326212   T   T   T
  0.4945327668707173  0.2517407948135715  0.1860545626594622   T   T   T
  0.4986482238650802  0.7514384946714699  0.1852317360326212   T   T   T
  0.0040591683969827  0.0005317047808785  0.2751446782492123   T   T   T
  0.0122166446704619  0.5025771286558216  0.2737957211451647   T   T   T
  0.4959408316030174  0.0005317047808785  0.2751446782492123   T   T   T
  0.4877833553295381  0.5025771286558216  0.2737957211451647   T   T   T
  0.2500000000000000  0.7527198093136658  0.2746713337039001   T   T   T
  0.7500000000000000  0.2298409369843886  0.2699297962676956   T   T   T
  0.7500000000000000  0.7587277530993881  0.2737239311113129   T   T   T
  0.2500000000000000  0.2516119598073440  0.3005727547993609   T   T   T
 -0.0001586873590089  0.0009602508296715  0.0030016939832061   T   T   T
 -0.0000158995282749  0.5013538731933869  0.0028077872680745   T   T   T
  0.5001586873590090  0.0009602508296715  0.0030016939832061   T   T   T
  0.5000158995282749  0.5013538731933869  0.0028077872680745   T   T   T
  0.2500000000000000  0.2512643216439763  0.0027835843002578   T   T   T
  0.2500000000000000  0.7512503633452629  0.0029253094248732   T   T   T
  0.7500000000000000  0.2508225315254956  0.0025586658562953   T   T   T
  0.7500000000000000  0.7510750702076678  0.0028177452194798   T   T   T
  0.2500000000000000  0.0006968195026484  0.0947899106116517   T   T   T
  0.2500000000000000  0.5021066918905659  0.0947773927788656   T   T   T
  0.7500000000000000  0.0003687003389080  0.0949786497182925   T   T   T
  0.7500000000000000  0.5009721663862546  0.0943388117634381   T   T   T
 -0.0010337669551151  0.2514192152037845  0.0946060042540048   T   T   T
 -0.0005692489691955  0.7511261890553294  0.0951409705944588   T   T   T
  0.5010337669551150  0.2514192152037845  0.0946060042540048   T   T   T
  0.5005692489691956  0.7511261890553294  0.0951409705944588   T   T   T
 -0.0003301858725299  0.0028283434664023  0.1856267019671774   T   T   T
 -0.0022691697386396  0.5002883067006505  0.1856494618090703   T   T   T
  0.5003301858725299  0.0028283434664023  0.1856267019671774   T   T   T
  0.5022691697386396  0.5002883067006505  0.1856494618090703   T   T   T
  0.2500000000000000  0.2521364396358522  0.1821916155791462   T   T   T
  0.2500000000000000  0.7512485888135130  0.1843441154000809   T   T   T
  0.7500000000000000  0.2521305232945061  0.1841624827323572   T   T   T
  0.7500000000000000  0.7476182284473502  0.1847138929000363   T   T   T
  0.2499999495650016 -0.0116086796771183  0.2783149879301053   T   T   T
  0.2499999495650016  0.5160744483375682  0.2773412456610430   T   T   T
  0.7499999495650016 -0.0047279613611050  0.2752176759400111   T   T   T
  0.7499999495650016  0.5098485349725412  0.2814871437176801   T   T   T
 -0.0183112462705624  0.2556889728215708  0.2808137360266338   T   T   T
 -0.0042212645299486  0.7504488507572648  0.2764469192408485   T   T   T
  0.5183112462705627  0.2556889728215708  0.2808137360266338   T   T   T
  0.5042212645299484  0.7504488507572648  0.2764469192408485   T   T   T
  0.7499999495650016  0.4246437771759032  0.3598329944119772   T   T   T
 
  0.00000000E+00  0.00000000E+00  0.00000000E+00
  0.00000000E+00  0.00000000E+00  0.00000000E+00
  0.00000000E+00  0.00000000E+00  0.00000000E+00
  0.00000000E+00  0.00000000E+00  0.00000000E+00
  0.00000000E+00  0.00000000E+00  0.00000000E+00
  0.00000000E+00  0.00000000E+00  0.00000000E+00
  0.00000000E+00  0.00000000E+00  0.00000000E+00
  0.00000000E+00  0.00000000E+00  0.00000000E+00
  0.00000000E+00  0.00000000E+00  0.00000000E+00
  0.00000000E+00  0.00000000E+00  0.00000000E+00
  0.00000000E+00  0.00000000E+00  0.00000000E+00
  0.00000000E+00  0.00000000E+00  0.00000000E+00
  0.00000000E+00  0.00000000E+00  0.00000000E+00
  0.00000000E+00  0.00000000E+00  0.00000000E+00
  0.00000000E+00  0.00000000E+00  0.00000000E+00
  0.00000000E+00  0.00000000E+00  0.00000000E+00
  0.00000000E+00  0.00000000E+00  0.00000000E+00
  0.00000000E+00  0.00000000E+00  0.00000000E+00
  0.00000000E+00  0.00000000E+00  0.00000000E+00
  0.00000000E+00  0.00000000E+00  0.00000000E+00
  0.00000000E+00  0.00000000E+00  0.00000000E+00
  0.00000000E+00  0.00000000E+00  0.00000000E+00
  0.00000000E+00  0.00000000E+00  0.00000000E+00
  0.00000000E+00  0.00000000E+00  0.00000000E+00
  0.00000000E+00  0.00000000E+00  0.00000000E+00
  0.00000000E+00  0.00000000E+00  0.00000000E+00
  0.00000000E+00  0.00000000E+00  0.00000000E+00
  0.00000000E+00  0.00000000E+00  0.00000000E+00
  0.00000000E+00  0.00000000E+00  0.00000000E+00
  0.00000000E+00  0.00000000E+00  0.00000000E+00
  0.00000000E+00  0.00000000E+00  0.00000000E+00
  0.00000000E+00  0.00000000E+00  0.00000000E+00
  0.00000000E+00  0.00000000E+00  0.00000000E+00
  0.00000000E+00  0.00000000E+00  0.00000000E+00
  0.00000000E+00  0.00000000E+00  0.00000000E+00
  0.00000000E+00  0.00000000E+00  0.00000000E+00
  0.00000000E+00  0.00000000E+00  0.00000000E+00
  0.00000000E+00  0.00000000E+00  0.00000000E+00
  0.00000000E+00  0.00000000E+00  0.00000000E+00
  0.00000000E+00  0.00000000E+00  0.00000000E+00
  0.00000000E+00  0.00000000E+00  0.00000000E+00
  0.00000000E+00  0.00000000E+00  0.00000000E+00
  0.00000000E+00  0.00000000E+00  0.00000000E+00
  0.00000000E+00  0.00000000E+00  0.00000000E+00
  0.00000000E+00  0.00000000E+00  0.00000000E+00
  0.00000000E+00  0.00000000E+00  0.00000000E+00
  0.00000000E+00  0.00000000E+00  0.00000000E+00
  0.00000000E+00  0.00000000E+00  0.00000000E+00
  0.00000000E+00  0.00000000E+00  0.00000000E+00
  0.00000000E+00  0.00000000E+00  0.00000000E+00
  0.00000000E+00  0.00000000E+00  0.00000000E+00
  0.00000000E+00  0.00000000E+00  0.00000000E+00
  0.00000000E+00  0.00000000E+00  0.00000000E+00
  0.00000000E+00  0.00000000E+00  0.00000000E+00
  0.00000000E+00  0.00000000E+00  0.00000000E+00
  0.00000000E+00  0.00000000E+00  0.00000000E+00
  0.00000000E+00  0.00000000E+00  0.00000000E+00
  0.00000000E+00  0.00000000E+00  0.00000000E+00
  0.00000000E+00  0.00000000E+00  0.00000000E+00
  0.00000000E+00  0.00000000E+00  0.00000000E+00
  0.00000000E+00  0.00000000E+00  0.00000000E+00
  0.00000000E+00  0.00000000E+00  0.00000000E+00
  0.00000000E+00  0.00000000E+00  0.00000000E+00
  0.00000000E+00  0.00000000E+00  0.00000000E+00
  0.00000000E+00  0.00000000E+00  0.00000000E+00
