Mg Na O V                               
   1.00000000000000     
     8.4141216974800006    0.0000000000000000    0.0000000000000000
     0.0000000000000000    8.4141216974800006    0.0000000000000000
     0.0000000000000000    0.0000000000000000   23.4141216974799988
   Mg   Na   O    V 
    31     1    32     1
Selective dynamics
Direct
  0.2500000000000000  0.0000168092642773  0.0047548376007033   T   T   T
  0.2500000000000000  0.5004334624615042  0.0044396223471199   T   T   T
  0.7500000000000000  0.0001749391280649  0.0043927459846355   T   T   T
  0.7500000000000000  0.5000180216261915  0.0039348053437924   T   T   T
  0.0000437463125510  0.2498990850108972  0.0045346437940929   T   T   T
  0.0003451993809017  0.7504508254953575  0.0046208362493704   T   T   T
  0.4999562536874491  0.2498990850108972  0.0045346437940929   T   T   T
  0.4996548006190984  0.7504508254953575  0.0046208362493704   T   T   T
  0.0011793094504330  0.0009206660565270  0.0943430910650028   T   T   T
  0.0014534618038395  0.4995285427582827  0.0935430215739234   T   T   T
  0.4988206905495670  0.0009206660565270  0.0943430910650028   T   T   T
  0.4985465381961605  0.4995285427582827  0.0935430215739234   T   T   T
  0.2500000000000000  0.2498607522165154  0.0941348896873114   T   T   T
  0.2500000000000000  0.7507144317044664  0.0945708640250534   T   T   T
  0.7500000000000000  0.2492445247426301  0.0937158582746819   T   T   T
  0.7500000000000000  0.7506983532308777  0.0933794212495093   T   T   T
  0.2500000000000000  0.0052135666389497  0.1864987876237953   T   T   T
  0.2500000000000000  0.4961240300188327  0.1856050384451013   T   T   T
  0.7500000000000000  0.0003453048393749  0.1838287516031693   T   T   T
  0.7500000000000000  0.4989068669168676  0.1796717844118437   T   T   T
  0.0050672125515753  0.2504676991108269  0.1863914079375743   T   T   T
  0.0012527868668297  0.7502253727481109  0.1848396264159292   T   T   T
  0.4949327874484247  0.2504676991108269  0.1863914079375743   T   T   T
  0.4987472131331704  0.7502253727481109  0.1848396264159292   T   T   T
  0.0042653224777179  0.0013044002109928  0.2742170715000000   T   T   T
  0.0137280872879779  0.4989069465816429  0.2738382694120669   T   T   T
  0.4957346775222820  0.0013044002109928  0.2742170715000000   T   T   T
  0.4862719127120220  0.4989069465816429  0.2738382694120669   T   T   T
  0.2500000000000000  0.7514334059296633  0.2742036533009679   T   T   T
  0.7500000000000000  0.2340159963494868  0.2725567126141186   T   T   T
  0.7500000000000000  0.7610764613485761  0.2729951853936694   T   T   T
  0.2500000000000000  0.2492843258199275  0.2995375166617767   T   T   T
  0.9998314461347850  0.0000047165934201  0.0025352874001697   T   T   T
  0.0001445956577093  0.5003553257119701  0.0021666580860822   T   T   T
  0.5001685538652150  0.0000047165934201  0.0025352874001697   T   T   T
  0.4998554043422908  0.5003553257119701  0.0021666580860822   T   T   T
  0.2500000000000000  0.2502176512921450  0.0023723420595392   T   T   T
  0.2500000000000000  0.7502229171425315  0.0024355617957734   T   T   T
  0.7500000000000000  0.2498547322527477  0.0019923653411615   T   T   T
  0.7500000000000000  0.7503591178092485  0.0022283167407448   T   T   T
  0.2500000000000000  0.9994309638774466  0.0942689467710321   T   T   T
  0.2500000000000000  0.5011857075341195  0.0943620061258346   T   T   T
  0.7500000000000000  0.9997060573491156  0.0946699680803798   T   T   T
  0.7500000000000000  0.5002602199243207  0.0931834620285552   T   T   T
  0.9986590090600406  0.2506565568085212  0.0941741483503599   T   T   T
  0.9992252661544764  0.7497542100256325  0.0946079185389968   T   T   T
  0.5013409909399594  0.2506565568085212  0.0941741483503599   T   T   T
  0.5007747338455236  0.7497542100256325  0.0946079185389968   T   T   T
  0.9994119541534595  0.0008746950385261  0.1848746015641223   T   T   T
  0.9960934092680236  0.4998174457037843  0.1856021570849580   T   T   T
  0.5005880458465405  0.0008746950385261  0.1848746015641223   T   T   T
  0.5039065907319764  0.4998174457037843  0.1856021570849580   T   T   T
  0.2500000000000000  0.2513204996835167  0.1814347576584054   T   T   T
  0.2500000000000000  0.7494979738797748  0.1838711081008340   T   T   T
  0.7500000000000000  0.2534289537402058  0.1844787317990221   T   T   T
  0.7500000000000000  0.7457659500263815  0.1846102407513409   T   T   T
  0.2499999495650016  0.9864414529032659  0.2776097131778052   T   T   T
  0.2499999495650016  0.5149782750353851  0.2770607435541970   T   T   T
  0.7499999495650016  0.9968478816203381  0.2752705838850779   T   T   T
  0.7499999495650016  0.5078992714778934  0.2918117516707562   T   T   T
  0.9830249815425797  0.2538171298256327  0.2784580504880153   T   T   T
  0.9945773879237437  0.7483961994219958  0.2759926201356619   T   T   T
  0.5169750184574203  0.2538171298256327  0.2784580504880153   T   T   T
  0.5054226120762563  0.7483961994219958  0.2759926201356619   T   T   T
  0.7499999495650016  0.4842614880110967  0.3688894267066004   T   T   T
 
  0.00000000E+00  0.00000000E+00  0.00000000E+00
  0.00000000E+00  0.00000000E+00  0.00000000E+00
  0.00000000E+00  0.00000000E+00  0.00000000E+00
  0.00000000E+00  0.00000000E+00  0.00000000E+00
  0.00000000E+00  0.00000000E+00  0.00000000E+00
  0.00000000E+00  0.00000000E+00  0.00000000E+00
  0.00000000E+00  0.00000000E+00  0.00000000E+00
  0.00000000E+00  0.00000000E+00  0.00000000E+00
  0.00000000E+00  0.00000000E+00  0.00000000E+00
  0.00000000E+00  0.00000000E+00  0.00000000E+00
  0.00000000E+00  0.00000000E+00  0.00000000E+00
  0.00000000E+00  0.00000000E+00  0.00000000E+00
  0.00000000E+00  0.00000000E+00  0.00000000E+00
  0.00000000E+00  0.00000000E+00  0.00000000E+00
  0.00000000E+00  0.00000000E+00  0.00000000E+00
  0.00000000E+00  0.00000000E+00  0.00000000E+00
  0.00000000E+00  0.00000000E+00  0.00000000E+00
  0.00000000E+00  0.00000000E+00  0.00000000E+00
  0.00000000E+00  0.00000000E+00  0.00000000E+00
  0.00000000E+00  0.00000000E+00  0.00000000E+00
  0.00000000E+00  0.00000000E+00  0.00000000E+00
  0.00000000E+00  0.00000000E+00  0.00000000E+00
  0.00000000E+00  0.00000000E+00  0.00000000E+00
  0.00000000E+00  0.00000000E+00  0.00000000E+00
  0.00000000E+00  0.00000000E+00  0.00000000E+00
  0.00000000E+00  0.00000000E+00  0.00000000E+00
  0.00000000E+00  0.00000000E+00  0.00000000E+00
  0.00000000E+00  0.00000000E+00  0.00000000E+00
  0.00000000E+00  0.00000000E+00  0.00000000E+00
  0.00000000E+00  0.00000000E+00  0.00000000E+00
  0.00000000E+00  0.00000000E+00  0.00000000E+00
  0.00000000E+00  0.00000000E+00  0.00000000E+00
  0.00000000E+00  0.00000000E+00  0.00000000E+00
  0.00000000E+00  0.00000000E+00  0.00000000E+00
  0.00000000E+00  0.00000000E+00  0.00000000E+00
  0.00000000E+00  0.00000000E+00  0.00000000E+00
  0.00000000E+00  0.00000000E+00  0.00000000E+00
  0.00000000E+00  0.00000000E+00  0.00000000E+00
  0.00000000E+00  0.00000000E+00  0.00000000E+00
  0.00000000E+00  0.00000000E+00  0.00000000E+00
  0.00000000E+00  0.00000000E+00  0.00000000E+00
  0.00000000E+00  0.00000000E+00  0.00000000E+00
  0.00000000E+00  0.00000000E+00  0.00000000E+00
  0.00000000E+00  0.00000000E+00  0.00000000E+00
  0.00000000E+00  0.00000000E+00  0.00000000E+00
  0.00000000E+00  0.00000000E+00  0.00000000E+00
  0.00000000E+00  0.00000000E+00  0.00000000E+00
  0.00000000E+00  0.00000000E+00  0.00000000E+00
  0.00000000E+00  0.00000000E+00  0.00000000E+00
  0.00000000E+00  0.00000000E+00  0.00000000E+00
  0.00000000E+00  0.00000000E+00  0.00000000E+00
  0.00000000E+00  0.00000000E+00  0.00000000E+00
  0.00000000E+00  0.00000000E+00  0.00000000E+00
  0.00000000E+00  0.00000000E+00  0.00000000E+00
  0.00000000E+00  0.00000000E+00  0.00000000E+00
  0.00000000E+00  0.00000000E+00  0.00000000E+00
  0.00000000E+00  0.00000000E+00  0.00000000E+00
  0.00000000E+00  0.00000000E+00  0.00000000E+00
  0.00000000E+00  0.00000000E+00  0.00000000E+00
  0.00000000E+00  0.00000000E+00  0.00000000E+00
  0.00000000E+00  0.00000000E+00  0.00000000E+00
  0.00000000E+00  0.00000000E+00  0.00000000E+00
  0.00000000E+00  0.00000000E+00  0.00000000E+00
  0.00000000E+00  0.00000000E+00  0.00000000E+00
  0.00000000E+00  0.00000000E+00  0.00000000E+00
