Mg Na O Pt                              
   1.00000000000000     
     8.4141216974800006    0.0000000000000000    0.0000000000000000
     0.0000000000000000    8.4141216974800006    0.0000000000000000
     0.0000000000000000    0.0000000000000000   23.4141216974799988
   Mg   Na   O    Pt
    31     1    32     1
Selective dynamics
Direct
  0.2500000000000000  0.0000772143374523  0.0044649599640518   T   T   T
  0.2500000000000000  0.5006726164527305  0.0042641411449540   T   T   T
  0.7500000000000000  0.0002502769074181  0.0044136376980153   T   T   T
  0.7500000000000000  0.5003421428605318  0.0041596602407942   T   T   T
 -0.0001719734712313  0.2502836980729889  0.0043037555072247   T   T   T
  0.0000938067222294  0.7504523633912831  0.0045163743340893   T   T   T
  0.5001719734712314  0.2502836980729889  0.0043037555072247   T   T   T
  0.4999061932777706  0.7504523633912831  0.0045163743340893   T   T   T
  0.0009144967847423  0.0009834423326445  0.0940766236223451   T   T   T
  0.0011179997076549  0.4998219535787421  0.0937065577142042   T   T   T
  0.4990855032152578  0.0009834423326445  0.0940766236223451   T   T   T
  0.4988820002923449  0.4998219535787421  0.0937065577142042   T   T   T
  0.2500000000000000  0.2502523850544423  0.0934756611703328   T   T   T
  0.2500000000000000  0.7506069811354207  0.0943405263219718   T   T   T
  0.7500000000000000  0.2496991641906732  0.0938328510875740   T   T   T
  0.7500000000000000  0.7505731194333468  0.0936312582303458   T   T   T
  0.2500000000000000  0.0050106605827095  0.1861191082896727   T   T   T
  0.2500000000000000  0.4963005830676404  0.1856764305124848   T   T   T
  0.7500000000000000  0.0007588661528155  0.1839060097115076   T   T   T
  0.7500000000000000  0.4986720646210860  0.1812670151889041   T   T   T
  0.0043286079625578  0.2507751319653573  0.1858685897828283   T   T   T
  0.0009187420024588  0.7500621848973769  0.1846613008768576   T   T   T
  0.4956713920374422  0.2507751319653573  0.1858685897828283   T   T   T
  0.4990812579975411  0.7500621848973769  0.1846613008768576   T   T   T
  0.0033143769261576  0.0005732093549441  0.2738129912155300   T   T   T
  0.0131450210104147  0.4993277036133725  0.2743875090335681   T   T   T
  0.4966856230738424  0.0005732093549441  0.2738129912155300   T   T   T
  0.4868549789895853  0.4993277036133725  0.2743875090335681   T   T   T
  0.2500000000000000  0.7510010701368527  0.2740045664273388   T   T   T
  0.7500000000000000  0.2365069915970342  0.2737502749878685   T   T   T
  0.7500000000000000  0.7607714982882708  0.2736604506288269   T   T   T
  0.2500000000000000  0.2496380112141763  0.3016107990244686   T   T   T
  0.9998510799851669  0.0002063643099963  0.0022453844485080   T   T   T
  0.0000423041449443  0.5005530490477008  0.0020810633077098   T   T   T
  0.5001489200148331  0.0002063643099963  0.0022453844485080   T   T   T
  0.4999576958550557  0.5005530490477008  0.0020810633077098   T   T   T
  0.2500000000000000  0.2503722322217329  0.0019490708173611   T   T   T
  0.2500000000000000  0.7503702288250649  0.0021830084056450   T   T   T
  0.7500000000000000  0.2501289031003350  0.0019592698917097   T   T   T
  0.7500000000000000  0.7504611825628255  0.0022314341994371   T   T   T
  0.2500000000000000  0.9997757978285128  0.0939322347438818   T   T   T
  0.2500000000000000  0.5011420415052373  0.0940258419737538   T   T   T
  0.7500000000000000 -0.0000741867808336  0.0944048115693225   T   T   T
  0.7500000000000000  0.5003902097994347  0.0936236425746197   T   T   T
  0.9989941521028766  0.2506941420155418  0.0938741217123342   T   T   T
  0.9994229623378038  0.7501099210648851  0.0943850715050089   T   T   T
  0.5010058478971234  0.2506941420155418  0.0938741217123342   T   T   T
  0.5005770376621962  0.7501099210648851  0.0943850715050089   T   T   T
  0.9998419778303035  0.0010623469484875  0.1844339371090735   T   T   T
  0.9976817661495230  0.4998463129884914  0.1851276413923175   T   T   T
  0.5001580221696965  0.0010623469484875  0.1844339371090735   T   T   T
  0.5023182338504770  0.4998463129884914  0.1851276413923175   T   T   T
  0.2500000000000000  0.2509923792804100  0.1809848073370425   T   T   T
  0.2500000000000000  0.7500185890268768  0.1835556913765174   T   T   T
  0.7500000000000000  0.2521796108243925  0.1841327837370640   T   T   T
  0.7500000000000000  0.7471786453895464  0.1842965200478087   T   T   T
  0.2499999495650016  0.9871034931844995  0.2770940585993347   T   T   T
  0.2499999495650016  0.5144744028464130  0.2768479110271556   T   T   T
  0.7499999495650016  0.9976385170621286  0.2751000574603583   T   T   T
  0.7499999495650016  0.5065444582247473  0.2784356229498626   T   T   T
  0.9864511752204951  0.2516417485437321  0.2770476869017899   T   T   T
  0.9959224890269462  0.7497423811935255  0.2753990953422830   T   T   T
  0.5135488247795049  0.2516417485437321  0.2770476869017899   T   T   T
  0.5040775109730538  0.7497423811935255  0.2753990953422830   T   T   T
  0.7499999495650016  0.4778979424339383  0.3605618865136420   T   T   T
 
  0.00000000E+00  0.00000000E+00  0.00000000E+00
  0.00000000E+00  0.00000000E+00  0.00000000E+00
  0.00000000E+00  0.00000000E+00  0.00000000E+00
  0.00000000E+00  0.00000000E+00  0.00000000E+00
  0.00000000E+00  0.00000000E+00  0.00000000E+00
  0.00000000E+00  0.00000000E+00  0.00000000E+00
  0.00000000E+00  0.00000000E+00  0.00000000E+00
  0.00000000E+00  0.00000000E+00  0.00000000E+00
  0.00000000E+00  0.00000000E+00  0.00000000E+00
  0.00000000E+00  0.00000000E+00  0.00000000E+00
  0.00000000E+00  0.00000000E+00  0.00000000E+00
  0.00000000E+00  0.00000000E+00  0.00000000E+00
  0.00000000E+00  0.00000000E+00  0.00000000E+00
  0.00000000E+00  0.00000000E+00  0.00000000E+00
  0.00000000E+00  0.00000000E+00  0.00000000E+00
  0.00000000E+00  0.00000000E+00  0.00000000E+00
  0.00000000E+00  0.00000000E+00  0.00000000E+00
  0.00000000E+00  0.00000000E+00  0.00000000E+00
  0.00000000E+00  0.00000000E+00  0.00000000E+00
  0.00000000E+00  0.00000000E+00  0.00000000E+00
  0.00000000E+00  0.00000000E+00  0.00000000E+00
  0.00000000E+00  0.00000000E+00  0.00000000E+00
  0.00000000E+00  0.00000000E+00  0.00000000E+00
  0.00000000E+00  0.00000000E+00  0.00000000E+00
  0.00000000E+00  0.00000000E+00  0.00000000E+00
  0.00000000E+00  0.00000000E+00  0.00000000E+00
  0.00000000E+00  0.00000000E+00  0.00000000E+00
  0.00000000E+00  0.00000000E+00  0.00000000E+00
  0.00000000E+00  0.00000000E+00  0.00000000E+00
  0.00000000E+00  0.00000000E+00  0.00000000E+00
  0.00000000E+00  0.00000000E+00  0.00000000E+00
  0.00000000E+00  0.00000000E+00  0.00000000E+00
  0.00000000E+00  0.00000000E+00  0.00000000E+00
  0.00000000E+00  0.00000000E+00  0.00000000E+00
  0.00000000E+00  0.00000000E+00  0.00000000E+00
  0.00000000E+00  0.00000000E+00  0.00000000E+00
  0.00000000E+00  0.00000000E+00  0.00000000E+00
  0.00000000E+00  0.00000000E+00  0.00000000E+00
  0.00000000E+00  0.00000000E+00  0.00000000E+00
  0.00000000E+00  0.00000000E+00  0.00000000E+00
  0.00000000E+00  0.00000000E+00  0.00000000E+00
  0.00000000E+00  0.00000000E+00  0.00000000E+00
  0.00000000E+00  0.00000000E+00  0.00000000E+00
  0.00000000E+00  0.00000000E+00  0.00000000E+00
  0.00000000E+00  0.00000000E+00  0.00000000E+00
  0.00000000E+00  0.00000000E+00  0.00000000E+00
  0.00000000E+00  0.00000000E+00  0.00000000E+00
  0.00000000E+00  0.00000000E+00  0.00000000E+00
  0.00000000E+00  0.00000000E+00  0.00000000E+00
  0.00000000E+00  0.00000000E+00  0.00000000E+00
  0.00000000E+00  0.00000000E+00  0.00000000E+00
  0.00000000E+00  0.00000000E+00  0.00000000E+00
  0.00000000E+00  0.00000000E+00  0.00000000E+00
  0.00000000E+00  0.00000000E+00  0.00000000E+00
  0.00000000E+00  0.00000000E+00  0.00000000E+00
  0.00000000E+00  0.00000000E+00  0.00000000E+00
  0.00000000E+00  0.00000000E+00  0.00000000E+00
  0.00000000E+00  0.00000000E+00  0.00000000E+00
  0.00000000E+00  0.00000000E+00  0.00000000E+00
  0.00000000E+00  0.00000000E+00  0.00000000E+00
  0.00000000E+00  0.00000000E+00  0.00000000E+00
  0.00000000E+00  0.00000000E+00  0.00000000E+00
  0.00000000E+00  0.00000000E+00  0.00000000E+00
  0.00000000E+00  0.00000000E+00  0.00000000E+00
  0.00000000E+00  0.00000000E+00  0.00000000E+00
