Cr Mg Na O                              
   1.00000000000000     
     8.4141216974800006    0.0000000000000000    0.0000000000000000
     0.0000000000000000    8.4141216974800006    0.0000000000000000
     0.0000000000000000    0.0000000000000000   23.4141216974799988
   Cr   Mg   Na   O 
     1    31     1    32
Selective dynamics
Direct
  0.7499999495650016  0.4802857502728231  0.3707334899960987   T   T   T
  0.2500000000000000  0.0001511829447903  0.0044154576505540   T   T   T
  0.2500000000000000  0.5005459116148553  0.0040992028745087   T   T   T
  0.7500000000000000  0.0003058568687084  0.0041652330044870   T   T   T
  0.7500000000000000  0.5001535732785456  0.0036978305818576   T   T   T
 -0.0000149777456888  0.2501236103742174  0.0042643680991924   T   T   T
  0.0002577371174313  0.7505106429076562  0.0043556551623759   T   T   T
  0.5000149777456889  0.2501236103742174  0.0042643680991924   T   T   T
  0.4997422628825688  0.7505106429076562  0.0043556551623759   T   T   T
  0.0011189265723145  0.0010294155823552  0.0941589483912695   T   T   T
  0.0015273452444649  0.4996931691558503  0.0932300898665362   T   T   T
  0.4988810734276855  0.0010294155823552  0.0941589483912695   T   T   T
  0.4984726547555351  0.4996931691558503  0.0932300898665362   T   T   T
  0.2500000000000000  0.2500198692671766  0.0939444020048039   T   T   T
  0.2500000000000000  0.7508033863820657  0.0943457053075695   T   T   T
  0.7500000000000000  0.2491695211933825  0.0934412883943674   T   T   T
  0.7500000000000000  0.7509183577336735  0.0931451236128322   T   T   T
  0.2500000000000000  0.0051504487627115  0.1862365933269647   T   T   T
  0.2500000000000000  0.4963531091499165  0.1852632245533400   T   T   T
  0.7500000000000000  0.0000539942693396  0.1838257793404638   T   T   T
  0.7500000000000000  0.4989742114428729  0.1792878183363416   T   T   T
  0.0048656796103879  0.2504212837017796  0.1862210459078069   T   T   T
  0.0009468727230215  0.7502981822921745  0.1847653135783032   T   T   T
  0.4951343203896121  0.2504212837017796  0.1862210459078069   T   T   T
  0.4990531272769784  0.7502981822921745  0.1847653135783032   T   T   T
  0.0040366552126269  0.0010587194633165  0.2739494252813045   T   T   T
  0.0126235785783600  0.4990871131399860  0.2733551519575132   T   T   T
  0.4959633447873731  0.0010587194633165  0.2739494252813045   T   T   T
  0.4873764214216399  0.4990871131399860  0.2733551519575132   T   T   T
  0.2500000000000000  0.7516232255908151  0.2737539159056989   T   T   T
  0.7500000000000000  0.2355957612703067  0.2722125363665710   T   T   T
  0.7500000000000000  0.7590198522841825  0.2731594461962475   T   T   T
  0.2500000000000000  0.2488204800081186  0.2977892447164192   T   T   T
  0.9998461607373871  0.0001437109951280  0.0022584345584893   T   T   T
  0.0002368387170504  0.5004855296274162  0.0018449906437712   T   T   T
  0.5001538392626129  0.0001437109951280  0.0022584345584893   T   T   T
  0.4997631612829496  0.5004855296274162  0.0018449906437712   T   T   T
  0.2500000000000000  0.2503264449589991  0.0020549023716805   T   T   T
  0.2500000000000000  0.7503452473214778  0.0021127899922843   T   T   T
  0.7500000000000000  0.2498352439185528  0.0017161962563093   T   T   T
  0.7500000000000000  0.7506332096471060  0.0019275766327534   T   T   T
  0.2500000000000000  0.9995820306131028  0.0939785855780192   T   T   T
  0.2500000000000000  0.5013008080049438  0.0940748411166608   T   T   T
  0.7500000000000000  0.9997702569281689  0.0944525948031932   T   T   T
  0.7500000000000000  0.5003725822547607  0.0928354636688686   T   T   T
  0.9987095234913858  0.2507538428115589  0.0939327264061427   T   T   T
  0.9992498704995645  0.7498953818539706  0.0943871424617303   T   T   T
  0.5012904765086142  0.2507538428115589  0.0939327264061427   T   T   T
  0.5007501295004355  0.7498953818539706  0.0943871424617303   T   T   T
  0.9994472476511868  0.0009141460164917  0.1846048819129253   T   T   T
  0.9959000163954062  0.4998127073713725  0.1853298443118197   T   T   T
  0.5005527523488132  0.0009141460164917  0.1846048819129253   T   T   T
  0.5040999836045938  0.4998127073713725  0.1853298443118197   T   T   T
  0.2500000000000000  0.2514184076577085  0.1812269859344313   T   T   T
  0.2500000000000000  0.7493955955157956  0.1835184544851517   T   T   T
  0.7500000000000000  0.2536039561644106  0.1841915677958541   T   T   T
  0.7500000000000000  0.7454915283981174  0.1844417227714199   T   T   T
  0.2499999495650016  0.9864250475502384  0.2773053631491280   T   T   T
  0.2499999495650016  0.5148589038166068  0.2769826799214312   T   T   T
  0.7499999495650016  0.9964974559828310  0.2752839140511605   T   T   T
  0.7499999495650016  0.5090979318103117  0.2923439019138830   T   T   T
  0.9831660484161087  0.2536753087390139  0.2784107153451393   T   T   T
  0.9954438414913235  0.7486476645320063  0.2759398164744883   T   T   T
  0.5168339515838913  0.2536753087390139  0.2784107153451393   T   T   T
  0.5045561585086765  0.7486476645320063  0.2759398164744883   T   T   T
 
  0.00000000E+00  0.00000000E+00  0.00000000E+00
  0.00000000E+00  0.00000000E+00  0.00000000E+00
  0.00000000E+00  0.00000000E+00  0.00000000E+00
  0.00000000E+00  0.00000000E+00  0.00000000E+00
  0.00000000E+00  0.00000000E+00  0.00000000E+00
  0.00000000E+00  0.00000000E+00  0.00000000E+00
  0.00000000E+00  0.00000000E+00  0.00000000E+00
  0.00000000E+00  0.00000000E+00  0.00000000E+00
  0.00000000E+00  0.00000000E+00  0.00000000E+00
  0.00000000E+00  0.00000000E+00  0.00000000E+00
  0.00000000E+00  0.00000000E+00  0.00000000E+00
  0.00000000E+00  0.00000000E+00  0.00000000E+00
  0.00000000E+00  0.00000000E+00  0.00000000E+00
  0.00000000E+00  0.00000000E+00  0.00000000E+00
  0.00000000E+00  0.00000000E+00  0.00000000E+00
  0.00000000E+00  0.00000000E+00  0.00000000E+00
  0.00000000E+00  0.00000000E+00  0.00000000E+00
  0.00000000E+00  0.00000000E+00  0.00000000E+00
  0.00000000E+00  0.00000000E+00  0.00000000E+00
  0.00000000E+00  0.00000000E+00  0.00000000E+00
  0.00000000E+00  0.00000000E+00  0.00000000E+00
  0.00000000E+00  0.00000000E+00  0.00000000E+00
  0.00000000E+00  0.00000000E+00  0.00000000E+00
  0.00000000E+00  0.00000000E+00  0.00000000E+00
  0.00000000E+00  0.00000000E+00  0.00000000E+00
  0.00000000E+00  0.00000000E+00  0.00000000E+00
  0.00000000E+00  0.00000000E+00  0.00000000E+00
  0.00000000E+00  0.00000000E+00  0.00000000E+00
  0.00000000E+00  0.00000000E+00  0.00000000E+00
  0.00000000E+00  0.00000000E+00  0.00000000E+00
  0.00000000E+00  0.00000000E+00  0.00000000E+00
  0.00000000E+00  0.00000000E+00  0.00000000E+00
  0.00000000E+00  0.00000000E+00  0.00000000E+00
  0.00000000E+00  0.00000000E+00  0.00000000E+00
  0.00000000E+00  0.00000000E+00  0.00000000E+00
  0.00000000E+00  0.00000000E+00  0.00000000E+00
  0.00000000E+00  0.00000000E+00  0.00000000E+00
  0.00000000E+00  0.00000000E+00  0.00000000E+00
  0.00000000E+00  0.00000000E+00  0.00000000E+00
  0.00000000E+00  0.00000000E+00  0.00000000E+00
  0.00000000E+00  0.00000000E+00  0.00000000E+00
  0.00000000E+00  0.00000000E+00  0.00000000E+00
  0.00000000E+00  0.00000000E+00  0.00000000E+00
  0.00000000E+00  0.00000000E+00  0.00000000E+00
  0.00000000E+00  0.00000000E+00  0.00000000E+00
  0.00000000E+00  0.00000000E+00  0.00000000E+00
  0.00000000E+00  0.00000000E+00  0.00000000E+00
  0.00000000E+00  0.00000000E+00  0.00000000E+00
  0.00000000E+00  0.00000000E+00  0.00000000E+00
  0.00000000E+00  0.00000000E+00  0.00000000E+00
  0.00000000E+00  0.00000000E+00  0.00000000E+00
  0.00000000E+00  0.00000000E+00  0.00000000E+00
  0.00000000E+00  0.00000000E+00  0.00000000E+00
  0.00000000E+00  0.00000000E+00  0.00000000E+00
  0.00000000E+00  0.00000000E+00  0.00000000E+00
  0.00000000E+00  0.00000000E+00  0.00000000E+00
  0.00000000E+00  0.00000000E+00  0.00000000E+00
  0.00000000E+00  0.00000000E+00  0.00000000E+00
  0.00000000E+00  0.00000000E+00  0.00000000E+00
  0.00000000E+00  0.00000000E+00  0.00000000E+00
  0.00000000E+00  0.00000000E+00  0.00000000E+00
  0.00000000E+00  0.00000000E+00  0.00000000E+00
  0.00000000E+00  0.00000000E+00  0.00000000E+00
  0.00000000E+00  0.00000000E+00  0.00000000E+00
  0.00000000E+00  0.00000000E+00  0.00000000E+00
