H Mg O Ir                               
   1.00000000000000     
    16.8282433949600012    0.0000000000000000    0.0000000000000000
     0.0000000000000000    8.4141216974800006    0.0000000000000000
     0.0000000000000000    0.0000000000000000   23.4141216974799988
   H    Mg   O    Ir
     2    64    66     1
Selective dynamics
Direct
  0.0179385478801653  0.2187798014165512  0.3732569647874732   T   T   T
  0.5187249261633374  0.2170437755968984  0.3711724087642985   T   T   T
  0.1259366307259930  0.9995625835959395  0.0035763011804795   T   T   T
  0.6261020926437860  0.9996570487265630  0.0036242382224620   T   T   T
  0.1258030696669815  0.4996499981552535  0.0033635022696976   T   T   T
  0.6260898967378777  0.4997534150756363  0.0034158352313812   T   T   T
  0.3760292130669854  0.9998058623596693  0.0033653288470943   T   T   T
  0.8759287543519376  0.9997185938764839  0.0034158324910196   T   T   T
  0.3759773600318079  0.4998763748862045  0.0030350252270267   T   T   T
  0.8758391330614539  0.4998148769434471  0.0033736101018567   T   T   T
  0.0008496397852995  0.2496849920439564  0.0033388787606915   T   T   T
  0.5010630833047207  0.2498325579750228  0.0034547304984644   T   T   T
  0.0009097846618550  0.7498634269687340  0.0034089362869493   T   T   T
  0.5011553913923982  0.7500446814913887  0.0034747045582729   T   T   T
  0.2508223934827145  0.2495715624960569  0.0034238223092024   T   T   T
  0.7509226656790920  0.2496446058858627  0.0034435139687495   T   T   T
  0.2509062986332502  0.7498150213365615  0.0035371192947041   T   T   T
  0.7509810291087463  0.7497923792091350  0.0035485324350214   T   T   T
  0.0007854404385495  0.9995491316243411  0.0928362313645226   T   T   T
  0.5012462681552262  0.9997773253500031  0.0931631640922402   T   T   T
  0.0006263891956027  0.5004216164372484  0.0926985489047801   T   T   T
  0.5015890973217324  0.5007450548570621  0.0926551683807163   T   T   T
  0.2509959078325431  0.9997828771910957  0.0932242321160457   T   T   T
  0.7512509132784504  0.9998896736215739  0.0931265633845599   T   T   T
  0.2502861709800492  0.4996440912364764  0.0925740889289721   T   T   T
  0.7509448175361020  0.4995693067219511  0.0929307653388287   T   T   T
  0.1259276635079351  0.2495667344275184  0.0929051135050260   T   T   T
  0.6260927733771740  0.2497042262520284  0.0930486072040604   T   T   T
  0.1258135488576163  0.7494339322947360  0.0931187874763506   T   T   T
  0.6260369085242929  0.7495531724884571  0.0932376793472886   T   T   T
  0.3756305968800247  0.2491437806479492  0.0925722559173533   T   T   T
  0.8754876396686473  0.2496895923420011  0.0928136342591381   T   T   T
  0.3761323403993985  0.7508581198763724  0.0926136985016061   T   T   T
  0.8759461456637998  0.7501558727840597  0.0929248539444769   T   T   T
  0.1251019112316130  0.0006743701219196  0.1834781537665370   T   T   T
  0.6256374403193644  0.0012616297760129  0.1836736337868458   T   T   T
  0.1242923517087118  0.4976367575135944  0.1835640781902282   T   T   T
  0.6268077706677848  0.4972510439054104  0.1837947708274643   T   T   T
  0.3772744111577810  0.0008611372267577  0.1836385711993509   T   T   T
  0.8769165871810682  0.0004701204022492  0.1839364275693955   T   T   T
  0.3760645555848415  0.4998865783694812  0.1793644346207634   T   T   T
  0.8755389086271266  0.5001701979077718  0.1832645487995763   T   T   T
  0.0011969791131797  0.2482568851048390  0.1818057782082443   T   T   T
  0.5018500535365774  0.2490951768240690  0.1829178155699386   T   T   T
  0.0006229280116380  0.7532248847112258  0.1836588984474201   T   T   T
  0.5015586417188692  0.7532958575731570  0.1845153417490654   T   T   T
  0.2492466305155148  0.2497461503974327  0.1841286697740662   T   T   T
  0.7491718270106991  0.2492283333752151  0.1839891788132992   T   T   T
  0.2506769760906187  0.7496098068694720  0.1837257304237072   T   T   T
  0.7511659815302827  0.7501528339116756  0.1832402139397914   T   T   T
  0.0022866532521585  0.0020353566697222  0.2801137409494990   T   T   T
  0.5066724406381203  0.0049903141532634  0.2826487543055550   T   T   T
  0.9990697811368077  0.5063511513433842  0.2721475087063018   T   T   T
  0.5098050456031749  0.5049309175656522  0.2735487800175030   T   T   T
  0.2488319027911653  0.9989649177333148  0.2723419650722848   T   T   T
  0.7514579609880836  0.9989286408075397  0.2723030911020732   T   T   T
  0.2411542636006864  0.4998580765304286  0.2739045721539780   T   T   T
  0.7511344487910260  0.4999397327768801  0.2730319530543171   T   T   T
  0.1230816330304091  0.2433743225477562  0.2801113937194154   T   T   T
  0.6256779878534496  0.2420833390863599  0.2826460030288425   T   T   T
  0.1244609827504310  0.7517186645950084  0.2722290749369156   T   T   T
  0.6282961813951051  0.7515916653999711  0.2723354052165525   T   T   T
  0.3734373448448762  0.2370600627774921  0.2734236228136492   T   T   T
  0.8725196167823812  0.2502414333918987  0.2722598895602517   T   T   T
  0.3762191688937630  0.7659338190242730  0.2740428150041552   T   T   T
  0.8756328290741842  0.7520210344017046  0.2729411951429763   T   T   T
  0.0011647359159392  0.9997025644935904  0.0011604412613017   T   T   T
  0.5008451682005096  0.9999124577594067  0.0014384607037085   T   T   T
  0.0010866755194738  0.4998599563101431  0.0011749725536617   T   T   T
  0.5008420762211504  0.4999745759113314  0.0011657759967188   T   T   T
  0.2510938537398395  0.9996607043838083  0.0015461247181814   T   T   T
  0.7509297301125097  0.9997151556886179  0.0012643997061473   T   T   T
  0.2509698420483328  0.4997512318699458  0.0012040686702951   T   T   T
  0.7508513638415693  0.4997319767872007  0.0011963748912602   T   T   T
  0.1261207632857937  0.2496307454646850  0.0012580306080153   T   T   T
  0.6257686680102740  0.2497208652285684  0.0012921658276899   T   T   T
  0.1261771647711994  0.7496081172830193  0.0014215263006846   T   T   T
  0.6258285196473802  0.7497231988087264  0.0013698472462218   T   T   T
  0.3758330218941857  0.2496757582864189  0.0012189493339990   T   T   T
  0.8759472158547099  0.2498207796651520  0.0010846856557075   T   T   T
  0.3759309121207449  0.7500307081603751  0.0012304597794340   T   T   T
  0.8760239795747443  0.7497401789096642  0.0011514350633704   T   T   T
  0.1261996405080895  0.9996362029817505  0.0932360238780273   T   T   T
  0.6258350550833308  0.9996620609248380  0.0931758242642809   T   T   T
  0.1261241487169293  0.4993582418229003  0.0932339829828769   T   T   T
  0.6256384451047592  0.4995511770354715  0.0931433470934016   T   T   T
  0.3760374697386734  0.9998692532158325  0.0935158880614259   T   T   T
  0.8762035525530999  0.9999841826477019  0.0929086997226194   T   T   T
  0.3757776791751056  0.5001505023818203  0.0925714817037919   T   T   T
  0.8759024255478033  0.4998778015624069  0.0929876742601452   T   T   T
  0.0009061662424512  0.2500953797223125  0.0927503739644309   T   T   T
  0.5003210937562493  0.2508208892027113  0.0932125760452923   T   T   T
  0.0009956188539313  0.7498801152231507  0.0930477802835559   T   T   T
  0.5004851262613176  0.7497906474671376  0.0934103340684149   T   T   T
  0.2510310214083967  0.2504030012518008  0.0934039904569363   T   T   T
  0.7508243897287993  0.2499641843425331  0.0930307310043921   T   T   T
  0.2514122001409173  0.7490414739355925  0.0935222272986168   T   T   T
  0.7510200516335045  0.7494984949110349  0.0930555839414171   T   T   T
  0.0007905941639251  0.0007936537442430  0.1830970051692501   T   T   T
  0.5002977036059906  0.0008461719575985  0.1834239214622894   T   T   T
  0.0002218463801531  0.5006215438300612  0.1828051500329481   T   T   T
  0.4993975074373726  0.5021593604764106  0.1841302581801521   T   T   T
  0.2522928804725230  0.9996701234561193  0.1829498409799354   T   T   T
  0.7520630477873371  0.9999267879875336  0.1824670616470302   T   T   T
  0.2520400324756575  0.4996963375488463  0.1847486777553379   T   T   T
  0.7511453231093691  0.4994751224131047  0.1830368333320502   T   T   T
  0.1254645933194912  0.2505635593117239  0.1833513725544881   T   T   T
  0.6253955624033098  0.2506481592164190  0.1830692852381660   T   T   T
  0.1258727724096570  0.7472982779123687  0.1827214119910977   T   T   T
  0.6260021227888940  0.7473218951172970  0.1827096299300201   T   T   T
  0.3747725885264494  0.2535669118751342  0.1840063095512385   T   T   T
  0.8755141761707669  0.2504650176039455  0.1829143980760360   T   T   T
  0.3759695062049778  0.7468416083526451  0.1848586500343372   T   T   T
  0.8761416472739874  0.7501669197766621  0.1830381674008641   T   T   T
  0.1280538397865556  0.9946986811402597  0.2707280547588176   T   T   T
  0.6293974781476132  0.9938991835832731  0.2704845103331266   T   T   T
  0.1223577063078395  0.4998897855478551  0.2756923410027883   T   T   T
  0.6281554224757708  0.5001510269577605  0.2758057713242646   T   T   T
  0.3754450690218328  0.0013950284854313  0.2759918666610008   T   T   T
  0.8761288195161271  0.0015301615815192  0.2756325152511755   T   T   T
  0.3738375624789523  0.5024276303032564  0.2812901517820899   T   T   T
  0.8753185754319790  0.5011013202548854  0.2750793043570922   T   T   T
  0.4943479376847915  0.2641010331809427  0.2701814448829393   T   T   T
  0.9953845222852330  0.2595557152960249  0.2707960356811270   T   T   T
  0.0003282397818796  0.7517616637530942  0.2754561393589150   T   T   T
  0.5008238906724115  0.7501516438807241  0.2756066910048477   T   T   T
  0.2501350940391792  0.2515689498384543  0.2752119023880518   T   T   T
  0.7505685899642187  0.2494764629943723  0.2757080404824873   T   T   T
  0.2511840249221883  0.7475361001203541  0.2746722708956268   T   T   T
  0.7520799720314244  0.7493628273278652  0.2745941239812629   T   T   T
  0.0523036374471185  0.1485298508757234  0.3511738163531838   T   T   T
  0.5556621531043421  0.1432157184573830  0.3529672699214818   T   T   T
  0.3809261549469405  0.4937660791729625  0.3602334711387366   T   T   T
 
  0.00000000E+00  0.00000000E+00  0.00000000E+00
  0.00000000E+00  0.00000000E+00  0.00000000E+00
  0.00000000E+00  0.00000000E+00  0.00000000E+00
  0.00000000E+00  0.00000000E+00  0.00000000E+00
  0.00000000E+00  0.00000000E+00  0.00000000E+00
  0.00000000E+00  0.00000000E+00  0.00000000E+00
  0.00000000E+00  0.00000000E+00  0.00000000E+00
  0.00000000E+00  0.00000000E+00  0.00000000E+00
  0.00000000E+00  0.00000000E+00  0.00000000E+00
  0.00000000E+00  0.00000000E+00  0.00000000E+00
  0.00000000E+00  0.00000000E+00  0.00000000E+00
  0.00000000E+00  0.00000000E+00  0.00000000E+00
  0.00000000E+00  0.00000000E+00  0.00000000E+00
  0.00000000E+00  0.00000000E+00  0.00000000E+00
  0.00000000E+00  0.00000000E+00  0.00000000E+00
  0.00000000E+00  0.00000000E+00  0.00000000E+00
  0.00000000E+00  0.00000000E+00  0.00000000E+00
  0.00000000E+00  0.00000000E+00  0.00000000E+00
  0.00000000E+00  0.00000000E+00  0.00000000E+00
  0.00000000E+00  0.00000000E+00  0.00000000E+00
  0.00000000E+00  0.00000000E+00  0.00000000E+00
  0.00000000E+00  0.00000000E+00  0.00000000E+00
  0.00000000E+00  0.00000000E+00  0.00000000E+00
  0.00000000E+00  0.00000000E+00  0.00000000E+00
  0.00000000E+00  0.00000000E+00  0.00000000E+00
  0.00000000E+00  0.00000000E+00  0.00000000E+00
  0.00000000E+00  0.00000000E+00  0.00000000E+00
  0.00000000E+00  0.00000000E+00  0.00000000E+00
  0.00000000E+00  0.00000000E+00  0.00000000E+00
  0.00000000E+00  0.00000000E+00  0.00000000E+00
  0.00000000E+00  0.00000000E+00  0.00000000E+00
  0.00000000E+00  0.00000000E+00  0.00000000E+00
  0.00000000E+00  0.00000000E+00  0.00000000E+00
  0.00000000E+00  0.00000000E+00  0.00000000E+00
  0.00000000E+00  0.00000000E+00  0.00000000E+00
  0.00000000E+00  0.00000000E+00  0.00000000E+00
  0.00000000E+00  0.00000000E+00  0.00000000E+00
  0.00000000E+00  0.00000000E+00  0.00000000E+00
  0.00000000E+00  0.00000000E+00  0.00000000E+00
  0.00000000E+00  0.00000000E+00  0.00000000E+00
  0.00000000E+00  0.00000000E+00  0.00000000E+00
  0.00000000E+00  0.00000000E+00  0.00000000E+00
  0.00000000E+00  0.00000000E+00  0.00000000E+00
  0.00000000E+00  0.00000000E+00  0.00000000E+00
  0.00000000E+00  0.00000000E+00  0.00000000E+00
  0.00000000E+00  0.00000000E+00  0.00000000E+00
  0.00000000E+00  0.00000000E+00  0.00000000E+00
  0.00000000E+00  0.00000000E+00  0.00000000E+00
  0.00000000E+00  0.00000000E+00  0.00000000E+00
  0.00000000E+00  0.00000000E+00  0.00000000E+00
  0.00000000E+00  0.00000000E+00  0.00000000E+00
  0.00000000E+00  0.00000000E+00  0.00000000E+00
  0.00000000E+00  0.00000000E+00  0.00000000E+00
  0.00000000E+00  0.00000000E+00  0.00000000E+00
  0.00000000E+00  0.00000000E+00  0.00000000E+00
  0.00000000E+00  0.00000000E+00  0.00000000E+00
  0.00000000E+00  0.00000000E+00  0.00000000E+00
  0.00000000E+00  0.00000000E+00  0.00000000E+00
  0.00000000E+00  0.00000000E+00  0.00000000E+00
  0.00000000E+00  0.00000000E+00  0.00000000E+00
  0.00000000E+00  0.00000000E+00  0.00000000E+00
  0.00000000E+00  0.00000000E+00  0.00000000E+00
  0.00000000E+00  0.00000000E+00  0.00000000E+00
  0.00000000E+00  0.00000000E+00  0.00000000E+00
  0.00000000E+00  0.00000000E+00  0.00000000E+00
  0.00000000E+00  0.00000000E+00  0.00000000E+00
  0.00000000E+00  0.00000000E+00  0.00000000E+00
  0.00000000E+00  0.00000000E+00  0.00000000E+00
  0.00000000E+00  0.00000000E+00  0.00000000E+00
  0.00000000E+00  0.00000000E+00  0.00000000E+00
  0.00000000E+00  0.00000000E+00  0.00000000E+00
  0.00000000E+00  0.00000000E+00  0.00000000E+00
  0.00000000E+00  0.00000000E+00  0.00000000E+00
  0.00000000E+00  0.00000000E+00  0.00000000E+00
  0.00000000E+00  0.00000000E+00  0.00000000E+00
  0.00000000E+00  0.00000000E+00  0.00000000E+00
  0.00000000E+00  0.00000000E+00  0.00000000E+00
  0.00000000E+00  0.00000000E+00  0.00000000E+00
  0.00000000E+00  0.00000000E+00  0.00000000E+00
  0.00000000E+00  0.00000000E+00  0.00000000E+00
  0.00000000E+00  0.00000000E+00  0.00000000E+00
  0.00000000E+00  0.00000000E+00  0.00000000E+00
  0.00000000E+00  0.00000000E+00  0.00000000E+00
  0.00000000E+00  0.00000000E+00  0.00000000E+00
  0.00000000E+00  0.00000000E+00  0.00000000E+00
  0.00000000E+00  0.00000000E+00  0.00000000E+00
  0.00000000E+00  0.00000000E+00  0.00000000E+00
  0.00000000E+00  0.00000000E+00  0.00000000E+00
  0.00000000E+00  0.00000000E+00  0.00000000E+00
  0.00000000E+00  0.00000000E+00  0.00000000E+00
  0.00000000E+00  0.00000000E+00  0.00000000E+00
  0.00000000E+00  0.00000000E+00  0.00000000E+00
  0.00000000E+00  0.00000000E+00  0.00000000E+00
  0.00000000E+00  0.00000000E+00  0.00000000E+00
  0.00000000E+00  0.00000000E+00  0.00000000E+00
  0.00000000E+00  0.00000000E+00  0.00000000E+00
  0.00000000E+00  0.00000000E+00  0.00000000E+00
  0.00000000E+00  0.00000000E+00  0.00000000E+00
  0.00000000E+00  0.00000000E+00  0.00000000E+00
  0.00000000E+00  0.00000000E+00  0.00000000E+00
  0.00000000E+00  0.00000000E+00  0.00000000E+00
  0.00000000E+00  0.00000000E+00  0.00000000E+00
  0.00000000E+00  0.00000000E+00  0.00000000E+00
  0.00000000E+00  0.00000000E+00  0.00000000E+00
  0.00000000E+00  0.00000000E+00  0.00000000E+00
  0.00000000E+00  0.00000000E+00  0.00000000E+00
  0.00000000E+00  0.00000000E+00  0.00000000E+00
  0.00000000E+00  0.00000000E+00  0.00000000E+00
  0.00000000E+00  0.00000000E+00  0.00000000E+00
  0.00000000E+00  0.00000000E+00  0.00000000E+00
  0.00000000E+00  0.00000000E+00  0.00000000E+00
  0.00000000E+00  0.00000000E+00  0.00000000E+00
  0.00000000E+00  0.00000000E+00  0.00000000E+00
  0.00000000E+00  0.00000000E+00  0.00000000E+00
  0.00000000E+00  0.00000000E+00  0.00000000E+00
  0.00000000E+00  0.00000000E+00  0.00000000E+00
  0.00000000E+00  0.00000000E+00  0.00000000E+00
  0.00000000E+00  0.00000000E+00  0.00000000E+00
  0.00000000E+00  0.00000000E+00  0.00000000E+00
  0.00000000E+00  0.00000000E+00  0.00000000E+00
  0.00000000E+00  0.00000000E+00  0.00000000E+00
  0.00000000E+00  0.00000000E+00  0.00000000E+00
  0.00000000E+00  0.00000000E+00  0.00000000E+00
  0.00000000E+00  0.00000000E+00  0.00000000E+00
  0.00000000E+00  0.00000000E+00  0.00000000E+00
  0.00000000E+00  0.00000000E+00  0.00000000E+00
  0.00000000E+00  0.00000000E+00  0.00000000E+00
  0.00000000E+00  0.00000000E+00  0.00000000E+00
  0.00000000E+00  0.00000000E+00  0.00000000E+00
  0.00000000E+00  0.00000000E+00  0.00000000E+00
  0.00000000E+00  0.00000000E+00  0.00000000E+00
  0.00000000E+00  0.00000000E+00  0.00000000E+00
  0.00000000E+00  0.00000000E+00  0.00000000E+00
