H Mg O Ag                               
   1.00000000000000     
    16.8282433949600012    0.0000000000000000    0.0000000000000000
     0.0000000000000000    8.4141216974800006    0.0000000000000000
     0.0000000000000000    0.0000000000000000   23.4141216974799988
   H    Mg   O    Ag
     2    64    66     1
Selective dynamics
Direct
  0.0189891995062015  0.2161787491230296  0.3735986285936206   T   T   T
  0.5249327966272963  0.2029051322601470  0.3762445796345137   T   T   T
  0.1256591810798575  0.0000587371478249  0.0034291569050639   T   T   T
  0.6259997463013187  0.9999429171470654  0.0034188842546518   T   T   T
  0.1254379115966503  0.5002733654483513  0.0032263572624413   T   T   T
  0.6260513096679464  0.5001647656917610  0.0032152214149128   T   T   T
  0.3758461446907602  0.0003250528527216  0.0028744050041313   T   T   T
  0.8756263965837034  0.0000831001977327  0.0035494915049078   T   T   T
  0.3757948255295849  0.5004555353880269  0.0025896653467929   T   T   T
  0.8755460002325313  0.5002280785113843  0.0034805484820319   T   T   T
  0.0004825105936603  0.2502651780673336  0.0033961158609164   T   T   T
  0.5009476219692509  0.2502374223070376  0.0030883477984225   T   T   T
  0.0006012883391885  0.7503181520728955  0.0034322321419483   T   T   T
  0.5010998096684417  0.7505792027280264  0.0030561319141883   T   T   T
  0.2505431840860429  0.2500655095550577  0.0030400546441138   T   T   T
  0.7506979214752495  0.2499023078707154  0.0034598110554530   T   T   T
  0.2506393431937556  0.7503937487352235  0.0031020953205120   T   T   T
  0.7508101509827052  0.7500651445141645  0.0035085320283715   T   T   T
  0.0005967223379550  0.0000232000410261  0.0928350684829474   T   T   T
  0.5011025740482160  0.0003317936899988  0.0926757524588642   T   T   T
  0.0004741927719079  0.5008126013939725  0.0927567666841946   T   T   T
  0.5013361357049045  0.5009694974317219  0.0921921656220390   T   T   T
  0.2509217130219350  0.0002083876875811  0.0927701466862103   T   T   T
  0.7509536717824311  0.0000759307857053  0.0932091231240545   T   T   T
  0.2502728841623800  0.5001786960687875  0.0920702339578110   T   T   T
  0.7506248749365784  0.4997119563862785  0.0929540237033006   T   T   T
  0.1257397670042359  0.2500723403065249  0.0926315016108337   T   T   T
  0.6257808708350245  0.2498594046136885  0.0928687998608096   T   T   T
  0.1256854928461242  0.7498924672160305  0.0929506804627889   T   T   T
  0.6258522285635114  0.7497282253971189  0.0930443555533636   T   T   T
  0.3755884515511820  0.2497541562356576  0.0920063008665535   T   T   T
  0.8752003295192545  0.2499626655571901  0.0929510901221276   T   T   T
  0.3760737741913641  0.7511579630696373  0.0919721306510876   T   T   T
  0.8756515856128972  0.7504980719534740  0.0930587138612103   T   T   T
  0.1251171746876834  0.0011616230861236  0.1834747722689254   T   T   T
  0.6250340730625426  0.0017850804169939  0.1837513261911727   T   T   T
  0.1245077155574131  0.4979524521672866  0.1835353316097077   T   T   T
  0.6264821110603622  0.4966776969718221  0.1836870181477655   T   T   T
  0.3775462453226325  0.0010323370955898  0.1831730159258818   T   T   T
  0.8767175201323205  0.0007073974287863  0.1840661233338166   T   T   T
  0.3758905909340471  0.5004922026264977  0.1794177879249711   T   T   T
  0.8752984777268177  0.5003733778062057  0.1833482561734563   T   T   T
  0.0012270688104096  0.2484710107036498  0.1819734451331240   T   T   T
  0.5019818288330689  0.2484279242128399  0.1829877075295044   T   T   T
  0.0005955806618224  0.7536657836907221  0.1837080111502591   T   T   T
  0.5016490745070945  0.7545966987977558  0.1837311560695881   T   T   T
  0.2490336054827482  0.2496486462792280  0.1832793865562352   T   T   T
  0.7484392395417255  0.2490732051882293  0.1842422332966611   T   T   T
  0.2504967032144801  0.7505819925679433  0.1830371035879908   T   T   T
  0.7507366090656746  0.7503281389363834  0.1834534809006244   T   T   T
  0.0028375379344552  0.0021782462261066  0.2802951068530216   T   T   T
  0.5063468737512056  0.0081080568648064  0.2851270529917016   T   T   T
  0.9995916463989735  0.5063737915905178  0.2720784222397674   T   T   T
  0.5060532876208839  0.5029562585288123  0.2701563588150380   T   T   T
  0.2499714912473426  0.9993749076905925  0.2722333758024751   T   T   T
  0.7506919106744822  0.9990991451594439  0.2724129511860181   T   T   T
  0.2453131151447596  0.5001997115729083  0.2719686499134825   T   T   T
  0.7501318564876800  0.4993318927799815  0.2729640050271712   T   T   T
  0.1238356911279400  0.2441362262806141  0.2803956921274299   T   T   T
  0.6234847181091682  0.2408968269049459  0.2848186879360225   T   T   T
  0.1252292513781985  0.7513602508891275  0.2721555221239531   T   T   T
  0.6272686469074042  0.7507387690892512  0.2724842801796214   T   T   T
  0.3744281789051569  0.2424410005501339  0.2702421650009059   T   T   T
  0.8723495027971372  0.2503752572142667  0.2722774474945408   T   T   T
  0.3764679595509084  0.7608220633766388  0.2717254721921200   T   T   T
  0.8754046158938016  0.7519550524792091  0.2729420862104976   T   T   T
  0.0009060979697471  0.0002100808543234  0.0012258076442737   T   T   T
  0.5006578217916694  0.0004693125282724  0.0009616774606288   T   T   T
  0.0008053479413191  0.5003544461182160  0.0012552114994659   T   T   T
  0.5006623791760220  0.5003327580641821  0.0007163948590625   T   T   T
  0.2507785967670692  0.0001813428560343  0.0011334985406373   T   T   T
  0.7508355101964493 -0.0000310328666256  0.0012363769542919   T   T   T
  0.2506446570960715  0.5002972666790509  0.0007805896790670   T   T   T
  0.7507499547428104  0.5000226948696536  0.0011562107579271   T   T   T
  0.1257424132304819  0.2501904920809437  0.0011009030437446   T   T   T
  0.6256067353422339  0.2500560704535844  0.0010519077026359   T   T   T
  0.1258645308923052  0.7501194343819449  0.0012579265346634   T   T   T
  0.6257399698042316  0.7500302534429021  0.0010530504235148   T   T   T
  0.3755688347528996  0.2502459712408577  0.0007025777866824   T   T   T
  0.8757747039407915  0.2501791387306251  0.0011873840107539   T   T   T
  0.3756789387394790  0.7505060661518970  0.0006419305761474   T   T   T
  0.8758546208807356  0.7501359035188386  0.0012404676652580   T   T   T
  0.1261373342750231  0.0000450280002162  0.0931522943105243   T   T   T
  0.6256774331613134  0.9996408677021748  0.0929385122082400   T   T   T
  0.1260381837935825  0.4998970418486205  0.0930967465891261   T   T   T
  0.6254688485991166  0.4999074407380312  0.0928350703044796   T   T   T
  0.3757585145359024  0.0002226481030570  0.0929085962117258   T   T   T
  0.8760300501657368  0.0002365920264258  0.0929928387146640   T   T   T
  0.3754877953680054  0.5006894953188468  0.0920843245539501   T   T   T
  0.8757193602657781  0.5002386250689801  0.0931007343807007   T   T   T
  0.0008324832422006  0.2505429686261760  0.0927917833890270   T   T   T
  0.5000594070062876  0.2510344072394605  0.0927641740301363   T   T   T
  0.0009317135065311  0.7502814515513075  0.0931252733232834   T   T   T
  0.5003440826439185  0.7503317368324915  0.0927928504314954   T   T   T
  0.2507563313897133  0.2507089587773655  0.0928990978726561   T   T   T
  0.7506352791403528  0.2501355846180053  0.0930230119486362   T   T   T
  0.2512048472455400  0.7496842977906015  0.0931146786080364   T   T   T
  0.7507636488827621  0.7496859845396759  0.0930938755537795   T   T   T
  0.0008919683173916  0.0011836492157770  0.1831484132439009   T   T   T
  0.4999649597253598  0.0004664459772007  0.1826830937224720   T   T   T
  0.0004687026182299  0.5008219388527605  0.1829252196078062   T   T   T
  0.4989948209060256  0.5032593576076961  0.1828069495910801   T   T   T
  0.2524246755879096  0.0001107550649823  0.1827419290384452   T   T   T
  0.7518052800073139 -0.0000679842299377  0.1825549634569807   T   T   T
  0.2520116887516857  0.5001836910004153  0.1838654452235844   T   T   T
  0.7507164660083715  0.4995470210791822  0.1831097126814211   T   T   T
  0.1258103482212841  0.2509238664942580  0.1833471089556794   T   T   T
  0.6250066066116527  0.2506945186139079  0.1824343062982351   T   T   T
  0.1261847417402347  0.7476766207212319  0.1826823754790070   T   T   T
  0.6254168365639876  0.7470698038657831  0.1826788911376753   T   T   T
  0.3742198289365334  0.2536838644689571  0.1827127370625443   T   T   T
  0.8754433557377435  0.2506512131587211  0.1830574993616943   T   T   T
  0.3757952225654270  0.7477468854242961  0.1837814771053465   T   T   T
  0.8760319655421005  0.7503988953488755  0.1831440666824376   T   T   T
  0.1288106270813584  0.9949587110811786  0.2706099126997725   T   T   T
  0.6288010697872383  0.9929686728207363  0.2700662092788541   T   T   T
  0.1241984483929606  0.5000413459857803  0.2757074104506790   T   T   T
  0.6261378748339143  0.5000216257524442  0.2758671864311243   T   T   T
  0.3754601952190851  0.0015975362161284  0.2758355148919759   T   T   T
  0.8761128891723097  0.0016410436476262  0.2757810362420308   T   T   T
  0.3736968284039039  0.5030032922440278  0.2826145529020191   T   T   T
  0.8753323057181305  0.5009932279274460  0.2749355642929578   T   T   T
  0.4947222155814596  0.2624838747855601  0.2702791098966746   T   T   T
  0.9959383411807806  0.2594763468613203  0.2712532943309246   T   T   T
  0.0007855060291620  0.7517325009245699  0.2755448258149506   T   T   T
  0.4998251612888601  0.7489056529867862  0.2768898234579406   T   T   T
  0.2510532161290361  0.2520899156243565  0.2762324521267620   T   T   T
  0.7498880409998124  0.2495836972574899  0.2759313695382976   T   T   T
  0.2517844397236120  0.7479079707764781  0.2754204958475584   T   T   T
  0.7516209281323809  0.7488438885492595  0.2747887353821610   T   T   T
  0.0542586509993546  0.1465926427474009  0.3519944510229304   T   T   T
  0.5604360146678872  0.1292750139706887  0.3567565149123505   T   T   T
  0.3840959360020623  0.4942108626231710  0.3720176501049015   T   T   T
 
  0.00000000E+00  0.00000000E+00  0.00000000E+00
  0.00000000E+00  0.00000000E+00  0.00000000E+00
  0.00000000E+00  0.00000000E+00  0.00000000E+00
  0.00000000E+00  0.00000000E+00  0.00000000E+00
  0.00000000E+00  0.00000000E+00  0.00000000E+00
  0.00000000E+00  0.00000000E+00  0.00000000E+00
  0.00000000E+00  0.00000000E+00  0.00000000E+00
  0.00000000E+00  0.00000000E+00  0.00000000E+00
  0.00000000E+00  0.00000000E+00  0.00000000E+00
  0.00000000E+00  0.00000000E+00  0.00000000E+00
  0.00000000E+00  0.00000000E+00  0.00000000E+00
  0.00000000E+00  0.00000000E+00  0.00000000E+00
  0.00000000E+00  0.00000000E+00  0.00000000E+00
  0.00000000E+00  0.00000000E+00  0.00000000E+00
  0.00000000E+00  0.00000000E+00  0.00000000E+00
  0.00000000E+00  0.00000000E+00  0.00000000E+00
  0.00000000E+00  0.00000000E+00  0.00000000E+00
  0.00000000E+00  0.00000000E+00  0.00000000E+00
  0.00000000E+00  0.00000000E+00  0.00000000E+00
  0.00000000E+00  0.00000000E+00  0.00000000E+00
  0.00000000E+00  0.00000000E+00  0.00000000E+00
  0.00000000E+00  0.00000000E+00  0.00000000E+00
  0.00000000E+00  0.00000000E+00  0.00000000E+00
  0.00000000E+00  0.00000000E+00  0.00000000E+00
  0.00000000E+00  0.00000000E+00  0.00000000E+00
  0.00000000E+00  0.00000000E+00  0.00000000E+00
  0.00000000E+00  0.00000000E+00  0.00000000E+00
  0.00000000E+00  0.00000000E+00  0.00000000E+00
  0.00000000E+00  0.00000000E+00  0.00000000E+00
  0.00000000E+00  0.00000000E+00  0.00000000E+00
  0.00000000E+00  0.00000000E+00  0.00000000E+00
  0.00000000E+00  0.00000000E+00  0.00000000E+00
  0.00000000E+00  0.00000000E+00  0.00000000E+00
  0.00000000E+00  0.00000000E+00  0.00000000E+00
  0.00000000E+00  0.00000000E+00  0.00000000E+00
  0.00000000E+00  0.00000000E+00  0.00000000E+00
  0.00000000E+00  0.00000000E+00  0.00000000E+00
  0.00000000E+00  0.00000000E+00  0.00000000E+00
  0.00000000E+00  0.00000000E+00  0.00000000E+00
  0.00000000E+00  0.00000000E+00  0.00000000E+00
  0.00000000E+00  0.00000000E+00  0.00000000E+00
  0.00000000E+00  0.00000000E+00  0.00000000E+00
  0.00000000E+00  0.00000000E+00  0.00000000E+00
  0.00000000E+00  0.00000000E+00  0.00000000E+00
  0.00000000E+00  0.00000000E+00  0.00000000E+00
  0.00000000E+00  0.00000000E+00  0.00000000E+00
  0.00000000E+00  0.00000000E+00  0.00000000E+00
  0.00000000E+00  0.00000000E+00  0.00000000E+00
  0.00000000E+00  0.00000000E+00  0.00000000E+00
  0.00000000E+00  0.00000000E+00  0.00000000E+00
  0.00000000E+00  0.00000000E+00  0.00000000E+00
  0.00000000E+00  0.00000000E+00  0.00000000E+00
  0.00000000E+00  0.00000000E+00  0.00000000E+00
  0.00000000E+00  0.00000000E+00  0.00000000E+00
  0.00000000E+00  0.00000000E+00  0.00000000E+00
  0.00000000E+00  0.00000000E+00  0.00000000E+00
  0.00000000E+00  0.00000000E+00  0.00000000E+00
  0.00000000E+00  0.00000000E+00  0.00000000E+00
  0.00000000E+00  0.00000000E+00  0.00000000E+00
  0.00000000E+00  0.00000000E+00  0.00000000E+00
  0.00000000E+00  0.00000000E+00  0.00000000E+00
  0.00000000E+00  0.00000000E+00  0.00000000E+00
  0.00000000E+00  0.00000000E+00  0.00000000E+00
  0.00000000E+00  0.00000000E+00  0.00000000E+00
  0.00000000E+00  0.00000000E+00  0.00000000E+00
  0.00000000E+00  0.00000000E+00  0.00000000E+00
  0.00000000E+00  0.00000000E+00  0.00000000E+00
  0.00000000E+00  0.00000000E+00  0.00000000E+00
  0.00000000E+00  0.00000000E+00  0.00000000E+00
  0.00000000E+00  0.00000000E+00  0.00000000E+00
  0.00000000E+00  0.00000000E+00  0.00000000E+00
  0.00000000E+00  0.00000000E+00  0.00000000E+00
  0.00000000E+00  0.00000000E+00  0.00000000E+00
  0.00000000E+00  0.00000000E+00  0.00000000E+00
  0.00000000E+00  0.00000000E+00  0.00000000E+00
  0.00000000E+00  0.00000000E+00  0.00000000E+00
  0.00000000E+00  0.00000000E+00  0.00000000E+00
  0.00000000E+00  0.00000000E+00  0.00000000E+00
  0.00000000E+00  0.00000000E+00  0.00000000E+00
  0.00000000E+00  0.00000000E+00  0.00000000E+00
  0.00000000E+00  0.00000000E+00  0.00000000E+00
  0.00000000E+00  0.00000000E+00  0.00000000E+00
  0.00000000E+00  0.00000000E+00  0.00000000E+00
  0.00000000E+00  0.00000000E+00  0.00000000E+00
  0.00000000E+00  0.00000000E+00  0.00000000E+00
  0.00000000E+00  0.00000000E+00  0.00000000E+00
  0.00000000E+00  0.00000000E+00  0.00000000E+00
  0.00000000E+00  0.00000000E+00  0.00000000E+00
  0.00000000E+00  0.00000000E+00  0.00000000E+00
  0.00000000E+00  0.00000000E+00  0.00000000E+00
  0.00000000E+00  0.00000000E+00  0.00000000E+00
  0.00000000E+00  0.00000000E+00  0.00000000E+00
  0.00000000E+00  0.00000000E+00  0.00000000E+00
  0.00000000E+00  0.00000000E+00  0.00000000E+00
  0.00000000E+00  0.00000000E+00  0.00000000E+00
  0.00000000E+00  0.00000000E+00  0.00000000E+00
  0.00000000E+00  0.00000000E+00  0.00000000E+00
  0.00000000E+00  0.00000000E+00  0.00000000E+00
  0.00000000E+00  0.00000000E+00  0.00000000E+00
  0.00000000E+00  0.00000000E+00  0.00000000E+00
  0.00000000E+00  0.00000000E+00  0.00000000E+00
  0.00000000E+00  0.00000000E+00  0.00000000E+00
  0.00000000E+00  0.00000000E+00  0.00000000E+00
  0.00000000E+00  0.00000000E+00  0.00000000E+00
  0.00000000E+00  0.00000000E+00  0.00000000E+00
  0.00000000E+00  0.00000000E+00  0.00000000E+00
  0.00000000E+00  0.00000000E+00  0.00000000E+00
  0.00000000E+00  0.00000000E+00  0.00000000E+00
  0.00000000E+00  0.00000000E+00  0.00000000E+00
  0.00000000E+00  0.00000000E+00  0.00000000E+00
  0.00000000E+00  0.00000000E+00  0.00000000E+00
  0.00000000E+00  0.00000000E+00  0.00000000E+00
  0.00000000E+00  0.00000000E+00  0.00000000E+00
  0.00000000E+00  0.00000000E+00  0.00000000E+00
  0.00000000E+00  0.00000000E+00  0.00000000E+00
  0.00000000E+00  0.00000000E+00  0.00000000E+00
  0.00000000E+00  0.00000000E+00  0.00000000E+00
  0.00000000E+00  0.00000000E+00  0.00000000E+00
  0.00000000E+00  0.00000000E+00  0.00000000E+00
  0.00000000E+00  0.00000000E+00  0.00000000E+00
  0.00000000E+00  0.00000000E+00  0.00000000E+00
  0.00000000E+00  0.00000000E+00  0.00000000E+00
  0.00000000E+00  0.00000000E+00  0.00000000E+00
  0.00000000E+00  0.00000000E+00  0.00000000E+00
  0.00000000E+00  0.00000000E+00  0.00000000E+00
  0.00000000E+00  0.00000000E+00  0.00000000E+00
  0.00000000E+00  0.00000000E+00  0.00000000E+00
  0.00000000E+00  0.00000000E+00  0.00000000E+00
  0.00000000E+00  0.00000000E+00  0.00000000E+00
  0.00000000E+00  0.00000000E+00  0.00000000E+00
  0.00000000E+00  0.00000000E+00  0.00000000E+00
  0.00000000E+00  0.00000000E+00  0.00000000E+00
  0.00000000E+00  0.00000000E+00  0.00000000E+00
