H Mg O Mn                               
   1.00000000000000     
    16.8282433949600012    0.0000000000000000    0.0000000000000000
     0.0000000000000000    8.4141216974800006    0.0000000000000000
     0.0000000000000000    0.0000000000000000   23.4141216974799988
   H    Mg   O    Mn
     2    64    66     1
Selective dynamics
Direct
  0.0206135035907641  0.2105885041505610  0.3755759685886672   T   T   T
  0.5339091294545241  0.1880852022203230  0.3847318889267941   T   T   T
  0.1253736646725763  0.0002669363741413  0.0032228237147457   T   T   T
  0.6259444822809189  0.0003467435078471  0.0031374205690165   T   T   T
  0.1251911570214764  0.5003610845610975  0.0029479503135832   T   T   T
  0.6259573593748768  0.5005753306027896  0.0028939411160874   T   T   T
  0.3756324037289951  0.0006274511199835  0.0025064918710057   T   T   T
  0.8755307976530800  0.0004315418091587  0.0033062805523382   T   T   T
  0.3755797798274718  0.5006939251389907  0.0021351741475583   T   T   T
  0.8754777397113301  0.5004893213716374  0.0032540037070960   T   T   T
  0.0003185545747147  0.2503591201850520  0.0031710945369045   T   T   T
  0.5008297019681562  0.2506252197412804  0.0027312291542058   T   T   T
  0.0004073188903067  0.7504535823305568  0.0032340241420444   T   T   T
  0.5009537468038844  0.7508702597673421  0.0027123904330953   T   T   T
  0.2502508238624880  0.2502695955791855  0.0027307769094257   T   T   T
  0.7506979028778314  0.2503248492594728  0.0032031205835613   T   T   T
  0.2503280367215837  0.7506108013057853  0.0028180571914975   T   T   T
  0.7507427150365573  0.7504759712357941  0.0033179215342741   T   T   T
  0.0004030340201941  0.0001980287852771  0.0927468440686809   T   T   T
  0.5009648666584166  0.0009775521781690  0.0924097246448106   T   T   T
  0.0002578968146142  0.5009147540565132  0.0926281370330909   T   T   T
  0.5013606426324758  0.5011876811888435  0.0918733536050493   T   T   T
  0.2507056175309660  0.0005783911236828  0.0925161139649228   T   T   T
  0.7507599451387890  0.0006100434811812  0.0930299728706571   T   T   T
  0.2498980901513307  0.5002753959755220  0.0916762409664360   T   T   T
  0.7505472612166635  0.4999534488563155  0.0927249792779601   T   T   T
  0.1254601085478752  0.2502076573393245  0.0925187751466607   T   T   T
  0.6255728459416801  0.2502545644566920  0.0926281300806823   T   T   T
  0.1253915704347456  0.7500590478828392  0.0927336129688782   T   T   T
  0.6256612360947883  0.7502414366479671  0.0928285965591607   T   T   T
  0.3754840428965298  0.2497822047051739  0.0916663409968460   T   T   T
  0.8750186268700035  0.2502202179766769  0.0928301074937335   T   T   T
  0.3759203843295185  0.7517563987298601  0.0914996098799392   T   T   T
  0.8755517350010065  0.7507796673498149  0.0928745190388904   T   T   T
  0.1248895343371427  0.0012704361012616  0.1832453719715495   T   T   T
  0.6246291115164613  0.0027496911083294  0.1836203031612004   T   T   T
  0.1241857724524347  0.4980758112828348  0.1833580417975668   T   T   T
  0.6267070523746869  0.4966957468854959  0.1832819681607717   T   T   T
  0.3775398391724455  0.0011753267290495  0.1828321955034654   T   T   T
  0.8765059544456389  0.0009908375107461  0.1839364850369558   T   T   T
  0.3757876991572475  0.5007075147452296  0.1779350152559871   T   T   T
  0.8751197447721237  0.5004346974607352  0.1832700197155798   T   T   T
  0.0008841852912891  0.2487655788910693  0.1819891716878030   T   T   T
  0.5018790080329710  0.2486125459444882  0.1835050796100825   T   T   T
  0.0003555946880617  0.7536455673672781  0.1836273349805777   T   T   T
  0.5014949067209468  0.7552934080272006  0.1835315904061490   T   T   T
  0.2489257407268551  0.2499019259741155  0.1831116447194300   T   T   T
  0.7480497859708274  0.2493509096896726  0.1842140748168106   T   T   T
  0.2503409978909844  0.7507708555110538  0.1828521390308485   T   T   T
  0.7505495185301676  0.7506661616767741  0.1831884458514833   T   T   T
  0.0024896491888371  0.0028922299192259  0.2804829759733442   T   T   T
  0.5071758113000887  0.0098111552689123  0.2875841112716447   T   T   T
  0.9991443015687657  0.5060760638408436  0.2720891886975735   T   T   T
  0.5084796970044307  0.5028321407892198  0.2696070265924705   T   T   T
  0.2495210770291480  0.9994618923805945  0.2721352254451410   T   T   T
  0.7505387999860043  0.9992225354871440  0.2722402996589257   T   T   T
  0.2438751026310647  0.5003688339761579  0.2720010289504194   T   T   T
  0.7503166883723315  0.4995765880717180  0.2728721088272363   T   T   T
  0.1227837537237534  0.2437681417430231  0.2805156677331220   T   T   T
  0.6238483000094908  0.2400015992331858  0.2872731011765214   T   T   T
  0.1246739372635236  0.7516694720511319  0.2719875246117233   T   T   T
  0.6277137212932252  0.7514464819289568  0.2724834732154570   T   T   T
  0.3741963322507055  0.2395597189979095  0.2699897716780377   T   T   T
  0.8723087194507843  0.2504404192446156  0.2723497912181122   T   T   T
  0.3761633838733405  0.7632007065744879  0.2716997692105420   T   T   T
  0.8752573598406751  0.7521379111709171  0.2727776266336178   T   T   T
  0.0007702496917569  0.0003470615980767  0.0010250291624156   T   T   T
  0.5004754692498439  0.0007266970794802  0.0006787438815017   T   T   T
  0.0006899059597246  0.5004995299779478  0.0009954967116888   T   T   T
  0.5005059217756304  0.5007743754082328  0.0003861692855794   T   T   T
  0.2505355725624901  0.0003709827745894  0.0009080674126938   T   T   T
  0.7507134790796669  0.0003395363390064  0.0010000616815562   T   T   T
  0.2503595812002062  0.5005349147577774  0.0005182061509528   T   T   T
  0.7506444412520509  0.5004738082987669  0.0009014017926768   T   T   T
  0.1255464133707871  0.2503194756398839  0.0008848996576377   T   T   T
  0.6255269342735892  0.2504503688323949  0.0007709698572833   T   T   T
  0.1256663034532756  0.7502987018121816  0.0010642111582805   T   T   T
  0.6256042717642282  0.7504527027190029  0.0008052745970067   T   T   T
  0.3752950984258569  0.2504284663540977  0.0003616051414348   T   T   T
  0.8756904386256211  0.2504659753109377  0.0009384504111965   T   T   T
  0.3754239443729060  0.7508648027600137  0.0003334926301063   T   T   T
  0.8757076080886143  0.7504216578154187  0.0010327427815946   T   T   T
  0.1260169750676180  0.0002620931493148  0.0930007827077043   T   T   T
  0.6254541809796184  0.9999745665126517  0.0926252242131899   T   T   T
  0.1259246972290491  0.4999802141991635  0.0929655752117655   T   T   T
  0.6252749761764593  0.5004636512630796  0.0925577826227398   T   T   T
  0.3755151505875234  0.0004513411367888  0.0927140621338190   T   T   T
  0.8758812770803132  0.0005450783100584  0.0928093931398578   T   T   T
  0.3752614736220621  0.5010740619065083  0.0915530920325765   T   T   T
  0.8755971932030582  0.5004641492048180  0.0929091320360785   T   T   T
  0.0006506232493819  0.2507071887180040  0.0927228424726108   T   T   T
  0.4997492433808204  0.2516669438336373  0.0925244946831669   T   T   T
  0.0007882928581626  0.7504286493317947  0.0929341929133496   T   T   T
  0.5000270640787113  0.7505738523731035  0.0925755350443630   T   T   T
  0.2506467962209818  0.2510867610452858  0.0927649488524368   T   T   T
  0.7504552905495226  0.2505445698059864  0.0927391659886413   T   T   T
  0.2510968397999910  0.7497821673844022  0.0929938664604895   T   T   T
  0.7506012201924628  0.7500219939098987  0.0929259786462738   T   T   T
  0.0007593397320983  0.0012029956206903  0.1829892179738663   T   T   T
  0.4995496162468273  0.0009286053031695  0.1823375365563663   T   T   T
  0.0002981883939751  0.5012265807806752  0.1827103692409266   T   T   T
  0.4985144444947768  0.5038016677487204  0.1829260600422823   T   T   T
  0.2525114013671397  0.0003812680130193  0.1827038417299048   T   T   T
  0.7515134312122038  0.0003167189885410  0.1823292589958076   T   T   T
  0.2523604598257332  0.5003235396749726  0.1840869816698000   T   T   T
  0.7505890006007069  0.4997595666595802  0.1828814028143997   T   T   T
  0.1257917980031491  0.2511518033927344  0.1832351745726629   T   T   T
  0.6246057380085567  0.2513446939846901  0.1819873124008934   T   T   T
  0.1261518859153382  0.7476874823601123  0.1825203550325820   T   T   T
  0.6249629940117112  0.7471836300088041  0.1826350393785443   T   T   T
  0.3740639891499608  0.2546939143940006  0.1828098729286846   T   T   T
  0.8749922422087553  0.2508772054309320  0.1828811565772178   T   T   T
  0.3757713218165057  0.7470919044193135  0.1840637872598624   T   T   T
  0.8758500210471946  0.7505571630273664  0.1829087703942469   T   T   T
  0.1289014393265094  0.9949010865235860  0.2703095052225101   T   T   T
  0.6283968175568337  0.9931311266347946  0.2697259435273664   T   T   T
  0.1238258248576978  0.5002399023430436  0.2755768388201443   T   T   T
  0.6268834046778523  0.5002810512118336  0.2759286741164814   T   T   T
  0.3753921629471467  0.0012982140458106  0.2760694443985055   T   T   T
  0.8758711453601020  0.0014959811274282  0.2755212547203988   T   T   T
  0.3727279690897831  0.5040150746793792  0.2908273656856736   T   T   T
  0.8750014520286543  0.5014880368697360  0.2748800190986463   T   T   T
  0.4933553604757462  0.2651358252218382  0.2712717853342396   T   T   T
  0.9955830031082820  0.2600262895432943  0.2706630226448391   T   T   T
  0.0006238281840675  0.7517142393675011  0.2753350199966543   T   T   T
  0.4991187281417405  0.7472096391710030  0.2776945101294481   T   T   T
  0.2514216700015065  0.2529268253274204  0.2761135573880513   T   T   T
  0.7498176502645436  0.2495925493658442  0.2761125363847395   T   T   T
  0.2520319161257076  0.7474713170290185  0.2751006117206113   T   T   T
  0.7514405007150611  0.7492550342993205  0.2743973831313972   T   T   T
  0.0545439119963171  0.1437666435882760  0.3519167405520688   T   T   T
  0.5642914607224214  0.1248594115014824  0.3576325640908079   T   T   T
  0.3909442489808793  0.4891060121605583  0.3700096254192545   T   T   T
 
  0.00000000E+00  0.00000000E+00  0.00000000E+00
  0.00000000E+00  0.00000000E+00  0.00000000E+00
  0.00000000E+00  0.00000000E+00  0.00000000E+00
  0.00000000E+00  0.00000000E+00  0.00000000E+00
  0.00000000E+00  0.00000000E+00  0.00000000E+00
  0.00000000E+00  0.00000000E+00  0.00000000E+00
  0.00000000E+00  0.00000000E+00  0.00000000E+00
  0.00000000E+00  0.00000000E+00  0.00000000E+00
  0.00000000E+00  0.00000000E+00  0.00000000E+00
  0.00000000E+00  0.00000000E+00  0.00000000E+00
  0.00000000E+00  0.00000000E+00  0.00000000E+00
  0.00000000E+00  0.00000000E+00  0.00000000E+00
  0.00000000E+00  0.00000000E+00  0.00000000E+00
  0.00000000E+00  0.00000000E+00  0.00000000E+00
  0.00000000E+00  0.00000000E+00  0.00000000E+00
  0.00000000E+00  0.00000000E+00  0.00000000E+00
  0.00000000E+00  0.00000000E+00  0.00000000E+00
  0.00000000E+00  0.00000000E+00  0.00000000E+00
  0.00000000E+00  0.00000000E+00  0.00000000E+00
  0.00000000E+00  0.00000000E+00  0.00000000E+00
  0.00000000E+00  0.00000000E+00  0.00000000E+00
  0.00000000E+00  0.00000000E+00  0.00000000E+00
  0.00000000E+00  0.00000000E+00  0.00000000E+00
  0.00000000E+00  0.00000000E+00  0.00000000E+00
  0.00000000E+00  0.00000000E+00  0.00000000E+00
  0.00000000E+00  0.00000000E+00  0.00000000E+00
  0.00000000E+00  0.00000000E+00  0.00000000E+00
  0.00000000E+00  0.00000000E+00  0.00000000E+00
  0.00000000E+00  0.00000000E+00  0.00000000E+00
  0.00000000E+00  0.00000000E+00  0.00000000E+00
  0.00000000E+00  0.00000000E+00  0.00000000E+00
  0.00000000E+00  0.00000000E+00  0.00000000E+00
  0.00000000E+00  0.00000000E+00  0.00000000E+00
  0.00000000E+00  0.00000000E+00  0.00000000E+00
  0.00000000E+00  0.00000000E+00  0.00000000E+00
  0.00000000E+00  0.00000000E+00  0.00000000E+00
  0.00000000E+00  0.00000000E+00  0.00000000E+00
  0.00000000E+00  0.00000000E+00  0.00000000E+00
  0.00000000E+00  0.00000000E+00  0.00000000E+00
  0.00000000E+00  0.00000000E+00  0.00000000E+00
  0.00000000E+00  0.00000000E+00  0.00000000E+00
  0.00000000E+00  0.00000000E+00  0.00000000E+00
  0.00000000E+00  0.00000000E+00  0.00000000E+00
  0.00000000E+00  0.00000000E+00  0.00000000E+00
  0.00000000E+00  0.00000000E+00  0.00000000E+00
  0.00000000E+00  0.00000000E+00  0.00000000E+00
  0.00000000E+00  0.00000000E+00  0.00000000E+00
  0.00000000E+00  0.00000000E+00  0.00000000E+00
  0.00000000E+00  0.00000000E+00  0.00000000E+00
  0.00000000E+00  0.00000000E+00  0.00000000E+00
  0.00000000E+00  0.00000000E+00  0.00000000E+00
  0.00000000E+00  0.00000000E+00  0.00000000E+00
  0.00000000E+00  0.00000000E+00  0.00000000E+00
  0.00000000E+00  0.00000000E+00  0.00000000E+00
  0.00000000E+00  0.00000000E+00  0.00000000E+00
  0.00000000E+00  0.00000000E+00  0.00000000E+00
  0.00000000E+00  0.00000000E+00  0.00000000E+00
  0.00000000E+00  0.00000000E+00  0.00000000E+00
  0.00000000E+00  0.00000000E+00  0.00000000E+00
  0.00000000E+00  0.00000000E+00  0.00000000E+00
  0.00000000E+00  0.00000000E+00  0.00000000E+00
  0.00000000E+00  0.00000000E+00  0.00000000E+00
  0.00000000E+00  0.00000000E+00  0.00000000E+00
  0.00000000E+00  0.00000000E+00  0.00000000E+00
  0.00000000E+00  0.00000000E+00  0.00000000E+00
  0.00000000E+00  0.00000000E+00  0.00000000E+00
  0.00000000E+00  0.00000000E+00  0.00000000E+00
  0.00000000E+00  0.00000000E+00  0.00000000E+00
  0.00000000E+00  0.00000000E+00  0.00000000E+00
  0.00000000E+00  0.00000000E+00  0.00000000E+00
  0.00000000E+00  0.00000000E+00  0.00000000E+00
  0.00000000E+00  0.00000000E+00  0.00000000E+00
  0.00000000E+00  0.00000000E+00  0.00000000E+00
  0.00000000E+00  0.00000000E+00  0.00000000E+00
  0.00000000E+00  0.00000000E+00  0.00000000E+00
  0.00000000E+00  0.00000000E+00  0.00000000E+00
  0.00000000E+00  0.00000000E+00  0.00000000E+00
  0.00000000E+00  0.00000000E+00  0.00000000E+00
  0.00000000E+00  0.00000000E+00  0.00000000E+00
  0.00000000E+00  0.00000000E+00  0.00000000E+00
  0.00000000E+00  0.00000000E+00  0.00000000E+00
  0.00000000E+00  0.00000000E+00  0.00000000E+00
  0.00000000E+00  0.00000000E+00  0.00000000E+00
  0.00000000E+00  0.00000000E+00  0.00000000E+00
  0.00000000E+00  0.00000000E+00  0.00000000E+00
  0.00000000E+00  0.00000000E+00  0.00000000E+00
  0.00000000E+00  0.00000000E+00  0.00000000E+00
  0.00000000E+00  0.00000000E+00  0.00000000E+00
  0.00000000E+00  0.00000000E+00  0.00000000E+00
  0.00000000E+00  0.00000000E+00  0.00000000E+00
  0.00000000E+00  0.00000000E+00  0.00000000E+00
  0.00000000E+00  0.00000000E+00  0.00000000E+00
  0.00000000E+00  0.00000000E+00  0.00000000E+00
  0.00000000E+00  0.00000000E+00  0.00000000E+00
  0.00000000E+00  0.00000000E+00  0.00000000E+00
  0.00000000E+00  0.00000000E+00  0.00000000E+00
  0.00000000E+00  0.00000000E+00  0.00000000E+00
  0.00000000E+00  0.00000000E+00  0.00000000E+00
  0.00000000E+00  0.00000000E+00  0.00000000E+00
  0.00000000E+00  0.00000000E+00  0.00000000E+00
  0.00000000E+00  0.00000000E+00  0.00000000E+00
  0.00000000E+00  0.00000000E+00  0.00000000E+00
  0.00000000E+00  0.00000000E+00  0.00000000E+00
  0.00000000E+00  0.00000000E+00  0.00000000E+00
  0.00000000E+00  0.00000000E+00  0.00000000E+00
  0.00000000E+00  0.00000000E+00  0.00000000E+00
  0.00000000E+00  0.00000000E+00  0.00000000E+00
  0.00000000E+00  0.00000000E+00  0.00000000E+00
  0.00000000E+00  0.00000000E+00  0.00000000E+00
  0.00000000E+00  0.00000000E+00  0.00000000E+00
  0.00000000E+00  0.00000000E+00  0.00000000E+00
  0.00000000E+00  0.00000000E+00  0.00000000E+00
  0.00000000E+00  0.00000000E+00  0.00000000E+00
  0.00000000E+00  0.00000000E+00  0.00000000E+00
  0.00000000E+00  0.00000000E+00  0.00000000E+00
  0.00000000E+00  0.00000000E+00  0.00000000E+00
  0.00000000E+00  0.00000000E+00  0.00000000E+00
  0.00000000E+00  0.00000000E+00  0.00000000E+00
  0.00000000E+00  0.00000000E+00  0.00000000E+00
  0.00000000E+00  0.00000000E+00  0.00000000E+00
  0.00000000E+00  0.00000000E+00  0.00000000E+00
  0.00000000E+00  0.00000000E+00  0.00000000E+00
  0.00000000E+00  0.00000000E+00  0.00000000E+00
  0.00000000E+00  0.00000000E+00  0.00000000E+00
  0.00000000E+00  0.00000000E+00  0.00000000E+00
  0.00000000E+00  0.00000000E+00  0.00000000E+00
  0.00000000E+00  0.00000000E+00  0.00000000E+00
  0.00000000E+00  0.00000000E+00  0.00000000E+00
  0.00000000E+00  0.00000000E+00  0.00000000E+00
  0.00000000E+00  0.00000000E+00  0.00000000E+00
  0.00000000E+00  0.00000000E+00  0.00000000E+00
  0.00000000E+00  0.00000000E+00  0.00000000E+00
  0.00000000E+00  0.00000000E+00  0.00000000E+00
