H Mg O V                                
   1.00000000000000     
    16.8282433949600012    0.0000000000000000    0.0000000000000000
     0.0000000000000000    8.4141216974800006    0.0000000000000000
     0.0000000000000000    0.0000000000000000   23.4141216974799988
   H    Mg   O    V 
     2    64    66     1
Selective dynamics
Direct
  0.0259368495721942  0.1985845214269547  0.3783456276793530   T   T   T
  0.5288570676815821  0.1983297170323473  0.3789198006113944   T   T   T
  0.1253985515625630  0.0003897726348630  0.0031106647804519   T   T   T
  0.6258798045950401  0.0004344250295256  0.0032523407903990   T   T   T
  0.1251589974388107  0.5004125982802402  0.0027711457441565   T   T   T
  0.6259387094516071  0.5004509428517961  0.0028879331541748   T   T   T
  0.3757149689049653  0.0005416800299662  0.0025632440895386   T   T   T
  0.8755524222051349  0.0006907336494060  0.0030119912663559   T   T   T
  0.3756418112281458  0.5005657566518850  0.0019801103222187   T   T   T
  0.8754926729666428  0.5005678904111982  0.0029377757106361   T   T   T
  0.0003368310301541  0.2505070068136567  0.0029849250896020   T   T   T
  0.5008742791863152  0.2504327398703232  0.0029131247555448   T   T   T
  0.0004288861941805  0.7507696889861674  0.0029974946797097   T   T   T
  0.5010063852134332  0.7509597160113404  0.0028376934860925   T   T   T
  0.2502247418749208  0.2501657215302939  0.0027189256215416   T   T   T
  0.7506224540607858  0.2503271387154508  0.0031089054577008   T   T   T
  0.2503556866681445  0.7506663942517932  0.0028075049434759   T   T   T
  0.7506770360312043  0.7506740808123824  0.0031410781739909   T   T   T
  0.0003833922395364  0.0005877723745571  0.0925805100764828   T   T   T
  0.5010359427648825  0.0009268798304480  0.0926555381280501   T   T   T
  0.0002005568560406  0.5011270965190523  0.0924664022948506   T   T   T
  0.5015536395891145  0.5012833681167576  0.0917272764389621   T   T   T
  0.2504527992290259  0.0004911932591224  0.0925978882063257   T   T   T
  0.7510954307482646  0.0007895094584799  0.0928840920699379   T   T   T
  0.2495297344261319  0.5001624699882752  0.0914598783503246   T   T   T
  0.7508526608889172  0.5001494454439371  0.0924984911873755   T   T   T
  0.1252292121216730  0.2501900084441351  0.0925263579849714   T   T   T
  0.6257298297119360  0.2502648294921087  0.0927369527008199   T   T   T
  0.1252136090343672  0.7501440680067444  0.0927113863263532   T   T   T
  0.6258553091426872  0.7503303440861281  0.0928193805734754   T   T   T
  0.3752692857916033  0.2493712120570322  0.0914978745132846   T   T   T
  0.8752449866198084  0.2503490392632135  0.0926905185332361   T   T   T
  0.3758123737351738  0.7518612490144262  0.0913555818503702   T   T   T
  0.8757549029485204  0.7510915140261453  0.0926029040594507   T   T   T
  0.1241780931664705  0.0020324593358678  0.1832852916003151   T   T   T
  0.6252709906921916  0.0025863851079459  0.1834922394310820   T   T   T
  0.1231437464449460  0.4971776729762239  0.1832453197260008   T   T   T
  0.6274104222438068  0.4971138646659710  0.1830311615653955   T   T   T
  0.3771150788312118  0.0011796462782884  0.1826084607023833   T   T   T
  0.8773513849526531  0.0014145036742595  0.1838902367798033   T   T   T
  0.3756391025984279  0.5004453418460938  0.1764295101456709   T   T   T
  0.8755475814209196  0.5005349847735435  0.1828830387108037   T   T   T
  0.0008318121374241  0.2486178785428292  0.1827966971747435   T   T   T
  0.5015975000650560  0.2495704595072250  0.1835226746398696   T   T   T
  0.0003126516156405  0.7544659872802255  0.1836616180455936   T   T   T
  0.5015368632329719  0.7547775534522637  0.1837255518921484   T   T   T
  0.2481729886452217  0.2499081007739293  0.1834153674125502   T   T   T
  0.7490026330499776  0.2494420155660839  0.1839477431165195   T   T   T
  0.2500102451282373  0.7502111646134826  0.1830079404582278   T   T   T
  0.7512573383968288  0.7509899343930507  0.1829198870521117   T   T   T
  0.0031120393417101  0.0066227794864483  0.2839665740457895   T   T   T
  0.5076130893742060  0.0094851229851773  0.2857477213242497   T   T   T
  0.9984797916260145  0.5031159943151211  0.2717640659377901   T   T   T
  0.5110818283102566  0.5035670623981097  0.2703344781578035   T   T   T
  0.2486317134087454  0.9994678695008037  0.2722262269096118   T   T   T
  0.7517829920472825  0.9995373988300602  0.2719991005441260   T   T   T
  0.2397977206476121  0.4988470170700524  0.2720235799500029   T   T   T
  0.7516233750616280  0.4996744473160492  0.2725693303318467   T   T   T
  0.1189494740713433  0.2404044178972234  0.2842821388405487   T   T   T
  0.6256902845864273  0.2403203358966946  0.2856131226384626   T   T   T
  0.1231605956736462  0.7517515332712048  0.2720382253056646   T   T   T
  0.6290640316516986  0.7517930250171807  0.2721291220209996   T   T   T
  0.3736777710912111  0.2359881498305696  0.2705670622712170   T   T   T
  0.8742411177718306  0.2506716969550133  0.2718120980443512   T   T   T
  0.3763195194095454  0.7667104463529341  0.2720386472570751   T   T   T
  0.8760701165124807  0.7526062582485967  0.2725499537245563   T   T   T
  0.0008598195809549  0.0005800585900057  0.0006563854104187   T   T   T
  0.5004393406818022  0.0006765275503748  0.0009966794610504   T   T   T
  0.0007482991229969  0.5007068168498087  0.0006294826296012   T   T   T
  0.5005102766109495  0.5007165733681405  0.0005293280685517   T   T   T
  0.2509270469631669  0.0003151332957354  0.0009861652438653   T   T   T
  0.7503299918795715  0.0004836959958664  0.0008451391860396   T   T   T
  0.2506775300626223  0.5005403245138216  0.0003942720541007   T   T   T
  0.7503018978871274  0.5005249906318765  0.0007177322923193   T   T   T
  0.1258458210245909  0.2504037827306128  0.0007173150349564   T   T   T
  0.6252117795767819  0.2504068037648134  0.0009151091922102   T   T   T
  0.1259825670768966  0.7503864111359877  0.0008905289779682   T   T   T
  0.6253225329031286  0.7504741229291776  0.0009288865726549   T   T   T
  0.3755378000172345  0.2502144826654636  0.0004636863238521   T   T   T
  0.8754489104582652  0.2506571315094283  0.0006004285454783   T   T   T
  0.3756488678736480  0.7508929174593967  0.0004376723038210   T   T   T
  0.8755071382082533  0.7505535907813953  0.0006139070161761   T   T   T
  0.1263425135895490  0.0000567057121160  0.0927554781586839   T   T   T
  0.6252573984677194  0.0001651536500389  0.0929018721387469   T   T   T
  0.1261650793340950  0.5002314527012043  0.0927096652580784   T   T   T
  0.6251207077883579  0.5003930118096009  0.0927002643064885   T   T   T
  0.3756913618844892  0.0002895057415180  0.0929901279658525   T   T   T
  0.8757200900168935  0.0006186552692290  0.0923350814140574   T   T   T
  0.3753592453314031  0.5010010530333401  0.0911945748514408   T   T   T
  0.8754464741543925  0.5008165971945030  0.0924283390344378   T   T   T
  0.0006559109004716  0.2510881040520219  0.0924015156908429   T   T   T
  0.4996685004710114  0.2516310130901833  0.0929238258182588   T   T   T
  0.0008331586180423  0.7506719145371312  0.0924097437150947   T   T   T
  0.4999410376453531  0.7506426470004441  0.0929147423457356   T   T   T
  0.2509376590163814  0.2511552628652802  0.0927515273091069   T   T   T
  0.7501312322473918  0.2507054295748262  0.0925491341348678   T   T   T
  0.2514118555427724  0.7494928121191683  0.0930754828957911   T   T   T
  0.7504538873456329  0.7502201735005040  0.0926894279269432   T   T   T
  0.0008276261536810  0.0007622965108274  0.1819342144354074   T   T   T
  0.4994636797586531  0.0011938983921941  0.1832887721054843   T   T   T
  0.0001388176666121  0.5028221704762714  0.1820198379625236   T   T   T
  0.4981928303447709  0.5039360625591413  0.1834357773765914   T   T   T
  0.2528923435051139  0.0000713980203937  0.1829297422628861   T   T   T
  0.7515688023277058  0.0003375124103880  0.1821449775043378   T   T   T
  0.2528682325342454  0.5001088163958030  0.1846610527395466   T   T   T
  0.7506660015488000  0.5001577320618384  0.1826062104188559   T   T   T
  0.1260990360050848  0.2513207366696055  0.1825632181119039   T   T   T
  0.6245844940226157  0.2515739390572455  0.1826390639401567   T   T   T
  0.1264169235421928  0.7470633884957725  0.1825021479034132   T   T   T
  0.6250376147033838  0.7471629340881779  0.1826622676591386   T   T   T
  0.3738808565312718  0.2552912883451781  0.1832205256791261   T   T   T
  0.8743978661045735  0.2509650532294704  0.1821383253025942   T   T   T
  0.3757936274744128  0.7459792718480256  0.1845955209664808   T   T   T
  0.8757880773066126  0.7509739756723979  0.1825632529886055   T   T   T
  0.1294573447368482  0.9934277590704675  0.2697699258858420   T   T   T
  0.6288788404007746  0.9930700537861411  0.2697310745081750   T   T   T
  0.1224956668478355  0.5004303817987630  0.2759040030090048   T   T   T
  0.6280997362852540  0.5004605990069931  0.2759347758773377   T   T   T
  0.3752459511167495  0.0012964596443413  0.2762696448242912   T   T   T
  0.8759657627247318  0.0013880188955210  0.2755717365454650   T   T   T
  0.3726648225739539  0.5050528659667775  0.2961453666225909   T   T   T
  0.8747963056133233  0.5021943524710134  0.2744202563603091   T   T   T
  0.4918751477378177  0.2683067835267046  0.2712224129043470   T   T   T
  0.9956080152539970  0.2593584530275121  0.2695594286322090   T   T   T
  0.0003419585177204  0.7518365417962052  0.2753981212753386   T   T   T
  0.4989642389665203  0.7462943564686245  0.2774274467592838   T   T   T
  0.2519935924904906  0.2544211339986375  0.2768031506749656   T   T   T
  0.7503926171074046  0.2496129656065466  0.2757793887797617   T   T   T
  0.2528765204795247  0.7447207140418498  0.2755964270920827   T   T   T
  0.7518449943242161  0.7496257493329453  0.2741994881843398   T   T   T
  0.0608875052023908  0.1304179998048496  0.3559792124180908   T   T   T
  0.5626417905382247  0.1289087859218068  0.3562020924476698   T   T   T
  0.3825140095645114  0.4943848394087897  0.3699187337674698   T   T   T
 
  0.00000000E+00  0.00000000E+00  0.00000000E+00
  0.00000000E+00  0.00000000E+00  0.00000000E+00
  0.00000000E+00  0.00000000E+00  0.00000000E+00
  0.00000000E+00  0.00000000E+00  0.00000000E+00
  0.00000000E+00  0.00000000E+00  0.00000000E+00
  0.00000000E+00  0.00000000E+00  0.00000000E+00
  0.00000000E+00  0.00000000E+00  0.00000000E+00
  0.00000000E+00  0.00000000E+00  0.00000000E+00
  0.00000000E+00  0.00000000E+00  0.00000000E+00
  0.00000000E+00  0.00000000E+00  0.00000000E+00
  0.00000000E+00  0.00000000E+00  0.00000000E+00
  0.00000000E+00  0.00000000E+00  0.00000000E+00
  0.00000000E+00  0.00000000E+00  0.00000000E+00
  0.00000000E+00  0.00000000E+00  0.00000000E+00
  0.00000000E+00  0.00000000E+00  0.00000000E+00
  0.00000000E+00  0.00000000E+00  0.00000000E+00
  0.00000000E+00  0.00000000E+00  0.00000000E+00
  0.00000000E+00  0.00000000E+00  0.00000000E+00
  0.00000000E+00  0.00000000E+00  0.00000000E+00
  0.00000000E+00  0.00000000E+00  0.00000000E+00
  0.00000000E+00  0.00000000E+00  0.00000000E+00
  0.00000000E+00  0.00000000E+00  0.00000000E+00
  0.00000000E+00  0.00000000E+00  0.00000000E+00
  0.00000000E+00  0.00000000E+00  0.00000000E+00
  0.00000000E+00  0.00000000E+00  0.00000000E+00
  0.00000000E+00  0.00000000E+00  0.00000000E+00
  0.00000000E+00  0.00000000E+00  0.00000000E+00
  0.00000000E+00  0.00000000E+00  0.00000000E+00
  0.00000000E+00  0.00000000E+00  0.00000000E+00
  0.00000000E+00  0.00000000E+00  0.00000000E+00
  0.00000000E+00  0.00000000E+00  0.00000000E+00
  0.00000000E+00  0.00000000E+00  0.00000000E+00
  0.00000000E+00  0.00000000E+00  0.00000000E+00
  0.00000000E+00  0.00000000E+00  0.00000000E+00
  0.00000000E+00  0.00000000E+00  0.00000000E+00
  0.00000000E+00  0.00000000E+00  0.00000000E+00
  0.00000000E+00  0.00000000E+00  0.00000000E+00
  0.00000000E+00  0.00000000E+00  0.00000000E+00
  0.00000000E+00  0.00000000E+00  0.00000000E+00
  0.00000000E+00  0.00000000E+00  0.00000000E+00
  0.00000000E+00  0.00000000E+00  0.00000000E+00
  0.00000000E+00  0.00000000E+00  0.00000000E+00
  0.00000000E+00  0.00000000E+00  0.00000000E+00
  0.00000000E+00  0.00000000E+00  0.00000000E+00
  0.00000000E+00  0.00000000E+00  0.00000000E+00
  0.00000000E+00  0.00000000E+00  0.00000000E+00
  0.00000000E+00  0.00000000E+00  0.00000000E+00
  0.00000000E+00  0.00000000E+00  0.00000000E+00
  0.00000000E+00  0.00000000E+00  0.00000000E+00
  0.00000000E+00  0.00000000E+00  0.00000000E+00
  0.00000000E+00  0.00000000E+00  0.00000000E+00
  0.00000000E+00  0.00000000E+00  0.00000000E+00
  0.00000000E+00  0.00000000E+00  0.00000000E+00
  0.00000000E+00  0.00000000E+00  0.00000000E+00
  0.00000000E+00  0.00000000E+00  0.00000000E+00
  0.00000000E+00  0.00000000E+00  0.00000000E+00
  0.00000000E+00  0.00000000E+00  0.00000000E+00
  0.00000000E+00  0.00000000E+00  0.00000000E+00
  0.00000000E+00  0.00000000E+00  0.00000000E+00
  0.00000000E+00  0.00000000E+00  0.00000000E+00
  0.00000000E+00  0.00000000E+00  0.00000000E+00
  0.00000000E+00  0.00000000E+00  0.00000000E+00
  0.00000000E+00  0.00000000E+00  0.00000000E+00
  0.00000000E+00  0.00000000E+00  0.00000000E+00
  0.00000000E+00  0.00000000E+00  0.00000000E+00
  0.00000000E+00  0.00000000E+00  0.00000000E+00
  0.00000000E+00  0.00000000E+00  0.00000000E+00
  0.00000000E+00  0.00000000E+00  0.00000000E+00
  0.00000000E+00  0.00000000E+00  0.00000000E+00
  0.00000000E+00  0.00000000E+00  0.00000000E+00
  0.00000000E+00  0.00000000E+00  0.00000000E+00
  0.00000000E+00  0.00000000E+00  0.00000000E+00
  0.00000000E+00  0.00000000E+00  0.00000000E+00
  0.00000000E+00  0.00000000E+00  0.00000000E+00
  0.00000000E+00  0.00000000E+00  0.00000000E+00
  0.00000000E+00  0.00000000E+00  0.00000000E+00
  0.00000000E+00  0.00000000E+00  0.00000000E+00
  0.00000000E+00  0.00000000E+00  0.00000000E+00
  0.00000000E+00  0.00000000E+00  0.00000000E+00
  0.00000000E+00  0.00000000E+00  0.00000000E+00
  0.00000000E+00  0.00000000E+00  0.00000000E+00
  0.00000000E+00  0.00000000E+00  0.00000000E+00
  0.00000000E+00  0.00000000E+00  0.00000000E+00
  0.00000000E+00  0.00000000E+00  0.00000000E+00
  0.00000000E+00  0.00000000E+00  0.00000000E+00
  0.00000000E+00  0.00000000E+00  0.00000000E+00
  0.00000000E+00  0.00000000E+00  0.00000000E+00
  0.00000000E+00  0.00000000E+00  0.00000000E+00
  0.00000000E+00  0.00000000E+00  0.00000000E+00
  0.00000000E+00  0.00000000E+00  0.00000000E+00
  0.00000000E+00  0.00000000E+00  0.00000000E+00
  0.00000000E+00  0.00000000E+00  0.00000000E+00
  0.00000000E+00  0.00000000E+00  0.00000000E+00
  0.00000000E+00  0.00000000E+00  0.00000000E+00
  0.00000000E+00  0.00000000E+00  0.00000000E+00
  0.00000000E+00  0.00000000E+00  0.00000000E+00
  0.00000000E+00  0.00000000E+00  0.00000000E+00
  0.00000000E+00  0.00000000E+00  0.00000000E+00
  0.00000000E+00  0.00000000E+00  0.00000000E+00
  0.00000000E+00  0.00000000E+00  0.00000000E+00
  0.00000000E+00  0.00000000E+00  0.00000000E+00
  0.00000000E+00  0.00000000E+00  0.00000000E+00
  0.00000000E+00  0.00000000E+00  0.00000000E+00
  0.00000000E+00  0.00000000E+00  0.00000000E+00
  0.00000000E+00  0.00000000E+00  0.00000000E+00
  0.00000000E+00  0.00000000E+00  0.00000000E+00
  0.00000000E+00  0.00000000E+00  0.00000000E+00
  0.00000000E+00  0.00000000E+00  0.00000000E+00
  0.00000000E+00  0.00000000E+00  0.00000000E+00
  0.00000000E+00  0.00000000E+00  0.00000000E+00
  0.00000000E+00  0.00000000E+00  0.00000000E+00
  0.00000000E+00  0.00000000E+00  0.00000000E+00
  0.00000000E+00  0.00000000E+00  0.00000000E+00
  0.00000000E+00  0.00000000E+00  0.00000000E+00
  0.00000000E+00  0.00000000E+00  0.00000000E+00
  0.00000000E+00  0.00000000E+00  0.00000000E+00
  0.00000000E+00  0.00000000E+00  0.00000000E+00
  0.00000000E+00  0.00000000E+00  0.00000000E+00
  0.00000000E+00  0.00000000E+00  0.00000000E+00
  0.00000000E+00  0.00000000E+00  0.00000000E+00
  0.00000000E+00  0.00000000E+00  0.00000000E+00
  0.00000000E+00  0.00000000E+00  0.00000000E+00
  0.00000000E+00  0.00000000E+00  0.00000000E+00
  0.00000000E+00  0.00000000E+00  0.00000000E+00
  0.00000000E+00  0.00000000E+00  0.00000000E+00
  0.00000000E+00  0.00000000E+00  0.00000000E+00
  0.00000000E+00  0.00000000E+00  0.00000000E+00
  0.00000000E+00  0.00000000E+00  0.00000000E+00
  0.00000000E+00  0.00000000E+00  0.00000000E+00
  0.00000000E+00  0.00000000E+00  0.00000000E+00
  0.00000000E+00  0.00000000E+00  0.00000000E+00
  0.00000000E+00  0.00000000E+00  0.00000000E+00
  0.00000000E+00  0.00000000E+00  0.00000000E+00
