H Mg O Cu                               
   1.00000000000000     
    16.8282433949600012    0.0000000000000000    0.0000000000000000
     0.0000000000000000    8.4141216974800006    0.0000000000000000
     0.0000000000000000    0.0000000000000000   23.4141216974799988
   H    Mg   O    Cu
     2    64    66     1
Selective dynamics
Direct
  0.0182649754555704  0.2158654956710469  0.3740120677664699   T   T   T
  0.5295702466971245  0.1936059384809846  0.3805118887788086   T   T   T
  0.1255539281989227  0.0003048657488166  0.0033910310416811   T   T   T
  0.6259256137466905  0.0001738921216299  0.0033748687818142   T   T   T
  0.1253942466390717  0.5003851387286757  0.0031448083502966   T   T   T
  0.6259259373882367  0.5003365583293439  0.0031458339623974   T   T   T
  0.3757663604268392  0.0005824795961031  0.0028608865643152   T   T   T
  0.8755878791542554  0.0003084417281477  0.0034420264457173   T   T   T
  0.3757280646693616  0.5006284375373001  0.0024857389700385   T   T   T
  0.8755008979363732  0.5003616456755856  0.0034154511460008   T   T   T
  0.0004597291883036  0.2503210852816896  0.0032606852141627   T   T   T
  0.5008656747519735  0.2504923660996157  0.0030479577310539   T   T   T
  0.0005166257431599  0.7504441198155344  0.0033872211360943   T   T   T
  0.5009915727197912  0.7507273546760650  0.0030094183099424   T   T   T
  0.2504512779413877  0.2502986157139021  0.0029747634239235   T   T   T
  0.7506887147995741  0.2501682608240138  0.0033933838930295   T   T   T
  0.2505510405935950  0.7506345928426359  0.0031004304672472   T   T   T
  0.7507156380346680  0.7502840781806938  0.0035010258290994   T   T   T
  0.0005196157769345  0.0000684112985797  0.0928273741619100   T   T   T
  0.5010063169330082  0.0006718970473685  0.0926798060817188   T   T   T
  0.0003849616186815  0.5008520285317268  0.0926988540169682   T   T   T
  0.5013809562563926  0.5010792881813195  0.0922112455389830   T   T   T
  0.2508905141097451  0.0005117138855711  0.0927759576081837   T   T   T
  0.7508281983194813  0.0003526320251349  0.0931404247263265   T   T   T
  0.2501369242663723  0.5003497194124945  0.0920082155170431   T   T   T
  0.7505538731150309  0.4997836394544191  0.0929242614721046   T   T   T
  0.1256813042298453  0.2502225220815144  0.0926592233942303   T   T   T
  0.6256581897799207  0.2500923956314368  0.0928099169941379   T   T   T
  0.1255965811514320  0.7500196408722134  0.0929034560790229   T   T   T
  0.6257108633740703  0.7499051435889315  0.0930304313329810   T   T   T
  0.3756151030302788  0.2497851013640168  0.0920068375017141   T   T   T
  0.8751018929530856  0.2501425759213978  0.0929091121912563   T   T   T
  0.3760351232160908  0.7516175429337282  0.0919298526235799   T   T   T
  0.8755847444533781  0.7505497802557075  0.0929955024414077   T   T   T
  0.1252073609300084  0.0010091617576908  0.1833977252508110   T   T   T
  0.6247776067887089  0.0022580304484696  0.1836445993376460   T   T   T
  0.1245576295533942  0.4982398281534274  0.1835295093009760   T   T   T
  0.6264011829914704  0.4964922961731418  0.1836742581004867   T   T   T
  0.3776583075604721  0.0012149088305244  0.1833026430255666   T   T   T
  0.8764978844268938  0.0007179338794730  0.1839672542004860   T   T   T
  0.3759931464469319  0.5006317448814184  0.1786637283848759   T   T   T
  0.8751865412368552  0.5002039308271183  0.1834104972804753   T   T   T
  0.0010880688484090  0.2486365475246070  0.1818014829605805   T   T   T
  0.5020468254676572  0.2483629117584022  0.1834455045234055   T   T   T
  0.0005222841417758  0.7533278911671115  0.1836316141303610   T   T   T
  0.5016141806947080  0.7549202323754282  0.1839766681847363   T   T   T
  0.2492701644810349  0.2498826079159006  0.1834385243929980   T   T   T
  0.7480814037751934  0.2490934643990635  0.1842902407556470   T   T   T
  0.2505864611220435  0.7507016872486959  0.1831579658963789   T   T   T
  0.7505704384225086  0.7503248217929085  0.1833016906913685   T   T   T
  0.0023891656060282  0.0015469470728884  0.2795725075060417   T   T   T
  0.5071717058509652  0.0085061190632697  0.2866213605300136   T   T   T
  0.9994667727756577  0.5067892389212317  0.2722400846939884   T   T   T
  0.5072063429582341  0.5024451502769396  0.2707288645740554   T   T   T
  0.2498472562554916  0.9995482004549147  0.2722362036298538   T   T   T
  0.7505857391202878  0.9988081353139561  0.2722824610400487   T   T   T
  0.2445337189723634  0.5003201116857879  0.2724413975551138   T   T   T
  0.7500453243418033  0.4992068794473157  0.2730274116957728   T   T   T
  0.1239740982777633  0.2443766857695293  0.2796306240148419   T   T   T
  0.6234511486498666  0.2397266777688830  0.2864788137111448   T   T   T
  0.1251377074961224  0.7516158431533622  0.2720894713863043   T   T   T
  0.6273918167728249  0.7508003701886625  0.2724422635803667   T   T   T
  0.3747077017848479  0.2409984456768156  0.2708532227833762   T   T   T
  0.8719136045410856  0.2501564035508112  0.2724873304559216   T   T   T
  0.3765721892002335  0.7623302545347379  0.2723091896599438   T   T   T
  0.8752017530910576  0.7517473907732786  0.2728702963779440   T   T   T
  0.0008874126005799  0.0002569134497160  0.0011850785214119   T   T   T
  0.5005568958205616  0.0005573707183267  0.0009425234780790   T   T   T
  0.0007812136349314  0.5005170448849934  0.0011852011599540   T   T   T
  0.5005775350470165  0.5006493617086252  0.0006517509871435   T   T   T
  0.2506352265079696  0.0003931373332862  0.0011665573633546   T   T   T
  0.7507946992557588  0.0001916247480356  0.0011786582856832   T   T   T
  0.2504681681011567  0.5005587095422800  0.0007893282174690   T   T   T
  0.7507356210903896  0.5002710780585859  0.0011104123875729   T   T   T
  0.1256878205600035  0.2503278644859989  0.0010622244490036   T   T   T
  0.6256146152697063  0.2502115863081298  0.0009936125461678   T   T   T
  0.1257957751064322  0.7503317364934464  0.0012949657826802   T   T   T
  0.6256530750494675  0.7502637296353558  0.0010016063035699   T   T   T
  0.3753694342681952  0.2503581885380690  0.0006777826277841   T   T   T
  0.8757699669971376  0.2504045163079638  0.0010985889467795   T   T   T
  0.3755081112417943  0.7508118570477696  0.0006563621959067   T   T   T
  0.8758075671068859  0.7502517926637795  0.0012232015114152   T   T   T
  0.1260091732937246  0.0003225266990780  0.0931761676588883   T   T   T
  0.6256203623612125  0.9997689033893000  0.0927888065050290   T   T   T
  0.1259574543920347  0.4999145516072389  0.0931608033996788   T   T   T
  0.6254033779534558  0.5001891083815998  0.0927639587462332   T   T   T
  0.3755550749454192  0.0004249699620683  0.0929514353750960   T   T   T
  0.8760829143316655  0.0004467310963410  0.0929918581683750   T   T   T
  0.3753413604694280  0.5009812318932096  0.0919661498312688   T   T   T
  0.8757570096985245  0.5002458544685506  0.0931049778261926   T   T   T
  0.0007848419139008  0.2505847399801727  0.0928485714917103   T   T   T
  0.4999010555715091  0.2514455004171389  0.0927313870851811   T   T   T
  0.0008686494823697  0.7503416975976265  0.0931393938168301   T   T   T
  0.5001724044916197  0.7503714419066079  0.0927927033977280   T   T   T
  0.2506362779858692  0.2510315720969359  0.0929862297917998   T   T   T
  0.7507018220938108  0.2503417574499403  0.0929495140075945   T   T   T
  0.2511260093823212  0.7497792105484337  0.0932110573487471   T   T   T
  0.7507815588843859  0.7497793448030131  0.0930891561897683   T   T   T
  0.0008506969625319  0.0012664036760878  0.1833129734017269   T   T   T
  0.4998198799133773  0.0006753802045541  0.1823260142520756   T   T   T
  0.0004198202366112  0.5005763098146173  0.1829930805391220   T   T   T
  0.4987666982601599  0.5033739716250656  0.1831695053361921   T   T   T
  0.2523894467697828  0.0002382813167962  0.1827929621979942   T   T   T
  0.7518091517251622  0.0000520000520968  0.1824483824289307   T   T   T
  0.2522601492004791  0.5003988311903511  0.1841748678271791   T   T   T
  0.7507547098458016  0.4994194023947754  0.1831176757619025   T   T   T
  0.1256805512494529  0.2510644894451868  0.1835067317217435   T   T   T
  0.6249422863559710  0.2509534549110652  0.1820535864137262   T   T   T
  0.1261051751584387  0.7477415024104825  0.1826666231454619   T   T   T
  0.6253708971810519  0.7469161449196774  0.1826385535646176   T   T   T
  0.3742503078334840  0.2543435627972284  0.1830272868704278   T   T   T
  0.8754524115542290  0.2506470012120047  0.1831756646953719   T   T   T
  0.3757484903125675  0.7472972500458491  0.1841861287492374   T   T   T
  0.8760202280433599  0.7502699122022199  0.1830989716943965   T   T   T
  0.1286023496654667  0.9951202880554852  0.2706315585953948   T   T   T
  0.6289183253695579  0.9928000149769464  0.2698140218519720   T   T   T
  0.1239223895986018  0.5001415908398641  0.2757235603357709   T   T   T
  0.6266132157797361  0.4999416235980121  0.2761259736957298   T   T   T
  0.3754004856057187  0.0015819158691765  0.2762689091782315   T   T   T
  0.8760111145026787  0.0013806849148947  0.2756208924449645   T   T   T
  0.3730580176186097  0.5034917698047899  0.2851601610182077   T   T   T
  0.8752587833913664  0.5009221026922854  0.2751264737328257   T   T   T
  0.4947393291096007  0.2625333255024277  0.2706970482224604   T   T   T
  0.9955871433674993  0.2599484012785156  0.2712937266952432   T   T   T
  0.0006830226756533  0.7515726680803754  0.2754517140105724   T   T   T
  0.4999081842735569  0.7486848375646886  0.2770393296677602   T   T   T
  0.2510972691728829  0.2522043274471582  0.2759763789645252   T   T   T
  0.7497905689559931  0.2493152176165281  0.2761915153342669   T   T   T
  0.2516354850401663  0.7481031576357913  0.2752351142184802   T   T   T
  0.7516431582101080  0.7487341848258052  0.2745885661240490   T   T   T
  0.0524994647368836  0.1483907872644561  0.3508078700720248   T   T   T
  0.5633717599681061  0.1245503762812070  0.3576365010965626   T   T   T
  0.3860605254098257  0.4944190969478229  0.3615529022425763   T   T   T
 
  0.00000000E+00  0.00000000E+00  0.00000000E+00
  0.00000000E+00  0.00000000E+00  0.00000000E+00
  0.00000000E+00  0.00000000E+00  0.00000000E+00
  0.00000000E+00  0.00000000E+00  0.00000000E+00
  0.00000000E+00  0.00000000E+00  0.00000000E+00
  0.00000000E+00  0.00000000E+00  0.00000000E+00
  0.00000000E+00  0.00000000E+00  0.00000000E+00
  0.00000000E+00  0.00000000E+00  0.00000000E+00
  0.00000000E+00  0.00000000E+00  0.00000000E+00
  0.00000000E+00  0.00000000E+00  0.00000000E+00
  0.00000000E+00  0.00000000E+00  0.00000000E+00
  0.00000000E+00  0.00000000E+00  0.00000000E+00
  0.00000000E+00  0.00000000E+00  0.00000000E+00
  0.00000000E+00  0.00000000E+00  0.00000000E+00
  0.00000000E+00  0.00000000E+00  0.00000000E+00
  0.00000000E+00  0.00000000E+00  0.00000000E+00
  0.00000000E+00  0.00000000E+00  0.00000000E+00
  0.00000000E+00  0.00000000E+00  0.00000000E+00
  0.00000000E+00  0.00000000E+00  0.00000000E+00
  0.00000000E+00  0.00000000E+00  0.00000000E+00
  0.00000000E+00  0.00000000E+00  0.00000000E+00
  0.00000000E+00  0.00000000E+00  0.00000000E+00
  0.00000000E+00  0.00000000E+00  0.00000000E+00
  0.00000000E+00  0.00000000E+00  0.00000000E+00
  0.00000000E+00  0.00000000E+00  0.00000000E+00
  0.00000000E+00  0.00000000E+00  0.00000000E+00
  0.00000000E+00  0.00000000E+00  0.00000000E+00
  0.00000000E+00  0.00000000E+00  0.00000000E+00
  0.00000000E+00  0.00000000E+00  0.00000000E+00
  0.00000000E+00  0.00000000E+00  0.00000000E+00
  0.00000000E+00  0.00000000E+00  0.00000000E+00
  0.00000000E+00  0.00000000E+00  0.00000000E+00
  0.00000000E+00  0.00000000E+00  0.00000000E+00
  0.00000000E+00  0.00000000E+00  0.00000000E+00
  0.00000000E+00  0.00000000E+00  0.00000000E+00
  0.00000000E+00  0.00000000E+00  0.00000000E+00
  0.00000000E+00  0.00000000E+00  0.00000000E+00
  0.00000000E+00  0.00000000E+00  0.00000000E+00
  0.00000000E+00  0.00000000E+00  0.00000000E+00
  0.00000000E+00  0.00000000E+00  0.00000000E+00
  0.00000000E+00  0.00000000E+00  0.00000000E+00
  0.00000000E+00  0.00000000E+00  0.00000000E+00
  0.00000000E+00  0.00000000E+00  0.00000000E+00
  0.00000000E+00  0.00000000E+00  0.00000000E+00
  0.00000000E+00  0.00000000E+00  0.00000000E+00
  0.00000000E+00  0.00000000E+00  0.00000000E+00
  0.00000000E+00  0.00000000E+00  0.00000000E+00
  0.00000000E+00  0.00000000E+00  0.00000000E+00
  0.00000000E+00  0.00000000E+00  0.00000000E+00
  0.00000000E+00  0.00000000E+00  0.00000000E+00
  0.00000000E+00  0.00000000E+00  0.00000000E+00
  0.00000000E+00  0.00000000E+00  0.00000000E+00
  0.00000000E+00  0.00000000E+00  0.00000000E+00
  0.00000000E+00  0.00000000E+00  0.00000000E+00
  0.00000000E+00  0.00000000E+00  0.00000000E+00
  0.00000000E+00  0.00000000E+00  0.00000000E+00
  0.00000000E+00  0.00000000E+00  0.00000000E+00
  0.00000000E+00  0.00000000E+00  0.00000000E+00
  0.00000000E+00  0.00000000E+00  0.00000000E+00
  0.00000000E+00  0.00000000E+00  0.00000000E+00
  0.00000000E+00  0.00000000E+00  0.00000000E+00
  0.00000000E+00  0.00000000E+00  0.00000000E+00
  0.00000000E+00  0.00000000E+00  0.00000000E+00
  0.00000000E+00  0.00000000E+00  0.00000000E+00
  0.00000000E+00  0.00000000E+00  0.00000000E+00
  0.00000000E+00  0.00000000E+00  0.00000000E+00
  0.00000000E+00  0.00000000E+00  0.00000000E+00
  0.00000000E+00  0.00000000E+00  0.00000000E+00
  0.00000000E+00  0.00000000E+00  0.00000000E+00
  0.00000000E+00  0.00000000E+00  0.00000000E+00
  0.00000000E+00  0.00000000E+00  0.00000000E+00
  0.00000000E+00  0.00000000E+00  0.00000000E+00
  0.00000000E+00  0.00000000E+00  0.00000000E+00
  0.00000000E+00  0.00000000E+00  0.00000000E+00
  0.00000000E+00  0.00000000E+00  0.00000000E+00
  0.00000000E+00  0.00000000E+00  0.00000000E+00
  0.00000000E+00  0.00000000E+00  0.00000000E+00
  0.00000000E+00  0.00000000E+00  0.00000000E+00
  0.00000000E+00  0.00000000E+00  0.00000000E+00
  0.00000000E+00  0.00000000E+00  0.00000000E+00
  0.00000000E+00  0.00000000E+00  0.00000000E+00
  0.00000000E+00  0.00000000E+00  0.00000000E+00
  0.00000000E+00  0.00000000E+00  0.00000000E+00
  0.00000000E+00  0.00000000E+00  0.00000000E+00
  0.00000000E+00  0.00000000E+00  0.00000000E+00
  0.00000000E+00  0.00000000E+00  0.00000000E+00
  0.00000000E+00  0.00000000E+00  0.00000000E+00
  0.00000000E+00  0.00000000E+00  0.00000000E+00
  0.00000000E+00  0.00000000E+00  0.00000000E+00
  0.00000000E+00  0.00000000E+00  0.00000000E+00
  0.00000000E+00  0.00000000E+00  0.00000000E+00
  0.00000000E+00  0.00000000E+00  0.00000000E+00
  0.00000000E+00  0.00000000E+00  0.00000000E+00
  0.00000000E+00  0.00000000E+00  0.00000000E+00
  0.00000000E+00  0.00000000E+00  0.00000000E+00
  0.00000000E+00  0.00000000E+00  0.00000000E+00
  0.00000000E+00  0.00000000E+00  0.00000000E+00
  0.00000000E+00  0.00000000E+00  0.00000000E+00
  0.00000000E+00  0.00000000E+00  0.00000000E+00
  0.00000000E+00  0.00000000E+00  0.00000000E+00
  0.00000000E+00  0.00000000E+00  0.00000000E+00
  0.00000000E+00  0.00000000E+00  0.00000000E+00
  0.00000000E+00  0.00000000E+00  0.00000000E+00
  0.00000000E+00  0.00000000E+00  0.00000000E+00
  0.00000000E+00  0.00000000E+00  0.00000000E+00
  0.00000000E+00  0.00000000E+00  0.00000000E+00
  0.00000000E+00  0.00000000E+00  0.00000000E+00
  0.00000000E+00  0.00000000E+00  0.00000000E+00
  0.00000000E+00  0.00000000E+00  0.00000000E+00
  0.00000000E+00  0.00000000E+00  0.00000000E+00
  0.00000000E+00  0.00000000E+00  0.00000000E+00
  0.00000000E+00  0.00000000E+00  0.00000000E+00
  0.00000000E+00  0.00000000E+00  0.00000000E+00
  0.00000000E+00  0.00000000E+00  0.00000000E+00
  0.00000000E+00  0.00000000E+00  0.00000000E+00
  0.00000000E+00  0.00000000E+00  0.00000000E+00
  0.00000000E+00  0.00000000E+00  0.00000000E+00
  0.00000000E+00  0.00000000E+00  0.00000000E+00
  0.00000000E+00  0.00000000E+00  0.00000000E+00
  0.00000000E+00  0.00000000E+00  0.00000000E+00
  0.00000000E+00  0.00000000E+00  0.00000000E+00
  0.00000000E+00  0.00000000E+00  0.00000000E+00
  0.00000000E+00  0.00000000E+00  0.00000000E+00
  0.00000000E+00  0.00000000E+00  0.00000000E+00
  0.00000000E+00  0.00000000E+00  0.00000000E+00
  0.00000000E+00  0.00000000E+00  0.00000000E+00
  0.00000000E+00  0.00000000E+00  0.00000000E+00
  0.00000000E+00  0.00000000E+00  0.00000000E+00
  0.00000000E+00  0.00000000E+00  0.00000000E+00
  0.00000000E+00  0.00000000E+00  0.00000000E+00
  0.00000000E+00  0.00000000E+00  0.00000000E+00
  0.00000000E+00  0.00000000E+00  0.00000000E+00
  0.00000000E+00  0.00000000E+00  0.00000000E+00
