H Mg O Ru                               
   1.00000000000000     
    16.8282433949600012    0.0000000000000000    0.0000000000000000
     0.0000000000000000    8.4141216974800006    0.0000000000000000
     0.0000000000000000    0.0000000000000000   23.4141216974799988
   H    Mg   O    Ru
     2    64    66     1
Selective dynamics
Direct
  0.0201733239319937  0.2134253412910668  0.3743063576239938   T   T   T
  0.5226649797252966  0.2098889820085065  0.3727363192191758   T   T   T
  0.1256599208865735  0.9999124281100339  0.0034117445060772   T   T   T
  0.6261121484322566  0.9999284522651433  0.0033562244225814   T   T   T
  0.1254743094233131  0.4999165110998177  0.0031470076669955   T   T   T
  0.6261185142038549  0.4999844264897859  0.0031380511981027   T   T   T
  0.3759215641343732  0.0002224765568743  0.0029102917953211   T   T   T
  0.8758195338653901  0.9999889616153619  0.0033169647767360   T   T   T
  0.3758450782223011  0.5002284561354444  0.0025445384332006   T   T   T
  0.8757372654879362  0.5000275582607221  0.0032657741693779   T   T   T
  0.0006291022216902  0.2499404969194245  0.0032648433726292   T   T   T
  0.5010611734264470  0.2500646973809311  0.0030859382418667   T   T   T
  0.0006818517017139  0.7501453191933334  0.0032792028890881   T   T   T
  0.5011387899402384  0.7503763414694860  0.0030958974419532   T   T   T
  0.2505710265329524  0.2499074233922934  0.0030908119609055   T   T   T
  0.7508787664878556  0.2498737154435094  0.0032589492405058   T   T   T
  0.2505981454322105  0.7502586338490038  0.0031738736711539   T   T   T
  0.7509478781402025  0.7500467904110487  0.0033957658765335   T   T   T
  0.0005770691374997  0.9999581531656788  0.0927965172988617   T   T   T
  0.5012535590493278  0.0001814327844897  0.0928490040693779   T   T   T
  0.0003813282665920  0.5007256341359281  0.0926429421837662   T   T   T
  0.5015506858415487  0.5007485846360904  0.0922520681968448   T   T   T
  0.2508178812254039  0.0003860780499007  0.0929045512233190   T   T   T
  0.7511168260941834  0.0001070207729230  0.0930287943233753   T   T   T
  0.2501220198900309  0.5000335532889201  0.0921195858829050   T   T   T
  0.7508007448340276  0.4996814570881773  0.0927854103105059   T   T   T
  0.1256997940936051  0.2499431474014611  0.0927665731077945   T   T   T
  0.6259392864828602  0.2497839303865662  0.0928758194127054   T   T   T
  0.1255644540802916  0.7498580704367935  0.0929517876013830   T   T   T
  0.6259006979270284  0.7496760577578770  0.0930246742057876   T   T   T
  0.3756727282263928  0.2495234196948546  0.0920825776722819   T   T   T
  0.8752821315511351  0.2499101870142439  0.0927955972131397   T   T   T
  0.3760527248795265  0.7512593597739852  0.0920102338713506   T   T   T
  0.8757716058384014  0.7504179172710874  0.0928766830288046   T   T   T
  0.1248231405649185  0.0016007903965714  0.1834107121465863   T   T   T
  0.6253607443201966  0.0014397055933202  0.1836440788758923   T   T   T
  0.1238576368352746  0.4978210863668941  0.1833722858175235   T   T   T
  0.6269073817848998  0.4966779324441843  0.1836412929084716   T   T   T
  0.3774560176614147  0.0011209747810873  0.1831581904542580   T   T   T
  0.8768934894883885  0.0007366419777797  0.1839547175797897   T   T   T
  0.3760164182827677  0.5003039718802019  0.1787304775764540   T   T   T
  0.8753231231587439  0.5003373159846531  0.1831432750264138   T   T   T
  0.0009566409064363  0.2485828110414696  0.1822150093342993   T   T   T
  0.5020879731701021  0.2486662824099643  0.1832173409756500   T   T   T
  0.0004607497254991  0.7538774245866645  0.1836607012687709   T   T   T
  0.5015202793062957  0.7536370759163752  0.1841997202018054   T   T   T
  0.2490784378454464  0.2502182378370308  0.1837907684597951   T   T   T
  0.7488271416320852  0.2490640839436166  0.1840705111163333   T   T   T
  0.2504465676390260  0.7504590268083798  0.1832806208285327   T   T   T
  0.7509884688280092  0.7502073789608599  0.1832125585528966   T   T   T
  0.0025898531007112  0.0038964758032941  0.2812812439459691   T   T   T
  0.5072549026019397  0.0066419660881539  0.2843673246352617   T   T   T
  0.9988778614464932  0.5054579756608771  0.2719649339889761   T   T   T
  0.5096570974889044  0.5023239991592832  0.2721096665182180   T   T   T
  0.2490735945996414  0.9995760962305626  0.2722178052976949   T   T   T
  0.7514520890058272  0.9987763326456965  0.2722663420019025   T   T   T
  0.2412467821347934  0.5005378160571059  0.2727101969223788   T   T   T
  0.7510412320396627  0.4993316945446866  0.2729782623273171   T   T   T
  0.1217525649779944  0.2432524255602426  0.2814863960897032   T   T   T
  0.6252404618905539  0.2403697803115794  0.2842271224024772   T   T   T
  0.1242194963105863  0.7522030239821625  0.2720435791681767   T   T   T
  0.6284489496559940  0.7506308963946086  0.2723945933998361   T   T   T
  0.3746858446550053  0.2372194044114858  0.2718204744916378   T   T   T
  0.8729835790067838  0.2503748311859837  0.2721398870520157   T   T   T
  0.3760426251774550  0.7657897048863029  0.2727687966391278   T   T   T
  0.8756680791882676  0.7521434776926278  0.2728553225381463   T   T   T
  0.0010182364685544  0.9999802604451433  0.0010466264114372   T   T   T
  0.5007425838226268  0.0002066656435812  0.0010800253794575   T   T   T
  0.0009278707225965  0.5001242004442189  0.0010262535704826   T   T   T
  0.5007364671454986  0.5002580365092458  0.0007755454986973   T   T   T
  0.2509313379535799  0.0000375947202465  0.0012510813370613   T   T   T
  0.7508474424181856  0.9999263149823510  0.0010688278727626   T   T   T
  0.2507530373133581  0.5001381716631264  0.0008371507747610   T   T   T
  0.7507770570922758  0.4999977233825134  0.0010014868200804   T   T   T
  0.1259457420090451  0.2499403699079878  0.0010956820075694   T   T   T
  0.6256632312022246  0.2499658654152701  0.0009856025392879   T   T   T
  0.1259920364398556  0.7499299106727165  0.0012063741921600   T   T   T
  0.6257314291232886  0.7499407344950990  0.0010927156544332   T   T   T
  0.3756849223741706  0.2500096983882560  0.0007768718736513   T   T   T
  0.8758259545827247  0.2500788917869795  0.0009351888345553   T   T   T
  0.3757429704902198  0.7504212900953054  0.0007828399494045   T   T   T
  0.8758946032532067  0.7499580926789448  0.0010037762316625   T   T   T
  0.1262084249251021  0.0000035437466378  0.0930949711337119   T   T   T
  0.6256673745775803  0.9996289300899730  0.0929596218955942   T   T   T
  0.1261094792915449  0.4997765603410968  0.0930528832160560   T   T   T
  0.6254298644166337  0.4997865732449156  0.0929152737690759   T   T   T
  0.3759258424272031  0.0002023901068157  0.0931533388888787   T   T   T
  0.8759967877381251  0.0001582481473707  0.0927683477825260   T   T   T
  0.3756628415472038  0.5005704709045138  0.0921174054738772   T   T   T
  0.8756650507787094  0.5001967983480206  0.0928329193334870   T   T   T
  0.0007909303212803  0.2505017045784838  0.0927187915683276   T   T   T
  0.5001423552468207  0.2510435956713469  0.0930163825380312   T   T   T
  0.0008919389976706  0.7502148868076941  0.0928834175107870   T   T   T
  0.5002969436659745  0.7499503014480807  0.0930607352691759   T   T   T
  0.2510381966782499  0.2508895718833571  0.0930981659201210   T   T   T
  0.7505691819057345  0.2501302254155306  0.0928186551035954   T   T   T
  0.2513878712670620  0.7495106902869534  0.0932851067647371   T   T   T
  0.7507391395756380  0.7496397095229538  0.0929543445281857   T   T   T
  0.0007681995897867  0.0010492272196871  0.1828044858246017   T   T   T
  0.5000705819878262  0.0001561466800669  0.1831503465383340   T   T   T
  0.0001156537362828  0.5015134352874413  0.1825332563129756   T   T   T
  0.4989586371572107  0.5026872299960240  0.1839411603183012   T   T   T
  0.2525497306632851  0.0005712292073343  0.1828597796806745   T   T   T
  0.7517975335304053  0.9997774910247587  0.1823885264784994   T   T   T
  0.2523428262492881  0.5001051763560400  0.1845391322673478   T   T   T
  0.7508558461355628  0.4995353547076524  0.1829288842431868   T   T   T
  0.1258337510313202  0.2511883168752542  0.1832196759124160   T   T   T
  0.6252449289025397  0.2505789652769760  0.1827048493096754   T   T   T
  0.1260361201083738  0.7476347052778909  0.1825889315735967   T   T   T
  0.6254586807390365  0.7468658821544816  0.1827476686126654   T   T   T
  0.3746031093712224  0.2543658536117135  0.1836930585670437   T   T   T
  0.8749915506651028  0.2506394628128666  0.1826989124358716   T   T   T
  0.3759572098137323  0.7468081652946861  0.1845443068210719   T   T   T
  0.8759331609029625  0.7504055683239614  0.1829469946113926   T   T   T
  0.1286552877677547  0.9950245758748921  0.2704269767665918   T   T   T
  0.6292282639348309  0.9924311066848622  0.2702459343293144   T   T   T
  0.1225998241223349  0.5004272144022239  0.2756421393891122   T   T   T
  0.6278577223965577  0.4999461053144895  0.2760717045198280   T   T   T
  0.3754214549095448  0.0014137597965239  0.2760625194418473   T   T   T
  0.8760205415015241  0.0014107080245337  0.2756596529748782   T   T   T
  0.3739202432265766  0.5026113341109164  0.2867701852643055   T   T   T
  0.8750682663645166  0.5014388812160515  0.2748749925180321   T   T   T
  0.4948795455807807  0.2626800423122459  0.2702116435619565   T   T   T
  0.9954735762824276  0.2595559140450454  0.2704320481777459   T   T   T
  0.0004155714732153  0.7520987634565501  0.2754265023429610   T   T   T
  0.4998354411991507  0.7478246889678835  0.2769373140766853   T   T   T
  0.2512541093025640  0.2534453166317715  0.2763053411012324   T   T   T
  0.7503460615822973  0.2490540992163781  0.2758544690298752   T   T   T
  0.2516015460035067  0.7473647842736755  0.2745840286287691   T   T   T
  0.7519544591639902  0.7490973608855072  0.2745593059172680   T   T   T
  0.0555974801120869  0.1429381796780566  0.3532053951379291   T   T   T
  0.5595913800339951  0.1344668586782280  0.3555464464967935   T   T   T
  0.3788315218569097  0.4984265934132077  0.3667380571338944   T   T   T
 
  0.00000000E+00  0.00000000E+00  0.00000000E+00
  0.00000000E+00  0.00000000E+00  0.00000000E+00
  0.00000000E+00  0.00000000E+00  0.00000000E+00
  0.00000000E+00  0.00000000E+00  0.00000000E+00
  0.00000000E+00  0.00000000E+00  0.00000000E+00
  0.00000000E+00  0.00000000E+00  0.00000000E+00
  0.00000000E+00  0.00000000E+00  0.00000000E+00
  0.00000000E+00  0.00000000E+00  0.00000000E+00
  0.00000000E+00  0.00000000E+00  0.00000000E+00
  0.00000000E+00  0.00000000E+00  0.00000000E+00
  0.00000000E+00  0.00000000E+00  0.00000000E+00
  0.00000000E+00  0.00000000E+00  0.00000000E+00
  0.00000000E+00  0.00000000E+00  0.00000000E+00
  0.00000000E+00  0.00000000E+00  0.00000000E+00
  0.00000000E+00  0.00000000E+00  0.00000000E+00
  0.00000000E+00  0.00000000E+00  0.00000000E+00
  0.00000000E+00  0.00000000E+00  0.00000000E+00
  0.00000000E+00  0.00000000E+00  0.00000000E+00
  0.00000000E+00  0.00000000E+00  0.00000000E+00
  0.00000000E+00  0.00000000E+00  0.00000000E+00
  0.00000000E+00  0.00000000E+00  0.00000000E+00
  0.00000000E+00  0.00000000E+00  0.00000000E+00
  0.00000000E+00  0.00000000E+00  0.00000000E+00
  0.00000000E+00  0.00000000E+00  0.00000000E+00
  0.00000000E+00  0.00000000E+00  0.00000000E+00
  0.00000000E+00  0.00000000E+00  0.00000000E+00
  0.00000000E+00  0.00000000E+00  0.00000000E+00
  0.00000000E+00  0.00000000E+00  0.00000000E+00
  0.00000000E+00  0.00000000E+00  0.00000000E+00
  0.00000000E+00  0.00000000E+00  0.00000000E+00
  0.00000000E+00  0.00000000E+00  0.00000000E+00
  0.00000000E+00  0.00000000E+00  0.00000000E+00
  0.00000000E+00  0.00000000E+00  0.00000000E+00
  0.00000000E+00  0.00000000E+00  0.00000000E+00
  0.00000000E+00  0.00000000E+00  0.00000000E+00
  0.00000000E+00  0.00000000E+00  0.00000000E+00
  0.00000000E+00  0.00000000E+00  0.00000000E+00
  0.00000000E+00  0.00000000E+00  0.00000000E+00
  0.00000000E+00  0.00000000E+00  0.00000000E+00
  0.00000000E+00  0.00000000E+00  0.00000000E+00
  0.00000000E+00  0.00000000E+00  0.00000000E+00
  0.00000000E+00  0.00000000E+00  0.00000000E+00
  0.00000000E+00  0.00000000E+00  0.00000000E+00
  0.00000000E+00  0.00000000E+00  0.00000000E+00
  0.00000000E+00  0.00000000E+00  0.00000000E+00
  0.00000000E+00  0.00000000E+00  0.00000000E+00
  0.00000000E+00  0.00000000E+00  0.00000000E+00
  0.00000000E+00  0.00000000E+00  0.00000000E+00
  0.00000000E+00  0.00000000E+00  0.00000000E+00
  0.00000000E+00  0.00000000E+00  0.00000000E+00
  0.00000000E+00  0.00000000E+00  0.00000000E+00
  0.00000000E+00  0.00000000E+00  0.00000000E+00
  0.00000000E+00  0.00000000E+00  0.00000000E+00
  0.00000000E+00  0.00000000E+00  0.00000000E+00
  0.00000000E+00  0.00000000E+00  0.00000000E+00
  0.00000000E+00  0.00000000E+00  0.00000000E+00
  0.00000000E+00  0.00000000E+00  0.00000000E+00
  0.00000000E+00  0.00000000E+00  0.00000000E+00
  0.00000000E+00  0.00000000E+00  0.00000000E+00
  0.00000000E+00  0.00000000E+00  0.00000000E+00
  0.00000000E+00  0.00000000E+00  0.00000000E+00
  0.00000000E+00  0.00000000E+00  0.00000000E+00
  0.00000000E+00  0.00000000E+00  0.00000000E+00
  0.00000000E+00  0.00000000E+00  0.00000000E+00
  0.00000000E+00  0.00000000E+00  0.00000000E+00
  0.00000000E+00  0.00000000E+00  0.00000000E+00
  0.00000000E+00  0.00000000E+00  0.00000000E+00
  0.00000000E+00  0.00000000E+00  0.00000000E+00
  0.00000000E+00  0.00000000E+00  0.00000000E+00
  0.00000000E+00  0.00000000E+00  0.00000000E+00
  0.00000000E+00  0.00000000E+00  0.00000000E+00
  0.00000000E+00  0.00000000E+00  0.00000000E+00
  0.00000000E+00  0.00000000E+00  0.00000000E+00
  0.00000000E+00  0.00000000E+00  0.00000000E+00
  0.00000000E+00  0.00000000E+00  0.00000000E+00
  0.00000000E+00  0.00000000E+00  0.00000000E+00
  0.00000000E+00  0.00000000E+00  0.00000000E+00
  0.00000000E+00  0.00000000E+00  0.00000000E+00
  0.00000000E+00  0.00000000E+00  0.00000000E+00
  0.00000000E+00  0.00000000E+00  0.00000000E+00
  0.00000000E+00  0.00000000E+00  0.00000000E+00
  0.00000000E+00  0.00000000E+00  0.00000000E+00
  0.00000000E+00  0.00000000E+00  0.00000000E+00
  0.00000000E+00  0.00000000E+00  0.00000000E+00
  0.00000000E+00  0.00000000E+00  0.00000000E+00
  0.00000000E+00  0.00000000E+00  0.00000000E+00
  0.00000000E+00  0.00000000E+00  0.00000000E+00
  0.00000000E+00  0.00000000E+00  0.00000000E+00
  0.00000000E+00  0.00000000E+00  0.00000000E+00
  0.00000000E+00  0.00000000E+00  0.00000000E+00
  0.00000000E+00  0.00000000E+00  0.00000000E+00
  0.00000000E+00  0.00000000E+00  0.00000000E+00
  0.00000000E+00  0.00000000E+00  0.00000000E+00
  0.00000000E+00  0.00000000E+00  0.00000000E+00
  0.00000000E+00  0.00000000E+00  0.00000000E+00
  0.00000000E+00  0.00000000E+00  0.00000000E+00
  0.00000000E+00  0.00000000E+00  0.00000000E+00
  0.00000000E+00  0.00000000E+00  0.00000000E+00
  0.00000000E+00  0.00000000E+00  0.00000000E+00
  0.00000000E+00  0.00000000E+00  0.00000000E+00
  0.00000000E+00  0.00000000E+00  0.00000000E+00
  0.00000000E+00  0.00000000E+00  0.00000000E+00
  0.00000000E+00  0.00000000E+00  0.00000000E+00
  0.00000000E+00  0.00000000E+00  0.00000000E+00
  0.00000000E+00  0.00000000E+00  0.00000000E+00
  0.00000000E+00  0.00000000E+00  0.00000000E+00
  0.00000000E+00  0.00000000E+00  0.00000000E+00
  0.00000000E+00  0.00000000E+00  0.00000000E+00
  0.00000000E+00  0.00000000E+00  0.00000000E+00
  0.00000000E+00  0.00000000E+00  0.00000000E+00
  0.00000000E+00  0.00000000E+00  0.00000000E+00
  0.00000000E+00  0.00000000E+00  0.00000000E+00
  0.00000000E+00  0.00000000E+00  0.00000000E+00
  0.00000000E+00  0.00000000E+00  0.00000000E+00
  0.00000000E+00  0.00000000E+00  0.00000000E+00
  0.00000000E+00  0.00000000E+00  0.00000000E+00
  0.00000000E+00  0.00000000E+00  0.00000000E+00
  0.00000000E+00  0.00000000E+00  0.00000000E+00
  0.00000000E+00  0.00000000E+00  0.00000000E+00
  0.00000000E+00  0.00000000E+00  0.00000000E+00
  0.00000000E+00  0.00000000E+00  0.00000000E+00
  0.00000000E+00  0.00000000E+00  0.00000000E+00
  0.00000000E+00  0.00000000E+00  0.00000000E+00
  0.00000000E+00  0.00000000E+00  0.00000000E+00
  0.00000000E+00  0.00000000E+00  0.00000000E+00
  0.00000000E+00  0.00000000E+00  0.00000000E+00
  0.00000000E+00  0.00000000E+00  0.00000000E+00
  0.00000000E+00  0.00000000E+00  0.00000000E+00
  0.00000000E+00  0.00000000E+00  0.00000000E+00
  0.00000000E+00  0.00000000E+00  0.00000000E+00
  0.00000000E+00  0.00000000E+00  0.00000000E+00
  0.00000000E+00  0.00000000E+00  0.00000000E+00
  0.00000000E+00  0.00000000E+00  0.00000000E+00
