H Mg O Au                               
   1.00000000000000     
    16.8282433949600012    0.0000000000000000    0.0000000000000000
     0.0000000000000000    8.4141216974800006    0.0000000000000000
     0.0000000000000000    0.0000000000000000   23.4141216974799988
   H    Mg   O    Au
     2    64    66     1
Selective dynamics
Direct
  0.0177613337715784  0.2197196292482967  0.3732758242009453   T   T   T
  0.5165786649633831  0.2217788260119825  0.3713108209281694   T   T   T
  0.1259310935446615  0.9994612624312560  0.0035580978804762   T   T   T
  0.6262442128911928  0.9994882974602466  0.0035929797081419   T   T   T
  0.1258449556615718  0.4995717119012013  0.0033671716241154   T   T   T
  0.6261888841393058  0.4996088257460055  0.0034080872305963   T   T   T
  0.3760720357894142  0.9996222459230637  0.0032690055642646   T   T   T
  0.8759924856364167  0.9996268108264788  0.0035057835513352   T   T   T
  0.3759959549925702  0.4997491461282816  0.0030084004317671   T   T   T
  0.8759170188277740  0.4997341767734532  0.0034819737360573   T   T   T
  0.0008990633461665  0.2495880485018781  0.0033825652136946   T   T   T
  0.5011717482264241  0.2496280443821993  0.0032839647264689   T   T   T
  0.0009484603127775  0.7497881298655414  0.0034668053555320   T   T   T
  0.5012387365846934  0.7498703715995492  0.0033376020910545   T   T   T
  0.2508317858453447  0.2494791477284209  0.0032991777286246   T   T   T
  0.7510313475378566  0.2495015632687892  0.0034951591939458   T   T   T
  0.2509087684317086  0.7496962313773201  0.0034254516671649   T   T   T
  0.7510842327381531  0.7496979127555786  0.0036106586206688   T   T   T
  0.0008845452726626  0.9994325274838761  0.0929041670576613   T   T   T
  0.5012575964551526  0.9996009813862293  0.0929251794059462   T   T   T
  0.0007931949589931  0.5003256271064056  0.0928164789308971   T   T   T
  0.5014329799345154  0.5005003977774981  0.0925075635355708   T   T   T
  0.2510726019476644  0.9996675135347899  0.0930618454716199   T   T   T
  0.7512743233512266  0.9997455279386045  0.0932077719885142   T   T   T
  0.2504828350295285  0.4995779916107877  0.0925525610215564   T   T   T
  0.7509593896917888  0.4995271509336171  0.0930417486474659   T   T   T
  0.1259686496717254  0.2495268602095624  0.0928477905619516   T   T   T
  0.6262009739125803  0.2495829739395046  0.0929671747920610   T   T   T
  0.1258573679805750  0.7493343463074201  0.0930984967931388   T   T   T
  0.6261177338838432  0.7494213388336866  0.0931830706376029   T   T   T
  0.3756987013876391  0.2492829205496365  0.0924097665189394   T   T   T
  0.8755960967732865  0.2496187953712187  0.0929308812861279   T   T   T
  0.3761385140294857  0.7504670021434642  0.0925399179310369   T   T   T
  0.8760001406618193  0.7500718836050203  0.0930871336558736   T   T   T
  0.1253379060983045  0.0004960564176503  0.1836219904185166   T   T   T
  0.6256412038087368  0.0009617529290125  0.1838129226030419   T   T   T
  0.1248962041296876  0.4976886474417689  0.1837758127964467   T   T   T
  0.6263918155692653  0.4974441840745760  0.1838672369784411   T   T   T
  0.3771699871773548  0.0005406457614270  0.1835931643292882   T   T   T
  0.8769378548318398  0.0003641471109315  0.1841189251428406   T   T   T
  0.3759258865834154  0.5000559241985382  0.1803923417566454   T   T   T
  0.8756390327678005  0.5001656698264125  0.1835051703189828   T   T   T
  0.0014760036463587  0.2481902554269286  0.1818356039829853   T   T   T
  0.5019197828047320  0.2485409502667966  0.1823311829710393   T   T   T
  0.0008875856577458  0.7530609193485541  0.1837900159686419   T   T   T
  0.5015104276339217  0.7534320594572332  0.1840227078965506   T   T   T
  0.2492092839992104  0.2493660367596451  0.1837920372287444   T   T   T
  0.7492474828837139  0.2492522215331086  0.1839924709704711   T   T   T
  0.2506913419641236  0.7499232067018916  0.1834350545030506   T   T   T
  0.7510477856316944  0.7500678240249647  0.1833841888090033   T   T   T
  0.0027607111244771  0.0012742803187238  0.2799038392466872   T   T   T
  0.5048931787265060  0.0037441820019867  0.2813704643040252   T   T   T
  0.9998694968008141  0.5067858516366751  0.2723301960949631   T   T   T
  0.5056889709887048  0.5059362070150425  0.2721929876889141   T   T   T
  0.2497186143761917  0.9986575577123137  0.2724514840460031   T   T   T
  0.7509945733354884  0.9989305284802702  0.2724881175949053   T   T   T
  0.2451890781374138  0.5001726154113920  0.2730390473343458   T   T   T
  0.7505204939793769  0.5001879929069108  0.2730882680959715   T   T   T
  0.1244515282649596  0.2443588198665298  0.2799675942932616   T   T   T
  0.6252391161846031  0.2440890971178743  0.2813421255824607   T   T   T
  0.1255393318848152  0.7510658602627041  0.2723844906254936   T   T   T
  0.6273617010055051  0.7511040434918789  0.2725006955596337   T   T   T
  0.3729859546799510  0.2422357521459014  0.2721237805012188   T   T   T
  0.8723361917151046  0.2504136311399879  0.2724419733074022   T   T   T
  0.3760478521856539  0.7600914038401823  0.2730316682704638   T   T   T
  0.8755962850624343  0.7517757985234590  0.2730941558229691   T   T   T
  0.0011413092087832  0.9996236306089291  0.0012171380506078   T   T   T
  0.5009973592547527  0.9997100207725226  0.0012606614901672   T   T   T
  0.0010552913134579  0.4997627095451096  0.0012247889529004   T   T   T
  0.5009552076197917  0.4998004717439604  0.0010739673187206   T   T   T
  0.2510886642282288  0.9995658835552985  0.0014038543096389   T   T   T
  0.7510409199827954  0.9995971077664191  0.0013370058207125   T   T   T
  0.2509836356086950  0.4996308056918917  0.0011369337903445   T   T   T
  0.7509864556735960  0.4996168312948640  0.0012820826034089   T   T   T
  0.1260785834839414  0.2495296327215974  0.0012056149095067   T   T   T
  0.6259594726970245  0.2495582456632975  0.0012321322544176   T   T   T
  0.1261166083289420  0.7495325888873037  0.0013679387598647   T   T   T
  0.6259891262906336  0.7495720860067389  0.0013369019870898   T   T   T
  0.3759094498401179  0.2495672143919888  0.0010741063553106   T   T   T
  0.8760069801180034  0.2497775507779043  0.0011806835465232   T   T   T
  0.3760070249433761  0.7498329394258477  0.0011309793478175   T   T   T
  0.8760700318398740  0.7496068379398252  0.0012584173488519   T   T   T
  0.1261558611237563  0.9995884674008459  0.0932083520893936   T   T   T
  0.6259511250121692  0.9995898334117540  0.0931679043056642   T   T   T
  0.1261495802454527  0.4992695705885408  0.0932083484954191   T   T   T
  0.6256756339488835  0.4993849004299970  0.0931428395243941   T   T   T
  0.3761329855339642  0.9998332542088049  0.0932692924168465   T   T   T
  0.8762396093735263  0.9999160577658172  0.0930901128833393   T   T   T
  0.3758545735533100  0.4999340393627629  0.0926590966800997   T   T   T
  0.8759765952905758  0.4997891481567628  0.0931513979493717   T   T   T
  0.0009514264681158  0.2499732176855241  0.0928308281923276   T   T   T
  0.5005350100651422  0.2504539305491750  0.0929730729704942   T   T   T
  0.0010176629240569  0.7498032563595132  0.0931755745177419   T   T   T
  0.5006619002313486  0.7496783170727267  0.0932186832120266   T   T   T
  0.2510286548427165  0.2501598010215917  0.0932271640180994   T   T   T
  0.7509128618270953  0.2498389238136222  0.0931520686350627   T   T   T
  0.2513360280098718  0.7490859234603846  0.0933131150957381   T   T   T
  0.7510814024241648  0.7494274834064235  0.0931749720749399   T   T   T
  0.0008679977170636  0.0008402461056714  0.1833155961353414   T   T   T
  0.5003800247283834  0.0007016738869654  0.1832857418396178   T   T   T
  0.0005387934148497  0.5002801352078061  0.1830805621746068   T   T   T
  0.4995139643885758  0.5015473391168441  0.1835468375499490   T   T   T
  0.2522883814202979  0.9997612085708600  0.1827861346298809   T   T   T
  0.7519564770214088  0.9999075333035083  0.1826736440631027   T   T   T
  0.2519144272850963  0.4995573087667856  0.1840500986380699   T   T   T
  0.7509396384668855  0.4994360316878511  0.1832074245455897   T   T   T
  0.1255809604542175  0.2504146452691969  0.1833911469460703   T   T   T
  0.6253646513156130  0.2504962286496639  0.1831530345591024   T   T   T
  0.1260435091785476  0.7473723597740143  0.1827104511056517   T   T   T
  0.6258225716150790  0.7475185698120672  0.1827396780220901   T   T   T
  0.3750936862599289  0.2528195463460334  0.1834641040736170   T   T   T
  0.8757160055652494  0.2503538555173523  0.1831570871377198   T   T   T
  0.3760311074122680  0.7476206366155909  0.1840453890239749   T   T   T
  0.8761866887364059  0.7501833267256252  0.1832322594378913   T   T   T
  0.1283518269062001  0.9948098897445437  0.2708594838373645   T   T   T
  0.6286682919475732  0.9945377011246960  0.2709156505756413   T   T   T
  0.1240140683140812  0.4997639386612153  0.2756468671633576   T   T   T
  0.6263349975556470  0.5001034680344851  0.2756294246861877   T   T   T
  0.3757073492549473  0.0013372934144912  0.2755765595957625   T   T   T
  0.8761038422754078  0.0015521583569639  0.2757858003295166   T   T   T
  0.3744123797144600  0.5025904752410589  0.2798884780075846   T   T   T
  0.8753883225255521  0.5010210990152358  0.2751920736712948   T   T   T
  0.4949554144206668  0.2620318164646661  0.2701487361134064   T   T   T
  0.9956880756168639  0.2598638281107605  0.2712502599407521   T   T   T
  0.0007138930005525  0.7514448542200511  0.2755622254584179   T   T   T
  0.5005648137561857  0.7507139834312920  0.2756741201410352   T   T   T
  0.2504267054215022  0.2509689657795781  0.2754605140286525   T   T   T
  0.7502463666902425  0.2499362389582014  0.2757051462566538   T   T   T
  0.2514314275056399  0.7482377443060750  0.2748096579630987   T   T   T
  0.7516198797729007  0.7491567017072348  0.2747346621230779   T   T   T
  0.0518103132306733  0.1503462307068379  0.3505974706642772   T   T   T
  0.5527900741893370  0.1485751988753871  0.3520491522248837   T   T   T
  0.3805700470071979  0.4907829191505395  0.3702223253085621   T   T   T
 
  0.00000000E+00  0.00000000E+00  0.00000000E+00
  0.00000000E+00  0.00000000E+00  0.00000000E+00
  0.00000000E+00  0.00000000E+00  0.00000000E+00
  0.00000000E+00  0.00000000E+00  0.00000000E+00
  0.00000000E+00  0.00000000E+00  0.00000000E+00
  0.00000000E+00  0.00000000E+00  0.00000000E+00
  0.00000000E+00  0.00000000E+00  0.00000000E+00
  0.00000000E+00  0.00000000E+00  0.00000000E+00
  0.00000000E+00  0.00000000E+00  0.00000000E+00
  0.00000000E+00  0.00000000E+00  0.00000000E+00
  0.00000000E+00  0.00000000E+00  0.00000000E+00
  0.00000000E+00  0.00000000E+00  0.00000000E+00
  0.00000000E+00  0.00000000E+00  0.00000000E+00
  0.00000000E+00  0.00000000E+00  0.00000000E+00
  0.00000000E+00  0.00000000E+00  0.00000000E+00
  0.00000000E+00  0.00000000E+00  0.00000000E+00
  0.00000000E+00  0.00000000E+00  0.00000000E+00
  0.00000000E+00  0.00000000E+00  0.00000000E+00
  0.00000000E+00  0.00000000E+00  0.00000000E+00
  0.00000000E+00  0.00000000E+00  0.00000000E+00
  0.00000000E+00  0.00000000E+00  0.00000000E+00
  0.00000000E+00  0.00000000E+00  0.00000000E+00
  0.00000000E+00  0.00000000E+00  0.00000000E+00
  0.00000000E+00  0.00000000E+00  0.00000000E+00
  0.00000000E+00  0.00000000E+00  0.00000000E+00
  0.00000000E+00  0.00000000E+00  0.00000000E+00
  0.00000000E+00  0.00000000E+00  0.00000000E+00
  0.00000000E+00  0.00000000E+00  0.00000000E+00
  0.00000000E+00  0.00000000E+00  0.00000000E+00
  0.00000000E+00  0.00000000E+00  0.00000000E+00
  0.00000000E+00  0.00000000E+00  0.00000000E+00
  0.00000000E+00  0.00000000E+00  0.00000000E+00
  0.00000000E+00  0.00000000E+00  0.00000000E+00
  0.00000000E+00  0.00000000E+00  0.00000000E+00
  0.00000000E+00  0.00000000E+00  0.00000000E+00
  0.00000000E+00  0.00000000E+00  0.00000000E+00
  0.00000000E+00  0.00000000E+00  0.00000000E+00
  0.00000000E+00  0.00000000E+00  0.00000000E+00
  0.00000000E+00  0.00000000E+00  0.00000000E+00
  0.00000000E+00  0.00000000E+00  0.00000000E+00
  0.00000000E+00  0.00000000E+00  0.00000000E+00
  0.00000000E+00  0.00000000E+00  0.00000000E+00
  0.00000000E+00  0.00000000E+00  0.00000000E+00
  0.00000000E+00  0.00000000E+00  0.00000000E+00
  0.00000000E+00  0.00000000E+00  0.00000000E+00
  0.00000000E+00  0.00000000E+00  0.00000000E+00
  0.00000000E+00  0.00000000E+00  0.00000000E+00
  0.00000000E+00  0.00000000E+00  0.00000000E+00
  0.00000000E+00  0.00000000E+00  0.00000000E+00
  0.00000000E+00  0.00000000E+00  0.00000000E+00
  0.00000000E+00  0.00000000E+00  0.00000000E+00
  0.00000000E+00  0.00000000E+00  0.00000000E+00
  0.00000000E+00  0.00000000E+00  0.00000000E+00
  0.00000000E+00  0.00000000E+00  0.00000000E+00
  0.00000000E+00  0.00000000E+00  0.00000000E+00
  0.00000000E+00  0.00000000E+00  0.00000000E+00
  0.00000000E+00  0.00000000E+00  0.00000000E+00
  0.00000000E+00  0.00000000E+00  0.00000000E+00
  0.00000000E+00  0.00000000E+00  0.00000000E+00
  0.00000000E+00  0.00000000E+00  0.00000000E+00
  0.00000000E+00  0.00000000E+00  0.00000000E+00
  0.00000000E+00  0.00000000E+00  0.00000000E+00
  0.00000000E+00  0.00000000E+00  0.00000000E+00
  0.00000000E+00  0.00000000E+00  0.00000000E+00
  0.00000000E+00  0.00000000E+00  0.00000000E+00
  0.00000000E+00  0.00000000E+00  0.00000000E+00
  0.00000000E+00  0.00000000E+00  0.00000000E+00
  0.00000000E+00  0.00000000E+00  0.00000000E+00
  0.00000000E+00  0.00000000E+00  0.00000000E+00
  0.00000000E+00  0.00000000E+00  0.00000000E+00
  0.00000000E+00  0.00000000E+00  0.00000000E+00
  0.00000000E+00  0.00000000E+00  0.00000000E+00
  0.00000000E+00  0.00000000E+00  0.00000000E+00
  0.00000000E+00  0.00000000E+00  0.00000000E+00
  0.00000000E+00  0.00000000E+00  0.00000000E+00
  0.00000000E+00  0.00000000E+00  0.00000000E+00
  0.00000000E+00  0.00000000E+00  0.00000000E+00
  0.00000000E+00  0.00000000E+00  0.00000000E+00
  0.00000000E+00  0.00000000E+00  0.00000000E+00
  0.00000000E+00  0.00000000E+00  0.00000000E+00
  0.00000000E+00  0.00000000E+00  0.00000000E+00
  0.00000000E+00  0.00000000E+00  0.00000000E+00
  0.00000000E+00  0.00000000E+00  0.00000000E+00
  0.00000000E+00  0.00000000E+00  0.00000000E+00
  0.00000000E+00  0.00000000E+00  0.00000000E+00
  0.00000000E+00  0.00000000E+00  0.00000000E+00
  0.00000000E+00  0.00000000E+00  0.00000000E+00
  0.00000000E+00  0.00000000E+00  0.00000000E+00
  0.00000000E+00  0.00000000E+00  0.00000000E+00
  0.00000000E+00  0.00000000E+00  0.00000000E+00
  0.00000000E+00  0.00000000E+00  0.00000000E+00
  0.00000000E+00  0.00000000E+00  0.00000000E+00
  0.00000000E+00  0.00000000E+00  0.00000000E+00
  0.00000000E+00  0.00000000E+00  0.00000000E+00
  0.00000000E+00  0.00000000E+00  0.00000000E+00
  0.00000000E+00  0.00000000E+00  0.00000000E+00
  0.00000000E+00  0.00000000E+00  0.00000000E+00
  0.00000000E+00  0.00000000E+00  0.00000000E+00
  0.00000000E+00  0.00000000E+00  0.00000000E+00
  0.00000000E+00  0.00000000E+00  0.00000000E+00
  0.00000000E+00  0.00000000E+00  0.00000000E+00
  0.00000000E+00  0.00000000E+00  0.00000000E+00
  0.00000000E+00  0.00000000E+00  0.00000000E+00
  0.00000000E+00  0.00000000E+00  0.00000000E+00
  0.00000000E+00  0.00000000E+00  0.00000000E+00
  0.00000000E+00  0.00000000E+00  0.00000000E+00
  0.00000000E+00  0.00000000E+00  0.00000000E+00
  0.00000000E+00  0.00000000E+00  0.00000000E+00
  0.00000000E+00  0.00000000E+00  0.00000000E+00
  0.00000000E+00  0.00000000E+00  0.00000000E+00
  0.00000000E+00  0.00000000E+00  0.00000000E+00
  0.00000000E+00  0.00000000E+00  0.00000000E+00
  0.00000000E+00  0.00000000E+00  0.00000000E+00
  0.00000000E+00  0.00000000E+00  0.00000000E+00
  0.00000000E+00  0.00000000E+00  0.00000000E+00
  0.00000000E+00  0.00000000E+00  0.00000000E+00
  0.00000000E+00  0.00000000E+00  0.00000000E+00
  0.00000000E+00  0.00000000E+00  0.00000000E+00
  0.00000000E+00  0.00000000E+00  0.00000000E+00
  0.00000000E+00  0.00000000E+00  0.00000000E+00
  0.00000000E+00  0.00000000E+00  0.00000000E+00
  0.00000000E+00  0.00000000E+00  0.00000000E+00
  0.00000000E+00  0.00000000E+00  0.00000000E+00
  0.00000000E+00  0.00000000E+00  0.00000000E+00
  0.00000000E+00  0.00000000E+00  0.00000000E+00
  0.00000000E+00  0.00000000E+00  0.00000000E+00
  0.00000000E+00  0.00000000E+00  0.00000000E+00
  0.00000000E+00  0.00000000E+00  0.00000000E+00
  0.00000000E+00  0.00000000E+00  0.00000000E+00
  0.00000000E+00  0.00000000E+00  0.00000000E+00
  0.00000000E+00  0.00000000E+00  0.00000000E+00
  0.00000000E+00  0.00000000E+00  0.00000000E+00
  0.00000000E+00  0.00000000E+00  0.00000000E+00
