H Mg O Pt                               
   1.00000000000000     
    16.8282433949600012    0.0000000000000000    0.0000000000000000
     0.0000000000000000    8.4141216974800006    0.0000000000000000
     0.0000000000000000    0.0000000000000000   23.4141216974799988
   H    Mg   O    Pt
     2    64    66     1
Selective dynamics
Direct
  0.0157848844017147  0.2222715606442256  0.3729800667112942   T   T   T
  0.5096500331539601  0.2337562711133480  0.3669439355476551   T   T   T
  0.1262767823345355  0.9993305679565259  0.0037173837206260   T   T   T
  0.6260010815310617  0.9995515176644916  0.0037446424326288   T   T   T
  0.1262081519345127  0.4994307211713416  0.0036188254446578   T   T   T
  0.6259711692288892  0.4996184254007535  0.0036430113965221   T   T   T
  0.3761330909122995  0.9995221173663605  0.0038737844421218   T   T   T
  0.8760651505698269  0.9995848648834416  0.0034101521331714   T   T   T
  0.3760615634124800  0.4996510330981420  0.0038123931877905   T   T   T
  0.8759964080156928  0.4997023955213418  0.0034310792220444   T   T   T
  0.0011601296558983  0.2495510155534897  0.0032938910806517   T   T   T
  0.5009856539138696  0.2496664948053117  0.0036859417639219   T   T   T
  0.0011883909810720  0.7496179808045853  0.0034183122817585   T   T   T
  0.5010377240449591  0.7497094089594933  0.0038054429724009   T   T   T
  0.2511820385651293  0.2494655662800561  0.0037823360098035   T   T   T
  0.7509249970303679  0.2495868454002414  0.0034357433801113   T   T   T
  0.2512354642290393  0.7494571229398680  0.0039355512216126   T   T   T
  0.7509841254421047  0.7496434999771711  0.0035718048096184   T   T   T
  0.0010693397770052  0.9991521272116095  0.0927449975701283   T   T   T
  0.5012579192283421  0.9992325786217221  0.0933831997583894   T   T   T
  0.0009898192632239  0.5001160850264557  0.0927207816268271   T   T   T
  0.5014410897607163  0.5004472161218718  0.0931170329227096   T   T   T
  0.2512426624896152  0.9993426304070046  0.0935656390278015   T   T   T
  0.7512632193745234  0.9996785941659666  0.0930533553669693   T   T   T
  0.2507591069294920  0.4993984143738631  0.0933016131016254   T   T   T
  0.7509657360050010  0.4996478648151984  0.0929889866407808   T   T   T
  0.1262756964680774  0.2492816149687080  0.0930135171014302   T   T   T
  0.6262915058171478  0.2496031870412645  0.0930961232730445   T   T   T
  0.1261471917804601  0.7490852811828465  0.0932667018597213   T   T   T
  0.6260956612053965  0.7494834262846578  0.0933580564635995   T   T   T
  0.3757616776118959  0.2490403955195668  0.0931975316228148   T   T   T
  0.8757342090861068  0.2496441180030912  0.0926663766261171   T   T   T
  0.3761844135480872  0.7502434787493329  0.0934258967313750   T   T   T
  0.8760529793270411  0.7498611678307550  0.0928895874439172   T   T   T
  0.1255711513374340 -0.0001987974244274  0.1836671762958484   T   T   T
  0.6260519166700456  0.0004776553014438  0.1839171667015833   T   T   T
  0.1253274452680058  0.4975275374086520  0.1839554829388733   T   T   T
  0.6263212160703500  0.4980583663971069  0.1841851536460986   T   T   T
  0.3770365491989355  0.0001272331490039  0.1844178920880680   T   T   T
  0.8769093825682298  0.0000722991498403  0.1837826920540338   T   T   T
  0.3762356141533446  0.4994012552913601  0.1819270856880143   T   T   T
  0.8757927637233593  0.5000576160300904  0.1833607586114306   T   T   T
  0.0015932200329491  0.2479261395168673  0.1812994269992917   T   T   T
  0.5019945202430629  0.2485224367537164  0.1819691703325367   T   T   T
  0.0009899423167521  0.7523312649263072  0.1835458859337286   T   T   T
  0.5014347123371579  0.7523160800957239  0.1845779729600785   T   T   T
  0.2496499465380814  0.2491669611672785  0.1844156402195276   T   T   T
  0.7497714233780018  0.2495402257764237  0.1836928482039137   T   T   T
  0.2510253044128772  0.7491286689335740  0.1840537893979022   T   T   T
  0.7512148847902832  0.7499132961602953  0.1832413057088965   T   T   T
  0.0023866180063401  0.9991023734058502  0.2786853556013528   T   T   T
  0.5044705828573369  0.0005802587193551  0.2795337735273895   T   T   T
  0.0000556111806438  0.5075944804887338  0.2723985147143060   T   T   T
  0.5060122212731880  0.5078999914884373  0.2749942790476755   T   T   T
  0.2494053506718732  0.9977936538934224  0.2727100479374523   T   T   T
  0.7513688570935696  0.9987797279830823  0.2723649460166286   T   T   T
  0.2453418153687770  0.4996447688533128  0.2747104031796962   T   T   T
  0.7508958643617336  0.5007032662901355  0.2730858883337120   T   T   T
  0.1252411198244580  0.2444251200263505  0.2788530529328476   T   T   T
  0.6267743514818704  0.2454450219694169  0.2793722046262501   T   T   T
  0.1256995980926888  0.7505495252893698  0.2724281533230653   T   T   T
  0.6277628029781580  0.7514361467714843  0.2726047149878792   T   T   T
  0.3719263124521299  0.2415421643927349  0.2749583322044383   T   T   T
  0.8720443299835665  0.2501720606455720  0.2724052209652921   T   T   T
  0.3759520090030878  0.7591430586215522  0.2749047212716880   T   T   T
  0.8756482807340105  0.7515441196639226  0.2729137267615779   T   T   T
  0.0012262153563977  0.9994875496857976  0.0012433343945737   T   T   T
  0.5009830747623620  0.9996022580499215  0.0016324061112056   T   T   T
  0.0011449981116689  0.4996834235344987  0.0012567720719301   T   T   T
  0.5009730832891489  0.4997650075689826  0.0015959538028682   T   T   T
  0.2512784403697513  0.9994501167361232  0.0017644421164591   T   T   T
  0.7510316136273602  0.9996338344205036  0.0013828780528039   T   T   T
  0.2511766751437491  0.4994553923734327  0.0016897496718507   T   T   T
  0.7509860503019797  0.4996160431247273  0.0013444409213873   T   T   T
  0.1262867903408736  0.2494375550675540  0.0013937808314202   T   T   T
  0.6259314473434990  0.2496404653325647  0.0014300063521108   T   T   T
  0.1262827457396720  0.7493443823793707  0.0015608699290634   T   T   T
  0.6259323423926987  0.7495531642547901  0.0015594930150832   T   T   T
  0.3760227259839177  0.2495183712020906  0.0016918148992318   T   T   T
  0.8760368425877400  0.2497560048499786  0.0011371359217443   T   T   T
  0.3761254414405648  0.7496576206201748  0.0017817964514705   T   T   T
  0.8761056451049146  0.7495474592700930  0.0012400043912380   T   T   T
  0.1260877241102975  0.9994037965930442  0.0933664588138049   T   T   T
  0.6261002295204847  0.9997688857500544  0.0934075620689150   T   T   T
  0.1260332944422168  0.4989354035501816  0.0934102842118622   T   T   T
  0.6259281393429309  0.4993083280670726  0.0934290148634434   T   T   T
  0.3763313889392411  0.9997452810029577  0.0938237080000757   T   T   T
  0.8763100861214163  0.9998871985006558  0.0930548261486093   T   T   T
  0.3761274068648583  0.4995342107365890  0.0935376323199003   T   T   T
  0.8760639058259234  0.4996138178811088  0.0931181756724926   T   T   T
  0.0009483481888836  0.2497498177447799  0.0927655163565831   T   T   T
  0.5008713800498555  0.2501479158191072  0.0933471881301792   T   T   T
  0.0009845403393729  0.7495036903545370  0.0932059782822184   T   T   T
  0.5009322577988654  0.7495433201138022  0.0937666399836715   T   T   T
  0.2511327352435436  0.2497763056167984  0.0937531252316469   T   T   T
  0.7510909175128422  0.2498946616237279  0.0932098269992717   T   T   T
  0.2513514106597829  0.7489485364516666  0.0937220746857687   T   T   T
  0.7512097890305667  0.7494267718986953  0.0931569444637879   T   T   T
  0.0007221955261372  0.0007072998473872  0.1834289132709106   T   T   T
  0.5009690286257169  0.0008106901416875  0.1838122791595575   T   T   T
  0.0004611902261815  0.4993220215147980  0.1832543956925403   T   T   T
  0.5004690042907435  0.5001313384846412  0.1843724208657595   T   T   T
  0.2519436653430272  0.9992782053018389  0.1830991574057759   T   T   T
  0.7522052031139900  0.0000109422051611  0.1826583366162830   T   T   T
  0.2514647983990544  0.4990645981952926  0.1843865379424942   T   T   T
  0.7512806812166252  0.4994373246364817  0.1832232883314917   T   T   T
  0.1251082935439399  0.2498517556223133  0.1835960411624746   T   T   T
  0.6259093742743818  0.2503075658125457  0.1836113597812473   T   T   T
  0.1256847360000088  0.7472043689933580  0.1828353891940740   T   T   T
  0.6264279378208337  0.7479962752980678  0.1829153684902003   T   T   T
  0.3758626851357803  0.2514841119468749  0.1843973042210348   T   T   T
  0.8761695691000688  0.2502571253238622  0.1832330828381869   T   T   T
  0.3762375651492057  0.7480288841162708  0.1845031579659906   T   T   T
  0.8762693610118513  0.7499071256761427  0.1831306094876976   T   T   T
  0.1274225023751396  0.9946359410895195  0.2712083273792276   T   T   T
  0.6291429165724329  0.9956859991152502  0.2716510965143525   T   T   T
  0.1235687524149221  0.4991790785794348  0.2757967164330529   T   T   T
  0.6271292558724096  0.5001402280117432  0.2758339325258887   T   T   T
  0.3758602720620975  0.0006555597671318  0.2760718334227575   T   T   T
  0.8762295592111210  0.0015096851657905  0.2755378869882123   T   T   T
  0.3743245318222235  0.5025599987831788  0.2749703438971990   T   T   T
  0.8756530286135502  0.5006241889609028  0.2753159171756793   T   T   T
  0.4963023650048525  0.2600845635636269  0.2701319216763988   T   T   T
  0.9955608109035843  0.2596133762011279  0.2718578236591357   T   T   T
  0.0004672271556364  0.7510961808402692  0.2754113476027311   T   T   T
  0.5018368821775333  0.7523115969292771  0.2750854312815060   T   T   T
  0.2492688084500726  0.2489279147307002  0.2749791332070107   T   T   T
  0.7507719605392384  0.2500062925385112  0.2755234267577386   T   T   T
  0.2506756576072905  0.7485906317268844  0.2748022327862813   T   T   T
  0.7520146057989426  0.7494490199765854  0.2747479754414254   T   T   T
  0.0483841587783415  0.1543184096417710  0.3486564161426828   T   T   T
  0.5469426662788279  0.1603833624148960  0.3483840114137181   T   T   T
  0.3835293754800352  0.4852563576302162  0.3583868906069315   T   T   T
 
  0.00000000E+00  0.00000000E+00  0.00000000E+00
  0.00000000E+00  0.00000000E+00  0.00000000E+00
  0.00000000E+00  0.00000000E+00  0.00000000E+00
  0.00000000E+00  0.00000000E+00  0.00000000E+00
  0.00000000E+00  0.00000000E+00  0.00000000E+00
  0.00000000E+00  0.00000000E+00  0.00000000E+00
  0.00000000E+00  0.00000000E+00  0.00000000E+00
  0.00000000E+00  0.00000000E+00  0.00000000E+00
  0.00000000E+00  0.00000000E+00  0.00000000E+00
  0.00000000E+00  0.00000000E+00  0.00000000E+00
  0.00000000E+00  0.00000000E+00  0.00000000E+00
  0.00000000E+00  0.00000000E+00  0.00000000E+00
  0.00000000E+00  0.00000000E+00  0.00000000E+00
  0.00000000E+00  0.00000000E+00  0.00000000E+00
  0.00000000E+00  0.00000000E+00  0.00000000E+00
  0.00000000E+00  0.00000000E+00  0.00000000E+00
  0.00000000E+00  0.00000000E+00  0.00000000E+00
  0.00000000E+00  0.00000000E+00  0.00000000E+00
  0.00000000E+00  0.00000000E+00  0.00000000E+00
  0.00000000E+00  0.00000000E+00  0.00000000E+00
  0.00000000E+00  0.00000000E+00  0.00000000E+00
  0.00000000E+00  0.00000000E+00  0.00000000E+00
  0.00000000E+00  0.00000000E+00  0.00000000E+00
  0.00000000E+00  0.00000000E+00  0.00000000E+00
  0.00000000E+00  0.00000000E+00  0.00000000E+00
  0.00000000E+00  0.00000000E+00  0.00000000E+00
  0.00000000E+00  0.00000000E+00  0.00000000E+00
  0.00000000E+00  0.00000000E+00  0.00000000E+00
  0.00000000E+00  0.00000000E+00  0.00000000E+00
  0.00000000E+00  0.00000000E+00  0.00000000E+00
  0.00000000E+00  0.00000000E+00  0.00000000E+00
  0.00000000E+00  0.00000000E+00  0.00000000E+00
  0.00000000E+00  0.00000000E+00  0.00000000E+00
  0.00000000E+00  0.00000000E+00  0.00000000E+00
  0.00000000E+00  0.00000000E+00  0.00000000E+00
  0.00000000E+00  0.00000000E+00  0.00000000E+00
  0.00000000E+00  0.00000000E+00  0.00000000E+00
  0.00000000E+00  0.00000000E+00  0.00000000E+00
  0.00000000E+00  0.00000000E+00  0.00000000E+00
  0.00000000E+00  0.00000000E+00  0.00000000E+00
  0.00000000E+00  0.00000000E+00  0.00000000E+00
  0.00000000E+00  0.00000000E+00  0.00000000E+00
  0.00000000E+00  0.00000000E+00  0.00000000E+00
  0.00000000E+00  0.00000000E+00  0.00000000E+00
  0.00000000E+00  0.00000000E+00  0.00000000E+00
  0.00000000E+00  0.00000000E+00  0.00000000E+00
  0.00000000E+00  0.00000000E+00  0.00000000E+00
  0.00000000E+00  0.00000000E+00  0.00000000E+00
  0.00000000E+00  0.00000000E+00  0.00000000E+00
  0.00000000E+00  0.00000000E+00  0.00000000E+00
  0.00000000E+00  0.00000000E+00  0.00000000E+00
  0.00000000E+00  0.00000000E+00  0.00000000E+00
  0.00000000E+00  0.00000000E+00  0.00000000E+00
  0.00000000E+00  0.00000000E+00  0.00000000E+00
  0.00000000E+00  0.00000000E+00  0.00000000E+00
  0.00000000E+00  0.00000000E+00  0.00000000E+00
  0.00000000E+00  0.00000000E+00  0.00000000E+00
  0.00000000E+00  0.00000000E+00  0.00000000E+00
  0.00000000E+00  0.00000000E+00  0.00000000E+00
  0.00000000E+00  0.00000000E+00  0.00000000E+00
  0.00000000E+00  0.00000000E+00  0.00000000E+00
  0.00000000E+00  0.00000000E+00  0.00000000E+00
  0.00000000E+00  0.00000000E+00  0.00000000E+00
  0.00000000E+00  0.00000000E+00  0.00000000E+00
  0.00000000E+00  0.00000000E+00  0.00000000E+00
  0.00000000E+00  0.00000000E+00  0.00000000E+00
  0.00000000E+00  0.00000000E+00  0.00000000E+00
  0.00000000E+00  0.00000000E+00  0.00000000E+00
  0.00000000E+00  0.00000000E+00  0.00000000E+00
  0.00000000E+00  0.00000000E+00  0.00000000E+00
  0.00000000E+00  0.00000000E+00  0.00000000E+00
  0.00000000E+00  0.00000000E+00  0.00000000E+00
  0.00000000E+00  0.00000000E+00  0.00000000E+00
  0.00000000E+00  0.00000000E+00  0.00000000E+00
  0.00000000E+00  0.00000000E+00  0.00000000E+00
  0.00000000E+00  0.00000000E+00  0.00000000E+00
  0.00000000E+00  0.00000000E+00  0.00000000E+00
  0.00000000E+00  0.00000000E+00  0.00000000E+00
  0.00000000E+00  0.00000000E+00  0.00000000E+00
  0.00000000E+00  0.00000000E+00  0.00000000E+00
  0.00000000E+00  0.00000000E+00  0.00000000E+00
  0.00000000E+00  0.00000000E+00  0.00000000E+00
  0.00000000E+00  0.00000000E+00  0.00000000E+00
  0.00000000E+00  0.00000000E+00  0.00000000E+00
  0.00000000E+00  0.00000000E+00  0.00000000E+00
  0.00000000E+00  0.00000000E+00  0.00000000E+00
  0.00000000E+00  0.00000000E+00  0.00000000E+00
  0.00000000E+00  0.00000000E+00  0.00000000E+00
  0.00000000E+00  0.00000000E+00  0.00000000E+00
  0.00000000E+00  0.00000000E+00  0.00000000E+00
  0.00000000E+00  0.00000000E+00  0.00000000E+00
  0.00000000E+00  0.00000000E+00  0.00000000E+00
  0.00000000E+00  0.00000000E+00  0.00000000E+00
  0.00000000E+00  0.00000000E+00  0.00000000E+00
  0.00000000E+00  0.00000000E+00  0.00000000E+00
  0.00000000E+00  0.00000000E+00  0.00000000E+00
  0.00000000E+00  0.00000000E+00  0.00000000E+00
  0.00000000E+00  0.00000000E+00  0.00000000E+00
  0.00000000E+00  0.00000000E+00  0.00000000E+00
  0.00000000E+00  0.00000000E+00  0.00000000E+00
  0.00000000E+00  0.00000000E+00  0.00000000E+00
  0.00000000E+00  0.00000000E+00  0.00000000E+00
  0.00000000E+00  0.00000000E+00  0.00000000E+00
  0.00000000E+00  0.00000000E+00  0.00000000E+00
  0.00000000E+00  0.00000000E+00  0.00000000E+00
  0.00000000E+00  0.00000000E+00  0.00000000E+00
  0.00000000E+00  0.00000000E+00  0.00000000E+00
  0.00000000E+00  0.00000000E+00  0.00000000E+00
  0.00000000E+00  0.00000000E+00  0.00000000E+00
  0.00000000E+00  0.00000000E+00  0.00000000E+00
  0.00000000E+00  0.00000000E+00  0.00000000E+00
  0.00000000E+00  0.00000000E+00  0.00000000E+00
  0.00000000E+00  0.00000000E+00  0.00000000E+00
  0.00000000E+00  0.00000000E+00  0.00000000E+00
  0.00000000E+00  0.00000000E+00  0.00000000E+00
  0.00000000E+00  0.00000000E+00  0.00000000E+00
  0.00000000E+00  0.00000000E+00  0.00000000E+00
  0.00000000E+00  0.00000000E+00  0.00000000E+00
  0.00000000E+00  0.00000000E+00  0.00000000E+00
  0.00000000E+00  0.00000000E+00  0.00000000E+00
  0.00000000E+00  0.00000000E+00  0.00000000E+00
  0.00000000E+00  0.00000000E+00  0.00000000E+00
  0.00000000E+00  0.00000000E+00  0.00000000E+00
  0.00000000E+00  0.00000000E+00  0.00000000E+00
  0.00000000E+00  0.00000000E+00  0.00000000E+00
  0.00000000E+00  0.00000000E+00  0.00000000E+00
  0.00000000E+00  0.00000000E+00  0.00000000E+00
  0.00000000E+00  0.00000000E+00  0.00000000E+00
  0.00000000E+00  0.00000000E+00  0.00000000E+00
  0.00000000E+00  0.00000000E+00  0.00000000E+00
  0.00000000E+00  0.00000000E+00  0.00000000E+00
  0.00000000E+00  0.00000000E+00  0.00000000E+00
  0.00000000E+00  0.00000000E+00  0.00000000E+00
