H Mg O Pd                               
   1.00000000000000     
    16.8282433949600012    0.0000000000000000    0.0000000000000000
     0.0000000000000000    8.4141216974800006    0.0000000000000000
     0.0000000000000000    0.0000000000000000   23.4141216974799988
   H    Mg   O    Pd
     2    64    66     1
Selective dynamics
Direct
  0.0164230130432947  0.2236467862138675  0.3724047804133269   T   T   T
  0.5148721612898557  0.2262296550105145  0.3704866809701227   T   T   T
  0.1260691271057099  0.9993759235725953  0.0036630171065584   T   T   T
  0.6261598902739615  0.9993855915749205  0.0036732725861814   T   T   T
  0.1259604927048203  0.4994592854546611  0.0035760738981949   T   T   T
  0.6261579103232658  0.4994584804954235  0.0035857265268652   T   T   T
  0.3760884448430454  0.9994947921316309  0.0035376409932460   T   T   T
  0.8760636758784465  0.9995017202612225  0.0036254513351145   T   T   T
  0.3760104927031552  0.4996251374519108  0.0034625029732538   T   T   T
  0.8759754279361098  0.4996400504757519  0.0036204094900020   T   T   T
  0.0010218271127782  0.2495177528650533  0.0034796840618053   T   T   T
  0.5011205597426533  0.2494875967043082  0.0034805425212564   T   T   T
  0.0010576002072360  0.7496343499112147  0.0035828201206485   T   T   T
  0.5011616521745094  0.7497096426145632  0.0035544290045244   T   T   T
  0.2509499803432208  0.2493989512120515  0.0035428100874584   T   T   T
  0.7510283271561881  0.2494601909387618  0.0035902729842105   T   T   T
  0.2510143795416710  0.7495794949646984  0.0036810093189430   T   T   T
  0.7510820720880308  0.7495385357261442  0.0037195199866613   T   T   T
  0.0010123667990042  0.9992216321845455  0.0930062666279212   T   T   T
  0.5011892913646844  0.9992566040537758  0.0930021828050132   T   T   T
  0.0009363733388812  0.5002327168718738  0.0928731393567278   T   T   T
  0.5012551674110056  0.5003310273774291  0.0928353989998830   T   T   T
  0.2511943303247737  0.9994511532538709  0.0931999461302848   T   T   T
  0.7513350180618064  0.9995332463117254  0.0932597923355995   T   T   T
  0.2507816469859768  0.4994410008883222  0.0930134642640997   T   T   T
  0.7510038303859780  0.4994499323530164  0.0931053462671031   T   T   T
  0.1261745301993459  0.2494433420900707  0.0929863990572291   T   T   T
  0.6262456277008592  0.2494836484771567  0.0930167530064080   T   T   T
  0.1260359326590533  0.7491662063440130  0.0932326639573045   T   T   T
  0.6261288531232064  0.7491704664584664  0.0932351122017712   T   T   T
  0.3757027267030226  0.2494222318599247  0.0927588916605708   T   T   T
  0.8756919550796787  0.2495186077191257  0.0929736059578962   T   T   T
  0.3761330729115620  0.7499012646245998  0.0929696774446755   T   T   T
  0.8760857000184809  0.7498858026189575  0.0931774343959989   T   T   T
  0.1256226820986476  0.0001749676607729  0.1837064651668494   T   T   T
  0.6257412849765943  0.0004195287302262  0.1837543731955444   T   T   T
  0.1253641375095143  0.4976394308760915  0.1839110679731442   T   T   T
  0.6261932142723527  0.4975431429653308  0.1839638339396183   T   T   T
  0.3770885358070752  0.0001948558143687  0.1838049599087203   T   T   T
  0.8769776183751388  0.0000966490972734  0.1841442310745889   T   T   T
  0.3759914578736511  0.4997713918833816  0.1823796875267361   T   T   T
  0.8757674024527131  0.5000420331752679  0.1835821800946124   T   T   T
  0.0016907383800088  0.2480423138228566  0.1816500068454465   T   T   T
  0.5017764870841106  0.2485560925988967  0.1818155267193042   T   T   T
  0.0010839969378131  0.7527985051188788  0.1838155596276995   T   T   T
  0.5013780303945072  0.7526164510472885  0.1840040213487833   T   T   T
  0.2495261091491449  0.2493767098295118  0.1838938541251161   T   T   T
  0.7494344229973625  0.2490885871103667  0.1839133827481375   T   T   T
  0.2510195071262550  0.7492691030562491  0.1835238574931743   T   T   T
  0.7511341727553541  0.7498505654602738  0.1833791517166482   T   T   T
  0.0027370757933444  0.0002954897479719  0.2792822318668400   T   T   T
  0.5042912472756073  0.0014239789314309  0.2799393550890411   T   T   T
  0.0001808925410961  0.5073395779059388  0.2724195626515361   T   T   T
  0.5045829837723186  0.5073187584205353  0.2731169474137007   T   T   T
  0.2499487462811818  0.9980810479849096  0.2723351458585482   T   T   T
  0.7510452944132990  0.9985462415330958  0.2724591286958749   T   T   T
  0.2463999089313068  0.4998242779701830  0.2735260202701545   T   T   T
  0.7505280060499848  0.5003115372487483  0.2731290334988617   T   T   T
  0.1251207006334756  0.2447342798986114  0.2793256153143473   T   T   T
  0.6261729631038589  0.2448875578488596  0.2799627377623568   T   T   T
  0.1258885086264797  0.7506089982928350  0.2723892539066995   T   T   T
  0.6274249998426518  0.7508838275145031  0.2723399508423950   T   T   T
  0.3722150497863981  0.2439491369163951  0.2731037045158903   T   T   T
  0.8721057505125149  0.2502158510339862  0.2725008753536195   T   T   T
  0.3760931611225354  0.7577550819895089  0.2734912538494763   T   T   T
  0.8756432302472573  0.7516050136664990  0.2731779725814598   T   T   T
  0.0011555508744811  0.9994982718883205  0.0013524902262426   T   T   T
  0.5010561109324768  0.9995389179579625  0.0014052393985726   T   T   T
  0.0010675087046824  0.4996567610527793  0.0013745147475660   T   T   T
  0.5009660250277512  0.4996709245658151  0.0013086495121871   T   T   T
  0.2511173431428707  0.9994814597388937  0.0015380459174467   T   T   T
  0.7510828151647557  0.9995105013167556  0.0014748579584302   T   T   T
  0.2510781762823589  0.4994899046583046  0.0013836572828585   T   T   T
  0.7510355042213097  0.4994934908481035  0.0014325583700615   T   T   T
  0.1261378663179593  0.2494249789618519  0.0013555915549813   T   T   T
  0.6260008197002547  0.2494245769923754  0.0013597066417242   T   T   T
  0.1261566565200046  0.7494301255071225  0.0015117616241629   T   T   T
  0.6260037083666966  0.7494426832687936  0.0014813277144469   T   T   T
  0.3759725727323824  0.2495880935038657  0.0013067253592199   T   T   T
  0.8760210410612662  0.2496354408208604  0.0013412883941369   T   T   T
  0.3760577683543094  0.7495578789216940  0.0013644442032148   T   T   T
  0.8761006381582280  0.7495207336571097  0.0014160402382944   T   T   T
  0.1261209408735736  0.9995158766922096  0.0933340999393798   T   T   T
  0.6260232303941935  0.9995366072100533  0.0933021208820085   T   T   T
  0.1260418491715237  0.4990587702860295  0.0933017855419799   T   T   T
  0.6258660527619595  0.4990966462342529  0.0932493568725128   T   T   T
  0.3762484104012732  0.9997204006802305  0.0933019675018365   T   T   T
  0.8763227117665282  0.9998146444926249  0.0932621794685340   T   T   T
  0.3760023474278793  0.4996134968907231  0.0932106679513907   T   T   T
  0.8760570771958748  0.4996006721512021  0.0933251365284525   T   T   T
  0.0009870730680737  0.2497622855906456  0.0929564069038663   T   T   T
  0.5007751822182864  0.2500398365892711  0.0930037714737356   T   T   T
  0.0010439202137731  0.7496877193503182  0.0933561541364560   T   T   T
  0.5008650590041510  0.7495743413387694  0.0933836329519469   T   T   T
  0.2510425270350476  0.2498257577485591  0.0933905456195958   T   T   T
  0.7509853003629690  0.2496462113512365  0.0933506229854131   T   T   T
  0.2512886957238964  0.7490502325794833  0.0933937613065536   T   T   T
  0.7511797403884053  0.7493266540015597  0.0932963567223956   T   T   T
  0.0009091305836905  0.0007702324920823  0.1835807894814652   T   T   T
  0.5007079315465013  0.0008735516149788  0.1835054754843466   T   T   T
  0.0005931230339615  0.4998555573213810  0.1832806767708835   T   T   T
  0.5003243041389203  0.5003135387446271  0.1837579184972142   T   T   T
  0.2521290824079299  0.9995362866038593  0.1827816618214161   T   T   T
  0.7520161635689655  0.9997763083947080  0.1827843177171896   T   T   T
  0.2513756755403110  0.4991352488373318  0.1839537688981091   T   T   T
  0.7510517954615669  0.4991908855563587  0.1833464858689967   T   T   T
  0.1254863256330052  0.2500463950584941  0.1835549264598648   T   T   T
  0.6254220337555685  0.2501049842364977  0.1834914266126024   T   T   T
  0.1259669003688632  0.7474573814504291  0.1827948942042479   T   T   T
  0.6260554289509607  0.7475996392976119  0.1827508826262097   T   T   T
  0.3756928772858631  0.2513117411173326  0.1836744316663437   T   T   T
  0.8759544135655615  0.2502362399120607  0.1833783559679462   T   T   T
  0.3762579464650248  0.7485992077275165  0.1838935201190179   T   T   T
  0.8762732751056574  0.7499323749292381  0.1834160450730614   T   T   T
  0.1280176445976528  0.9947279190278420  0.2711124847951079   T   T   T
  0.6287103909649883  0.9950864043444760  0.2711359106957736   T   T   T
  0.1241054929768384  0.4995073038457924  0.2757802005804731   T   T   T
  0.6263102876864278  0.4997484003501949  0.2757521298385101   T   T   T
  0.3760044286300298  0.0011567278802505  0.2757088754671651   T   T   T
  0.8761321797986664  0.0014777365971224  0.2759160571461586   T   T   T
  0.3755657781269957  0.5005726125043656  0.2758584378546934   T   T   T
  0.8754893303752608  0.5007685656685855  0.2754402799388297   T   T   T
  0.4955522435021867  0.2610437722514576  0.2709869150899158   T   T   T
  0.9955869344395952  0.2597509075661546  0.2716148858953944   T   T   T
  0.0006846394663074  0.7513517477080628  0.2756829909688685   T   T   T
  0.5013796859741942  0.7516193289127346  0.2753008519996899   T   T   T
  0.2498820139933035  0.2495802237446432  0.2752076094612608   T   T   T
  0.7504154706389924  0.2497100384962692  0.2757211232962730   T   T   T
  0.2512300960773481  0.7484414455288472  0.2745435313950515   T   T   T
  0.7516814619166474  0.7491407932943402  0.2748622571926627   T   T   T
  0.0502727398800553  0.1540006442734405  0.3496512629896427   T   T   T
  0.5503807374986969  0.1540477403341672  0.3500017656822569   T   T   T
  0.3768131350304686  0.4982435872707709  0.3637143393030067   T   T   T
 
  0.00000000E+00  0.00000000E+00  0.00000000E+00
  0.00000000E+00  0.00000000E+00  0.00000000E+00
  0.00000000E+00  0.00000000E+00  0.00000000E+00
  0.00000000E+00  0.00000000E+00  0.00000000E+00
  0.00000000E+00  0.00000000E+00  0.00000000E+00
  0.00000000E+00  0.00000000E+00  0.00000000E+00
  0.00000000E+00  0.00000000E+00  0.00000000E+00
  0.00000000E+00  0.00000000E+00  0.00000000E+00
  0.00000000E+00  0.00000000E+00  0.00000000E+00
  0.00000000E+00  0.00000000E+00  0.00000000E+00
  0.00000000E+00  0.00000000E+00  0.00000000E+00
  0.00000000E+00  0.00000000E+00  0.00000000E+00
  0.00000000E+00  0.00000000E+00  0.00000000E+00
  0.00000000E+00  0.00000000E+00  0.00000000E+00
  0.00000000E+00  0.00000000E+00  0.00000000E+00
  0.00000000E+00  0.00000000E+00  0.00000000E+00
  0.00000000E+00  0.00000000E+00  0.00000000E+00
  0.00000000E+00  0.00000000E+00  0.00000000E+00
  0.00000000E+00  0.00000000E+00  0.00000000E+00
  0.00000000E+00  0.00000000E+00  0.00000000E+00
  0.00000000E+00  0.00000000E+00  0.00000000E+00
  0.00000000E+00  0.00000000E+00  0.00000000E+00
  0.00000000E+00  0.00000000E+00  0.00000000E+00
  0.00000000E+00  0.00000000E+00  0.00000000E+00
  0.00000000E+00  0.00000000E+00  0.00000000E+00
  0.00000000E+00  0.00000000E+00  0.00000000E+00
  0.00000000E+00  0.00000000E+00  0.00000000E+00
  0.00000000E+00  0.00000000E+00  0.00000000E+00
  0.00000000E+00  0.00000000E+00  0.00000000E+00
  0.00000000E+00  0.00000000E+00  0.00000000E+00
  0.00000000E+00  0.00000000E+00  0.00000000E+00
  0.00000000E+00  0.00000000E+00  0.00000000E+00
  0.00000000E+00  0.00000000E+00  0.00000000E+00
  0.00000000E+00  0.00000000E+00  0.00000000E+00
  0.00000000E+00  0.00000000E+00  0.00000000E+00
  0.00000000E+00  0.00000000E+00  0.00000000E+00
  0.00000000E+00  0.00000000E+00  0.00000000E+00
  0.00000000E+00  0.00000000E+00  0.00000000E+00
  0.00000000E+00  0.00000000E+00  0.00000000E+00
  0.00000000E+00  0.00000000E+00  0.00000000E+00
  0.00000000E+00  0.00000000E+00  0.00000000E+00
  0.00000000E+00  0.00000000E+00  0.00000000E+00
  0.00000000E+00  0.00000000E+00  0.00000000E+00
  0.00000000E+00  0.00000000E+00  0.00000000E+00
  0.00000000E+00  0.00000000E+00  0.00000000E+00
  0.00000000E+00  0.00000000E+00  0.00000000E+00
  0.00000000E+00  0.00000000E+00  0.00000000E+00
  0.00000000E+00  0.00000000E+00  0.00000000E+00
  0.00000000E+00  0.00000000E+00  0.00000000E+00
  0.00000000E+00  0.00000000E+00  0.00000000E+00
  0.00000000E+00  0.00000000E+00  0.00000000E+00
  0.00000000E+00  0.00000000E+00  0.00000000E+00
  0.00000000E+00  0.00000000E+00  0.00000000E+00
  0.00000000E+00  0.00000000E+00  0.00000000E+00
  0.00000000E+00  0.00000000E+00  0.00000000E+00
  0.00000000E+00  0.00000000E+00  0.00000000E+00
  0.00000000E+00  0.00000000E+00  0.00000000E+00
  0.00000000E+00  0.00000000E+00  0.00000000E+00
  0.00000000E+00  0.00000000E+00  0.00000000E+00
  0.00000000E+00  0.00000000E+00  0.00000000E+00
  0.00000000E+00  0.00000000E+00  0.00000000E+00
  0.00000000E+00  0.00000000E+00  0.00000000E+00
  0.00000000E+00  0.00000000E+00  0.00000000E+00
  0.00000000E+00  0.00000000E+00  0.00000000E+00
  0.00000000E+00  0.00000000E+00  0.00000000E+00
  0.00000000E+00  0.00000000E+00  0.00000000E+00
  0.00000000E+00  0.00000000E+00  0.00000000E+00
  0.00000000E+00  0.00000000E+00  0.00000000E+00
  0.00000000E+00  0.00000000E+00  0.00000000E+00
  0.00000000E+00  0.00000000E+00  0.00000000E+00
  0.00000000E+00  0.00000000E+00  0.00000000E+00
  0.00000000E+00  0.00000000E+00  0.00000000E+00
  0.00000000E+00  0.00000000E+00  0.00000000E+00
  0.00000000E+00  0.00000000E+00  0.00000000E+00
  0.00000000E+00  0.00000000E+00  0.00000000E+00
  0.00000000E+00  0.00000000E+00  0.00000000E+00
  0.00000000E+00  0.00000000E+00  0.00000000E+00
  0.00000000E+00  0.00000000E+00  0.00000000E+00
  0.00000000E+00  0.00000000E+00  0.00000000E+00
  0.00000000E+00  0.00000000E+00  0.00000000E+00
  0.00000000E+00  0.00000000E+00  0.00000000E+00
  0.00000000E+00  0.00000000E+00  0.00000000E+00
  0.00000000E+00  0.00000000E+00  0.00000000E+00
  0.00000000E+00  0.00000000E+00  0.00000000E+00
  0.00000000E+00  0.00000000E+00  0.00000000E+00
  0.00000000E+00  0.00000000E+00  0.00000000E+00
  0.00000000E+00  0.00000000E+00  0.00000000E+00
  0.00000000E+00  0.00000000E+00  0.00000000E+00
  0.00000000E+00  0.00000000E+00  0.00000000E+00
  0.00000000E+00  0.00000000E+00  0.00000000E+00
  0.00000000E+00  0.00000000E+00  0.00000000E+00
  0.00000000E+00  0.00000000E+00  0.00000000E+00
  0.00000000E+00  0.00000000E+00  0.00000000E+00
  0.00000000E+00  0.00000000E+00  0.00000000E+00
  0.00000000E+00  0.00000000E+00  0.00000000E+00
  0.00000000E+00  0.00000000E+00  0.00000000E+00
  0.00000000E+00  0.00000000E+00  0.00000000E+00
  0.00000000E+00  0.00000000E+00  0.00000000E+00
  0.00000000E+00  0.00000000E+00  0.00000000E+00
  0.00000000E+00  0.00000000E+00  0.00000000E+00
  0.00000000E+00  0.00000000E+00  0.00000000E+00
  0.00000000E+00  0.00000000E+00  0.00000000E+00
  0.00000000E+00  0.00000000E+00  0.00000000E+00
  0.00000000E+00  0.00000000E+00  0.00000000E+00
  0.00000000E+00  0.00000000E+00  0.00000000E+00
  0.00000000E+00  0.00000000E+00  0.00000000E+00
  0.00000000E+00  0.00000000E+00  0.00000000E+00
  0.00000000E+00  0.00000000E+00  0.00000000E+00
  0.00000000E+00  0.00000000E+00  0.00000000E+00
  0.00000000E+00  0.00000000E+00  0.00000000E+00
  0.00000000E+00  0.00000000E+00  0.00000000E+00
  0.00000000E+00  0.00000000E+00  0.00000000E+00
  0.00000000E+00  0.00000000E+00  0.00000000E+00
  0.00000000E+00  0.00000000E+00  0.00000000E+00
  0.00000000E+00  0.00000000E+00  0.00000000E+00
  0.00000000E+00  0.00000000E+00  0.00000000E+00
  0.00000000E+00  0.00000000E+00  0.00000000E+00
  0.00000000E+00  0.00000000E+00  0.00000000E+00
  0.00000000E+00  0.00000000E+00  0.00000000E+00
  0.00000000E+00  0.00000000E+00  0.00000000E+00
  0.00000000E+00  0.00000000E+00  0.00000000E+00
  0.00000000E+00  0.00000000E+00  0.00000000E+00
  0.00000000E+00  0.00000000E+00  0.00000000E+00
  0.00000000E+00  0.00000000E+00  0.00000000E+00
  0.00000000E+00  0.00000000E+00  0.00000000E+00
  0.00000000E+00  0.00000000E+00  0.00000000E+00
  0.00000000E+00  0.00000000E+00  0.00000000E+00
  0.00000000E+00  0.00000000E+00  0.00000000E+00
  0.00000000E+00  0.00000000E+00  0.00000000E+00
  0.00000000E+00  0.00000000E+00  0.00000000E+00
  0.00000000E+00  0.00000000E+00  0.00000000E+00
  0.00000000E+00  0.00000000E+00  0.00000000E+00
  0.00000000E+00  0.00000000E+00  0.00000000E+00
