H Mg O Co                               
   1.00000000000000     
    16.8282433949600012    0.0000000000000000    0.0000000000000000
     0.0000000000000000    8.4141216974800006    0.0000000000000000
     0.0000000000000000    0.0000000000000000   23.4141216974799988
   H    Mg   O    Co
     2    64    66     1
Selective dynamics
Direct
  0.0187713646731075  0.2152096417081883  0.3740510217363582   T   T   T
  0.5258559478502703  0.2026069247548779  0.3762358124305892   T   T   T
  0.1256954689090284  0.9999243977846126  0.0035056618508951   T   T   T
  0.6260296123795406  0.9999916131955076  0.0034707393009529   T   T   T
  0.1255145628162090  0.5000821408602896  0.0031937221866402   T   T   T
  0.6260279314375907  0.5001698483801886  0.0031964781724636   T   T   T
  0.3758869906643779  0.0003794745582901  0.0029605902652831   T   T   T
  0.8757117338776149  0.9999865465681516  0.0033936467971082   T   T   T
  0.3758231804992802  0.5004135805580865  0.0025370260412925   T   T   T
  0.8756372174482902  0.5001248188162497  0.0033704878873310   T   T   T
  0.0005642570911845  0.2500362212463009  0.0032723584234760   T   T   T
  0.5009797580603715  0.2503113183545553  0.0031232532449242   T   T   T
  0.0006708674170355  0.7501731487369695  0.0033913462645930   T   T   T
  0.5011079563445350  0.7505635845827011  0.0031310414204828   T   T   T
  0.2505650120425374  0.2499997577468357  0.0030894125098360   T   T   T
  0.7507756866444578  0.2498894716212154  0.0033873580036447   T   T   T
  0.2506500623814410  0.7503159193633914  0.0031768380381207   T   T   T
  0.7508876316059295  0.7500615228895398  0.0034845176956984   T   T   T
  0.0006175815181084  0.9998265652555924  0.0927479579449501   T   T   T
  0.5011174878060732  0.0004438066006802  0.0928664384321306   T   T   T
  0.0004449882043236  0.5007071440170142  0.0926659183977023   T   T   T
  0.5014882041581088  0.5009775323631127  0.0923419268421194   T   T   T
  0.2510479850599546  0.0002023439295838  0.0929025390192811   T   T   T
  0.7509100218944547  0.0001268980251807  0.0931112308758531   T   T   T
  0.2502759364835820  0.5001047367551634  0.0921526112470956   T   T   T
  0.7506267295318895  0.4996180765946897  0.0928872348782255   T   T   T
  0.1258355572359123  0.2500050139150934  0.0926836943877797   T   T   T
  0.6257590656995520  0.2499340621325360  0.0928898517203364   T   T   T
  0.1257504499748778  0.7497485865669434  0.0929717034720396   T   T   T
  0.6258104201344047  0.7497470877192443  0.0930629673216567   T   T   T
  0.3756911267184729  0.2496468132972167  0.0921522699186740   T   T   T
  0.8751640496236136  0.2499008265006400  0.0928354015244149   T   T   T
  0.3761354151929270  0.7513840940947247  0.0920890426430538   T   T   T
  0.8756888112229749  0.7503748127253330  0.0929370928324364   T   T   T
  0.1251825588309514  0.0009992526158219  0.1834046794768788   T   T   T
  0.6250262400949572  0.0019430809724249  0.1836819027621396   T   T   T
  0.1243650359619856  0.4979501362532425  0.1834266138559704   T   T   T
  0.6265644906642414  0.4966255639244017  0.1837300262049776   T   T   T
  0.3776394023751785  0.0012530834153609  0.1833491189743134   T   T   T
  0.8766364050005231  0.0006503631595115  0.1838816663099261   T   T   T
  0.3760690711087048  0.5004787140276422  0.1786303759727880   T   T   T
  0.8752533214217960  0.5001549027761417  0.1832567751006234   T   T   T
  0.0011166872315497  0.2483940728532366  0.1817954962656487   T   T   T
  0.5020548914256052  0.2486554395519951  0.1834816992699865   T   T   T
  0.0005500382092708  0.7534570595424758  0.1836066240710686   T   T   T
  0.5016984860882077  0.7544508704692360  0.1841686427450545   T   T   T
  0.2492427905443205  0.2497676603612392  0.1836097644249627   T   T   T
  0.7483663056746841  0.2490694497095472  0.1842086438330096   T   T   T
  0.2506989714758104  0.7504045311356164  0.1833255337498080   T   T   T
  0.7506874638275166  0.7502298528777616  0.1832810209421807   T   T   T
  0.0023763094858485  0.0018511745971481  0.2800025301522513   T   T   T
  0.5074755409187990  0.0085724427835143  0.2857186379234538   T   T   T
  0.9992100202820525  0.5064700952457353  0.2721063909550142   T   T   T
  0.5083825601152214  0.5025146776303776  0.2716213454417330   T   T   T
  0.2495911890951598  0.9994362483558270  0.2722736887454120   T   T   T
  0.7508637826882538  0.9988816639795078  0.2722752555807602   T   T   T
  0.2429619763184163  0.4999280807791068  0.2726898779163534   T   T   T
  0.7504041528111115  0.4993072016030475  0.2729892164854810   T   T   T
  0.1234511772563600  0.2438021202252358  0.2799864593653090   T   T   T
  0.6239375467126747  0.2399803947825546  0.2857109020802839   T   T   T
  0.1248071340879848  0.7516631189637412  0.2721168128428896   T   T   T
  0.6277492418402671  0.7510898814025633  0.2723983699300398   T   T   T
  0.3747928051788394  0.2393133651562722  0.2715453460411671   T   T   T
  0.8721454406564459  0.2500971676967629  0.2723006857003357   T   T   T
  0.3768788384148002  0.7643386297823378  0.2726612341494942   T   T   T
  0.8752756840878886  0.7518956979707071  0.2728300131121822   T   T   T
  0.0010216167800097 -0.0000109074661581  0.0011907572891296   T   T   T
  0.5006578249664487  0.0004518793696841  0.0010485466469258   T   T   T
  0.0009192760587000  0.5002219664709550  0.0011560674974814   T   T   T
  0.5006733670383834  0.5004265067864325  0.0007477705940695   T   T   T
  0.2508008456990802  0.0000969415576999  0.0012680674808719   T   T   T
  0.7508865896311366  0.9999362315192905  0.0011838064226932   T   T   T
  0.2506203952609115  0.5002453082820658  0.0008439202431663   T   T   T
  0.7508204108150783  0.5000201111747123  0.0011003189460246   T   T   T
  0.1258300812927889  0.2500311850690701  0.0011562683034532   T   T   T
  0.6256678344787211  0.2500734724684279  0.0010200289088140   T   T   T
  0.1259389403511544  0.7499982515531257  0.0013247543401641   T   T   T
  0.6257826254546812  0.7500585049143175  0.0010890095534108   T   T   T
  0.3755304434666431  0.2501963087456668  0.0007194678731974   T   T   T
  0.8758513768014077  0.2500908879888218  0.0010802016147365   T   T   T
  0.3756331850961419  0.7505681859355067  0.0007275569116738   T   T   T
  0.8759545043293755  0.7500264763489936  0.0011930295496649   T   T   T
  0.1261462055830974 -0.0000088785329507  0.0932078601438272   T   T   T
  0.6257088784485154  0.9996753491926695  0.0928853642210427   T   T   T
  0.1260865188485499  0.4997465647897950  0.0931671257705809   T   T   T
  0.6254601552561443  0.4999608143285162  0.0928401964234158   T   T   T
  0.3757465631003982  0.0002871275102052  0.0931049070611522   T   T   T
  0.8761202445635439  0.0001948192230625  0.0928920608954610   T   T   T
  0.3754975487085676  0.5007325873159200  0.0920035320209457   T   T   T
  0.8757978256435387  0.5001069918916903  0.0930404495619325   T   T   T
  0.0008463924219720  0.2504418082915820  0.0927776090973279   T   T   T
  0.4999895443028834  0.2513001694958645  0.0928843694961023   T   T   T
  0.0009599869938281  0.7501106628193647  0.0931184509049635   T   T   T
  0.5002627214723306  0.7501967118292621  0.0929001572541651   T   T   T
  0.2508082158667482  0.2508286469859259  0.0930601162107947   T   T   T
  0.7507503821908537  0.2501460075236907  0.0929372978740871   T   T   T
  0.2513162779549148  0.7494779419124411  0.0932736210547784   T   T   T
  0.7508541557030262  0.7496131498057804  0.0930218253000749   T   T   T
  0.0008399640469789  0.0010835804253925  0.1831218053089259   T   T   T
  0.4999868735841236  0.0005133693912080  0.1826504006367307   T   T   T
  0.0002765313350196  0.5005923323168574  0.1828677885080003   T   T   T
  0.4988764612788300  0.5034039973825639  0.1835143378713444   T   T   T
  0.2523790066814464  0.0000139551924115  0.1828805026092150   T   T   T
  0.7519406600969636  0.9999442646610760  0.1824107069279859   T   T   T
  0.2522340069644338  0.5001996003695638  0.1844518882191386   T   T   T
  0.7509277225441611  0.4994059874090794  0.1830417521093671   T   T   T
  0.1256565082950117  0.2509489571544793  0.1834164986178164   T   T   T
  0.6252252178787600  0.2508299980920000  0.1822619200057487   T   T   T
  0.1260419470138512  0.7475393586363933  0.1827345248359425   T   T   T
  0.6256660826737676  0.7469446502694924  0.1826147341247927   T   T   T
  0.3741891007828115  0.2544394686296142  0.1833474012915463   T   T   T
  0.8754748269674448  0.2505447679796436  0.1830091688869306   T   T   T
  0.3758129781931085  0.7469860828101176  0.1844642339125943   T   T   T
  0.8760796135284931  0.7502538060976575  0.1830403329085422   T   T   T
  0.1285856280456658  0.9948429437946372  0.2706537949637659   T   T   T
  0.6292890781692209  0.9927569114608873  0.2699214649858816   T   T   T
  0.1232578267611832  0.5000031054140431  0.2757263392960971   T   T   T
  0.6272747349591007  0.5001213032852468  0.2760918641880488   T   T   T
  0.3752756352732014  0.0016821765550491  0.2761968386095077   T   T   T
  0.8761163410874441  0.0013908700631444  0.2756192064548961   T   T   T
  0.3731131519717564  0.5033884603273717  0.2867054922067632   T   T   T
  0.8753145818499166  0.5009696116071031  0.2749607752922725   T   T   T
  0.4945913625090563  0.2632806489371557  0.2701746087750895   T   T   T
  0.9956527847095726  0.2593931350844462  0.2711833969538355   T   T   T
  0.0005524762918203  0.7517451486851322  0.2754455239949837   T   T   T
  0.5001583257335845  0.7485967375591781  0.2765748543069623   T   T   T
  0.2509781368803660  0.2524275020762251  0.2759258816465326   T   T   T
  0.7501023069920265  0.2493356734815419  0.2759622480395917   T   T   T
  0.2517242072644753  0.7473639856955862  0.2752444030013736   T   T   T
  0.7518997401258670  0.7488632678727900  0.2745789416458034   T   T   T
  0.0532240044573125  0.1467844035907883  0.3513896028507011   T   T   T
  0.5616379707165603  0.1295012401708022  0.3567514205073919   T   T   T
  0.3793117344846939  0.5003167615600131  0.3611829065418831   T   T   T
 
  0.00000000E+00  0.00000000E+00  0.00000000E+00
  0.00000000E+00  0.00000000E+00  0.00000000E+00
  0.00000000E+00  0.00000000E+00  0.00000000E+00
  0.00000000E+00  0.00000000E+00  0.00000000E+00
  0.00000000E+00  0.00000000E+00  0.00000000E+00
  0.00000000E+00  0.00000000E+00  0.00000000E+00
  0.00000000E+00  0.00000000E+00  0.00000000E+00
  0.00000000E+00  0.00000000E+00  0.00000000E+00
  0.00000000E+00  0.00000000E+00  0.00000000E+00
  0.00000000E+00  0.00000000E+00  0.00000000E+00
  0.00000000E+00  0.00000000E+00  0.00000000E+00
  0.00000000E+00  0.00000000E+00  0.00000000E+00
  0.00000000E+00  0.00000000E+00  0.00000000E+00
  0.00000000E+00  0.00000000E+00  0.00000000E+00
  0.00000000E+00  0.00000000E+00  0.00000000E+00
  0.00000000E+00  0.00000000E+00  0.00000000E+00
  0.00000000E+00  0.00000000E+00  0.00000000E+00
  0.00000000E+00  0.00000000E+00  0.00000000E+00
  0.00000000E+00  0.00000000E+00  0.00000000E+00
  0.00000000E+00  0.00000000E+00  0.00000000E+00
  0.00000000E+00  0.00000000E+00  0.00000000E+00
  0.00000000E+00  0.00000000E+00  0.00000000E+00
  0.00000000E+00  0.00000000E+00  0.00000000E+00
  0.00000000E+00  0.00000000E+00  0.00000000E+00
  0.00000000E+00  0.00000000E+00  0.00000000E+00
  0.00000000E+00  0.00000000E+00  0.00000000E+00
  0.00000000E+00  0.00000000E+00  0.00000000E+00
  0.00000000E+00  0.00000000E+00  0.00000000E+00
  0.00000000E+00  0.00000000E+00  0.00000000E+00
  0.00000000E+00  0.00000000E+00  0.00000000E+00
  0.00000000E+00  0.00000000E+00  0.00000000E+00
  0.00000000E+00  0.00000000E+00  0.00000000E+00
  0.00000000E+00  0.00000000E+00  0.00000000E+00
  0.00000000E+00  0.00000000E+00  0.00000000E+00
  0.00000000E+00  0.00000000E+00  0.00000000E+00
  0.00000000E+00  0.00000000E+00  0.00000000E+00
  0.00000000E+00  0.00000000E+00  0.00000000E+00
  0.00000000E+00  0.00000000E+00  0.00000000E+00
  0.00000000E+00  0.00000000E+00  0.00000000E+00
  0.00000000E+00  0.00000000E+00  0.00000000E+00
  0.00000000E+00  0.00000000E+00  0.00000000E+00
  0.00000000E+00  0.00000000E+00  0.00000000E+00
  0.00000000E+00  0.00000000E+00  0.00000000E+00
  0.00000000E+00  0.00000000E+00  0.00000000E+00
  0.00000000E+00  0.00000000E+00  0.00000000E+00
  0.00000000E+00  0.00000000E+00  0.00000000E+00
  0.00000000E+00  0.00000000E+00  0.00000000E+00
  0.00000000E+00  0.00000000E+00  0.00000000E+00
  0.00000000E+00  0.00000000E+00  0.00000000E+00
  0.00000000E+00  0.00000000E+00  0.00000000E+00
  0.00000000E+00  0.00000000E+00  0.00000000E+00
  0.00000000E+00  0.00000000E+00  0.00000000E+00
  0.00000000E+00  0.00000000E+00  0.00000000E+00
  0.00000000E+00  0.00000000E+00  0.00000000E+00
  0.00000000E+00  0.00000000E+00  0.00000000E+00
  0.00000000E+00  0.00000000E+00  0.00000000E+00
  0.00000000E+00  0.00000000E+00  0.00000000E+00
  0.00000000E+00  0.00000000E+00  0.00000000E+00
  0.00000000E+00  0.00000000E+00  0.00000000E+00
  0.00000000E+00  0.00000000E+00  0.00000000E+00
  0.00000000E+00  0.00000000E+00  0.00000000E+00
  0.00000000E+00  0.00000000E+00  0.00000000E+00
  0.00000000E+00  0.00000000E+00  0.00000000E+00
  0.00000000E+00  0.00000000E+00  0.00000000E+00
  0.00000000E+00  0.00000000E+00  0.00000000E+00
  0.00000000E+00  0.00000000E+00  0.00000000E+00
  0.00000000E+00  0.00000000E+00  0.00000000E+00
  0.00000000E+00  0.00000000E+00  0.00000000E+00
  0.00000000E+00  0.00000000E+00  0.00000000E+00
  0.00000000E+00  0.00000000E+00  0.00000000E+00
  0.00000000E+00  0.00000000E+00  0.00000000E+00
  0.00000000E+00  0.00000000E+00  0.00000000E+00
  0.00000000E+00  0.00000000E+00  0.00000000E+00
  0.00000000E+00  0.00000000E+00  0.00000000E+00
  0.00000000E+00  0.00000000E+00  0.00000000E+00
  0.00000000E+00  0.00000000E+00  0.00000000E+00
  0.00000000E+00  0.00000000E+00  0.00000000E+00
  0.00000000E+00  0.00000000E+00  0.00000000E+00
  0.00000000E+00  0.00000000E+00  0.00000000E+00
  0.00000000E+00  0.00000000E+00  0.00000000E+00
  0.00000000E+00  0.00000000E+00  0.00000000E+00
  0.00000000E+00  0.00000000E+00  0.00000000E+00
  0.00000000E+00  0.00000000E+00  0.00000000E+00
  0.00000000E+00  0.00000000E+00  0.00000000E+00
  0.00000000E+00  0.00000000E+00  0.00000000E+00
  0.00000000E+00  0.00000000E+00  0.00000000E+00
  0.00000000E+00  0.00000000E+00  0.00000000E+00
  0.00000000E+00  0.00000000E+00  0.00000000E+00
  0.00000000E+00  0.00000000E+00  0.00000000E+00
  0.00000000E+00  0.00000000E+00  0.00000000E+00
  0.00000000E+00  0.00000000E+00  0.00000000E+00
  0.00000000E+00  0.00000000E+00  0.00000000E+00
  0.00000000E+00  0.00000000E+00  0.00000000E+00
  0.00000000E+00  0.00000000E+00  0.00000000E+00
  0.00000000E+00  0.00000000E+00  0.00000000E+00
  0.00000000E+00  0.00000000E+00  0.00000000E+00
  0.00000000E+00  0.00000000E+00  0.00000000E+00
  0.00000000E+00  0.00000000E+00  0.00000000E+00
  0.00000000E+00  0.00000000E+00  0.00000000E+00
  0.00000000E+00  0.00000000E+00  0.00000000E+00
  0.00000000E+00  0.00000000E+00  0.00000000E+00
  0.00000000E+00  0.00000000E+00  0.00000000E+00
  0.00000000E+00  0.00000000E+00  0.00000000E+00
  0.00000000E+00  0.00000000E+00  0.00000000E+00
  0.00000000E+00  0.00000000E+00  0.00000000E+00
  0.00000000E+00  0.00000000E+00  0.00000000E+00
  0.00000000E+00  0.00000000E+00  0.00000000E+00
  0.00000000E+00  0.00000000E+00  0.00000000E+00
  0.00000000E+00  0.00000000E+00  0.00000000E+00
  0.00000000E+00  0.00000000E+00  0.00000000E+00
  0.00000000E+00  0.00000000E+00  0.00000000E+00
  0.00000000E+00  0.00000000E+00  0.00000000E+00
  0.00000000E+00  0.00000000E+00  0.00000000E+00
  0.00000000E+00  0.00000000E+00  0.00000000E+00
  0.00000000E+00  0.00000000E+00  0.00000000E+00
  0.00000000E+00  0.00000000E+00  0.00000000E+00
  0.00000000E+00  0.00000000E+00  0.00000000E+00
  0.00000000E+00  0.00000000E+00  0.00000000E+00
  0.00000000E+00  0.00000000E+00  0.00000000E+00
  0.00000000E+00  0.00000000E+00  0.00000000E+00
  0.00000000E+00  0.00000000E+00  0.00000000E+00
  0.00000000E+00  0.00000000E+00  0.00000000E+00
  0.00000000E+00  0.00000000E+00  0.00000000E+00
  0.00000000E+00  0.00000000E+00  0.00000000E+00
  0.00000000E+00  0.00000000E+00  0.00000000E+00
  0.00000000E+00  0.00000000E+00  0.00000000E+00
  0.00000000E+00  0.00000000E+00  0.00000000E+00
  0.00000000E+00  0.00000000E+00  0.00000000E+00
  0.00000000E+00  0.00000000E+00  0.00000000E+00
  0.00000000E+00  0.00000000E+00  0.00000000E+00
  0.00000000E+00  0.00000000E+00  0.00000000E+00
  0.00000000E+00  0.00000000E+00  0.00000000E+00
  0.00000000E+00  0.00000000E+00  0.00000000E+00
