H Mg O                                  
   1.00000000000000     
    16.8282433949600012    0.0000000000000000    0.0000000000000000
     0.0000000000000000    8.4141216974800006    0.0000000000000000
     0.0000000000000000    0.0000000000000000   23.4141216974799988
   H    Mg   O 
     2    64    66
Selective dynamics
Direct
  0.0162148417290027  0.2248341785750014  0.3723816816649972   T   T   T
  0.5162148417290027  0.2248341785750014  0.3723816816649972   T   T   T
  0.1261199676239997  0.9993498234429978  0.0036812300940028   T   T   T
  0.6261199676239997  0.9993498234429978  0.0036812300940028   T   T   T
  0.1260585287270004  0.4994469723880002  0.0036103846230020   T   T   T
  0.6260585287270004  0.4994469723880002  0.0036103846230020   T   T   T
  0.3760606227159968  0.9994695419989981  0.0036171596700001   T   T   T
  0.8760606227159968  0.9994695419989981  0.0036171596700001   T   T   T
  0.3759731703590035  0.4996294177369975  0.0036102287159991   T   T   T
  0.8759731703590035  0.4996294177369975  0.0036102287159991   T   T   T
  0.0010409611450015  0.2495380050400016  0.0034354507720025   T   T   T
  0.5010409611450015  0.2495380050400016  0.0034354507720025   T   T   T
  0.0010646333229971  0.7495705738390015  0.0035569468760031   T   T   T
  0.5010646333229971  0.7495705738390015  0.0035569468760031   T   T   T
  0.2510375590680027  0.2494641573910030  0.0035477825740031   T   T   T
  0.7510375590680027  0.2494641573910030  0.0035477825740031   T   T   T
  0.2510657475559981  0.7494806580830016  0.0036902869870019   T   T   T
  0.7510657475559981  0.7494806580830016  0.0036902869870019   T   T   T
  0.0010735463470013  0.9992026582299971  0.0929618713529976   T   T   T
  0.5010735463470013  0.9992026582299971  0.0929618713529976   T   T   T
  0.0010463840390003  0.5001438716370004  0.0929125453690034   T   T   T
  0.5010463840390003  0.5001438716370004  0.0929125453690034   T   T   T
  0.2512953307929990  0.9994696133150001  0.0932166945850028   T   T   T
  0.7512953307929990  0.9994696133150001  0.0932166945850028   T   T   T
  0.2509184219209999  0.4994498934259965  0.0931442224090020   T   T   T
  0.7509184219209999  0.4994498934259965  0.0931442224090020   T   T   T
  0.1262314759789973  0.2495052050100028  0.0929641184239998   T   T   T
  0.6262314759789973  0.2495052050100028  0.0929641184239998   T   T   T
  0.1260769536919994  0.7490564584419985  0.0932228929629986   T   T   T
  0.6260769536919994  0.7490564584419985  0.0932228929629986   T   T   T
  0.3757509592520023  0.2495497785170002  0.0929186167560019   T   T   T
  0.8757509592520023  0.2495497785170002  0.0929186167560019   T   T   T
  0.3760741457370003  0.7497872258970020  0.0931587586539990   T   T   T
  0.8760741457370003  0.7497872258970020  0.0931587586539990   T   T   T
  0.1258224988349994  0.0000325894829984  0.1837840748040023   T   T   T
  0.6258224988349994  0.0000325894829984  0.1837840748040023   T   T   T
  0.1258278222190015  0.4977417202480012  0.1841245317939979   T   T   T
  0.6258278222190015  0.4977417202480012  0.1841245317939979   T   T   T
  0.3769416779939974  0.0000198314100004  0.1841335798159989   T   T   T
  0.8769416779939974  0.0000198314100004  0.1841335798159989   T   T   T
  0.3758190788109985  0.4999791553860007  0.1836760817439966   T   T   T
  0.8758190788109985  0.4999791553860007  0.1836760817439966   T   T   T
  0.0018427785170019  0.2480910068929987  0.1815606587080012   T   T   T
  0.5018427785170019  0.2480910068929987  0.1815606587080012   T   T   T
  0.0012144484449976  0.7524677726820030  0.1838084456099978   T   T   T
  0.5012144484449976  0.7524677726820030  0.1838084456099978   T   T   T
  0.2495935848800030  0.2492397498480017  0.1838167373219974   T   T   T
  0.7495935848800030  0.2492397498480017  0.1838167373219974   T   T   T
  0.2510137884099990  0.7496409696160029  0.1834112990350008   T   T   T
  0.7510137884099990  0.7496409696160029  0.1834112990350008   T   T   T
  0.0030512791630031  0.9994152129980023  0.2788373394029975   T   T   T
  0.5030512791630031  0.9994152129980023  0.2788373394029975   T   T   T
  0.0007347065429997  0.5077587633600018  0.2725481615679968   T   T   T
  0.5007347065429997  0.5077587633600018  0.2725481615679968   T   T   T
  0.2507912089590008  0.9981931988199975  0.2724747237850025   T   T   T
  0.7507912089590008  0.9981931988199975  0.2724747237850025   T   T   T
  0.2502087379159974  0.5005162859900025  0.2731410902430014   T   T   T
  0.7502087379159974  0.5005162859900025  0.2731410902430014   T   T   T
  0.1263870992920033  0.2458321380199990  0.2789349340489977   T   T   T
  0.6263870992920033  0.2458321380199990  0.2789349340489977   T   T   T
  0.1266887289270002  0.7501062056009999  0.2724444173789990   T   T   T
  0.6266887289270002  0.7501062056009999  0.2724444173789990   T   T   T
  0.3719145541410001  0.2501510115969978  0.2726035292220033   T   T   T
  0.8719145541410001  0.2501510115969978  0.2726035292220033   T   T   T
  0.3756385586270028  0.7513452582370022  0.2731584008749977   T   T   T
  0.8756385586270028  0.7513452582370022  0.2731584008749977   T   T   T
  0.0011034537670014  0.9994632466070001  0.0013782181479982   T   T   T
  0.5011034537670014  0.9994632466070001  0.0013782181479982   T   T   T
  0.0010133659540017  0.4996523106149979  0.0013779516839989   T   T   T
  0.5010133659540017  0.4996523106149979  0.0013779516839989   T   T   T
  0.2510952020359980  0.9994806160880003  0.0015120934659976   T   T   T
  0.7510952020359980  0.9994806160880003  0.0015120934659976   T   T   T
  0.2510417508569986  0.4994653591840006  0.0014596621199985   T   T   T
  0.7510417508569986  0.4994653591840006  0.0014596621199985   T   T   T
  0.1260848039930025  0.2494110739660016  0.0013478534750035   T   T   T
  0.6260848039930025  0.2494110739660016  0.0013478534750035   T   T   T
  0.1260606596329978  0.7494082302830023  0.0014998776290014   T   T   T
  0.6260606596329978  0.7494082302830023  0.0014998776290014   T   T   T
  0.3760036147790018  0.2495911740089980  0.0013565277030025   T   T   T
  0.8760036147790018  0.2495911740089980  0.0013565277030025   T   T   T
  0.3760721639630020  0.7495233657259988  0.0014569375570019   T   T   T
  0.8760721639630020  0.7495233657259988  0.0014569375570019   T   T   T
  0.1260555056249970  0.9995390507340005  0.0933814182250003   T   T   T
  0.6260555056249970  0.9995390507340005  0.0933814182250003   T   T   T
  0.1259129924210001  0.4990038675190007  0.0932968247630015   T   T   T
  0.6259129924210001  0.4990038675190007  0.0932968247630015   T   T   T
  0.3763094582830036  0.9998111732620032  0.0933057551299967   T   T   T
  0.8763094582830036  0.9998111732620032  0.0933057551299967   T   T   T
  0.3760507430299995  0.4995355000259991  0.0934359818970023   T   T   T
  0.8760507430299995  0.4995355000259991  0.0934359818970023   T   T   T
  0.0009532207619998  0.2497394354380020  0.0929719889809988   T   T   T
  0.5009532207619998  0.2497394354380020  0.0929719889809988   T   T   T
  0.0009821026679973  0.7495915912990014  0.0934183941170019   T   T   T
  0.5009821026679973  0.7495915912990014  0.0934183941170019   T   T   T
  0.2510291835369998  0.2496382011649985  0.0934166851570026   T   T   T
  0.7510291835369998  0.2496382011649985  0.0934166851570026   T   T   T
  0.2511654797609992  0.7492740142750023  0.0933544567480027   T   T   T
  0.7511654797609992  0.7492740142750023  0.0933544567480027   T   T   T
  0.0008895441839982  0.0008523280580022  0.1837277142300024   T   T   T
  0.5008895441839982  0.0008523280580022  0.1837277142300024   T   T   T
  0.0007148869679980  0.4994105971980005  0.1835119557580001   T   T   T
  0.5007148869679980  0.4994105971980005  0.1835119557580001   T   T   T
  0.2520233439970028  0.9997482619190023  0.1828592984790021   T   T   T
  0.7520233439970028  0.9997482619190023  0.1828592984790021   T   T   T
  0.2509374446370032  0.4991364572999970  0.1834630497359981   T   T   T
  0.7509374446370032  0.4991364572999970  0.1834630497359981   T   T   T
  0.1254416384989980  0.2499045900329975  0.1837322558760022   T   T   T
  0.6254416384989980  0.2499045900329975  0.1837322558760022   T   T   T
  0.1259465390790027  0.7476147144289982  0.1828465838189999   T   T   T
  0.6259465390790027  0.7476147144289982  0.1828465838189999   T   T   T
  0.3761515322459985  0.2502200241220010  0.1835226549199973   T   T   T
  0.8761515322459985  0.2502200241220010  0.1835226549199973   T   T   T
  0.3762581909760030  0.7498047079890000  0.1834536016460007   T   T   T
  0.8762581909760030  0.7498047079890000  0.1834536016460007   T   T   T
  0.1283138818199987  0.9949583460989970  0.2713297332370033   T   T   T
  0.6283138818199987  0.9949583460989970  0.2713297332370033   T   T   T
  0.1251311588999968  0.4995533705129986  0.2759073560349989   T   T   T
  0.6251311588999968  0.4995533705129986  0.2759073560349989   T   T   T
  0.3761119282870027  0.0013744967080029  0.2759366917729977   T   T   T
  0.8761119282870027  0.0013744967080029  0.2759366917729977   T   T   T
  0.3755836353110027  0.5005696176669971  0.2755242448399997   T   T   T
  0.8755836353110027  0.5005696176669971  0.2755242448399997   T   T   T
  0.4957321477140013  0.2599274440369967  0.2721419628320021   T   T   T
  0.9957321477140013  0.2599274440369967  0.2721419628320021   T   T   T
  0.0008817853969987  0.7511621892570020  0.2757013102569985   T   T   T
  0.5008817853969987  0.7511621892570020  0.2757013102569985   T   T   T
  0.2503249874240012  0.2499147393629997  0.2757091480110034   T   T   T
  0.7503249874240012  0.2499147393629997  0.2757091480110034   T   T   T
  0.2514280091009979  0.7488188245879996  0.2749577792559990   T   T   T
  0.7514280091009979  0.7488188245879996  0.2749577792559990   T   T   T
  0.0496017418370016  0.1562698940039979  0.3488519975649993   T   T   T
  0.5496017418370016  0.1562698940039979  0.3488519975649993   T   T   T
 
  0.00000000E+00  0.00000000E+00  0.00000000E+00
  0.00000000E+00  0.00000000E+00  0.00000000E+00
  0.00000000E+00  0.00000000E+00  0.00000000E+00
  0.00000000E+00  0.00000000E+00  0.00000000E+00
  0.00000000E+00  0.00000000E+00  0.00000000E+00
  0.00000000E+00  0.00000000E+00  0.00000000E+00
  0.00000000E+00  0.00000000E+00  0.00000000E+00
  0.00000000E+00  0.00000000E+00  0.00000000E+00
  0.00000000E+00  0.00000000E+00  0.00000000E+00
  0.00000000E+00  0.00000000E+00  0.00000000E+00
  0.00000000E+00  0.00000000E+00  0.00000000E+00
  0.00000000E+00  0.00000000E+00  0.00000000E+00
  0.00000000E+00  0.00000000E+00  0.00000000E+00
  0.00000000E+00  0.00000000E+00  0.00000000E+00
  0.00000000E+00  0.00000000E+00  0.00000000E+00
  0.00000000E+00  0.00000000E+00  0.00000000E+00
  0.00000000E+00  0.00000000E+00  0.00000000E+00
  0.00000000E+00  0.00000000E+00  0.00000000E+00
  0.00000000E+00  0.00000000E+00  0.00000000E+00
  0.00000000E+00  0.00000000E+00  0.00000000E+00
  0.00000000E+00  0.00000000E+00  0.00000000E+00
  0.00000000E+00  0.00000000E+00  0.00000000E+00
  0.00000000E+00  0.00000000E+00  0.00000000E+00
  0.00000000E+00  0.00000000E+00  0.00000000E+00
  0.00000000E+00  0.00000000E+00  0.00000000E+00
  0.00000000E+00  0.00000000E+00  0.00000000E+00
  0.00000000E+00  0.00000000E+00  0.00000000E+00
  0.00000000E+00  0.00000000E+00  0.00000000E+00
  0.00000000E+00  0.00000000E+00  0.00000000E+00
  0.00000000E+00  0.00000000E+00  0.00000000E+00
  0.00000000E+00  0.00000000E+00  0.00000000E+00
  0.00000000E+00  0.00000000E+00  0.00000000E+00
  0.00000000E+00  0.00000000E+00  0.00000000E+00
  0.00000000E+00  0.00000000E+00  0.00000000E+00
  0.00000000E+00  0.00000000E+00  0.00000000E+00
  0.00000000E+00  0.00000000E+00  0.00000000E+00
  0.00000000E+00  0.00000000E+00  0.00000000E+00
  0.00000000E+00  0.00000000E+00  0.00000000E+00
  0.00000000E+00  0.00000000E+00  0.00000000E+00
  0.00000000E+00  0.00000000E+00  0.00000000E+00
  0.00000000E+00  0.00000000E+00  0.00000000E+00
  0.00000000E+00  0.00000000E+00  0.00000000E+00
  0.00000000E+00  0.00000000E+00  0.00000000E+00
  0.00000000E+00  0.00000000E+00  0.00000000E+00
  0.00000000E+00  0.00000000E+00  0.00000000E+00
  0.00000000E+00  0.00000000E+00  0.00000000E+00
  0.00000000E+00  0.00000000E+00  0.00000000E+00
  0.00000000E+00  0.00000000E+00  0.00000000E+00
  0.00000000E+00  0.00000000E+00  0.00000000E+00
  0.00000000E+00  0.00000000E+00  0.00000000E+00
  0.00000000E+00  0.00000000E+00  0.00000000E+00
  0.00000000E+00  0.00000000E+00  0.00000000E+00
  0.00000000E+00  0.00000000E+00  0.00000000E+00
  0.00000000E+00  0.00000000E+00  0.00000000E+00
  0.00000000E+00  0.00000000E+00  0.00000000E+00
  0.00000000E+00  0.00000000E+00  0.00000000E+00
  0.00000000E+00  0.00000000E+00  0.00000000E+00
  0.00000000E+00  0.00000000E+00  0.00000000E+00
  0.00000000E+00  0.00000000E+00  0.00000000E+00
  0.00000000E+00  0.00000000E+00  0.00000000E+00
  0.00000000E+00  0.00000000E+00  0.00000000E+00
  0.00000000E+00  0.00000000E+00  0.00000000E+00
  0.00000000E+00  0.00000000E+00  0.00000000E+00
  0.00000000E+00  0.00000000E+00  0.00000000E+00
  0.00000000E+00  0.00000000E+00  0.00000000E+00
  0.00000000E+00  0.00000000E+00  0.00000000E+00
  0.00000000E+00  0.00000000E+00  0.00000000E+00
  0.00000000E+00  0.00000000E+00  0.00000000E+00
  0.00000000E+00  0.00000000E+00  0.00000000E+00
  0.00000000E+00  0.00000000E+00  0.00000000E+00
  0.00000000E+00  0.00000000E+00  0.00000000E+00
  0.00000000E+00  0.00000000E+00  0.00000000E+00
  0.00000000E+00  0.00000000E+00  0.00000000E+00
  0.00000000E+00  0.00000000E+00  0.00000000E+00
  0.00000000E+00  0.00000000E+00  0.00000000E+00
  0.00000000E+00  0.00000000E+00  0.00000000E+00
  0.00000000E+00  0.00000000E+00  0.00000000E+00
  0.00000000E+00  0.00000000E+00  0.00000000E+00
  0.00000000E+00  0.00000000E+00  0.00000000E+00
  0.00000000E+00  0.00000000E+00  0.00000000E+00
  0.00000000E+00  0.00000000E+00  0.00000000E+00
  0.00000000E+00  0.00000000E+00  0.00000000E+00
  0.00000000E+00  0.00000000E+00  0.00000000E+00
  0.00000000E+00  0.00000000E+00  0.00000000E+00
  0.00000000E+00  0.00000000E+00  0.00000000E+00
  0.00000000E+00  0.00000000E+00  0.00000000E+00
  0.00000000E+00  0.00000000E+00  0.00000000E+00
  0.00000000E+00  0.00000000E+00  0.00000000E+00
  0.00000000E+00  0.00000000E+00  0.00000000E+00
  0.00000000E+00  0.00000000E+00  0.00000000E+00
  0.00000000E+00  0.00000000E+00  0.00000000E+00
  0.00000000E+00  0.00000000E+00  0.00000000E+00
  0.00000000E+00  0.00000000E+00  0.00000000E+00
  0.00000000E+00  0.00000000E+00  0.00000000E+00
  0.00000000E+00  0.00000000E+00  0.00000000E+00
  0.00000000E+00  0.00000000E+00  0.00000000E+00
  0.00000000E+00  0.00000000E+00  0.00000000E+00
  0.00000000E+00  0.00000000E+00  0.00000000E+00
  0.00000000E+00  0.00000000E+00  0.00000000E+00
  0.00000000E+00  0.00000000E+00  0.00000000E+00
  0.00000000E+00  0.00000000E+00  0.00000000E+00
  0.00000000E+00  0.00000000E+00  0.00000000E+00
  0.00000000E+00  0.00000000E+00  0.00000000E+00
  0.00000000E+00  0.00000000E+00  0.00000000E+00
  0.00000000E+00  0.00000000E+00  0.00000000E+00
  0.00000000E+00  0.00000000E+00  0.00000000E+00
  0.00000000E+00  0.00000000E+00  0.00000000E+00
  0.00000000E+00  0.00000000E+00  0.00000000E+00
  0.00000000E+00  0.00000000E+00  0.00000000E+00
  0.00000000E+00  0.00000000E+00  0.00000000E+00
  0.00000000E+00  0.00000000E+00  0.00000000E+00
  0.00000000E+00  0.00000000E+00  0.00000000E+00
  0.00000000E+00  0.00000000E+00  0.00000000E+00
  0.00000000E+00  0.00000000E+00  0.00000000E+00
  0.00000000E+00  0.00000000E+00  0.00000000E+00
  0.00000000E+00  0.00000000E+00  0.00000000E+00
  0.00000000E+00  0.00000000E+00  0.00000000E+00
  0.00000000E+00  0.00000000E+00  0.00000000E+00
  0.00000000E+00  0.00000000E+00  0.00000000E+00
  0.00000000E+00  0.00000000E+00  0.00000000E+00
  0.00000000E+00  0.00000000E+00  0.00000000E+00
  0.00000000E+00  0.00000000E+00  0.00000000E+00
  0.00000000E+00  0.00000000E+00  0.00000000E+00
  0.00000000E+00  0.00000000E+00  0.00000000E+00
  0.00000000E+00  0.00000000E+00  0.00000000E+00
  0.00000000E+00  0.00000000E+00  0.00000000E+00
  0.00000000E+00  0.00000000E+00  0.00000000E+00
  0.00000000E+00  0.00000000E+00  0.00000000E+00
  0.00000000E+00  0.00000000E+00  0.00000000E+00
  0.00000000E+00  0.00000000E+00  0.00000000E+00
  0.00000000E+00  0.00000000E+00  0.00000000E+00
  0.00000000E+00  0.00000000E+00  0.00000000E+00
