B Ca Cu O                               
   1.00000000000000     
     9.6048500000000008    0.0000000000000000    0.0000000000000000
     0.0000000000000000    9.6048500000000008    0.0000000000000000
     0.0000000000000000    0.0000000000000000   24.6048000000000009
   B    Ca   Cu   O 
     1    31     1    32
Selective dynamics
Direct
  0.0638439215208929  0.4400855703495646  0.3570949300269350   T   T   T
  0.2479404397587746  0.9963441072740769  0.0979733533647403   T   T   T
  0.7465779519133752  0.9961568655735090  0.0991564981971426   T   T   T
 -0.0028358089715866  0.2454502995499044  0.0978423485195882   T   T   T
  0.4980529225063696  0.2459068959004481  0.0982631602533423   T   T   T
  0.2491770970684170  0.4968079066187231  0.0977338928417996   T   T   T
  0.7474568677021194  0.4967451382485780  0.0986089280689360   T   T   T
 -0.0029113552382469  0.7471113847119719  0.0985454874430949   T   T   T
  0.4982601328746361  0.7470949714203259  0.0992356477435329   T   T   T
 -0.0036360296032026  0.9938948001478149  0.1950147399174326   T   T   T
  0.4978424356319209  0.9967519158659786  0.1962354171946414   T   T   T
  0.2497448643338615  0.2451299173473765  0.1944267713678361   T   T   T
  0.7456210962664670  0.2466651067157101  0.1958299575823910   T   T   T
 -0.0022660900768679  0.4973487439833536  0.1927223208296139   T   T   T
  0.5022550898177258  0.4969315149954296  0.1951952049801357   T   T   T
  0.2478131094671637  0.7493041669174799  0.1951507230247838   T   T   T
  0.7478108139425627  0.7464367694256331  0.1972157090353318   T   T   T
  0.2466168810333925  0.9983206683912280  0.2936389413380604   T   T   T
  0.7461407694627974  0.9979555665680542  0.2957410878195145   T   T   T
  0.9951615120200077  0.2370971452279572  0.2877528785473514   T   T   T
  0.4986759525669250  0.2458426298018980  0.2956745799342674   T   T   T
  0.2597928613014953  0.4999794829579158  0.2867795166088329   T   T   T
  0.7473175285628573  0.4954269300513951  0.2981078673330852   T   T   T
  0.9963163937996510  0.7515688153020340  0.2967585133817243   T   T   T
  0.4982598771497835  0.7493126738196172  0.2956906819830706   T   T   T
  0.9870957598828647 -0.0021176877841459  0.3966512750727654   T   T   T
  0.4980332495419801  0.9953595090872731  0.3923742442302288   T   T   T
  0.2453180815433620  0.2382012591143317  0.3941168765756589   T   T   T
  0.7524046346520701  0.2641687364289836  0.3981196748223539   T   T   T
  0.4933004958117278  0.5006051506245277  0.3911801095652820   T   T   T
  0.2295172600805426  0.7528765115820403  0.3904810396041301   T   T   T
  0.7574818005330770  0.7375182474151434  0.3943987072324954   T   T   T
  0.9541507647879478  0.1728693690181192  0.4925037117945076   T   T   T
 -0.0030267735500178  0.9958914328072478  0.0992169618555291   T   T   T
  0.4974520647251759  0.9963626464002494  0.0994757424889374   T   T   T
  0.2475529962863038  0.2465877589992596  0.0981457774594055   T   T   T
  0.7475827896801898  0.2471670466309664  0.0990659134229228   T   T   T
 -0.0025717087662014  0.4966270888501028  0.0995127245976627   T   T   T
  0.4988869586055257  0.4965807748725035  0.0994535515716824   T   T   T
  0.2473812400795631  0.7464728589603946  0.0988351937029568   T   T   T
  0.7480212488366439  0.7459173798389289  0.0999947528492520   T   T   T
  0.2466559655905232  0.9970604563473158  0.1938199999356536   T   T   T
  0.7473558283651005  0.9967442663605676  0.1947522868254291   T   T   T
 -0.0023510435785866  0.2490230684407012  0.1936385626348435   T   T   T
  0.4979264630145683  0.2474251469574226  0.1945320934673049   T   T   T
  0.2465912256523511  0.4970259992562756  0.1933237122184290   T   T   T
  0.7514053448550433  0.4965441995089530  0.1959278895993886   T   T   T
 -0.0023543981826940  0.7439278406750148  0.1955465347492786   T   T   T
  0.4977589874440943  0.7460911952601509  0.1952635956151260   T   T   T
 -0.0041507070102482  0.0006476737656956  0.2926594787795305   T   T   T
  0.4965395625714159  0.9973827539613027  0.2940272423666383   T   T   T
  0.2474872745684611  0.2480572166343601  0.2919016187560013   T   T   T
  0.7493810373185060  0.2491444873542157  0.2936784395999070   T   T   T
  0.0121130970201813  0.4934372796876423  0.3059493256962485   T   T   T
  0.4962886369541358  0.4977074012019779  0.2936390859034411   T   T   T
  0.2459123405456754  0.7472283149371109  0.2926885606462744   T   T   T
  0.7492474707011729  0.7436845828763209  0.2948777415308418   T   T   T
  0.2417654754232025  0.0014542018078955  0.3873595379494332   T   T   T
  0.7402806478174873  0.0023419145258032  0.3877951378708411   T   T   T
  0.0083543420760732  0.3160323033110817  0.3758422171875148   T   T   T
  0.4851797627117393  0.2529713268078061  0.3907692094887903   T   T   T
  0.1901703423269161  0.4915406696762757  0.3778932212722259   T   T   T
  0.7162616722889853  0.5003511838895647  0.3889680403702880   T   T   T
  0.9915971804546942  0.7739754313993152  0.3880159530082676   T   T   T
  0.4791660324251120  0.7453454884973283  0.3901772195804055   T   T   T
 
  0.00000000E+00  0.00000000E+00  0.00000000E+00
  0.00000000E+00  0.00000000E+00  0.00000000E+00
  0.00000000E+00  0.00000000E+00  0.00000000E+00
  0.00000000E+00  0.00000000E+00  0.00000000E+00
  0.00000000E+00  0.00000000E+00  0.00000000E+00
  0.00000000E+00  0.00000000E+00  0.00000000E+00
  0.00000000E+00  0.00000000E+00  0.00000000E+00
  0.00000000E+00  0.00000000E+00  0.00000000E+00
  0.00000000E+00  0.00000000E+00  0.00000000E+00
  0.00000000E+00  0.00000000E+00  0.00000000E+00
  0.00000000E+00  0.00000000E+00  0.00000000E+00
  0.00000000E+00  0.00000000E+00  0.00000000E+00
  0.00000000E+00  0.00000000E+00  0.00000000E+00
  0.00000000E+00  0.00000000E+00  0.00000000E+00
  0.00000000E+00  0.00000000E+00  0.00000000E+00
  0.00000000E+00  0.00000000E+00  0.00000000E+00
  0.00000000E+00  0.00000000E+00  0.00000000E+00
  0.00000000E+00  0.00000000E+00  0.00000000E+00
  0.00000000E+00  0.00000000E+00  0.00000000E+00
  0.00000000E+00  0.00000000E+00  0.00000000E+00
  0.00000000E+00  0.00000000E+00  0.00000000E+00
  0.00000000E+00  0.00000000E+00  0.00000000E+00
  0.00000000E+00  0.00000000E+00  0.00000000E+00
  0.00000000E+00  0.00000000E+00  0.00000000E+00
  0.00000000E+00  0.00000000E+00  0.00000000E+00
  0.00000000E+00  0.00000000E+00  0.00000000E+00
  0.00000000E+00  0.00000000E+00  0.00000000E+00
  0.00000000E+00  0.00000000E+00  0.00000000E+00
  0.00000000E+00  0.00000000E+00  0.00000000E+00
  0.00000000E+00  0.00000000E+00  0.00000000E+00
  0.00000000E+00  0.00000000E+00  0.00000000E+00
  0.00000000E+00  0.00000000E+00  0.00000000E+00
  0.00000000E+00  0.00000000E+00  0.00000000E+00
  0.00000000E+00  0.00000000E+00  0.00000000E+00
  0.00000000E+00  0.00000000E+00  0.00000000E+00
  0.00000000E+00  0.00000000E+00  0.00000000E+00
  0.00000000E+00  0.00000000E+00  0.00000000E+00
  0.00000000E+00  0.00000000E+00  0.00000000E+00
  0.00000000E+00  0.00000000E+00  0.00000000E+00
  0.00000000E+00  0.00000000E+00  0.00000000E+00
  0.00000000E+00  0.00000000E+00  0.00000000E+00
  0.00000000E+00  0.00000000E+00  0.00000000E+00
  0.00000000E+00  0.00000000E+00  0.00000000E+00
  0.00000000E+00  0.00000000E+00  0.00000000E+00
  0.00000000E+00  0.00000000E+00  0.00000000E+00
  0.00000000E+00  0.00000000E+00  0.00000000E+00
  0.00000000E+00  0.00000000E+00  0.00000000E+00
  0.00000000E+00  0.00000000E+00  0.00000000E+00
  0.00000000E+00  0.00000000E+00  0.00000000E+00
  0.00000000E+00  0.00000000E+00  0.00000000E+00
  0.00000000E+00  0.00000000E+00  0.00000000E+00
  0.00000000E+00  0.00000000E+00  0.00000000E+00
  0.00000000E+00  0.00000000E+00  0.00000000E+00
  0.00000000E+00  0.00000000E+00  0.00000000E+00
  0.00000000E+00  0.00000000E+00  0.00000000E+00
  0.00000000E+00  0.00000000E+00  0.00000000E+00
  0.00000000E+00  0.00000000E+00  0.00000000E+00
  0.00000000E+00  0.00000000E+00  0.00000000E+00
  0.00000000E+00  0.00000000E+00  0.00000000E+00
  0.00000000E+00  0.00000000E+00  0.00000000E+00
  0.00000000E+00  0.00000000E+00  0.00000000E+00
  0.00000000E+00  0.00000000E+00  0.00000000E+00
  0.00000000E+00  0.00000000E+00  0.00000000E+00
  0.00000000E+00  0.00000000E+00  0.00000000E+00
  0.00000000E+00  0.00000000E+00  0.00000000E+00
