B Ca Mn O                               
   1.00000000000000     
     9.6048500000000008    0.0000000000000000    0.0000000000000000
     0.0000000000000000    9.6048500000000008    0.0000000000000000
     0.0000000000000000    0.0000000000000000   24.6048000000000009
   B    Ca   Mn   O 
     1    31     1    32
Selective dynamics
Direct
  0.0024152123209147  0.4429810964114674  0.3629618947276436   T   T   T
  0.2505482992511046  0.9984075118235780  0.0990106478025125   T   T   T
  0.7491086347596658  0.9984118653338756  0.0990775266802581   T   T   T
  0.9999217406854412  0.2474469109893592  0.0976016655780817   T   T   T
  0.4998286321337313  0.2485207055657059  0.0982141349086848   T   T   T
  0.2510469768179679  0.4994374846865786  0.0981405088404631   T   T   T
  0.7486353792973542  0.4993978513837409  0.0983488797822937   T   T   T
  0.9999072130257630  0.7494834420609027  0.0984773684089152   T   T   T
  0.4997725421778128  0.7496544527936235  0.0991281124446435   T   T   T
 -0.0004545430093722  0.9957674822376120  0.1951316294721866   T   T   T
  0.5001659471167237  0.9984555028455442  0.1962868418546173   T   T   T
  0.2519505639822316  0.2489337250999347  0.1948852695518979   T   T   T
  0.7478634563250651  0.2484692494452367  0.1952424626320269   T   T   T
 -0.0000696860228599  0.4990879924980456  0.1919881499932982   T   T   T
  0.4997106952588625  0.5000753462619054  0.1952567742486354   T   T   T
  0.2501297265114261  0.7488935155235154  0.1964378677557376   T   T   T
  0.7495810605168564  0.7492710003559230  0.1967354829466020   T   T   T
  0.2515455670867583  0.9992502024899776  0.2945642348733333   T   T   T
  0.7484198137020042  0.9987767164743346  0.2962426391387927   T   T   T
 -0.0001158169403406  0.2398998947158038  0.2873449267374562   T   T   T
  0.5000922365386502  0.2495705161152564  0.2937835940224222   T   T   T
  0.2569122585264332  0.4998147265701635  0.2939333078740573   T   T   T
  0.7425722384640988  0.5001815654079624  0.2940339795945074   T   T   T
  0.0000554594808953  0.7528412759173851  0.2966426440918838   T   T   T
  0.5000388346101705  0.7506185269327517  0.2960463908126817   T   T   T
  0.0106923281854609  0.0053020950758802  0.3919453644939431   T   T   T
  0.4885126508236621  0.9976345106336123  0.3934477256048923   T   T   T
  0.2579125037816790  0.2638543036699272  0.3906619644294924   T   T   T
  0.7416928347349299  0.2708265833741116  0.3922009948566116   T   T   T
  0.4975686679568473  0.5091577820512904  0.3926390257353786   T   T   T
  0.2349624589974800  0.7345975448830353  0.3930248793268223   T   T   T
  0.7696908037862247  0.7293641256301047  0.3947757079307294   T   T   T
  0.7547276696971338  0.0090865228358061  0.4760157415724613   T   T   T
  0.9994768444333967  0.9980347768270709  0.0994872091242986   T   T   T
  0.5001500994686001  0.9988814104974271  0.0995746759546104   T   T   T
  0.2497927601263956  0.2491259507599618  0.0986233734655989   T   T   T
  0.7499364766752331  0.2488104275787756  0.0989098932757126   T   T   T
  0.9998070291423277  0.4991504621053506  0.0991167992669226   T   T   T
  0.4998930632162754  0.4993888553147350  0.0989690886819805   T   T   T
  0.2493253452978128  0.7487790739825787  0.0995144335901961   T   T   T
  0.7503315294142938  0.7490618933559384  0.0997546593158809   T   T   T
  0.2492617177206485  0.9989422037600835  0.1948927062946626   T   T   T
  0.7503210832813405  0.9989353786392698  0.1958802996071357   T   T   T
  0.9996595962502003  0.2501980063390066  0.1933519024296878   T   T   T
  0.5001753069984183  0.2491692218354048  0.1940133989442960   T   T   T
  0.2468300470353879  0.4989921434046250  0.1945864691407694   T   T   T
  0.7529108217322590  0.4988799779506669  0.1949303548201906   T   T   T
  0.9996234995911404  0.7457652420414531  0.1957785906976475   T   T   T
  0.5000054990955777  0.7495036880802761  0.1947934796895516   T   T   T
  0.9987860647225482  0.0026586310991652  0.2935173945649928   T   T   T
  0.5010822904165954  0.9995005684445415  0.2944940664262739   T   T   T
  0.2489416046707288  0.2502056867612837  0.2920950848994381   T   T   T
  0.7512385218418627  0.2484566611364944  0.2935189431509685   T   T   T
  0.0004094788690146  0.4859453428468196  0.3078029583759899   T   T   T
  0.4998427701135398  0.5006963270733493  0.2909012350401676   T   T   T
  0.2466131568133147  0.7479897248462483  0.2937270385898409   T   T   T
  0.7532007989082534  0.7492338233280891  0.2948477764519483   T   T   T
  0.2476943066058445  0.0154992289444499  0.3889193051152895   T   T   T
  0.7533343440324389  0.0133542885237049  0.3969596216381074   T   T   T
  0.0017355978929417  0.3049391953812373  0.3788318614509956   T   T   T
  0.4995589138800224  0.2523856066648495  0.3878163611931105   T   T   T
  0.2669831926457836  0.4997414907726718  0.3854737500924463   T   T   T
  0.7284755033915856  0.5012881195532353  0.3853723545761679   T   T   T
  0.0008697510024572  0.7835291754471164  0.3869951846827536   T   T   T
  0.4945832630289621  0.7553878617621622  0.3892835099634128   T   T   T
 
  0.00000000E+00  0.00000000E+00  0.00000000E+00
  0.00000000E+00  0.00000000E+00  0.00000000E+00
  0.00000000E+00  0.00000000E+00  0.00000000E+00
  0.00000000E+00  0.00000000E+00  0.00000000E+00
  0.00000000E+00  0.00000000E+00  0.00000000E+00
  0.00000000E+00  0.00000000E+00  0.00000000E+00
  0.00000000E+00  0.00000000E+00  0.00000000E+00
  0.00000000E+00  0.00000000E+00  0.00000000E+00
  0.00000000E+00  0.00000000E+00  0.00000000E+00
  0.00000000E+00  0.00000000E+00  0.00000000E+00
  0.00000000E+00  0.00000000E+00  0.00000000E+00
  0.00000000E+00  0.00000000E+00  0.00000000E+00
  0.00000000E+00  0.00000000E+00  0.00000000E+00
  0.00000000E+00  0.00000000E+00  0.00000000E+00
  0.00000000E+00  0.00000000E+00  0.00000000E+00
  0.00000000E+00  0.00000000E+00  0.00000000E+00
  0.00000000E+00  0.00000000E+00  0.00000000E+00
  0.00000000E+00  0.00000000E+00  0.00000000E+00
  0.00000000E+00  0.00000000E+00  0.00000000E+00
  0.00000000E+00  0.00000000E+00  0.00000000E+00
  0.00000000E+00  0.00000000E+00  0.00000000E+00
  0.00000000E+00  0.00000000E+00  0.00000000E+00
  0.00000000E+00  0.00000000E+00  0.00000000E+00
  0.00000000E+00  0.00000000E+00  0.00000000E+00
  0.00000000E+00  0.00000000E+00  0.00000000E+00
  0.00000000E+00  0.00000000E+00  0.00000000E+00
  0.00000000E+00  0.00000000E+00  0.00000000E+00
  0.00000000E+00  0.00000000E+00  0.00000000E+00
  0.00000000E+00  0.00000000E+00  0.00000000E+00
  0.00000000E+00  0.00000000E+00  0.00000000E+00
  0.00000000E+00  0.00000000E+00  0.00000000E+00
  0.00000000E+00  0.00000000E+00  0.00000000E+00
  0.00000000E+00  0.00000000E+00  0.00000000E+00
  0.00000000E+00  0.00000000E+00  0.00000000E+00
  0.00000000E+00  0.00000000E+00  0.00000000E+00
  0.00000000E+00  0.00000000E+00  0.00000000E+00
  0.00000000E+00  0.00000000E+00  0.00000000E+00
  0.00000000E+00  0.00000000E+00  0.00000000E+00
  0.00000000E+00  0.00000000E+00  0.00000000E+00
  0.00000000E+00  0.00000000E+00  0.00000000E+00
  0.00000000E+00  0.00000000E+00  0.00000000E+00
  0.00000000E+00  0.00000000E+00  0.00000000E+00
  0.00000000E+00  0.00000000E+00  0.00000000E+00
  0.00000000E+00  0.00000000E+00  0.00000000E+00
  0.00000000E+00  0.00000000E+00  0.00000000E+00
  0.00000000E+00  0.00000000E+00  0.00000000E+00
  0.00000000E+00  0.00000000E+00  0.00000000E+00
  0.00000000E+00  0.00000000E+00  0.00000000E+00
  0.00000000E+00  0.00000000E+00  0.00000000E+00
  0.00000000E+00  0.00000000E+00  0.00000000E+00
  0.00000000E+00  0.00000000E+00  0.00000000E+00
  0.00000000E+00  0.00000000E+00  0.00000000E+00
  0.00000000E+00  0.00000000E+00  0.00000000E+00
  0.00000000E+00  0.00000000E+00  0.00000000E+00
  0.00000000E+00  0.00000000E+00  0.00000000E+00
  0.00000000E+00  0.00000000E+00  0.00000000E+00
  0.00000000E+00  0.00000000E+00  0.00000000E+00
  0.00000000E+00  0.00000000E+00  0.00000000E+00
  0.00000000E+00  0.00000000E+00  0.00000000E+00
  0.00000000E+00  0.00000000E+00  0.00000000E+00
  0.00000000E+00  0.00000000E+00  0.00000000E+00
  0.00000000E+00  0.00000000E+00  0.00000000E+00
  0.00000000E+00  0.00000000E+00  0.00000000E+00
  0.00000000E+00  0.00000000E+00  0.00000000E+00
  0.00000000E+00  0.00000000E+00  0.00000000E+00
