B Ca Co O                               
   1.00000000000000     
     9.6048500000000008    0.0000000000000000    0.0000000000000000
     0.0000000000000000    9.6048500000000008    0.0000000000000000
     0.0000000000000000    0.0000000000000000   24.6048000000000009
   B    Ca   Co   O 
     1    31     1    32
Selective dynamics
Direct
  0.0661813635445872  0.4388870372227948  0.3602005307311745   T   T   T
  0.2512635294019487  0.9989705767633504  0.0983475286445077   T   T   T
  0.7499565893169517  0.9986808618901540  0.0992972702654524   T   T   T
  0.0003821182318443  0.2476555519620609  0.0981747057148765   T   T   T
  0.5011752469604794  0.2485937371140261  0.0986585031484280   T   T   T
  0.2524345451730914  0.4993908252064374  0.0979501994889781   T   T   T
  0.7502102505505031  0.4993561155231194  0.0984894546031963   T   T   T
  0.0002618983904517  0.7499380808350659  0.0984095850491201   T   T   T
  0.5013063454118405  0.7498572722473511  0.0991295792815290   T   T   T
 -0.0000342234920959  0.9963642908441566  0.1955148212312839   T   T   T
  0.5008453502091887  0.9988126658093737  0.1964287066171828   T   T   T
  0.2523482916738468  0.2475665229473539  0.1950163573486036   T   T   T
  0.7490996228565220  0.2496079701716888  0.1960430717652447   T   T   T
  0.0004224323285718  0.4997462245321475  0.1923206504584309   T   T   T
  0.5048936971848080  0.5001111320497178  0.1955643595623325   T   T   T
  0.2509342371239607  0.7514379714526126  0.1955146070565559   T   T   T
  0.7506168291673595  0.7486649643438475  0.1971872416417808   T   T   T
  0.2505166760326505  0.9989649879857213  0.2941715311875975   T   T   T
  0.7485106617160548  0.9988233407973653  0.2949409624363154   T   T   T
  0.9967494655795310  0.2395633128481172  0.2892834831184962   T   T   T
  0.5029200374186670  0.2478917545749091  0.2947843746889297   T   T   T
  0.2611601412649733  0.5024665428257227  0.2876850744739723   T   T   T
  0.7492681377363676  0.5002638677673946  0.2984139042972366   T   T   T
 -0.0015688605775262  0.7532823975628171  0.2968492370780327   T   T   T
  0.5016921757301374  0.7526073677727583  0.2962922169970294   T   T   T
 -0.0025339978381578  0.9996955299532033  0.3964992102075009   T   T   T
  0.4969717049182312  0.9953761039554287  0.3965050967215387   T   T   T
  0.2561380565336869  0.2432610934639995  0.3903722795672014   T   T   T
  0.7466423463555164  0.2709576973117422  0.3972813796147061   T   T   T
  0.4962190959556639  0.5061859383386642  0.3913081708507611   T   T   T
  0.2325552795287295  0.7516862482289988  0.3907990559706612   T   T   T
  0.7654564955869738  0.7380586141166274  0.3986453218378395   T   T   T
  0.7548776756133760  0.0198359118803050  0.4598206629348990   T   T   T
  0.0004896515210320  0.9986265013680454  0.0998816622080817   T   T   T
  0.5007315173248572  0.9991300235541991  0.0999701509250827   T   T   T
  0.2505556035626860  0.2493359974258877  0.0991040547243817   T   T   T
  0.7509626893776636  0.2495836122610732  0.0998013123842710   T   T   T
  0.0007002619756726  0.4990592761894779  0.0998159978419901   T   T   T
  0.5016947759277274  0.4992968778709441  0.0999361246338762   T   T   T
  0.2503885826318190  0.7490505543097182  0.0993397974251517   T   T   T
  0.7512097153355658  0.7483959552692515  0.1001727611198253   T   T   T
  0.2499351866248640  0.9993640407181036  0.1946446261114251   T   T   T
  0.7508174742270307  0.9992367679915460  0.1953871455949874   T   T   T
  0.0007270535856222  0.2517314316973748  0.1947782398823714   T   T   T
  0.5009009987781049  0.2501436518279531  0.1948716626442712   T   T   T
  0.2490110983123009  0.4993925075539787  0.1941638872949415   T   T   T
  0.7544897530083425  0.4991469648163011  0.1963777976424879   T   T   T
  0.0006670181371184  0.7460001417804377  0.1958291176791818   T   T   T
  0.5006075100208742  0.7489158777319251  0.1952459729163257   T   T   T
 -0.0002956516364014  0.0029130528132957  0.2932757217031934   T   T   T
  0.4993233606943828 -0.0002535794506340  0.2942540588492639   T   T   T
  0.2497743471778441  0.2502935242673120  0.2929507867854025   T   T   T
  0.7522149745052173  0.2520237404825101  0.2941775580764155   T   T   T
  0.0132894993281627  0.4912483082353478  0.3094786841679800   T   T   T
  0.4984623517789666  0.5008409357328606  0.2937561201202183   T   T   T
  0.2477423249809901  0.7485472874581931  0.2932422241736186   T   T   T
  0.7523246543204933  0.7468724466246914  0.2947463379883895   T   T   T
  0.2440460016312308  0.0063550864356151  0.3896738969908964   T   T   T
  0.7460011045709171  0.0047313736614151  0.3863753604448987   T   T   T
  0.0129704681165712  0.3138505110131835  0.3803564879990793   T   T   T
  0.4900189455950866  0.2595219148591592  0.3886558134014695   T   T   T
  0.1936496292935147  0.4913860955354088  0.3800207597200874   T   T   T
  0.7196784953863643  0.5053517804971338  0.3897544177817155   T   T   T
 -0.0020432875787719  0.7760876593668573  0.3872943581021512   T   T   T
  0.4772733147913919  0.7471596429543728  0.3897300873101740   T   T   T
 
  0.00000000E+00  0.00000000E+00  0.00000000E+00
  0.00000000E+00  0.00000000E+00  0.00000000E+00
  0.00000000E+00  0.00000000E+00  0.00000000E+00
  0.00000000E+00  0.00000000E+00  0.00000000E+00
  0.00000000E+00  0.00000000E+00  0.00000000E+00
  0.00000000E+00  0.00000000E+00  0.00000000E+00
  0.00000000E+00  0.00000000E+00  0.00000000E+00
  0.00000000E+00  0.00000000E+00  0.00000000E+00
  0.00000000E+00  0.00000000E+00  0.00000000E+00
  0.00000000E+00  0.00000000E+00  0.00000000E+00
  0.00000000E+00  0.00000000E+00  0.00000000E+00
  0.00000000E+00  0.00000000E+00  0.00000000E+00
  0.00000000E+00  0.00000000E+00  0.00000000E+00
  0.00000000E+00  0.00000000E+00  0.00000000E+00
  0.00000000E+00  0.00000000E+00  0.00000000E+00
  0.00000000E+00  0.00000000E+00  0.00000000E+00
  0.00000000E+00  0.00000000E+00  0.00000000E+00
  0.00000000E+00  0.00000000E+00  0.00000000E+00
  0.00000000E+00  0.00000000E+00  0.00000000E+00
  0.00000000E+00  0.00000000E+00  0.00000000E+00
  0.00000000E+00  0.00000000E+00  0.00000000E+00
  0.00000000E+00  0.00000000E+00  0.00000000E+00
  0.00000000E+00  0.00000000E+00  0.00000000E+00
  0.00000000E+00  0.00000000E+00  0.00000000E+00
  0.00000000E+00  0.00000000E+00  0.00000000E+00
  0.00000000E+00  0.00000000E+00  0.00000000E+00
  0.00000000E+00  0.00000000E+00  0.00000000E+00
  0.00000000E+00  0.00000000E+00  0.00000000E+00
  0.00000000E+00  0.00000000E+00  0.00000000E+00
  0.00000000E+00  0.00000000E+00  0.00000000E+00
  0.00000000E+00  0.00000000E+00  0.00000000E+00
  0.00000000E+00  0.00000000E+00  0.00000000E+00
  0.00000000E+00  0.00000000E+00  0.00000000E+00
  0.00000000E+00  0.00000000E+00  0.00000000E+00
  0.00000000E+00  0.00000000E+00  0.00000000E+00
  0.00000000E+00  0.00000000E+00  0.00000000E+00
  0.00000000E+00  0.00000000E+00  0.00000000E+00
  0.00000000E+00  0.00000000E+00  0.00000000E+00
  0.00000000E+00  0.00000000E+00  0.00000000E+00
  0.00000000E+00  0.00000000E+00  0.00000000E+00
  0.00000000E+00  0.00000000E+00  0.00000000E+00
  0.00000000E+00  0.00000000E+00  0.00000000E+00
  0.00000000E+00  0.00000000E+00  0.00000000E+00
  0.00000000E+00  0.00000000E+00  0.00000000E+00
  0.00000000E+00  0.00000000E+00  0.00000000E+00
  0.00000000E+00  0.00000000E+00  0.00000000E+00
  0.00000000E+00  0.00000000E+00  0.00000000E+00
  0.00000000E+00  0.00000000E+00  0.00000000E+00
  0.00000000E+00  0.00000000E+00  0.00000000E+00
  0.00000000E+00  0.00000000E+00  0.00000000E+00
  0.00000000E+00  0.00000000E+00  0.00000000E+00
  0.00000000E+00  0.00000000E+00  0.00000000E+00
  0.00000000E+00  0.00000000E+00  0.00000000E+00
  0.00000000E+00  0.00000000E+00  0.00000000E+00
  0.00000000E+00  0.00000000E+00  0.00000000E+00
  0.00000000E+00  0.00000000E+00  0.00000000E+00
  0.00000000E+00  0.00000000E+00  0.00000000E+00
  0.00000000E+00  0.00000000E+00  0.00000000E+00
  0.00000000E+00  0.00000000E+00  0.00000000E+00
  0.00000000E+00  0.00000000E+00  0.00000000E+00
  0.00000000E+00  0.00000000E+00  0.00000000E+00
  0.00000000E+00  0.00000000E+00  0.00000000E+00
  0.00000000E+00  0.00000000E+00  0.00000000E+00
  0.00000000E+00  0.00000000E+00  0.00000000E+00
  0.00000000E+00  0.00000000E+00  0.00000000E+00
