B Ca O Co                               
   1.00000000000000     
     9.6048500000000008    0.0000000000000000    0.0000000000000000
     0.0000000000000000    9.6048500000000008    0.0000000000000000
     0.0000000000000000    0.0000000000000000   24.6048000000000009
   B    Ca   O    Co
     1    31    32     1
Selective dynamics
Direct
  0.0655243987828433  0.4361886857194393  0.3604188632028613   T   T   T
  0.2504663251318832  0.9984714836459548  0.0976051831537398   T   T   T
  0.7490824257207197  0.9983360544921857  0.0983961798355477   T   T   T
  0.9996039252289123  0.2471905024057499  0.0970468847417832   T   T   T
  0.5002677956400120  0.2481308195817684  0.0977125713830180   T   T   T
  0.2515669326119631  0.4990504047769476  0.0969665808602565   T   T   T
  0.7490613216064023  0.4991468835032936  0.0974416778581273   T   T   T
  0.9994091563582846  0.7497587152302954  0.0974248113100420   T   T   T
  0.5003249715906538  0.7495326104287755  0.0983865244653387   T   T   T
  0.9990668051829236  0.9958881885390518  0.1947812446446495   T   T   T
  0.5001426916612384  0.9983210280555517  0.1957028654789218   T   T   T
  0.2514694761136327  0.2471343419821725  0.1942349411377800   T   T   T
  0.7482699716647233  0.2489895798814336  0.1951326738045615   T   T   T
  0.9994759421990286  0.4992506225051719  0.1911299151085156   T   T   T
  0.5033776351545519  0.4995835841986386  0.1948080019636124   T   T   T
  0.2498095520152420  0.7506623063010180  0.1949263952256604   T   T   T
  0.7497649714877888  0.7484952193201858  0.1964684154530004   T   T   T
  0.2498930424135900  0.9982081135527013  0.2933923903812204   T   T   T
  0.7479846247094746  0.9987301705966721  0.2945386724800002   T   T   T
  0.9965382515135298  0.2392609656903169  0.2884317560735082   T   T   T
  0.5016060792083245  0.2472384017613361  0.2939253495672642   T   T   T
  0.2594774969863028  0.5014901650902150  0.2874515444972129   T   T   T
  0.7479435332219018  0.4995267047014526  0.2968909312705916   T   T   T
  0.9978659239444725  0.7524307909728738  0.2962762415716477   T   T   T
  0.5004898199329838  0.7517076523820980  0.2954290872071839   T   T   T
  0.9970901711780906  0.0001691054487164  0.3953937248402672   T   T   T
  0.4969827128492127  0.9940762853890630  0.3955435590734599   T   T   T
  0.2564442515260427  0.2415039379460956  0.3902577096081572   T   T   T
  0.7465673528407867  0.2709432215433472  0.3954324048947217   T   T   T
  0.4950248128588141  0.5049611662827168  0.3906267058759962   T   T   T
  0.2318676043469035  0.7515035723921741  0.3906648108494428   T   T   T
  0.7641694121515432  0.7346806891336465  0.3971816993567643   T   T   T
  0.9995744850310696  0.9982248803579453  0.0995128177719916   T   T   T
  0.4999223847770635  0.9987179003539062  0.0996827246110007   T   T   T
  0.2497607398932805  0.2489057063176138  0.0987588806087945   T   T   T
  0.7500825818992584  0.2493268120591011  0.0993470135213198   T   T   T
  0.9997078773146801  0.4989277480343036  0.0991621067167653   T   T   T
  0.5006850553176079  0.4989963822637613  0.0996017807659880   T   T   T
  0.2494033941108874  0.7486217177664873  0.0992034272383490   T   T   T
  0.7502837523471619  0.7482090583053311  0.0999734961545408   T   T   T
  0.2490854573818059  0.9987583580984468  0.1943452954732592   T   T   T
  0.7500315058379126  0.9988775892977733  0.1949861490260414   T   T   T
  0.9998418295793066  0.2513246569767845  0.1941399217648272   T   T   T
  0.5000226564415683  0.2495848156271187  0.1943861702019300   T   T   T
  0.2477224893773932  0.4988225570513732  0.1939319791303561   T   T   T
  0.7534912905758462  0.4987985097531161  0.1960386892315443   T   T   T
  0.9996855851429221  0.7454046435042551  0.1955741237078998   T   T   T
  0.4996318441626151  0.7484127753993751  0.1949289548968708   T   T   T
  0.9988506362081833  0.0024164933163954  0.2930250721953284   T   T   T
  0.4990296238213511  0.9990133927283684  0.2939836605905629   T   T   T
  0.2490557518557485  0.2493424381382435  0.2926238805810602   T   T   T
  0.7514783258101151  0.2513733886985836  0.2938469089115789   T   T   T
  0.0118984574415418  0.4896328632482169  0.3100649698242472   T   T   T
  0.4970642710369567  0.4999804079755792  0.2932705041582528   T   T   T
  0.2467814860905143  0.7476374254810222  0.2931872299806751   T   T   T
  0.7514340815304079  0.7467615462409308  0.2947810667670731   T   T   T
  0.2440944201245378  0.0046908507974895  0.3890003899454944   T   T   T
  0.7465452166660362  0.0095088907142192  0.3873032642102361   T   T   T
  0.0126762895276591  0.3102709207684154  0.3802265997442689   T   T   T
  0.4904985677524607  0.2578894222369881  0.3881406636066034   T   T   T
  0.1928838666612980  0.4888362450432263  0.3802305002175757   T   T   T
  0.7190062673627859  0.5038274163849341  0.3884079747668321   T   T   T
  0.9966142139395746  0.7767191613562723  0.3868827552253793   T   T   T
  0.4785175360854012  0.7464135157702990  0.3890082216870997   T   T   T
  0.7536573626702927  0.0154180202110844  0.4642708759453625   T   T   T
 
  0.00000000E+00  0.00000000E+00  0.00000000E+00
  0.00000000E+00  0.00000000E+00  0.00000000E+00
  0.00000000E+00  0.00000000E+00  0.00000000E+00
  0.00000000E+00  0.00000000E+00  0.00000000E+00
  0.00000000E+00  0.00000000E+00  0.00000000E+00
  0.00000000E+00  0.00000000E+00  0.00000000E+00
  0.00000000E+00  0.00000000E+00  0.00000000E+00
  0.00000000E+00  0.00000000E+00  0.00000000E+00
  0.00000000E+00  0.00000000E+00  0.00000000E+00
  0.00000000E+00  0.00000000E+00  0.00000000E+00
  0.00000000E+00  0.00000000E+00  0.00000000E+00
  0.00000000E+00  0.00000000E+00  0.00000000E+00
  0.00000000E+00  0.00000000E+00  0.00000000E+00
  0.00000000E+00  0.00000000E+00  0.00000000E+00
  0.00000000E+00  0.00000000E+00  0.00000000E+00
  0.00000000E+00  0.00000000E+00  0.00000000E+00
  0.00000000E+00  0.00000000E+00  0.00000000E+00
  0.00000000E+00  0.00000000E+00  0.00000000E+00
  0.00000000E+00  0.00000000E+00  0.00000000E+00
  0.00000000E+00  0.00000000E+00  0.00000000E+00
  0.00000000E+00  0.00000000E+00  0.00000000E+00
  0.00000000E+00  0.00000000E+00  0.00000000E+00
  0.00000000E+00  0.00000000E+00  0.00000000E+00
  0.00000000E+00  0.00000000E+00  0.00000000E+00
  0.00000000E+00  0.00000000E+00  0.00000000E+00
  0.00000000E+00  0.00000000E+00  0.00000000E+00
  0.00000000E+00  0.00000000E+00  0.00000000E+00
  0.00000000E+00  0.00000000E+00  0.00000000E+00
  0.00000000E+00  0.00000000E+00  0.00000000E+00
  0.00000000E+00  0.00000000E+00  0.00000000E+00
  0.00000000E+00  0.00000000E+00  0.00000000E+00
  0.00000000E+00  0.00000000E+00  0.00000000E+00
  0.00000000E+00  0.00000000E+00  0.00000000E+00
  0.00000000E+00  0.00000000E+00  0.00000000E+00
  0.00000000E+00  0.00000000E+00  0.00000000E+00
  0.00000000E+00  0.00000000E+00  0.00000000E+00
  0.00000000E+00  0.00000000E+00  0.00000000E+00
  0.00000000E+00  0.00000000E+00  0.00000000E+00
  0.00000000E+00  0.00000000E+00  0.00000000E+00
  0.00000000E+00  0.00000000E+00  0.00000000E+00
  0.00000000E+00  0.00000000E+00  0.00000000E+00
  0.00000000E+00  0.00000000E+00  0.00000000E+00
  0.00000000E+00  0.00000000E+00  0.00000000E+00
  0.00000000E+00  0.00000000E+00  0.00000000E+00
  0.00000000E+00  0.00000000E+00  0.00000000E+00
  0.00000000E+00  0.00000000E+00  0.00000000E+00
  0.00000000E+00  0.00000000E+00  0.00000000E+00
  0.00000000E+00  0.00000000E+00  0.00000000E+00
  0.00000000E+00  0.00000000E+00  0.00000000E+00
  0.00000000E+00  0.00000000E+00  0.00000000E+00
  0.00000000E+00  0.00000000E+00  0.00000000E+00
  0.00000000E+00  0.00000000E+00  0.00000000E+00
  0.00000000E+00  0.00000000E+00  0.00000000E+00
  0.00000000E+00  0.00000000E+00  0.00000000E+00
  0.00000000E+00  0.00000000E+00  0.00000000E+00
  0.00000000E+00  0.00000000E+00  0.00000000E+00
  0.00000000E+00  0.00000000E+00  0.00000000E+00
  0.00000000E+00  0.00000000E+00  0.00000000E+00
  0.00000000E+00  0.00000000E+00  0.00000000E+00
  0.00000000E+00  0.00000000E+00  0.00000000E+00
  0.00000000E+00  0.00000000E+00  0.00000000E+00
  0.00000000E+00  0.00000000E+00  0.00000000E+00
  0.00000000E+00  0.00000000E+00  0.00000000E+00
  0.00000000E+00  0.00000000E+00  0.00000000E+00
  0.00000000E+00  0.00000000E+00  0.00000000E+00
