                                        
   1.00000000000000     
     9.6048500000000008    0.0000000000000000    0.0000000000000000
     0.0000000000000010    9.6048500000000008    0.0000000000000000
     0.0000000000000020    0.0000000000000020   24.6048000000000009
   Ca   B    Ca   O 
    28     1     3    32
Direct
  0.2506958926140089 -0.0010107030707599  0.0989824963974471
  0.7491128378052018 -0.0009939015541027  0.0989979825496426
  0.9999101618032268  0.2478019586353808  0.0973745798478559
  0.4999138197912599  0.2491749794580104  0.0982966200901961
  0.2513598296036633  0.5001262647075111  0.0981950345853093
  0.7484627292181059  0.5001306767558736  0.0982104527687440
  0.9998852703718202  0.7502073642015424  0.0983226864201736
  0.4999064001090204  0.7502677205526358  0.0993788296088144
  0.9998920759237303 -0.0042357277211249  0.1951437775088542
  0.4999066275804012 -0.0011056292967131  0.1963177023950602
  0.2517421713980492  0.2491742969466280  0.1951329319264238
  0.7480945060005062  0.2491925497343276  0.1951488867061744
  0.9999103537422211  0.4993597045526398  0.1913310844367877
  0.4999178780597165  0.5005695678853866  0.1958308215744011
  0.2498878362352786  0.7492181889090515  0.1967479618113606
  0.7498922099036812  0.7492369207610035  0.1967670030759216
  0.2510888664891401 -0.0010080634827014  0.2954915152139801
  0.7486895122087183 -0.0009623532717313  0.2955176816329216
  0.9999108629280977  0.2399785525242587  0.2876967394291720
  0.4998971019875754  0.2495451581241055  0.2934070686288457
  0.2560154778186806  0.4996263178555528  0.2951092201649433
  0.7437507676337543  0.4996573077820286  0.2951609891468375
  0.9998589117166291  0.7516346682969599  0.2974595472282029
  0.4998683657524108  0.7504165100768353  0.2959646099208408
  0.9998575204361474  0.0050756487801404  0.3905325012798689
  0.4998557765090931 -0.0009256196921483  0.3920143118530778
  0.2584015618830076  0.2611615337444907  0.3904781454439896
  0.7413368449291049  0.2612849387991955  0.3905120286323773
  0.0000427943717649  0.4388045035100125  0.3658374378748952
  0.4997938135509454  0.5076713623846316  0.3920852241313627
  0.2357546598619390  0.7376323722479692  0.3931434701105126
  0.7639196674675754  0.7376278236403475  0.3931729853171615
  0.9999061294825510 -0.0013534725715517  0.0993269708535870
  0.4999131668418552 -0.0005061123213787  0.0995594814589549
  0.2498920144616610  0.2498296686976321  0.0986495204829276
  0.7499430859264352  0.2498457769257059  0.0986647903655875
  0.9999071805709984  0.4997492657705125  0.0988633656306562
  0.4999147578646935  0.5000374641132816  0.0993241199140045
  0.2494290105147676  0.7494000439780010  0.0996115992341495
  0.7503710383447996  0.7493965270508554  0.0996236867538865
  0.2495022709884372 -0.0007528447011416  0.1948840166309832
  0.7503131937946708 -0.0007440137043665  0.1948963960057698
  0.9999105880743144  0.2508500647923746  0.1934652403641004
  0.4999180472724071  0.2497035752180867  0.1941445642454789
  0.2466066940477300  0.4993771402082234  0.1949595415651374
  0.7532287297094552  0.4993944325294468  0.1949806171319154
  0.9998757518589474  0.7454118355597374  0.1959147858716703
  0.4998771767756754  0.7498431142841534  0.1951914983031542
  0.9998939537628851  0.0016689970181831  0.2929126704300714
  0.4998834681956526 -0.0003628092986213  0.2938699346742206
  0.2486997039142874  0.2501238859020226  0.2926852420287708
  0.7511116264414447  0.2501878982080222  0.2927062656489845
 -0.0000428971092742  0.4844930780294221  0.3110871630126318
  0.4998885630221900  0.5004405330203583  0.2915900990007712
  0.2467323184260381  0.7476167351358790  0.2945391727348763
  0.7529784205768416  0.7476389253262147  0.2945707107429997
  0.2463714637388663  0.0141058710394381  0.3901979131313482
  0.7533823320936576  0.0141946461987004  0.3902225768357325
 -0.0000529109948693  0.2992177616154422  0.3805841764199811
  0.4998465478318370  0.2504984114742098  0.3886534264221148
  0.2685792330464525  0.4997265935577930  0.3866565356280379
  0.7309095426782755  0.4998084479428530  0.3867069678183175
 -0.0001667229683919  0.7826427304446344  0.3882479975367798
  0.4997694704102107  0.7557308262986537  0.3903136254102180
 
  0.00000000E+00  0.00000000E+00  0.00000000E+00
  0.00000000E+00  0.00000000E+00  0.00000000E+00
  0.00000000E+00  0.00000000E+00  0.00000000E+00
  0.00000000E+00  0.00000000E+00  0.00000000E+00
  0.00000000E+00  0.00000000E+00  0.00000000E+00
  0.00000000E+00  0.00000000E+00  0.00000000E+00
  0.00000000E+00  0.00000000E+00  0.00000000E+00
  0.00000000E+00  0.00000000E+00  0.00000000E+00
  0.00000000E+00  0.00000000E+00  0.00000000E+00
  0.00000000E+00  0.00000000E+00  0.00000000E+00
  0.00000000E+00  0.00000000E+00  0.00000000E+00
  0.00000000E+00  0.00000000E+00  0.00000000E+00
  0.00000000E+00  0.00000000E+00  0.00000000E+00
  0.00000000E+00  0.00000000E+00  0.00000000E+00
  0.00000000E+00  0.00000000E+00  0.00000000E+00
  0.00000000E+00  0.00000000E+00  0.00000000E+00
  0.00000000E+00  0.00000000E+00  0.00000000E+00
  0.00000000E+00  0.00000000E+00  0.00000000E+00
  0.00000000E+00  0.00000000E+00  0.00000000E+00
  0.00000000E+00  0.00000000E+00  0.00000000E+00
  0.00000000E+00  0.00000000E+00  0.00000000E+00
  0.00000000E+00  0.00000000E+00  0.00000000E+00
  0.00000000E+00  0.00000000E+00  0.00000000E+00
  0.00000000E+00  0.00000000E+00  0.00000000E+00
  0.00000000E+00  0.00000000E+00  0.00000000E+00
  0.00000000E+00  0.00000000E+00  0.00000000E+00
  0.00000000E+00  0.00000000E+00  0.00000000E+00
  0.00000000E+00  0.00000000E+00  0.00000000E+00
  0.00000000E+00  0.00000000E+00  0.00000000E+00
  0.00000000E+00  0.00000000E+00  0.00000000E+00
  0.00000000E+00  0.00000000E+00  0.00000000E+00
  0.00000000E+00  0.00000000E+00  0.00000000E+00
  0.00000000E+00  0.00000000E+00  0.00000000E+00
  0.00000000E+00  0.00000000E+00  0.00000000E+00
  0.00000000E+00  0.00000000E+00  0.00000000E+00
  0.00000000E+00  0.00000000E+00  0.00000000E+00
  0.00000000E+00  0.00000000E+00  0.00000000E+00
  0.00000000E+00  0.00000000E+00  0.00000000E+00
  0.00000000E+00  0.00000000E+00  0.00000000E+00
  0.00000000E+00  0.00000000E+00  0.00000000E+00
  0.00000000E+00  0.00000000E+00  0.00000000E+00
  0.00000000E+00  0.00000000E+00  0.00000000E+00
  0.00000000E+00  0.00000000E+00  0.00000000E+00
  0.00000000E+00  0.00000000E+00  0.00000000E+00
  0.00000000E+00  0.00000000E+00  0.00000000E+00
  0.00000000E+00  0.00000000E+00  0.00000000E+00
  0.00000000E+00  0.00000000E+00  0.00000000E+00
  0.00000000E+00  0.00000000E+00  0.00000000E+00
  0.00000000E+00  0.00000000E+00  0.00000000E+00
  0.00000000E+00  0.00000000E+00  0.00000000E+00
  0.00000000E+00  0.00000000E+00  0.00000000E+00
  0.00000000E+00  0.00000000E+00  0.00000000E+00
  0.00000000E+00  0.00000000E+00  0.00000000E+00
  0.00000000E+00  0.00000000E+00  0.00000000E+00
  0.00000000E+00  0.00000000E+00  0.00000000E+00
  0.00000000E+00  0.00000000E+00  0.00000000E+00
  0.00000000E+00  0.00000000E+00  0.00000000E+00
  0.00000000E+00  0.00000000E+00  0.00000000E+00
  0.00000000E+00  0.00000000E+00  0.00000000E+00
  0.00000000E+00  0.00000000E+00  0.00000000E+00
  0.00000000E+00  0.00000000E+00  0.00000000E+00
  0.00000000E+00  0.00000000E+00  0.00000000E+00
  0.00000000E+00  0.00000000E+00  0.00000000E+00
  0.00000000E+00  0.00000000E+00  0.00000000E+00
