B Ca O Pt                               
   1.00000000000000     
     9.6048500000000008    0.0000000000000000    0.0000000000000000
     0.0000000000000000    9.6048500000000008    0.0000000000000000
     0.0000000000000000    0.0000000000000000   24.6048000000000009
   B    Ca   O    Pt
     1    31    32     1
Selective dynamics
Direct
  0.0653239478258683  0.4355576961004402  0.3605489467475410   T   T   T
  0.2505208518868582  0.9984847784688666  0.0979353847630691   T   T   T
  0.7491287608752627  0.9983222238138482  0.0986103285433698   T   T   T
  0.9996587692331104  0.2472086034555330  0.0976063161961532   T   T   T
  0.5002690600322046  0.2482078292890741  0.0981519782078849   T   T   T
  0.2516474902197886  0.4990479256827171  0.0976064857628856   T   T   T
  0.7490933076594094  0.4991715009746666  0.0979508337064278   T   T   T
  0.9994686717692208  0.7496311774384554  0.0980177629396876   T   T   T
  0.5003528292034999  0.7494738406780370  0.0987707242395290   T   T   T
  0.9995870265231630  0.9958105175521852  0.1948182213153559   T   T   T
  0.4996744187940724  0.9983100266478561  0.1957028941948875   T   T   T
  0.2515353864594997  0.2470210027799022  0.1946257635738762   T   T   T
  0.7482368597446891  0.2496033102532593  0.1951738215633461   T   T   T
  0.9994186351002025  0.4991690892219733  0.1915499459670733   T   T   T
  0.5037295600481658  0.4996300560613796  0.1952364463699756   T   T   T
  0.2499398854429090  0.7507676983415656  0.1952708494974929   T   T   T
  0.7497833622358144  0.7478668294931624  0.1964994764907889   T   T   T
  0.2499163656488090  0.9981432178641416  0.2940080397145043   T   T   T
  0.7479863590877183  0.9985190068577384  0.2925745303868884   T   T   T
  0.9956352812326242  0.2385152659963346  0.2887167580949207   T   T   T
  0.5025271845292676  0.2467429143618558  0.2941145471244552   T   T   T
  0.2595980175801618  0.5015355737872353  0.2877544489036806   T   T   T
  0.7489288844147066  0.4993779069019989  0.2982171983867493   T   T   T
  0.9971090685618871  0.7528270378886486  0.2967322692523569   T   T   T
  0.5013211935478986  0.7523480581045782  0.2957864000210960   T   T   T
  0.9918839264443406 -0.0000352351580217  0.3961891069224004   T   T   T
  0.5026184734946662  0.9951707333225204  0.3965285952831041   T   T   T
  0.2564866190586140  0.2406321279733679  0.3900997971445606   T   T   T
  0.7441556351496049  0.2654702728944771  0.3968141371023898   T   T   T
  0.4963828771077718  0.5052597024067826  0.3908533740349747   T   T   T
  0.2320898617036098  0.7534579155198704  0.3907848261490573   T   T   T
  0.7629035481971758  0.7403091753568171  0.3984565947300025   T   T   T
  0.9999251332433668  0.9983130183096884  0.0988330196915913   T   T   T
  0.4997071415536394  0.9987485607247695  0.0989345727541201   T   T   T
  0.2497849824430767  0.2489522983053089  0.0983102469106220   T   T   T
  0.7501713232585365  0.2494614437620766  0.0985756980137874   T   T   T
  0.9999732731374156  0.4987600990555386  0.0989129123276734   T   T   T
  0.5005193998165012  0.4989996137164847  0.0991471083114017   T   T   T
  0.2494777647990144  0.7485316175047342  0.0987036815308048   T   T   T
  0.7502964231540784  0.7480993224520326  0.0991133813536728   T   T   T
  0.2491808160599252  0.9987591581576100  0.1938435405140244   T   T   T
  0.7500880015426152  0.9988346627136411  0.1936574543767385   T   T   T
  0.0000829484419671  0.2513742360256657  0.1938958545220720   T   T   T
  0.4998404493144906  0.2497267621354522  0.1939623685204308   T   T   T
  0.2477982587487433  0.4988460104833000  0.1938251960975407   T   T   T
  0.7535334758242607  0.4988542892646499  0.1951672844343910   T   T   T
  0.9999528244289625  0.7452049018804220  0.1950392315107811   T   T   T
  0.4995307699048594  0.7483089885880613  0.1944536999214880   T   T   T
  0.9996464886987181  0.0018496266054402  0.2919561111131765   T   T   T
  0.4981626168795465  0.9990576780687906  0.2928907985524842   T   T   T
  0.2492344439968445  0.2492797924526348  0.2924616170260607   T   T   T
  0.7512851062607078  0.2525788126897667  0.2923584245541767   T   T   T
  0.0119227734783132  0.4888006589484959  0.3099721338503232   T   T   T
  0.4972628829476897  0.5000610761103336  0.2932366885082721   T   T   T
  0.2468390122709031  0.7476313173988116  0.2930265885110210   T   T   T
  0.7514845617181578  0.7457468382952492  0.2934828261637220   T   T   T
  0.2429922096895774  0.0049151663940246  0.3895171573398011   T   T   T
  0.7469394204634270  0.0094211755051768  0.3814002233757602   T   T   T
  0.0124422490023935  0.3096076492436921  0.3804072864454706   T   T   T
  0.4906832473361128  0.2575344432927293  0.3883162505725253   T   T   T
  0.1925110275144251  0.4884135641568903  0.3802798510908241   T   T   T
  0.7194298162916792  0.5038615575200710  0.3892421499822941   T   T   T
  0.9966007187488001  0.7766859099137721  0.3870875425059855   T   T   T
  0.4791129286376070  0.7472165133035029  0.3892816616114820   T   T   T
  0.7523240831890627  0.0162139404179163  0.4708490210289941   T   T   T
 
  0.00000000E+00  0.00000000E+00  0.00000000E+00
  0.00000000E+00  0.00000000E+00  0.00000000E+00
  0.00000000E+00  0.00000000E+00  0.00000000E+00
  0.00000000E+00  0.00000000E+00  0.00000000E+00
  0.00000000E+00  0.00000000E+00  0.00000000E+00
  0.00000000E+00  0.00000000E+00  0.00000000E+00
  0.00000000E+00  0.00000000E+00  0.00000000E+00
  0.00000000E+00  0.00000000E+00  0.00000000E+00
  0.00000000E+00  0.00000000E+00  0.00000000E+00
  0.00000000E+00  0.00000000E+00  0.00000000E+00
  0.00000000E+00  0.00000000E+00  0.00000000E+00
  0.00000000E+00  0.00000000E+00  0.00000000E+00
  0.00000000E+00  0.00000000E+00  0.00000000E+00
  0.00000000E+00  0.00000000E+00  0.00000000E+00
  0.00000000E+00  0.00000000E+00  0.00000000E+00
  0.00000000E+00  0.00000000E+00  0.00000000E+00
  0.00000000E+00  0.00000000E+00  0.00000000E+00
  0.00000000E+00  0.00000000E+00  0.00000000E+00
  0.00000000E+00  0.00000000E+00  0.00000000E+00
  0.00000000E+00  0.00000000E+00  0.00000000E+00
  0.00000000E+00  0.00000000E+00  0.00000000E+00
  0.00000000E+00  0.00000000E+00  0.00000000E+00
  0.00000000E+00  0.00000000E+00  0.00000000E+00
  0.00000000E+00  0.00000000E+00  0.00000000E+00
  0.00000000E+00  0.00000000E+00  0.00000000E+00
  0.00000000E+00  0.00000000E+00  0.00000000E+00
  0.00000000E+00  0.00000000E+00  0.00000000E+00
  0.00000000E+00  0.00000000E+00  0.00000000E+00
  0.00000000E+00  0.00000000E+00  0.00000000E+00
  0.00000000E+00  0.00000000E+00  0.00000000E+00
  0.00000000E+00  0.00000000E+00  0.00000000E+00
  0.00000000E+00  0.00000000E+00  0.00000000E+00
  0.00000000E+00  0.00000000E+00  0.00000000E+00
  0.00000000E+00  0.00000000E+00  0.00000000E+00
  0.00000000E+00  0.00000000E+00  0.00000000E+00
  0.00000000E+00  0.00000000E+00  0.00000000E+00
  0.00000000E+00  0.00000000E+00  0.00000000E+00
  0.00000000E+00  0.00000000E+00  0.00000000E+00
  0.00000000E+00  0.00000000E+00  0.00000000E+00
  0.00000000E+00  0.00000000E+00  0.00000000E+00
  0.00000000E+00  0.00000000E+00  0.00000000E+00
  0.00000000E+00  0.00000000E+00  0.00000000E+00
  0.00000000E+00  0.00000000E+00  0.00000000E+00
  0.00000000E+00  0.00000000E+00  0.00000000E+00
  0.00000000E+00  0.00000000E+00  0.00000000E+00
  0.00000000E+00  0.00000000E+00  0.00000000E+00
  0.00000000E+00  0.00000000E+00  0.00000000E+00
  0.00000000E+00  0.00000000E+00  0.00000000E+00
  0.00000000E+00  0.00000000E+00  0.00000000E+00
  0.00000000E+00  0.00000000E+00  0.00000000E+00
  0.00000000E+00  0.00000000E+00  0.00000000E+00
  0.00000000E+00  0.00000000E+00  0.00000000E+00
  0.00000000E+00  0.00000000E+00  0.00000000E+00
  0.00000000E+00  0.00000000E+00  0.00000000E+00
  0.00000000E+00  0.00000000E+00  0.00000000E+00
  0.00000000E+00  0.00000000E+00  0.00000000E+00
  0.00000000E+00  0.00000000E+00  0.00000000E+00
  0.00000000E+00  0.00000000E+00  0.00000000E+00
  0.00000000E+00  0.00000000E+00  0.00000000E+00
  0.00000000E+00  0.00000000E+00  0.00000000E+00
  0.00000000E+00  0.00000000E+00  0.00000000E+00
  0.00000000E+00  0.00000000E+00  0.00000000E+00
  0.00000000E+00  0.00000000E+00  0.00000000E+00
  0.00000000E+00  0.00000000E+00  0.00000000E+00
  0.00000000E+00  0.00000000E+00  0.00000000E+00
