Au B Ca O                               
   1.00000000000000     
     9.6048500000000008    0.0000000000000000    0.0000000000000000
     0.0000000000000000    9.6048500000000008    0.0000000000000000
     0.0000000000000000    0.0000000000000000   24.6048000000000009
   Au   B    Ca   O 
     1     1    31    32
Selective dynamics
Direct
  0.9651109962370216  0.1706033828737616  0.4936318506293309   T   T   T
  0.9315909963016870  0.4396450435295727  0.3570341390834634   T   T   T
  0.2456895647621217  0.9963167720396374  0.0991224798883041   T   T   T
  0.7443547902064005  0.9963854552255944  0.0980265553038107   T   T   T
 -0.0045895640431385  0.2454271277870023  0.0977409676873527   T   T   T
  0.4944040293829557  0.2460781152415940  0.0983549365311372   T   T   T
  0.2451753705953945  0.4970050876458917  0.0985664813151961   T   T   T
  0.7432770136974202  0.4970831397055828  0.0976130496940885   T   T   T
 -0.0046575107428767  0.7473813869553126  0.0983370159272298   T   T   T
  0.4942922088539933  0.7474740753985724  0.0991987036929824   T   T   T
 -0.0038471899236430  0.9939260182416164  0.1949742943502520   T   T   T
  0.4949443293602766  0.9969650666582299  0.1963953914786487   T   T   T
  0.2475586437075023  0.2465596097173533  0.1958550034444079   T   T   T
  0.7432974740757091  0.2449053811683505  0.1942628166128252   T   T   T
 -0.0049167374645962  0.4974504108060656  0.1924372016115310   T   T   T
  0.4912879017072736  0.4970824260125933  0.1951467141812500   T   T   T
  0.2452333654566008  0.7470697492769686  0.1971379872509078   T   T   T
  0.7449432687742026  0.7492642039306573  0.1952726330087335   T   T   T
  0.2468750401517932 -0.0015086475319870  0.2961675626479906   T   T   T
  0.7469299789863184 -0.0008333134197751  0.2939762185371680   T   T   T
  0.9971879913732667  0.2367902938350457  0.2876308474807380   T   T   T
  0.4977513317116334  0.2458901081657695  0.2959584443603892   T   T   T
  0.2469863371208192  0.4958883184566226  0.2971830906514657   T   T   T
  0.7347671454699314  0.4985266778311634  0.2869339613438356   T   T   T
  0.9965388579549194  0.7511527785561707  0.2964733135647034   T   T   T
  0.4961911401963776  0.7495186786984201  0.2956027182907631   T   T   T
  0.0041210311951530 -0.0034380261280975  0.3967978498477920   T   T   T
  0.4966850765880504  0.9966128883543913  0.3925550906310353   T   T   T
  0.2405289671962502  0.2647563588528444  0.3955625037665728   T   T   T
  0.7522010740627596  0.2371133990171243  0.3988006919100312   T   T   T
  0.5013018896077137  0.4997725712642930  0.3908485295277640   T   T   T
  0.2368464502925409  0.7359717568758566  0.3935972503625039   T   T   T
  0.7639819411138572  0.7519696907160283  0.3905667986712040   T   T   T
 -0.0046693740683186  0.9961020917590687  0.0991038707064294   T   T   T
  0.4946105400174076  0.9966207664669066  0.0995341610393852   T   T   T
  0.2450157643623163  0.2471262866168637  0.0991385046200957   T   T   T
  0.7448444038545141  0.2468256234322174  0.0979975497584666   T   T   T
 -0.0049866245105389  0.4969421835012534  0.0992749903546992   T   T   T
  0.4936383052091147  0.4969326062434181  0.0994245556964519   T   T   T
  0.2445333106513143  0.7461155226840093  0.0998935494949136   T   T   T
  0.7450660547958885  0.7465715686305647  0.0987908222744212   T   T   T
  0.2451752678821567  0.9969132858943909  0.1948482086420638   T   T   T
  0.7459159086041338  0.9967125518553074  0.1937205162966309   T   T   T
 -0.0042819287355987  0.2491143194192803  0.1933939271827219   T   T   T
  0.4950013127271977  0.2475460214249313  0.1945278755055651   T   T   T
  0.2416882945024985  0.4967979906089700  0.1959392310361522   T   T   T
  0.7463442143634462  0.4972957135885257  0.1931950075306295   T   T   T
  0.9953033499307720  0.7439948027227934  0.1954100667577069   T   T   T
  0.4951615890227861  0.7466142302848217  0.1951719536612514   T   T   T
 -0.0026494865358690  0.0005467924680185  0.2926820760450584   T   T   T
  0.4963095610881731  0.9977112819861527  0.2943772409530774   T   T   T
  0.2449358370741602  0.2495419021045377  0.2939765321689532   T   T   T
  0.7476888515844855  0.2480339350734755  0.2908526360458086   T   T   T
  0.9819643601716032  0.4933572651071922  0.3057338139014463   T   T   T
  0.4979949995027545  0.4975622150759191  0.2935036633752926   T   T   T
  0.2446166207370191  0.7444331486209914  0.2949418467589786   T   T   T
  0.7475507825520845  0.7465649237121627  0.2928327305675814   T   T   T
  0.2505095937501470  0.0085094766993920  0.3890733334712650   T   T   T
  0.7496884112301129  0.9994555860606881  0.3869279190152721   T   T   T
  0.9894658560876975  0.3164827382040069  0.3755679212634206   T   T   T
  0.5100054356943312  0.2529099159569227  0.3911680861978296   T   T   T
  0.2778526864376778  0.4998546398372004  0.3882445348284086   T   T   T
  0.8051283516086783  0.4897205251740166  0.3781196276670213   T   T   T
  0.0021162136598592  0.7728336297576655  0.3877448803466700   T   T   T
  0.5126109716782691  0.7453529464220960  0.3900873927859529   T   T   T
 
  0.00000000E+00  0.00000000E+00  0.00000000E+00
  0.00000000E+00  0.00000000E+00  0.00000000E+00
  0.00000000E+00  0.00000000E+00  0.00000000E+00
  0.00000000E+00  0.00000000E+00  0.00000000E+00
  0.00000000E+00  0.00000000E+00  0.00000000E+00
  0.00000000E+00  0.00000000E+00  0.00000000E+00
  0.00000000E+00  0.00000000E+00  0.00000000E+00
  0.00000000E+00  0.00000000E+00  0.00000000E+00
  0.00000000E+00  0.00000000E+00  0.00000000E+00
  0.00000000E+00  0.00000000E+00  0.00000000E+00
  0.00000000E+00  0.00000000E+00  0.00000000E+00
  0.00000000E+00  0.00000000E+00  0.00000000E+00
  0.00000000E+00  0.00000000E+00  0.00000000E+00
  0.00000000E+00  0.00000000E+00  0.00000000E+00
  0.00000000E+00  0.00000000E+00  0.00000000E+00
  0.00000000E+00  0.00000000E+00  0.00000000E+00
  0.00000000E+00  0.00000000E+00  0.00000000E+00
  0.00000000E+00  0.00000000E+00  0.00000000E+00
  0.00000000E+00  0.00000000E+00  0.00000000E+00
  0.00000000E+00  0.00000000E+00  0.00000000E+00
  0.00000000E+00  0.00000000E+00  0.00000000E+00
  0.00000000E+00  0.00000000E+00  0.00000000E+00
  0.00000000E+00  0.00000000E+00  0.00000000E+00
  0.00000000E+00  0.00000000E+00  0.00000000E+00
  0.00000000E+00  0.00000000E+00  0.00000000E+00
  0.00000000E+00  0.00000000E+00  0.00000000E+00
  0.00000000E+00  0.00000000E+00  0.00000000E+00
  0.00000000E+00  0.00000000E+00  0.00000000E+00
  0.00000000E+00  0.00000000E+00  0.00000000E+00
  0.00000000E+00  0.00000000E+00  0.00000000E+00
  0.00000000E+00  0.00000000E+00  0.00000000E+00
  0.00000000E+00  0.00000000E+00  0.00000000E+00
  0.00000000E+00  0.00000000E+00  0.00000000E+00
  0.00000000E+00  0.00000000E+00  0.00000000E+00
  0.00000000E+00  0.00000000E+00  0.00000000E+00
  0.00000000E+00  0.00000000E+00  0.00000000E+00
  0.00000000E+00  0.00000000E+00  0.00000000E+00
  0.00000000E+00  0.00000000E+00  0.00000000E+00
  0.00000000E+00  0.00000000E+00  0.00000000E+00
  0.00000000E+00  0.00000000E+00  0.00000000E+00
  0.00000000E+00  0.00000000E+00  0.00000000E+00
  0.00000000E+00  0.00000000E+00  0.00000000E+00
  0.00000000E+00  0.00000000E+00  0.00000000E+00
  0.00000000E+00  0.00000000E+00  0.00000000E+00
  0.00000000E+00  0.00000000E+00  0.00000000E+00
  0.00000000E+00  0.00000000E+00  0.00000000E+00
  0.00000000E+00  0.00000000E+00  0.00000000E+00
  0.00000000E+00  0.00000000E+00  0.00000000E+00
  0.00000000E+00  0.00000000E+00  0.00000000E+00
  0.00000000E+00  0.00000000E+00  0.00000000E+00
  0.00000000E+00  0.00000000E+00  0.00000000E+00
  0.00000000E+00  0.00000000E+00  0.00000000E+00
  0.00000000E+00  0.00000000E+00  0.00000000E+00
  0.00000000E+00  0.00000000E+00  0.00000000E+00
  0.00000000E+00  0.00000000E+00  0.00000000E+00
  0.00000000E+00  0.00000000E+00  0.00000000E+00
  0.00000000E+00  0.00000000E+00  0.00000000E+00
  0.00000000E+00  0.00000000E+00  0.00000000E+00
  0.00000000E+00  0.00000000E+00  0.00000000E+00
  0.00000000E+00  0.00000000E+00  0.00000000E+00
  0.00000000E+00  0.00000000E+00  0.00000000E+00
  0.00000000E+00  0.00000000E+00  0.00000000E+00
  0.00000000E+00  0.00000000E+00  0.00000000E+00
  0.00000000E+00  0.00000000E+00  0.00000000E+00
  0.00000000E+00  0.00000000E+00  0.00000000E+00
