B Ca Ni O                               
   1.00000000000000     
     9.6048500000000008    0.0000000000000000    0.0000000000000000
     0.0000000000000000    9.6048500000000008    0.0000000000000000
     0.0000000000000000    0.0000000000000000   24.6048000000000009
   B    Ca   Ni   O 
     1    31     1    32
Selective dynamics
Direct
  0.0673737584841288  0.4377266187659358  0.3606977825187895   T   T   T
  0.2508477855638986  0.9992319460400068  0.0984342850786263   T   T   T
  0.7495323082008369  0.9990327948950601  0.0992532409437393   T   T   T
  0.0000377320914299  0.2479017246002874  0.0982774734240511   T   T   T
  0.5007341165978045  0.2487506631350778  0.0986548426876301   T   T   T
  0.2519918737129242  0.4996148220554059  0.0979141148794252   T   T   T
  0.7496393571784478  0.4996943534469137  0.0983654019739134   T   T   T
 -0.0001929939512809  0.7503628399673743  0.0984043678422571   T   T   T
  0.5007714736636676  0.7501590323274367  0.0990613795707340   T   T   T
 -0.0002490734238377  0.9965641917842859  0.1955821934646359   T   T   T
  0.5006834285919544  0.9989211160205712  0.1963519575528474   T   T   T
  0.2521994817089502  0.2476741817195987  0.1951142613619055   T   T   T
  0.7489406566943670  0.2499105620641620  0.1959936927556413   T   T   T
  0.0000164911334002  0.5000441843545869  0.1920921580441161   T   T   T
  0.5046201769325364  0.5002480800472965  0.1954794536966293   T   T   T
  0.2505620732209608  0.7515053257110074  0.1955139238405274   T   T   T
  0.7503823502077330  0.7488397537660534  0.1970704643282958   T   T   T
  0.2507859702633188 -0.0011812703257008  0.2943014747727952   T   T   T
  0.7486968319862184  0.9990627501975633  0.2948995916030768   T   T   T
  0.9970742365155248  0.2398069349384644  0.2894505650072280   T   T   T
  0.5030330964776831  0.2479281291095962  0.2947117706946601   T   T   T
  0.2609825513314915  0.5023080844739056  0.2878031669320201   T   T   T
  0.7494715756381831  0.5002166522492822  0.2985654662940287   T   T   T
 -0.0015554335785639  0.7530883814038298  0.2970423666135796   T   T   T
  0.5018436445926073  0.7523221664883725  0.2961201680990205   T   T   T
  0.9956288302319168  0.9997885722890363  0.3961809422973510   T   T   T
  0.5001509203825946  0.9950043732233058  0.3961989549496566   T   T   T
  0.2570812953582330  0.2418395871536397  0.3908728741423227   T   T   T
  0.7455172312922800  0.2688594962451848  0.3972858848483639   T   T   T
  0.4961593011413597  0.5058911731303737  0.3914253852394837   T   T   T
  0.2328645487737271  0.7523971464470964  0.3911710343110413   T   T   T
  0.7645793352726316  0.7391419150359683  0.3986075849882021   T   T   T
  0.7560492094116226  0.0198338106806945  0.4638811169219175   T   T   T
  0.0001080794853684  0.9990656258753288  0.0997512592146730   T   T   T
  0.5001768422387021  0.9993464629593670  0.0996860076441742   T   T   T
  0.2501230984326580  0.2495825004161102  0.0989840479447510   T   T   T
  0.7505664098829216  0.2499987500320618  0.0994682065623722   T   T   T
  0.0002214888135818  0.4994490742747615  0.0995169955353091   T   T   T
  0.5010761565626155  0.4994661238016624  0.0996035056729251   T   T   T
  0.2497894947420507  0.7493162355584031  0.0991214245323640   T   T   T
  0.7506743851195615  0.7487773435392409  0.0997800380878496   T   T   T
  0.2497230368127723  0.9994533292382255  0.1944932705060244   T   T   T
  0.7506415393338993  0.9994894193674653  0.1948922266064785   T   T   T
  0.0006212976746166  0.2520640271022300  0.1947370523530166   T   T   T
  0.5006699686582963  0.2502887277556520  0.1946885717446732   T   T   T
  0.2485646250800686  0.4995621725887088  0.1940416082596186   T   T   T
  0.7541819720263903  0.4994133231584812  0.1959316103992072   T   T   T
  0.0004366949558265  0.7461214466603380  0.1956844084391985   T   T   T
  0.5002387993975407  0.7489805832299391  0.1949591060077821   T   T   T
 -0.0000152405474994  0.0028632597757438  0.2931678770324827   T   T   T
  0.4994430411816622 -0.0004193300133443  0.2939394237328263   T   T   T
  0.2501670715713279  0.2500047612787926  0.2929263642428357   T   T   T
  0.7524786314135233  0.2525595941749684  0.2937453327482904   T   T   T
  0.0137336506738932  0.4906217066554576  0.3101500247432163   T   T   T
  0.4983068427573866  0.5007164450970993  0.2935943567382054   T   T   T
  0.2477688730787752  0.7483177463002122  0.2932714286806560   T   T   T
  0.7524607933660334  0.7465721019646759  0.2943730910711755   T   T   T
  0.2443114295287908  0.0055875491331261  0.3895463513570045   T   T   T
  0.7469145086658584  0.0064027982353444  0.3857040289226092   T   T   T
  0.0142119984399052  0.3125473762868189  0.3807376246024459   T   T   T
  0.4914098724912999  0.2582155453897900  0.3887661037256205   T   T   T
  0.1949603243706743  0.4902347817980967  0.3802368246530365   T   T   T
  0.7194138606208165  0.5048792546064829  0.3895514783794469   T   T   T
  0.9976615177123822  0.7764271012921572  0.3875370373537517   T   T   T
  0.4788974326555255  0.7475065421769450  0.3895960900624338   T   T   T
 
  0.00000000E+00  0.00000000E+00  0.00000000E+00
  0.00000000E+00  0.00000000E+00  0.00000000E+00
  0.00000000E+00  0.00000000E+00  0.00000000E+00
  0.00000000E+00  0.00000000E+00  0.00000000E+00
  0.00000000E+00  0.00000000E+00  0.00000000E+00
  0.00000000E+00  0.00000000E+00  0.00000000E+00
  0.00000000E+00  0.00000000E+00  0.00000000E+00
  0.00000000E+00  0.00000000E+00  0.00000000E+00
  0.00000000E+00  0.00000000E+00  0.00000000E+00
  0.00000000E+00  0.00000000E+00  0.00000000E+00
  0.00000000E+00  0.00000000E+00  0.00000000E+00
  0.00000000E+00  0.00000000E+00  0.00000000E+00
  0.00000000E+00  0.00000000E+00  0.00000000E+00
  0.00000000E+00  0.00000000E+00  0.00000000E+00
  0.00000000E+00  0.00000000E+00  0.00000000E+00
  0.00000000E+00  0.00000000E+00  0.00000000E+00
  0.00000000E+00  0.00000000E+00  0.00000000E+00
  0.00000000E+00  0.00000000E+00  0.00000000E+00
  0.00000000E+00  0.00000000E+00  0.00000000E+00
  0.00000000E+00  0.00000000E+00  0.00000000E+00
  0.00000000E+00  0.00000000E+00  0.00000000E+00
  0.00000000E+00  0.00000000E+00  0.00000000E+00
  0.00000000E+00  0.00000000E+00  0.00000000E+00
  0.00000000E+00  0.00000000E+00  0.00000000E+00
  0.00000000E+00  0.00000000E+00  0.00000000E+00
  0.00000000E+00  0.00000000E+00  0.00000000E+00
  0.00000000E+00  0.00000000E+00  0.00000000E+00
  0.00000000E+00  0.00000000E+00  0.00000000E+00
  0.00000000E+00  0.00000000E+00  0.00000000E+00
  0.00000000E+00  0.00000000E+00  0.00000000E+00
  0.00000000E+00  0.00000000E+00  0.00000000E+00
  0.00000000E+00  0.00000000E+00  0.00000000E+00
  0.00000000E+00  0.00000000E+00  0.00000000E+00
  0.00000000E+00  0.00000000E+00  0.00000000E+00
  0.00000000E+00  0.00000000E+00  0.00000000E+00
  0.00000000E+00  0.00000000E+00  0.00000000E+00
  0.00000000E+00  0.00000000E+00  0.00000000E+00
  0.00000000E+00  0.00000000E+00  0.00000000E+00
  0.00000000E+00  0.00000000E+00  0.00000000E+00
  0.00000000E+00  0.00000000E+00  0.00000000E+00
  0.00000000E+00  0.00000000E+00  0.00000000E+00
  0.00000000E+00  0.00000000E+00  0.00000000E+00
  0.00000000E+00  0.00000000E+00  0.00000000E+00
  0.00000000E+00  0.00000000E+00  0.00000000E+00
  0.00000000E+00  0.00000000E+00  0.00000000E+00
  0.00000000E+00  0.00000000E+00  0.00000000E+00
  0.00000000E+00  0.00000000E+00  0.00000000E+00
  0.00000000E+00  0.00000000E+00  0.00000000E+00
  0.00000000E+00  0.00000000E+00  0.00000000E+00
  0.00000000E+00  0.00000000E+00  0.00000000E+00
  0.00000000E+00  0.00000000E+00  0.00000000E+00
  0.00000000E+00  0.00000000E+00  0.00000000E+00
  0.00000000E+00  0.00000000E+00  0.00000000E+00
  0.00000000E+00  0.00000000E+00  0.00000000E+00
  0.00000000E+00  0.00000000E+00  0.00000000E+00
  0.00000000E+00  0.00000000E+00  0.00000000E+00
  0.00000000E+00  0.00000000E+00  0.00000000E+00
  0.00000000E+00  0.00000000E+00  0.00000000E+00
  0.00000000E+00  0.00000000E+00  0.00000000E+00
  0.00000000E+00  0.00000000E+00  0.00000000E+00
  0.00000000E+00  0.00000000E+00  0.00000000E+00
  0.00000000E+00  0.00000000E+00  0.00000000E+00
  0.00000000E+00  0.00000000E+00  0.00000000E+00
  0.00000000E+00  0.00000000E+00  0.00000000E+00
  0.00000000E+00  0.00000000E+00  0.00000000E+00
