B Ca O                                  
   1.00000000000000     
     9.6048500000000008    0.0000000000000000    0.0000000000000000
     0.0000000000000000    9.6048500000000008    0.0000000000000000
     0.0000000000000000    0.0000000000000000   24.6048000000000009
   B    Ca   O 
     1    31    32
Selective dynamics
Direct
  0.0651202061233325  0.4354861525681205  0.3607145439867203   T   T   T
  0.2503466178170194  0.9986040300384047  0.0968218726052548   T   T   T
  0.7490405209119493  0.9984046881825567  0.0974803808072434   T   T   T
  0.9997141211194133  0.2474839036624155  0.0962281360526891   T   T   T
  0.5001323667238198  0.2483732680716763  0.0969991208308819   T   T   T
  0.2514764732012070  0.4990987564220652  0.0963632666069619   T   T   T
  0.7491102799539849  0.4991259772214343  0.0965105127604792   T   T   T
  0.9995066720185484  0.7495778691626204  0.0964811128434344   T   T   T
  0.5001478746787240  0.7494051844497567  0.0976574425716825   T   T   T
  0.9987066452251502  0.9958868251586565  0.1942994065214186   T   T   T
  0.5005443105939833  0.9983623771804616  0.1952245564346320   T   T   T
  0.2515222183209483  0.2473225938644357  0.1938521585859606   T   T   T
  0.7484330477976423  0.2487689280210089  0.1947077575211798   T   T   T
  0.9994805011453528  0.4994102215317933  0.1909139456125817   T   T   T
  0.5034271264194956  0.4995999472637010  0.1944825835458492   T   T   T
  0.2496863003121616  0.7506824572093046  0.1945879885951338   T   T   T
  0.7500395166164242  0.7487655786671999  0.1960391518801686   T   T   T
  0.2499772410997846  0.9987826038537347  0.2929790152826930   T   T   T
  0.7481535618779955  0.9990718710953513  0.2951719988696743   T   T   T
  0.9979284917635414  0.2400896443930950  0.2879673686758016   T   T   T
  0.5001774528819616  0.2482153600100764  0.2932373979815442   T   T   T
  0.2593025502671023  0.5012375245704619  0.2875943277821803   T   T   T
  0.7478742236294046  0.4993906072725389  0.2964547171321647   T   T   T
  0.9991081351200636  0.7513316852592663  0.2962231533711997   T   T   T
  0.4995204500412480  0.7506385499072620  0.2947079095906577   T   T   T
  0.9933677803936892  0.0008905660745392  0.3920215054247786   T   T   T
  0.5017920201027462  0.9960079189303922  0.3923580715950405   T   T   T
  0.2570985117877246  0.2409207550298829  0.3915688053951025   T   T   T
  0.7446177254965280  0.2658914108349786  0.3917816164189972   T   T   T
  0.4958225829653428  0.5046045663897640  0.3915305758825919   T   T   T
  0.2324610387609730  0.7535548352350325  0.3913302757275839   T   T   T
  0.7597672164127379  0.7377992096022417  0.3936884730691652   T   T   T
  0.9994574118118104  0.9981549662247164  0.0997271318174518   T   T   T
  0.4998077106778068  0.9987521043691213  0.0999402353362096   T   T   T
  0.2498551701213098  0.2490016314132520  0.0991649103448483   T   T   T
  0.7499558787390729  0.2493025202323505  0.0996418558111673   T   T   T
  0.9996752420590046  0.4990623321745802  0.0994541481427191   T   T   T
  0.5007009264040729  0.4990163958502025  0.1000167326847416   T   T   T
  0.2493257149370648  0.7487369395875335  0.0996458851727093   T   T   T
  0.7502366905911446  0.7482119666120534  0.1002910967261365   T   T   T
  0.2489844848295517  0.9988552019022054  0.1946115043973081   T   T   T
  0.7500828338692254  0.9989673050552985  0.1953230049318258   T   T   T
  0.9998887949705734  0.2511103966673853  0.1943002324976151   T   T   T
  0.5002190044672969  0.2494959181974215  0.1948422964499970   T   T   T
  0.2478512471791856  0.4989378658442692  0.1941685146443984   T   T   T
  0.7534925895211375  0.4987259583560544  0.1965133929507753   T   T   T
  0.9997638155202828  0.7456541023802911  0.1963004637239524   T   T   T
  0.4997261706491167  0.7485485298628357  0.1953813666126227   T   T   T
  0.9982849189431803  0.0024582049526042  0.2940177358996612   T   T   T
  0.4998161054739466  0.9989882777228655  0.2946973051765191   T   T   T
  0.2495673309997255  0.2493764106698631  0.2929368867697572   T   T   T
  0.7515338549099712  0.2512532464983447  0.2945006305775358   T   T   T
  0.0114297286127350  0.4892758137480501  0.3103391858276567   T   T   T
  0.4967253100226998  0.4997831241550645  0.2938575325549250   T   T   T
  0.2472112517145107  0.7477864531964304  0.2939104156390844   T   T   T
  0.7516339581951328  0.7469049101500278  0.2954525960920572   T   T   T
  0.2433059631721046  0.0044186751064581  0.3882864273094216   T   T   T
  0.7488266837468405  0.0126200329360959  0.3900967691043439   T   T   T
  0.0116053406448919  0.3092989481223429  0.3804727811542967   T   T   T
  0.4936810946867235  0.2540373228888613  0.3887021433871173   T   T   T
  0.1923476423008743  0.4879971463501951  0.3802844711053384   T   T   T
  0.7189154413926390  0.5029429629372844  0.3880712520371515   T   T   T
  0.9949746819353872  0.7780591863449871  0.3879931584154799   T   T   T
  0.4845348111829420  0.7490676339007198  0.3895456940527483   T   T   T
 
  0.00000000E+00  0.00000000E+00  0.00000000E+00
  0.00000000E+00  0.00000000E+00  0.00000000E+00
  0.00000000E+00  0.00000000E+00  0.00000000E+00
  0.00000000E+00  0.00000000E+00  0.00000000E+00
  0.00000000E+00  0.00000000E+00  0.00000000E+00
  0.00000000E+00  0.00000000E+00  0.00000000E+00
  0.00000000E+00  0.00000000E+00  0.00000000E+00
  0.00000000E+00  0.00000000E+00  0.00000000E+00
  0.00000000E+00  0.00000000E+00  0.00000000E+00
  0.00000000E+00  0.00000000E+00  0.00000000E+00
  0.00000000E+00  0.00000000E+00  0.00000000E+00
  0.00000000E+00  0.00000000E+00  0.00000000E+00
  0.00000000E+00  0.00000000E+00  0.00000000E+00
  0.00000000E+00  0.00000000E+00  0.00000000E+00
  0.00000000E+00  0.00000000E+00  0.00000000E+00
  0.00000000E+00  0.00000000E+00  0.00000000E+00
  0.00000000E+00  0.00000000E+00  0.00000000E+00
  0.00000000E+00  0.00000000E+00  0.00000000E+00
  0.00000000E+00  0.00000000E+00  0.00000000E+00
  0.00000000E+00  0.00000000E+00  0.00000000E+00
  0.00000000E+00  0.00000000E+00  0.00000000E+00
  0.00000000E+00  0.00000000E+00  0.00000000E+00
  0.00000000E+00  0.00000000E+00  0.00000000E+00
  0.00000000E+00  0.00000000E+00  0.00000000E+00
  0.00000000E+00  0.00000000E+00  0.00000000E+00
  0.00000000E+00  0.00000000E+00  0.00000000E+00
  0.00000000E+00  0.00000000E+00  0.00000000E+00
  0.00000000E+00  0.00000000E+00  0.00000000E+00
  0.00000000E+00  0.00000000E+00  0.00000000E+00
  0.00000000E+00  0.00000000E+00  0.00000000E+00
  0.00000000E+00  0.00000000E+00  0.00000000E+00
  0.00000000E+00  0.00000000E+00  0.00000000E+00
  0.00000000E+00  0.00000000E+00  0.00000000E+00
  0.00000000E+00  0.00000000E+00  0.00000000E+00
  0.00000000E+00  0.00000000E+00  0.00000000E+00
  0.00000000E+00  0.00000000E+00  0.00000000E+00
  0.00000000E+00  0.00000000E+00  0.00000000E+00
  0.00000000E+00  0.00000000E+00  0.00000000E+00
  0.00000000E+00  0.00000000E+00  0.00000000E+00
  0.00000000E+00  0.00000000E+00  0.00000000E+00
  0.00000000E+00  0.00000000E+00  0.00000000E+00
  0.00000000E+00  0.00000000E+00  0.00000000E+00
  0.00000000E+00  0.00000000E+00  0.00000000E+00
  0.00000000E+00  0.00000000E+00  0.00000000E+00
  0.00000000E+00  0.00000000E+00  0.00000000E+00
  0.00000000E+00  0.00000000E+00  0.00000000E+00
  0.00000000E+00  0.00000000E+00  0.00000000E+00
  0.00000000E+00  0.00000000E+00  0.00000000E+00
  0.00000000E+00  0.00000000E+00  0.00000000E+00
  0.00000000E+00  0.00000000E+00  0.00000000E+00
  0.00000000E+00  0.00000000E+00  0.00000000E+00
  0.00000000E+00  0.00000000E+00  0.00000000E+00
  0.00000000E+00  0.00000000E+00  0.00000000E+00
  0.00000000E+00  0.00000000E+00  0.00000000E+00
  0.00000000E+00  0.00000000E+00  0.00000000E+00
  0.00000000E+00  0.00000000E+00  0.00000000E+00
  0.00000000E+00  0.00000000E+00  0.00000000E+00
  0.00000000E+00  0.00000000E+00  0.00000000E+00
  0.00000000E+00  0.00000000E+00  0.00000000E+00
  0.00000000E+00  0.00000000E+00  0.00000000E+00
  0.00000000E+00  0.00000000E+00  0.00000000E+00
  0.00000000E+00  0.00000000E+00  0.00000000E+00
  0.00000000E+00  0.00000000E+00  0.00000000E+00
  0.00000000E+00  0.00000000E+00  0.00000000E+00
