B Ca O Ir                               
   1.00000000000000     
     9.6048500000000008    0.0000000000000000    0.0000000000000000
     0.0000000000000000    9.6048500000000008    0.0000000000000000
     0.0000000000000000    0.0000000000000000   24.6048000000000009
   B    Ca   O    Ir
     1    31    32     1
Selective dynamics
Direct
  0.0653758725455013  0.4364371688489779  0.3603875929443038   T   T   T
  0.2505412170837589  0.9984974253822517  0.0980149748633646   T   T   T
  0.7491334826422928  0.9983180605444312  0.0988204388955375   T   T   T
  0.9996794862852395  0.2472466482174032  0.0976935313598527   T   T   T
  0.5002756896043675  0.2482274974869064  0.0982234500522320   T   T   T
  0.2516585287383405  0.4990156542785233  0.0976541007237249   T   T   T
  0.7491648047520381  0.4991313865646658  0.0980194506053277   T   T   T
  0.9994913102083299  0.7495712797127085  0.0980636873866273   T   T   T
  0.5003468926509417  0.7494506764981044  0.0988046359968403   T   T   T
  0.9995663112309708  0.9958069177456048  0.1948890613445480   T   T   T
  0.4997091301238875  0.9982938611870306  0.1957915029720645   T   T   T
  0.2515869515383150  0.2469773066883742  0.1946683999541801   T   T   T
  0.7482200432904254  0.2496529032833761  0.1953070401231768   T   T   T
  0.9993867605162828  0.4992108938847017  0.1916781371303309   T   T   T
  0.5039922919022274  0.4996694253006692  0.1953010202388125   T   T   T
  0.2500098771041589  0.7507898948031877  0.1952660970854522   T   T   T
  0.7497438865879293  0.7477615294497099  0.1965761715735969   T   T   T
  0.2499846019074456  0.9979773729225163  0.2940191153320484   T   T   T
  0.7478989527523880  0.9984079880107820  0.2931764887029736   T   T   T
  0.9955365892596485  0.2386026286120076  0.2888301894092790   T   T   T
  0.5027208120872531  0.2468666848121040  0.2943109176023526   T   T   T
  0.2599590014810790  0.5016679703658665  0.2875651934646861   T   T   T
  0.7490814060041393  0.4996943133772596  0.2986138895395158   T   T   T
  0.9970250378685978  0.7529222135440492  0.2966914948547824   T   T   T
  0.5014889504158064  0.7523971733490281  0.2959967510262109   T   T   T
  0.9953303275435149 -0.0005944900571016  0.3965683113602881   T   T   T
  0.4986555856941182  0.9947138819110917  0.3970741856011895   T   T   T
  0.2563208899173945  0.2415006994637647  0.3898008497035949   T   T   T
  0.7444786631808061  0.2674591619752367  0.3975399929068991   T   T   T
  0.4959780750448139  0.5056229446712194  0.3907485139408094   T   T   T
  0.2319244314050226  0.7515157417198230  0.3904629275465189   T   T   T
  0.7645777994677987  0.7397260262698461  0.3994669413827180   T   T   T
  0.9998474929117172  0.9983112867044021  0.0989476200410271   T   T   T
  0.4998246445682810  0.9987801046266697  0.0990309966628874   T   T   T
  0.2498102163872517  0.2488550050840645  0.0983527033706317   T   T   T
  0.7501786586363068  0.2493388998618148  0.0987046550901843   T   T   T
  0.9999225793730722  0.4987167184301369  0.0989753884836891   T   T   T
  0.5006420268341752  0.4989834061675549  0.0991660764566965   T   T   T
  0.2494901026512450  0.7486032427518572  0.0986865384619166   T   T   T
  0.7503041924882838  0.7481656794597260  0.0991778372802866   T   T   T
  0.2492103271758250  0.9987927529103486  0.1939714297995942   T   T   T
  0.7500681018631089  0.9988485910682202  0.1942994812434275   T   T   T
  0.0000017366393954  0.2512880287848920  0.1940333646649460   T   T   T
  0.4999145624697671  0.2496907054246329  0.1940472910771048   T   T   T
  0.2478909672495413  0.4987904753774880  0.1938211241479318   T   T   T
  0.7536402216197011  0.4987687588425004  0.1953446711198528   T   T   T
  0.9999047048451348  0.7452657917096071  0.1950425924081070   T   T   T
  0.4995896575636342  0.7483944029156198  0.1944848332648486   T   T   T
  0.9994017283491622  0.0019997286217852  0.2921618341830580   T   T   T
  0.4984783329803248  0.9991522621997572  0.2930975317142755   T   T   T
  0.2490909007386860  0.2491899103294905  0.2924663014817996   T   T   T
  0.7513760874635949  0.2520121398712470  0.2927097860945430   T   T   T
  0.0119764146318355  0.4892175404847761  0.3097866413137608   T   T   T
  0.4976115781795661  0.5002367955313728  0.2932564993566396   T   T   T
  0.2468302149331976  0.7476842783728440  0.2928448422027434   T   T   T
  0.7514559217867575  0.7461267258266645  0.2935342895408766   T   T   T
  0.2436025557369655  0.0052755104465305  0.3897852440453508   T   T   T
  0.7465679912706989  0.0071964684717509  0.3827654483186669   T   T   T
  0.0126751663727322  0.3107597918893056  0.3803556997526715   T   T   T
  0.4894767510827107  0.2589332205306435  0.3881054609748128   T   T   T
  0.1926667017418626  0.4890142953015612  0.3799924136036429   T   T   T
  0.7191841749988922  0.5046179130327225  0.3897767681512193   T   T   T
  0.9977374002689112  0.7755654134731146  0.3868571808315807   T   T   T
  0.4767362957212728  0.7463873279037745  0.3891591071878942   T   T   T
  0.7516966212395680  0.0147064704970020  0.4630816784034904   T   T   T
 
  0.00000000E+00  0.00000000E+00  0.00000000E+00
  0.00000000E+00  0.00000000E+00  0.00000000E+00
  0.00000000E+00  0.00000000E+00  0.00000000E+00
  0.00000000E+00  0.00000000E+00  0.00000000E+00
  0.00000000E+00  0.00000000E+00  0.00000000E+00
  0.00000000E+00  0.00000000E+00  0.00000000E+00
  0.00000000E+00  0.00000000E+00  0.00000000E+00
  0.00000000E+00  0.00000000E+00  0.00000000E+00
  0.00000000E+00  0.00000000E+00  0.00000000E+00
  0.00000000E+00  0.00000000E+00  0.00000000E+00
  0.00000000E+00  0.00000000E+00  0.00000000E+00
  0.00000000E+00  0.00000000E+00  0.00000000E+00
  0.00000000E+00  0.00000000E+00  0.00000000E+00
  0.00000000E+00  0.00000000E+00  0.00000000E+00
  0.00000000E+00  0.00000000E+00  0.00000000E+00
  0.00000000E+00  0.00000000E+00  0.00000000E+00
  0.00000000E+00  0.00000000E+00  0.00000000E+00
  0.00000000E+00  0.00000000E+00  0.00000000E+00
  0.00000000E+00  0.00000000E+00  0.00000000E+00
  0.00000000E+00  0.00000000E+00  0.00000000E+00
  0.00000000E+00  0.00000000E+00  0.00000000E+00
  0.00000000E+00  0.00000000E+00  0.00000000E+00
  0.00000000E+00  0.00000000E+00  0.00000000E+00
  0.00000000E+00  0.00000000E+00  0.00000000E+00
  0.00000000E+00  0.00000000E+00  0.00000000E+00
  0.00000000E+00  0.00000000E+00  0.00000000E+00
  0.00000000E+00  0.00000000E+00  0.00000000E+00
  0.00000000E+00  0.00000000E+00  0.00000000E+00
  0.00000000E+00  0.00000000E+00  0.00000000E+00
  0.00000000E+00  0.00000000E+00  0.00000000E+00
  0.00000000E+00  0.00000000E+00  0.00000000E+00
  0.00000000E+00  0.00000000E+00  0.00000000E+00
  0.00000000E+00  0.00000000E+00  0.00000000E+00
  0.00000000E+00  0.00000000E+00  0.00000000E+00
  0.00000000E+00  0.00000000E+00  0.00000000E+00
  0.00000000E+00  0.00000000E+00  0.00000000E+00
  0.00000000E+00  0.00000000E+00  0.00000000E+00
  0.00000000E+00  0.00000000E+00  0.00000000E+00
  0.00000000E+00  0.00000000E+00  0.00000000E+00
  0.00000000E+00  0.00000000E+00  0.00000000E+00
  0.00000000E+00  0.00000000E+00  0.00000000E+00
  0.00000000E+00  0.00000000E+00  0.00000000E+00
  0.00000000E+00  0.00000000E+00  0.00000000E+00
  0.00000000E+00  0.00000000E+00  0.00000000E+00
  0.00000000E+00  0.00000000E+00  0.00000000E+00
  0.00000000E+00  0.00000000E+00  0.00000000E+00
  0.00000000E+00  0.00000000E+00  0.00000000E+00
  0.00000000E+00  0.00000000E+00  0.00000000E+00
  0.00000000E+00  0.00000000E+00  0.00000000E+00
  0.00000000E+00  0.00000000E+00  0.00000000E+00
  0.00000000E+00  0.00000000E+00  0.00000000E+00
  0.00000000E+00  0.00000000E+00  0.00000000E+00
  0.00000000E+00  0.00000000E+00  0.00000000E+00
  0.00000000E+00  0.00000000E+00  0.00000000E+00
  0.00000000E+00  0.00000000E+00  0.00000000E+00
  0.00000000E+00  0.00000000E+00  0.00000000E+00
  0.00000000E+00  0.00000000E+00  0.00000000E+00
  0.00000000E+00  0.00000000E+00  0.00000000E+00
  0.00000000E+00  0.00000000E+00  0.00000000E+00
  0.00000000E+00  0.00000000E+00  0.00000000E+00
  0.00000000E+00  0.00000000E+00  0.00000000E+00
  0.00000000E+00  0.00000000E+00  0.00000000E+00
  0.00000000E+00  0.00000000E+00  0.00000000E+00
  0.00000000E+00  0.00000000E+00  0.00000000E+00
  0.00000000E+00  0.00000000E+00  0.00000000E+00
