B Ca O Pd                               
   1.00000000000000     
     9.6048500000000008    0.0000000000000000    0.0000000000000000
     0.0000000000000000    9.6048500000000008    0.0000000000000000
     0.0000000000000000    0.0000000000000000   24.6048000000000009
   B    Ca   O    Pd
     1    31    32     1
Selective dynamics
Direct
  0.0674278951458552  0.4372224588218636  0.3608661667532911   T   T   T
  0.2507138767372823  0.9991143942059930  0.0983864332119646   T   T   T
  0.7494698453841948  0.9989479680125898  0.0989952440289000   T   T   T
  0.9999956734936820  0.2477994426032021  0.0981575991035367   T   T   T
  0.5006096083687899  0.2486874066068765  0.0985512264073137   T   T   T
  0.2517857016976734  0.4994958031238708  0.0979211905855263   T   T   T
  0.7495584394446675  0.4996104801744781  0.0982361480003742   T   T   T
  0.9997912329419545  0.7501695976225479  0.0983221959600535   T   T   T
  0.5006382935130623  0.7500220845981285  0.0990052599228035   T   T   T
  0.9997557737614303  0.9965078830326867  0.1952888142560247   T   T   T
  0.5004648305054903  0.9988263185836138  0.1960719929782782   T   T   T
  0.2521428968639655  0.2476018626229567  0.1950756614744330   T   T   T
  0.7488458208367295  0.2498426436923590  0.1957185626357081   T   T   T
  0.9999529199730978  0.4998398312131802  0.1920365599613411   T   T   T
  0.5043810952419907  0.5002164304606633  0.1954906413360095   T   T   T
  0.2504186935819429  0.7514769447164666  0.1955297167364582   T   T   T
  0.7502761076924711  0.7486556374326845  0.1968382745236669   T   T   T
  0.2505902929864082  0.9989037051419637  0.2942442031372078   T   T   T
  0.7487122688214162  0.9990914359641088  0.2943253276837770   T   T   T
  0.9970909180521642  0.2396079008138770  0.2893625174762375   T   T   T
  0.5030674398399170  0.2476101218860245  0.2946111175468945   T   T   T
  0.2608339512839338  0.5022917734546413  0.2879392092573836   T   T   T
  0.7495509811575398  0.4997571858728888  0.2984482457905788   T   T   T
  0.9983314239166757  0.7533910975309731  0.2970351055228294   T   T   T
  0.5018431958607892  0.7525751242259409  0.2960730792472563   T   T   T
  0.9937615349600432  0.9999887286194904  0.3962525350410555   T   T   T
  0.5022758892953846  0.9957866033759777  0.3961943478698738   T   T   T
  0.2573331304573432  0.2412507606014756  0.3909934655698514   T   T   T
  0.7455685078747945  0.2676127224397112  0.3971695157740175   T   T   T
  0.4962561340943201  0.5057562831322191  0.3913838502715212   T   T   T
  0.2329866579682947  0.7536326280309295  0.3912980614581411   T   T   T
  0.7635305819642533  0.7395397527624977  0.3981206164491137   T   T   T
  0.0000079171995522  0.9988572004895055  0.0994573687628671   T   T   T
  0.5000230634373343  0.9993770007405659  0.0993817502752626   T   T   T
  0.2500490114763121  0.2494053718944026  0.0989033499339450   T   T   T
  0.7503715601920161  0.2497782801322950  0.0991853563525094   T   T   T
  0.0002436981644190  0.4993114821153753  0.0994014513961150   T   T   T
  0.5008148204448629  0.4994437714119899  0.0995032961767113   T   T   T
  0.2496969484884967  0.7491626863349764  0.0990641268344212   T   T   T
  0.7506111686388014  0.7487091584371902  0.0995144459190206   T   T   T
  0.2496533961690068  0.9993901661909241  0.1942824658781715   T   T   T
  0.7504801034534235  0.9994150544567179  0.1944267759765194   T   T   T
  0.0005970645985742  0.2520685972023705  0.1944301109608670   T   T   T
  0.5005529967222807  0.2501185201554306  0.1944572833280764   T   T   T
  0.2483857491806634  0.4994814179684335  0.1941633446556421   T   T   T
  0.7541020026991482  0.4993638078421095  0.1955982032471776   T   T   T
  0.0003429880210400  0.7459654220101549  0.1954707707032838   T   T   T
  0.5001338724521893  0.7489731188284353  0.1948166795253072   T   T   T
 -0.0000131072183932  0.0025486481436878  0.2927653034171327   T   T   T
  0.4991370439856706  0.9995691539513555  0.2935627945581039   T   T   T
  0.2501579901527439  0.2498912428203409  0.2929136496121810   T   T   T
  0.7524785310658697  0.2526182976845825  0.2933187598873375   T   T   T
  0.0140637308105558  0.4903962748381914  0.3102366819530802   T   T   T
  0.4983203752186380  0.5005502692933949  0.2935359386566178   T   T   T
  0.2478499926304151  0.7485766719278394  0.2932892649789591   T   T   T
  0.7522519036235933  0.7462936171295492  0.2940105206536496   T   T   T
  0.2440201459694358  0.0055863683340469  0.3894970520148657   T   T   T
  0.7470152928290752  0.0072219865296948  0.3840321109551189   T   T   T
  0.0142749358146097  0.3115536713663387  0.3807630191542781   T   T   T
  0.4916875877722505  0.2574951945826068  0.3887015294054974   T   T   T
  0.1947291547246605  0.4898393235291119  0.3805839319504996   T   T   T
  0.7193613851222719  0.5045913918692925  0.3893028103148798   T   T   T
  0.9975658809543726  0.7766934724005252  0.3874373577786032   T   T   T
  0.4803452844455255  0.7478627659498389  0.3896628591305377   T   T   T
  0.7589185359390248  0.0249600552138317  0.4733509010393614   T   T   T
 
  0.00000000E+00  0.00000000E+00  0.00000000E+00
  0.00000000E+00  0.00000000E+00  0.00000000E+00
  0.00000000E+00  0.00000000E+00  0.00000000E+00
  0.00000000E+00  0.00000000E+00  0.00000000E+00
  0.00000000E+00  0.00000000E+00  0.00000000E+00
  0.00000000E+00  0.00000000E+00  0.00000000E+00
  0.00000000E+00  0.00000000E+00  0.00000000E+00
  0.00000000E+00  0.00000000E+00  0.00000000E+00
  0.00000000E+00  0.00000000E+00  0.00000000E+00
  0.00000000E+00  0.00000000E+00  0.00000000E+00
  0.00000000E+00  0.00000000E+00  0.00000000E+00
  0.00000000E+00  0.00000000E+00  0.00000000E+00
  0.00000000E+00  0.00000000E+00  0.00000000E+00
  0.00000000E+00  0.00000000E+00  0.00000000E+00
  0.00000000E+00  0.00000000E+00  0.00000000E+00
  0.00000000E+00  0.00000000E+00  0.00000000E+00
  0.00000000E+00  0.00000000E+00  0.00000000E+00
  0.00000000E+00  0.00000000E+00  0.00000000E+00
  0.00000000E+00  0.00000000E+00  0.00000000E+00
  0.00000000E+00  0.00000000E+00  0.00000000E+00
  0.00000000E+00  0.00000000E+00  0.00000000E+00
  0.00000000E+00  0.00000000E+00  0.00000000E+00
  0.00000000E+00  0.00000000E+00  0.00000000E+00
  0.00000000E+00  0.00000000E+00  0.00000000E+00
  0.00000000E+00  0.00000000E+00  0.00000000E+00
  0.00000000E+00  0.00000000E+00  0.00000000E+00
  0.00000000E+00  0.00000000E+00  0.00000000E+00
  0.00000000E+00  0.00000000E+00  0.00000000E+00
  0.00000000E+00  0.00000000E+00  0.00000000E+00
  0.00000000E+00  0.00000000E+00  0.00000000E+00
  0.00000000E+00  0.00000000E+00  0.00000000E+00
  0.00000000E+00  0.00000000E+00  0.00000000E+00
  0.00000000E+00  0.00000000E+00  0.00000000E+00
  0.00000000E+00  0.00000000E+00  0.00000000E+00
  0.00000000E+00  0.00000000E+00  0.00000000E+00
  0.00000000E+00  0.00000000E+00  0.00000000E+00
  0.00000000E+00  0.00000000E+00  0.00000000E+00
  0.00000000E+00  0.00000000E+00  0.00000000E+00
  0.00000000E+00  0.00000000E+00  0.00000000E+00
  0.00000000E+00  0.00000000E+00  0.00000000E+00
  0.00000000E+00  0.00000000E+00  0.00000000E+00
  0.00000000E+00  0.00000000E+00  0.00000000E+00
  0.00000000E+00  0.00000000E+00  0.00000000E+00
  0.00000000E+00  0.00000000E+00  0.00000000E+00
  0.00000000E+00  0.00000000E+00  0.00000000E+00
  0.00000000E+00  0.00000000E+00  0.00000000E+00
  0.00000000E+00  0.00000000E+00  0.00000000E+00
  0.00000000E+00  0.00000000E+00  0.00000000E+00
  0.00000000E+00  0.00000000E+00  0.00000000E+00
  0.00000000E+00  0.00000000E+00  0.00000000E+00
  0.00000000E+00  0.00000000E+00  0.00000000E+00
  0.00000000E+00  0.00000000E+00  0.00000000E+00
  0.00000000E+00  0.00000000E+00  0.00000000E+00
  0.00000000E+00  0.00000000E+00  0.00000000E+00
  0.00000000E+00  0.00000000E+00  0.00000000E+00
  0.00000000E+00  0.00000000E+00  0.00000000E+00
  0.00000000E+00  0.00000000E+00  0.00000000E+00
  0.00000000E+00  0.00000000E+00  0.00000000E+00
  0.00000000E+00  0.00000000E+00  0.00000000E+00
  0.00000000E+00  0.00000000E+00  0.00000000E+00
  0.00000000E+00  0.00000000E+00  0.00000000E+00
  0.00000000E+00  0.00000000E+00  0.00000000E+00
  0.00000000E+00  0.00000000E+00  0.00000000E+00
  0.00000000E+00  0.00000000E+00  0.00000000E+00
  0.00000000E+00  0.00000000E+00  0.00000000E+00
