B Ca O Pt                               
   1.00000000000000     
     9.6048500000000008    0.0000000000000000    0.0000000000000000
     0.0000000000000000    9.6048500000000008    0.0000000000000000
     0.0000000000000000    0.0000000000000000   24.6048000000000009
   B    Ca   O    Pt
     1    31    32     1
Selective dynamics
Direct
  0.0669536531639172  0.4366968445870492  0.3610793024383796   T   T   T
  0.2507258012741828  0.9991429291549027  0.0983072154686549   T   T   T
  0.7494465623361596  0.9989598107431974  0.0988531570224904   T   T   T
  0.0000659035848335  0.2478355472936672  0.0982330185494175   T   T   T
  0.5007135428127636  0.2488122048801658  0.0985970858796716   T   T   T
  0.2520103644299198  0.4995269933031380  0.0981614793438001   T   T   T
  0.7495760493455357  0.4996261577289736  0.0983602266709734   T   T   T
 -0.0002328308823836  0.7501273080412922  0.0984084945431786   T   T   T
  0.5006518652910352  0.7499249536577443  0.0990448006012547   T   T   T
  0.0000246746000060  0.9965084934158467  0.1952601514129706   T   T   T
  0.5003843052940745  0.9989694365364173  0.1960248484259493   T   T   T
  0.2523602335207981  0.2477137280510504  0.1951704204056090   T   T   T
  0.7489364938968168  0.2502490173336346  0.1956977010316375   T   T   T
 -0.0000053954285974  0.4998465242283073  0.1921477635585259   T   T   T
  0.5046280511546247  0.5003034818122606  0.1956898375364094   T   T   T
  0.2505178463363877  0.7514287668079126  0.1956137330765500   T   T   T
  0.7503815574687760  0.7485176078023404  0.1968016994100343   T   T   T
  0.2509269349397816  0.9987698405164454  0.2943443451977082   T   T   T
  0.7488186637313295  0.9991049849390625  0.2932656389780578   T   T   T
  0.9968704777729023  0.2394800405327113  0.2893509750179417   T   T   T
  0.5036844458730587  0.2474918937820298  0.2947273915342715   T   T   T
  0.2608977795914385  0.5023965828059249  0.2882196848075946   T   T   T
  0.7498644469927176  0.5001485171993911  0.2989030572911393   T   T   T
  0.9979975561658384  0.7534191076275962  0.2972085037969426   T   T   T
  0.5022752072655713  0.7529194315919072  0.2962376991442727   T   T   T
  0.9927642438501560  0.0006583160184519  0.3963878026968516   T   T   T
  0.5034664404223298  0.9957438111496658  0.3968369457129245   T   T   T
  0.2574914806935785  0.2411953699276590  0.3905819850430718   T   T   T
  0.7452197495562144  0.2663784992439365  0.3975524174665799   T   T   T
  0.4970485835382794  0.5059557391222890  0.3914352847330943   T   T   T
  0.2328787472145565  0.7540782721640520  0.3912339871881240   T   T   T
  0.7636531144595463  0.7412920888725106  0.3991390285936151   T   T   T
  0.0000182974893277  0.9989268301728089  0.0992571486839269   T   T   T
  0.4999547112145510  0.9993566227265357  0.0991872133492126   T   T   T
  0.2501051905249604  0.2495942056667143  0.0988613739869697   T   T   T
  0.7505198630271511  0.2499622193834760  0.0990134970082535   T   T   T
  0.0003123146180432  0.4992653175797309  0.0995108231120505   T   T   T
  0.5009196375332263  0.4994229450425959  0.0996273735587828   T   T   T
  0.2496920286238779  0.7490619675551725  0.0990531033136530   T   T   T
  0.7506148649598098  0.7485528676815181  0.0993219216268155   T   T   T
  0.2497138925213138 -0.0005344458313617  0.1941995778172981   T   T   T
  0.7505765703275037 -0.0004357145878685  0.1940953057125053   T   T   T
  0.0007402491472797  0.2519552849034942  0.1945233474045917   T   T   T
  0.5007398661760083  0.2503083895061165  0.1944863940836915   T   T   T
  0.2485291524782179  0.4995201715442311  0.1943383460756151   T   T   T
  0.7541611261277505  0.4994672125326010  0.1956453180575047   T   T   T
  0.0004152425699464  0.7459761536037440  0.1954771593532683   T   T   T
  0.5002361527569646  0.7490435083314020  0.1947898630308010   T   T   T
  0.0002719693024123  0.0026034933129699  0.2925464673350801   T   T   T
  0.4992966468316156 -0.0002512132613970  0.2933451658908656   T   T   T
  0.2504777111016090  0.2500614958951107  0.2929508714405414   T   T   T
  0.7525548203227936  0.2531021710758352  0.2931033119685960   T   T   T
  0.0132228732196170  0.4898295266409125  0.3105148532778377   T   T   T
  0.4984198168495241  0.5007812480635767  0.2937759097198363   T   T   T
  0.2477537401001424  0.7483677452738851  0.2933553935937928   T   T   T
  0.7524044214353540  0.7464253769879645  0.2938385865568129   T   T   T
  0.2438818086038075  0.0055810682402369  0.3896515969270619   T   T   T
  0.7472205397114605  0.0081891091685478  0.3821983569534778   T   T   T
  0.0140631979671911  0.3107865500892310  0.3810296448522186   T   T   T
  0.4918182461658865  0.2580941675683052  0.3888675578592031   T   T   T
  0.1941408377143477  0.4895733359181125  0.3806761111505912   T   T   T
  0.7200148205379326  0.5047850358374180  0.3898522309572102   T   T   T
 -0.0026938410214804  0.7772032501976583  0.3876025841809833   T   T   T
  0.4799499476838595  0.7479077550300789  0.3897373902918989   T   T   T
  0.7551493720078379  0.0201965204311185  0.4716546696493510   T   T   T
 
  0.00000000E+00  0.00000000E+00  0.00000000E+00
  0.00000000E+00  0.00000000E+00  0.00000000E+00
  0.00000000E+00  0.00000000E+00  0.00000000E+00
  0.00000000E+00  0.00000000E+00  0.00000000E+00
  0.00000000E+00  0.00000000E+00  0.00000000E+00
  0.00000000E+00  0.00000000E+00  0.00000000E+00
  0.00000000E+00  0.00000000E+00  0.00000000E+00
  0.00000000E+00  0.00000000E+00  0.00000000E+00
  0.00000000E+00  0.00000000E+00  0.00000000E+00
  0.00000000E+00  0.00000000E+00  0.00000000E+00
  0.00000000E+00  0.00000000E+00  0.00000000E+00
  0.00000000E+00  0.00000000E+00  0.00000000E+00
  0.00000000E+00  0.00000000E+00  0.00000000E+00
  0.00000000E+00  0.00000000E+00  0.00000000E+00
  0.00000000E+00  0.00000000E+00  0.00000000E+00
  0.00000000E+00  0.00000000E+00  0.00000000E+00
  0.00000000E+00  0.00000000E+00  0.00000000E+00
  0.00000000E+00  0.00000000E+00  0.00000000E+00
  0.00000000E+00  0.00000000E+00  0.00000000E+00
  0.00000000E+00  0.00000000E+00  0.00000000E+00
  0.00000000E+00  0.00000000E+00  0.00000000E+00
  0.00000000E+00  0.00000000E+00  0.00000000E+00
  0.00000000E+00  0.00000000E+00  0.00000000E+00
  0.00000000E+00  0.00000000E+00  0.00000000E+00
  0.00000000E+00  0.00000000E+00  0.00000000E+00
  0.00000000E+00  0.00000000E+00  0.00000000E+00
  0.00000000E+00  0.00000000E+00  0.00000000E+00
  0.00000000E+00  0.00000000E+00  0.00000000E+00
  0.00000000E+00  0.00000000E+00  0.00000000E+00
  0.00000000E+00  0.00000000E+00  0.00000000E+00
  0.00000000E+00  0.00000000E+00  0.00000000E+00
  0.00000000E+00  0.00000000E+00  0.00000000E+00
  0.00000000E+00  0.00000000E+00  0.00000000E+00
  0.00000000E+00  0.00000000E+00  0.00000000E+00
  0.00000000E+00  0.00000000E+00  0.00000000E+00
  0.00000000E+00  0.00000000E+00  0.00000000E+00
  0.00000000E+00  0.00000000E+00  0.00000000E+00
  0.00000000E+00  0.00000000E+00  0.00000000E+00
  0.00000000E+00  0.00000000E+00  0.00000000E+00
  0.00000000E+00  0.00000000E+00  0.00000000E+00
  0.00000000E+00  0.00000000E+00  0.00000000E+00
  0.00000000E+00  0.00000000E+00  0.00000000E+00
  0.00000000E+00  0.00000000E+00  0.00000000E+00
  0.00000000E+00  0.00000000E+00  0.00000000E+00
  0.00000000E+00  0.00000000E+00  0.00000000E+00
  0.00000000E+00  0.00000000E+00  0.00000000E+00
  0.00000000E+00  0.00000000E+00  0.00000000E+00
  0.00000000E+00  0.00000000E+00  0.00000000E+00
  0.00000000E+00  0.00000000E+00  0.00000000E+00
  0.00000000E+00  0.00000000E+00  0.00000000E+00
  0.00000000E+00  0.00000000E+00  0.00000000E+00
  0.00000000E+00  0.00000000E+00  0.00000000E+00
  0.00000000E+00  0.00000000E+00  0.00000000E+00
  0.00000000E+00  0.00000000E+00  0.00000000E+00
  0.00000000E+00  0.00000000E+00  0.00000000E+00
  0.00000000E+00  0.00000000E+00  0.00000000E+00
  0.00000000E+00  0.00000000E+00  0.00000000E+00
  0.00000000E+00  0.00000000E+00  0.00000000E+00
  0.00000000E+00  0.00000000E+00  0.00000000E+00
  0.00000000E+00  0.00000000E+00  0.00000000E+00
  0.00000000E+00  0.00000000E+00  0.00000000E+00
  0.00000000E+00  0.00000000E+00  0.00000000E+00
  0.00000000E+00  0.00000000E+00  0.00000000E+00
  0.00000000E+00  0.00000000E+00  0.00000000E+00
  0.00000000E+00  0.00000000E+00  0.00000000E+00
