B Ca Fe O                               
   1.00000000000000     
     9.6048500000000008    0.0000000000000000    0.0000000000000000
     0.0000000000000000    9.6048500000000008    0.0000000000000000
     0.0000000000000000    0.0000000000000000   24.6048000000000009
   B    Ca   Fe   O 
     1    31     1    32
Selective dynamics
Direct
  0.0023215019905669  0.4427959992405245  0.3631864624324274   T   T   T
  0.2505907645030599  0.9984358181589372  0.0990289141478691   T   T   T
  0.7491507865379596  0.9984257024523825  0.0991966354046569   T   T   T
  0.9999029473473461  0.2474194398376390  0.0977167424228127   T   T   T
  0.4999043568764985  0.2485467603203602  0.0982854339918745   T   T   T
  0.2511146991121624  0.4994363437495841  0.0982027420769856   T   T   T
  0.7486870048853416  0.4993931458498402  0.0983939155400002   T   T   T
  0.9999057359879727  0.7495177326443122  0.0985674938978047   T   T   T
  0.4998799836431760  0.7497240076487104  0.0991970607422479   T   T   T
 -0.0002307923429573  0.9957028557712710  0.1952570715497483   T   T   T
  0.4999718170169791  0.9985015591813210  0.1963949752375186   T   T   T
  0.2519703431015519  0.2488720153554977  0.1950928351761921   T   T   T
  0.7478632697666612  0.2486249797363256  0.1953161155300089   T   T   T
  0.0000029413130421  0.4990518210338003  0.1920879993410188   T   T   T
  0.4997903108380413  0.5001228263970482  0.1954384453003705   T   T   T
  0.2501271869259608  0.7489607385053108  0.1966180517262461   T   T   T
  0.7496523556161891  0.7490993176185460  0.1967882034921640   T   T   T
  0.2515025630334808  0.9991699074121961  0.2946369308276601   T   T   T
  0.7483497027415985  0.9986752316247156  0.2955570997130318   T   T   T
 -0.0003484868148694  0.2398577287501278  0.2875318845995675   T   T   T
  0.5004235059232651  0.2494222252346070  0.2940782888733467   T   T   T
  0.2568753399088152  0.4997450609832413  0.2938396994728454   T   T   T
  0.7426162885148908  0.5001734513520801  0.2942620057611378   T   T   T
 -0.0001967593791316  0.7528090695065216  0.2970042228796951   T   T   T
  0.5002738416504051  0.7507020347412212  0.2963236859061442   T   T   T
  0.0114641937246411  0.0055105919907894  0.3922485023490027   T   T   T
  0.4875880493280652  0.9977945289965602  0.3938781082210697   T   T   T
  0.2579117673537543  0.2641951065618288  0.3906614577355921   T   T   T
  0.7417729330847628  0.2717198705685542  0.3928373965223471   T   T   T
  0.4974872542410794  0.5093341331447879  0.3926099511803370   T   T   T
  0.2348567471255026  0.7341311403166703  0.3931183562723362   T   T   T
  0.7698455464818108  0.7291136690612143  0.3955403672103684   T   T   T
  0.7547254333332354  0.0097215404111686  0.4698848173332209   T   T   T
  0.9996026668780712  0.9980305816043442  0.0995853603835928   T   T   T
  0.5001044961795411  0.9989557655306176  0.0996615267834737   T   T   T
  0.2498092369419989  0.2490535457501902  0.0986725965654653   T   T   T
  0.7499889492090973  0.2489116460604343  0.0989673488333848   T   T   T
  0.9997944965541761  0.4991226578393348  0.0992160371190021   T   T   T
  0.5000115505403909  0.4993984690290014  0.0990545793890556   T   T   T
  0.2493541726876506  0.7488828024070512  0.0995459733966873   T   T   T
  0.7504167183680833  0.7489800207071979  0.0997990267779695   T   T   T
  0.2492861403599458  0.9989133101951725  0.1949919951707756   T   T   T
  0.7503698033118582  0.9988840841922498  0.1959277091496516   T   T   T
  0.9996735090156625  0.2501559824897387  0.1934384843205540   T   T   T
  0.5001692513616389  0.2492247724881822  0.1941041140769305   T   T   T
  0.2468961671462741  0.4990071965809138  0.1946067781334163   T   T   T
  0.7529536845452032  0.4988907367533074  0.1950586208180307   T   T   T
  0.9996640106112562  0.7457280797266569  0.1958777573143530   T   T   T
  0.5000571413268280  0.7495619072036168  0.1948790294601336   T   T   T
  0.9990091496418780  0.0026066678785560  0.2936151289845178   T   T   T
  0.5008309637295437  0.9994936091459280  0.2945400931753875   T   T   T
  0.2489446609985905  0.2500406953677739  0.2922771103897626   T   T   T
  0.7512167027223073  0.2486106806429995  0.2935839000150530   T   T   T
  0.0002117141546357  0.4859077411682984  0.3080088793709356   T   T   T
  0.4999499432181192  0.5006231950259767  0.2910407102744936   T   T   T
  0.2464285051636341  0.7480218860265694  0.2939176630473406   T   T   T
  0.7532137051715613  0.7489236920850036  0.2949098455194680   T   T   T
  0.2476962201664386  0.0156913743617441  0.3892677501576026   T   T   T
  0.7533759537743172  0.0127084139054382  0.3944879406162264   T   T   T
  0.0014889480089732  0.3046363520549041  0.3791043270681614   T   T   T
  0.4995399579671176  0.2521663079040007  0.3881076305257667   T   T   T
  0.2669802286387282  0.4996598978939626  0.3853127019871060   T   T   T
  0.7280709922754460  0.5013920850458834  0.3857604838486107   T   T   T
  0.0011337909701887  0.7838233967844199  0.3873524403490158   T   T   T
  0.4941960738859601  0.7551885651448302  0.3895067033454358   T   T   T
 
  0.00000000E+00  0.00000000E+00  0.00000000E+00
  0.00000000E+00  0.00000000E+00  0.00000000E+00
  0.00000000E+00  0.00000000E+00  0.00000000E+00
  0.00000000E+00  0.00000000E+00  0.00000000E+00
  0.00000000E+00  0.00000000E+00  0.00000000E+00
  0.00000000E+00  0.00000000E+00  0.00000000E+00
  0.00000000E+00  0.00000000E+00  0.00000000E+00
  0.00000000E+00  0.00000000E+00  0.00000000E+00
  0.00000000E+00  0.00000000E+00  0.00000000E+00
  0.00000000E+00  0.00000000E+00  0.00000000E+00
  0.00000000E+00  0.00000000E+00  0.00000000E+00
  0.00000000E+00  0.00000000E+00  0.00000000E+00
  0.00000000E+00  0.00000000E+00  0.00000000E+00
  0.00000000E+00  0.00000000E+00  0.00000000E+00
  0.00000000E+00  0.00000000E+00  0.00000000E+00
  0.00000000E+00  0.00000000E+00  0.00000000E+00
  0.00000000E+00  0.00000000E+00  0.00000000E+00
  0.00000000E+00  0.00000000E+00  0.00000000E+00
  0.00000000E+00  0.00000000E+00  0.00000000E+00
  0.00000000E+00  0.00000000E+00  0.00000000E+00
  0.00000000E+00  0.00000000E+00  0.00000000E+00
  0.00000000E+00  0.00000000E+00  0.00000000E+00
  0.00000000E+00  0.00000000E+00  0.00000000E+00
  0.00000000E+00  0.00000000E+00  0.00000000E+00
  0.00000000E+00  0.00000000E+00  0.00000000E+00
  0.00000000E+00  0.00000000E+00  0.00000000E+00
  0.00000000E+00  0.00000000E+00  0.00000000E+00
  0.00000000E+00  0.00000000E+00  0.00000000E+00
  0.00000000E+00  0.00000000E+00  0.00000000E+00
  0.00000000E+00  0.00000000E+00  0.00000000E+00
  0.00000000E+00  0.00000000E+00  0.00000000E+00
  0.00000000E+00  0.00000000E+00  0.00000000E+00
  0.00000000E+00  0.00000000E+00  0.00000000E+00
  0.00000000E+00  0.00000000E+00  0.00000000E+00
  0.00000000E+00  0.00000000E+00  0.00000000E+00
  0.00000000E+00  0.00000000E+00  0.00000000E+00
  0.00000000E+00  0.00000000E+00  0.00000000E+00
  0.00000000E+00  0.00000000E+00  0.00000000E+00
  0.00000000E+00  0.00000000E+00  0.00000000E+00
  0.00000000E+00  0.00000000E+00  0.00000000E+00
  0.00000000E+00  0.00000000E+00  0.00000000E+00
  0.00000000E+00  0.00000000E+00  0.00000000E+00
  0.00000000E+00  0.00000000E+00  0.00000000E+00
  0.00000000E+00  0.00000000E+00  0.00000000E+00
  0.00000000E+00  0.00000000E+00  0.00000000E+00
  0.00000000E+00  0.00000000E+00  0.00000000E+00
  0.00000000E+00  0.00000000E+00  0.00000000E+00
  0.00000000E+00  0.00000000E+00  0.00000000E+00
  0.00000000E+00  0.00000000E+00  0.00000000E+00
  0.00000000E+00  0.00000000E+00  0.00000000E+00
  0.00000000E+00  0.00000000E+00  0.00000000E+00
  0.00000000E+00  0.00000000E+00  0.00000000E+00
  0.00000000E+00  0.00000000E+00  0.00000000E+00
  0.00000000E+00  0.00000000E+00  0.00000000E+00
  0.00000000E+00  0.00000000E+00  0.00000000E+00
  0.00000000E+00  0.00000000E+00  0.00000000E+00
  0.00000000E+00  0.00000000E+00  0.00000000E+00
  0.00000000E+00  0.00000000E+00  0.00000000E+00
  0.00000000E+00  0.00000000E+00  0.00000000E+00
  0.00000000E+00  0.00000000E+00  0.00000000E+00
  0.00000000E+00  0.00000000E+00  0.00000000E+00
  0.00000000E+00  0.00000000E+00  0.00000000E+00
  0.00000000E+00  0.00000000E+00  0.00000000E+00
  0.00000000E+00  0.00000000E+00  0.00000000E+00
  0.00000000E+00  0.00000000E+00  0.00000000E+00
