B Ca O Au                               
   1.00000000000000     
     9.6048500000000008    0.0000000000000000    0.0000000000000000
     0.0000000000000000    9.6048500000000008    0.0000000000000000
     0.0000000000000000    0.0000000000000000   24.6048000000000009
   B    Ca   O    Au
     1    31    32     1
Selective dynamics
Direct
  0.0611957944333269  0.4393917399212730  0.3563479663673429   T   T   T
  0.2476629977789683  0.9959979642518630  0.0976311063615277   T   T   T
  0.7463827334816272  0.9956717464781498  0.0984484159414374   T   T   T
  0.9969082828984648  0.2449897022834343  0.0972866749168614   T   T   T
  0.4976593886559881  0.2456238596816671  0.0979178626964920   T   T   T
  0.2488612272568163  0.4965936214959485  0.0972953689681301   T   T   T
  0.7469395062875906  0.4964696838817614  0.0980840591814985   T   T   T
  0.9967450146108575  0.7467630602596332  0.0978044044401341   T   T   T
  0.4977409376932735  0.7467253118262552  0.0987101560474538   T   T   T
  0.9958156918582469  0.9932723356696493  0.1944347094863146   T   T   T
  0.4973585203646803  0.9962572053741819  0.1958008057509299   T   T   T
  0.2491689193362700  0.2443168326218472  0.1940864221493133   T   T   T
  0.7448462644183517  0.2458265361967262  0.1952368995695342   T   T   T
  0.9969515729533098  0.4969777737530800  0.1920893542805057   T   T   T
  0.5013980948624938  0.4965761817058457  0.1947581606241139   T   T   T
  0.2471329339658301  0.7489229037042185  0.1948207744216849   T   T   T
  0.7469231610421645  0.7461069256860311  0.1966084909423010   T   T   T
  0.2455275165505311  0.9975801308231104  0.2935171513052955   T   T   T
  0.7449266029733503  0.9973902792006125  0.2954668196280230   T   T   T
  0.9940897910230354  0.2358724888609213  0.2871374239286100   T   T   T
  0.4969289087863853  0.2449795680661923  0.2954233708070742   T   T   T
  0.2582598604471679  0.4987630073242493  0.2864797671113130   T   T   T
  0.7457651757038556  0.4944326480598390  0.2972554135021347   T   T   T
  0.9952970160991452  0.7504143127153531  0.2961219863170148   T   T   T
  0.4967502629861506  0.7486636083404732  0.2952406730800176   T   T   T
  0.9859624275517147  0.9954288485715725  0.3962094788228854   T   T   T
  0.4964387294136113  0.9955425569656308  0.3921323079852131   T   T   T
  0.2415707758947702  0.2371172286096662  0.3950453862915592   T   T   T
  0.7535912306549039  0.2639283162373450  0.3975862397789748   T   T   T
  0.4915882579236462  0.4989281150708585  0.3905529717366868   T   T   T
  0.2279470159807047  0.7510753189033891  0.3901653426668040   T   T   T
  0.7552569850317689  0.7357472277612833  0.3935934813422982   T   T   T
  0.9968765020771436  0.9955309652977514  0.0985295999772085   T   T   T
  0.4971558422108143  0.9959627737580086  0.0989157566630331   T   T   T
  0.2474743985953570  0.2463355825401734  0.0977861803265674   T   T   T
  0.7471643272429139  0.2467358794142894  0.0984679410840736   T   T   T
  0.9971983595806828  0.4965414566776230  0.0988645818525203   T   T   T
  0.4984224610732735  0.4963687139570783  0.0989984014937517   T   T   T
  0.2469116829395520  0.7461899388992047  0.0983279288710706   T   T   T
  0.7474421201166291  0.7453998048298893  0.0991906734171356   T   T   T
  0.2462322636145400  0.9964638442166961  0.1933668613618205   T   T   T
  0.7469065013737837  0.9960190460488058  0.1940742852666883   T   T   T
  0.9970639064166984  0.2484859084574942  0.1929509686969529   T   T   T
  0.4971917137843093  0.2469762898961881  0.1940528249996090   T   T   T
  0.2459894526930787  0.4966838770663921  0.1929311283904833   T   T   T
  0.7507554046704709  0.4961148575899305  0.1952695380906739   T   T   T
  0.9969083973547282  0.7434993655300376  0.1948562376593250   T   T   T
  0.4969759350624329  0.7458679923949926  0.1946671687124933   T   T   T
  0.9947068668770204  0.9995647618191911  0.2922398559541177   T   T   T
  0.4953966037176111  0.9968137413827046  0.2937958662374019   T   T   T
  0.2453960783252586  0.2473428012931150  0.2914310542101687   T   T   T
  0.7480893734095317  0.2482149012868477  0.2930693450120085   T   T   T
  0.0104361138843121  0.4929998937160024  0.3051803879065078   T   T   T
  0.4947673438889462  0.4967180127556237  0.2930373036286479   T   T   T
  0.2447971607619680  0.7459679248759412  0.2924401115016450   T   T   T
  0.7476762384394737  0.7429838002596674  0.2943587262856141   T   T   T
  0.2402518641617588 -0.0001637555923405  0.3871941539225160   T   T   T
  0.7393174351376637  0.0031358587530605  0.3877664689115707   T   T   T
  0.0047991481411764  0.3154701421680772  0.3748288503143535   T   T   T
  0.4820288215085901  0.2518930772302860  0.3905926354490247   T   T   T
  0.1876556224674791  0.4899266845495670  0.3775625791904744   T   T   T
  0.7148218392944324  0.4986032764913220  0.3882080622384296   T   T   T
  0.9901090455661582  0.7717707472209768  0.3873912544049863   T   T   T
  0.4786509861810748  0.7444077595647561  0.3897433590298414   T   T   T
  0.9704872821201344  0.1730355190765208  0.4924688488437963   T   T   T
 
  0.00000000E+00  0.00000000E+00  0.00000000E+00
  0.00000000E+00  0.00000000E+00  0.00000000E+00
  0.00000000E+00  0.00000000E+00  0.00000000E+00
  0.00000000E+00  0.00000000E+00  0.00000000E+00
  0.00000000E+00  0.00000000E+00  0.00000000E+00
  0.00000000E+00  0.00000000E+00  0.00000000E+00
  0.00000000E+00  0.00000000E+00  0.00000000E+00
  0.00000000E+00  0.00000000E+00  0.00000000E+00
  0.00000000E+00  0.00000000E+00  0.00000000E+00
  0.00000000E+00  0.00000000E+00  0.00000000E+00
  0.00000000E+00  0.00000000E+00  0.00000000E+00
  0.00000000E+00  0.00000000E+00  0.00000000E+00
  0.00000000E+00  0.00000000E+00  0.00000000E+00
  0.00000000E+00  0.00000000E+00  0.00000000E+00
  0.00000000E+00  0.00000000E+00  0.00000000E+00
  0.00000000E+00  0.00000000E+00  0.00000000E+00
  0.00000000E+00  0.00000000E+00  0.00000000E+00
  0.00000000E+00  0.00000000E+00  0.00000000E+00
  0.00000000E+00  0.00000000E+00  0.00000000E+00
  0.00000000E+00  0.00000000E+00  0.00000000E+00
  0.00000000E+00  0.00000000E+00  0.00000000E+00
  0.00000000E+00  0.00000000E+00  0.00000000E+00
  0.00000000E+00  0.00000000E+00  0.00000000E+00
  0.00000000E+00  0.00000000E+00  0.00000000E+00
  0.00000000E+00  0.00000000E+00  0.00000000E+00
  0.00000000E+00  0.00000000E+00  0.00000000E+00
  0.00000000E+00  0.00000000E+00  0.00000000E+00
  0.00000000E+00  0.00000000E+00  0.00000000E+00
  0.00000000E+00  0.00000000E+00  0.00000000E+00
  0.00000000E+00  0.00000000E+00  0.00000000E+00
  0.00000000E+00  0.00000000E+00  0.00000000E+00
  0.00000000E+00  0.00000000E+00  0.00000000E+00
  0.00000000E+00  0.00000000E+00  0.00000000E+00
  0.00000000E+00  0.00000000E+00  0.00000000E+00
  0.00000000E+00  0.00000000E+00  0.00000000E+00
  0.00000000E+00  0.00000000E+00  0.00000000E+00
  0.00000000E+00  0.00000000E+00  0.00000000E+00
  0.00000000E+00  0.00000000E+00  0.00000000E+00
  0.00000000E+00  0.00000000E+00  0.00000000E+00
  0.00000000E+00  0.00000000E+00  0.00000000E+00
  0.00000000E+00  0.00000000E+00  0.00000000E+00
  0.00000000E+00  0.00000000E+00  0.00000000E+00
  0.00000000E+00  0.00000000E+00  0.00000000E+00
  0.00000000E+00  0.00000000E+00  0.00000000E+00
  0.00000000E+00  0.00000000E+00  0.00000000E+00
  0.00000000E+00  0.00000000E+00  0.00000000E+00
  0.00000000E+00  0.00000000E+00  0.00000000E+00
  0.00000000E+00  0.00000000E+00  0.00000000E+00
  0.00000000E+00  0.00000000E+00  0.00000000E+00
  0.00000000E+00  0.00000000E+00  0.00000000E+00
  0.00000000E+00  0.00000000E+00  0.00000000E+00
  0.00000000E+00  0.00000000E+00  0.00000000E+00
  0.00000000E+00  0.00000000E+00  0.00000000E+00
  0.00000000E+00  0.00000000E+00  0.00000000E+00
  0.00000000E+00  0.00000000E+00  0.00000000E+00
  0.00000000E+00  0.00000000E+00  0.00000000E+00
  0.00000000E+00  0.00000000E+00  0.00000000E+00
  0.00000000E+00  0.00000000E+00  0.00000000E+00
  0.00000000E+00  0.00000000E+00  0.00000000E+00
  0.00000000E+00  0.00000000E+00  0.00000000E+00
  0.00000000E+00  0.00000000E+00  0.00000000E+00
  0.00000000E+00  0.00000000E+00  0.00000000E+00
  0.00000000E+00  0.00000000E+00  0.00000000E+00
  0.00000000E+00  0.00000000E+00  0.00000000E+00
  0.00000000E+00  0.00000000E+00  0.00000000E+00
