B Ca Ir O                               
   1.00000000000000     
     9.6048500000000008    0.0000000000000000    0.0000000000000000
     0.0000000000000000    9.6048500000000008    0.0000000000000000
     0.0000000000000000    0.0000000000000000   24.6048000000000009
   B    Ca   Ir   O 
     1    31     1    32
Selective dynamics
Direct
  0.0674255293586869  0.4376512402398569  0.3606539002505131   T   T   T
  0.2512009346271984 -0.0001741193782868  0.0984300835740908   T   T   T
  0.7499172930366714 -0.0003899231674847  0.0993694606192773   T   T   T
  0.0003750698920882  0.2484780085726982  0.0984176020395723   T   T   T
  0.5012420057780977  0.2495569504425820  0.0987669967414852   T   T   T
  0.2524629381819130  0.5002886223203097  0.0981901092945827   T   T   T
  0.7501823647681257  0.5003496083557487  0.0986127566378306   T   T   T
  0.0001674213385370  0.7509236697487910  0.0985930444387375   T   T   T
  0.5013111734486807  0.7507973949088902  0.0992059335640123   T   T   T
  0.0003177022133151  0.9968597681870202  0.1955826172327581   T   T   T
  0.5005679759109612 -0.0007717311858884  0.1963371346274408   T   T   T
  0.2523550183220437  0.2480164357085872  0.1951038645541362   T   T   T
  0.7492856091450920  0.2507150206367026  0.1960573229255596   T   T   T
  0.0003518297816673  0.5002965453436159  0.1923432081308561   T   T   T
  0.5051472795576173  0.5007784693951383  0.1956829854343993   T   T   T
  0.2508219214486464  0.7517839174834241  0.1956347769300468   T   T   T
  0.7505699759406511  0.7487440853965860  0.1972005847717566   T   T   T
  0.2507719318570645  0.9983959372696681  0.2943443343636339   T   T   T
  0.7484525253538937  0.9986931331727064  0.2937633209074404   T   T   T
  0.9964244508265946  0.2391851860510158  0.2896635671007324   T   T   T
  0.5033871189458925  0.2474061587064227  0.2946479436244721   T   T   T
  0.2613582712992654  0.5022164047176593  0.2877414374799417   T   T   T
  0.7498079108695481  0.5001080068030042  0.2993878787999704   T   T   T
  0.9977891384170257  0.7531241905530718  0.2970755044160875   T   T   T
  0.5021565997810675  0.7525271629834307  0.2963852270970742   T   T   T
  0.9959724860343316  0.9988261473911015  0.3967125585678924   T   T   T
  0.4988710052053765  0.9941784637048108  0.3972931574526212   T   T   T
  0.2570628400790212  0.2418791734309789  0.3900788952053001   T   T   T
  0.7436290908213318  0.2671264510179446  0.3982063098668454   T   T   T
  0.4958692948658814  0.5058257282621982  0.3912148616625432   T   T   T
  0.2324453891804288  0.7511719414752114  0.3907366142221765   T   T   T
  0.7650496062730066  0.7397944700056702  0.4001325294000981   T   T   T
  0.7519236748785498  0.0142351434676990  0.4635298525566734   T   T   T
  0.0004701859030061 -0.0003350904050677  0.0996052832180119   T   T   T
  0.5006529322761296  0.0001540920667687  0.0995536729109807   T   T   T
  0.2504999454982874  0.2502783471913497  0.0988270066780861   T   T   T
  0.7510298849937589  0.2505821292393412  0.0993926379303526   T   T   T
  0.0007640104929486  0.4999674718829236  0.0995834971042077   T   T   T
  0.5015480290802846  0.5002519039274687  0.0996116291735919   T   T   T
  0.2502789333491495  0.7498981945949574  0.0990185617312894   T   T   T
  0.7511489320169472  0.7494306419211377  0.0997358617942151   T   T   T
  0.2499197986752650 -0.0001925821473777  0.1943693560631539   T   T   T
  0.7508363609365655 -0.0002528477861098  0.1949767710692054   T   T   T
  0.0009179906798339  0.2523362668930030  0.1947730196098973   T   T   T
  0.5009131894425487  0.2508283680125857  0.1945298043649823   T   T   T
  0.2489944057315374  0.4998945924347828  0.1941317345616246   T   T   T
  0.7546117085782111  0.4998111372740519  0.1959512320731286   T   T   T
  0.0006530124191856  0.7464855878842726  0.1955534190477148   T   T   T
  0.5005318927009822  0.7494383707743053  0.1948986961605016   T   T   T
 -0.0001803389064390  0.0026360279059306  0.2928779194552463   T   T   T
  0.4993032104615915 -0.0006483125205056  0.2935701430877559   T   T   T
  0.2499440978627029  0.2497975445939912  0.2927496573053743   T   T   T
  0.7523604132445088  0.2524400218527615  0.2934290344977069   T   T   T
  0.0138691471099263  0.4901705932653408  0.3100529038270175   T   T   T
  0.4986711783615438  0.5005788283806020  0.2935666335067599   T   T   T
  0.2474576505637670  0.7480303312833829  0.2930254398508894   T   T   T
  0.7522524937417078  0.7464696044179162  0.2940657603762175   T   T   T
  0.2439405323608132  0.0053893015569845  0.3899082351609178   T   T   T
  0.7467594381144422  0.0063549793033641  0.3832713044345039   T   T   T
  0.0142860405621032  0.3126208094412701  0.3809444118375859   T   T   T
  0.4901975707345279  0.2588326554751159  0.3884057081215888   T   T   T
  0.1951862240238620  0.4898566853420777  0.3802415680149903   T   T   T
  0.7188834305108134  0.5047509421169002  0.3904821388247818   T   T   T
 -0.0019915614910742  0.7750302483454842  0.3872039649496852   T   T   T
  0.4768085214282650  0.7464179666121153  0.3895587380024786   T   T   T
 
  0.00000000E+00  0.00000000E+00  0.00000000E+00
  0.00000000E+00  0.00000000E+00  0.00000000E+00
  0.00000000E+00  0.00000000E+00  0.00000000E+00
  0.00000000E+00  0.00000000E+00  0.00000000E+00
  0.00000000E+00  0.00000000E+00  0.00000000E+00
  0.00000000E+00  0.00000000E+00  0.00000000E+00
  0.00000000E+00  0.00000000E+00  0.00000000E+00
  0.00000000E+00  0.00000000E+00  0.00000000E+00
  0.00000000E+00  0.00000000E+00  0.00000000E+00
  0.00000000E+00  0.00000000E+00  0.00000000E+00
  0.00000000E+00  0.00000000E+00  0.00000000E+00
  0.00000000E+00  0.00000000E+00  0.00000000E+00
  0.00000000E+00  0.00000000E+00  0.00000000E+00
  0.00000000E+00  0.00000000E+00  0.00000000E+00
  0.00000000E+00  0.00000000E+00  0.00000000E+00
  0.00000000E+00  0.00000000E+00  0.00000000E+00
  0.00000000E+00  0.00000000E+00  0.00000000E+00
  0.00000000E+00  0.00000000E+00  0.00000000E+00
  0.00000000E+00  0.00000000E+00  0.00000000E+00
  0.00000000E+00  0.00000000E+00  0.00000000E+00
  0.00000000E+00  0.00000000E+00  0.00000000E+00
  0.00000000E+00  0.00000000E+00  0.00000000E+00
  0.00000000E+00  0.00000000E+00  0.00000000E+00
  0.00000000E+00  0.00000000E+00  0.00000000E+00
  0.00000000E+00  0.00000000E+00  0.00000000E+00
  0.00000000E+00  0.00000000E+00  0.00000000E+00
  0.00000000E+00  0.00000000E+00  0.00000000E+00
  0.00000000E+00  0.00000000E+00  0.00000000E+00
  0.00000000E+00  0.00000000E+00  0.00000000E+00
  0.00000000E+00  0.00000000E+00  0.00000000E+00
  0.00000000E+00  0.00000000E+00  0.00000000E+00
  0.00000000E+00  0.00000000E+00  0.00000000E+00
  0.00000000E+00  0.00000000E+00  0.00000000E+00
  0.00000000E+00  0.00000000E+00  0.00000000E+00
  0.00000000E+00  0.00000000E+00  0.00000000E+00
  0.00000000E+00  0.00000000E+00  0.00000000E+00
  0.00000000E+00  0.00000000E+00  0.00000000E+00
  0.00000000E+00  0.00000000E+00  0.00000000E+00
  0.00000000E+00  0.00000000E+00  0.00000000E+00
  0.00000000E+00  0.00000000E+00  0.00000000E+00
  0.00000000E+00  0.00000000E+00  0.00000000E+00
  0.00000000E+00  0.00000000E+00  0.00000000E+00
  0.00000000E+00  0.00000000E+00  0.00000000E+00
  0.00000000E+00  0.00000000E+00  0.00000000E+00
  0.00000000E+00  0.00000000E+00  0.00000000E+00
  0.00000000E+00  0.00000000E+00  0.00000000E+00
  0.00000000E+00  0.00000000E+00  0.00000000E+00
  0.00000000E+00  0.00000000E+00  0.00000000E+00
  0.00000000E+00  0.00000000E+00  0.00000000E+00
  0.00000000E+00  0.00000000E+00  0.00000000E+00
  0.00000000E+00  0.00000000E+00  0.00000000E+00
  0.00000000E+00  0.00000000E+00  0.00000000E+00
  0.00000000E+00  0.00000000E+00  0.00000000E+00
  0.00000000E+00  0.00000000E+00  0.00000000E+00
  0.00000000E+00  0.00000000E+00  0.00000000E+00
  0.00000000E+00  0.00000000E+00  0.00000000E+00
  0.00000000E+00  0.00000000E+00  0.00000000E+00
  0.00000000E+00  0.00000000E+00  0.00000000E+00
  0.00000000E+00  0.00000000E+00  0.00000000E+00
  0.00000000E+00  0.00000000E+00  0.00000000E+00
  0.00000000E+00  0.00000000E+00  0.00000000E+00
  0.00000000E+00  0.00000000E+00  0.00000000E+00
  0.00000000E+00  0.00000000E+00  0.00000000E+00
  0.00000000E+00  0.00000000E+00  0.00000000E+00
  0.00000000E+00  0.00000000E+00  0.00000000E+00
