Ag B Ca O                               
   1.00000000000000     
     9.6048500000000008    0.0000000000000000    0.0000000000000000
     0.0000000000000000    9.6048500000000008    0.0000000000000000
     0.0000000000000000    0.0000000000000000   24.6048000000000009
   Ag   B    Ca   O 
     1     1    31    32
Selective dynamics
Direct
  0.7993710530343564  0.0583141216069391  0.5024952119253936   T   T   T
  0.0665486534132468  0.4359148815179683  0.3604589087375352   T   T   T
  0.2500748507034208  0.9987263047528520  0.0978863668768008   T   T   T
  0.7487259427256536  0.9984983848870523  0.0983839932686437   T   T   T
  0.9994288763419462  0.2475446969056212  0.0977086355421709   T   T   T
  0.4998525619689014  0.2483004421069242  0.0981641831705406   T   T   T
  0.2513133297579702  0.4990967449211195  0.0975323129887311   T   T   T
  0.7488175063168299  0.4991551196826031  0.0977231910798523   T   T   T
  0.9991809519569199  0.7497607085995854  0.0978940015693968   T   T   T
  0.4999640191280462  0.7494468567861633  0.0985926188477582   T   T   T
 -0.0007946307322076 -0.0039193458583731  0.1946689046706352   T   T   T
  0.4997061855352020  0.9983758357174862  0.1956270784655439   T   T   T
  0.2515566493074424  0.2471954925543074  0.1946958653253482   T   T   T
  0.7483000963096392  0.2495197080800890  0.1951229692144016   T   T   T
  0.9992826261179105  0.4994765032219542  0.1915203534852119   T   T   T
  0.5037748352943701  0.4996268200593293  0.1951210570139170   T   T   T
  0.2498347554556691  0.7511116173979970  0.1951474760394752   T   T   T
  0.7498055787187415  0.7479800104861314  0.1963453016798760   T   T   T
  0.2494677788335662 -0.0012411779532770  0.2941425940304461   T   T   T
  0.7485929184145728  0.9989528038570709  0.2932090849883146   T   T   T
  0.9968134233855784  0.2387387379772778  0.2887815705472859   T   T   T
  0.5025757693023638  0.2471276898707641  0.2942798369215630   T   T   T
  0.2600484712890146  0.5018977150408827  0.2878119970392248   T   T   T
  0.7495894980865924  0.4985675099611183  0.2980369557457337   T   T   T
  0.9982041204569951  0.7536843581809745  0.2968188631898677   T   T   T
  0.5010259724482899  0.7518121423548190  0.2956129166177498   T   T   T
  0.9865405757198537  0.0007362698282256  0.3969804999834188   T   T   T
  0.5071219445031191 -0.0034622787914662  0.3944789665731127   T   T   T
  0.2560623554298999  0.2391732233432975  0.3910997296867277   T   T   T
  0.7463760759889431  0.2649996963093226  0.3969649726870340   T   T   T
  0.4963958559762749  0.5047039323546397  0.3910319831124164   T   T   T
  0.2317931379551195  0.7562399883377184  0.3913234904766505   T   T   T
  0.7610129552336675  0.7412887843773797  0.3959762559291681   T   T   T
 -0.0004622968005010  0.9984759011100599  0.0987695409043908   T   T   T
  0.4992536521921511 -0.0011376439659235  0.0988483096348591   T   T   T
  0.2493545991835865  0.2491902184063984  0.0983893504234779   T   T   T
  0.7497883558420915  0.2495941213783262  0.0985123587274650   T   T   T
 -0.0003907094713021  0.4990263350093009  0.0988878311628881   T   T   T
  0.5001769043340555  0.4989423763932523  0.0990931310938984   T   T   T
  0.2490858984313660  0.7486055960768536  0.0985687437572979   T   T   T
  0.7499405555377279  0.7480828572877690  0.0988332164674175   T   T   T
  0.2490558916893920  0.9988987997731971  0.1937223393303210   T   T   T
  0.7496956245872415  0.9988043572292197  0.1933005051461439   T   T   T
  0.0001057451304892  0.2518262187331597  0.1939478909498249   T   T   T
  0.4999418642423014  0.2497817290881252  0.1941588009200450   T   T   T
  0.2478759750839964  0.4991316651940875  0.1938148325943666   T   T   T
  0.7533671907910293  0.4988317477285654  0.1950381764175689   T   T   T
 -0.0000974230718095  0.7455727864788216  0.1951024342470130   T   T   T
  0.4994625226721575  0.7482450932721664  0.1945467963035179   T   T   T
 -0.0005825396762390  0.0020856592285437  0.2917033141586443   T   T   T
  0.4981250423301824 -0.0009717683748825  0.2929998942725949   T   T   T
  0.2500794329934257  0.2494733162693612  0.2926588888423865   T   T   T
  0.7520784146634666  0.2524266711180726  0.2926331375473937   T   T   T
  0.0128790511607770  0.4896185514458348  0.3099819922097554   T   T   T
  0.4974259301836045  0.4998568146591493  0.2934384678584085   T   T   T
  0.2473219996007673  0.7481420420156759  0.2932300450071638   T   T   T
  0.7519670053405469  0.7447536964039565  0.2935871876168995   T   T   T
  0.2426625781202742  0.0045813599027907  0.3890222452091996   T   T   T
  0.7448271139556931  0.0040841215039226  0.3827279223741823   T   T   T
  0.0134151519640672  0.3101639165804693  0.3801161805930541   T   T   T
  0.4928100993330995  0.2547937762522216  0.3891722151965880   T   T   T
  0.1939507820761346  0.4884405368906281  0.3801668386897937   T   T   T
  0.7190690578299622  0.5031554300968858  0.3887460253015479   T   T   T
  0.9953559869975875  0.7778642715870713  0.3877607342276694   T   T   T
  0.4822884872707292  0.7482176199044033  0.3898446246192850   T   T   T
 
  0.00000000E+00  0.00000000E+00  0.00000000E+00
  0.00000000E+00  0.00000000E+00  0.00000000E+00
  0.00000000E+00  0.00000000E+00  0.00000000E+00
  0.00000000E+00  0.00000000E+00  0.00000000E+00
  0.00000000E+00  0.00000000E+00  0.00000000E+00
  0.00000000E+00  0.00000000E+00  0.00000000E+00
  0.00000000E+00  0.00000000E+00  0.00000000E+00
  0.00000000E+00  0.00000000E+00  0.00000000E+00
  0.00000000E+00  0.00000000E+00  0.00000000E+00
  0.00000000E+00  0.00000000E+00  0.00000000E+00
  0.00000000E+00  0.00000000E+00  0.00000000E+00
  0.00000000E+00  0.00000000E+00  0.00000000E+00
  0.00000000E+00  0.00000000E+00  0.00000000E+00
  0.00000000E+00  0.00000000E+00  0.00000000E+00
  0.00000000E+00  0.00000000E+00  0.00000000E+00
  0.00000000E+00  0.00000000E+00  0.00000000E+00
  0.00000000E+00  0.00000000E+00  0.00000000E+00
  0.00000000E+00  0.00000000E+00  0.00000000E+00
  0.00000000E+00  0.00000000E+00  0.00000000E+00
  0.00000000E+00  0.00000000E+00  0.00000000E+00
  0.00000000E+00  0.00000000E+00  0.00000000E+00
  0.00000000E+00  0.00000000E+00  0.00000000E+00
  0.00000000E+00  0.00000000E+00  0.00000000E+00
  0.00000000E+00  0.00000000E+00  0.00000000E+00
  0.00000000E+00  0.00000000E+00  0.00000000E+00
  0.00000000E+00  0.00000000E+00  0.00000000E+00
  0.00000000E+00  0.00000000E+00  0.00000000E+00
  0.00000000E+00  0.00000000E+00  0.00000000E+00
  0.00000000E+00  0.00000000E+00  0.00000000E+00
  0.00000000E+00  0.00000000E+00  0.00000000E+00
  0.00000000E+00  0.00000000E+00  0.00000000E+00
  0.00000000E+00  0.00000000E+00  0.00000000E+00
  0.00000000E+00  0.00000000E+00  0.00000000E+00
  0.00000000E+00  0.00000000E+00  0.00000000E+00
  0.00000000E+00  0.00000000E+00  0.00000000E+00
  0.00000000E+00  0.00000000E+00  0.00000000E+00
  0.00000000E+00  0.00000000E+00  0.00000000E+00
  0.00000000E+00  0.00000000E+00  0.00000000E+00
  0.00000000E+00  0.00000000E+00  0.00000000E+00
  0.00000000E+00  0.00000000E+00  0.00000000E+00
  0.00000000E+00  0.00000000E+00  0.00000000E+00
  0.00000000E+00  0.00000000E+00  0.00000000E+00
  0.00000000E+00  0.00000000E+00  0.00000000E+00
  0.00000000E+00  0.00000000E+00  0.00000000E+00
  0.00000000E+00  0.00000000E+00  0.00000000E+00
  0.00000000E+00  0.00000000E+00  0.00000000E+00
  0.00000000E+00  0.00000000E+00  0.00000000E+00
  0.00000000E+00  0.00000000E+00  0.00000000E+00
  0.00000000E+00  0.00000000E+00  0.00000000E+00
  0.00000000E+00  0.00000000E+00  0.00000000E+00
  0.00000000E+00  0.00000000E+00  0.00000000E+00
  0.00000000E+00  0.00000000E+00  0.00000000E+00
  0.00000000E+00  0.00000000E+00  0.00000000E+00
  0.00000000E+00  0.00000000E+00  0.00000000E+00
  0.00000000E+00  0.00000000E+00  0.00000000E+00
  0.00000000E+00  0.00000000E+00  0.00000000E+00
  0.00000000E+00  0.00000000E+00  0.00000000E+00
  0.00000000E+00  0.00000000E+00  0.00000000E+00
  0.00000000E+00  0.00000000E+00  0.00000000E+00
  0.00000000E+00  0.00000000E+00  0.00000000E+00
  0.00000000E+00  0.00000000E+00  0.00000000E+00
  0.00000000E+00  0.00000000E+00  0.00000000E+00
  0.00000000E+00  0.00000000E+00  0.00000000E+00
  0.00000000E+00  0.00000000E+00  0.00000000E+00
  0.00000000E+00  0.00000000E+00  0.00000000E+00
