B Ca O Rh                               
   1.00000000000000     
     9.6048500000000008    0.0000000000000000    0.0000000000000000
     0.0000000000000000    9.6048500000000008    0.0000000000000000
     0.0000000000000000    0.0000000000000000   24.6048000000000009
   B    Ca   O    Rh
     1    31    32     1
Selective dynamics
Direct
  0.0655146072538347  0.4360888354603690  0.3604791922600445   T   T   T
  0.2505324159105574  0.9984892350193759  0.0980637966485992   T   T   T
  0.7491307634271893  0.9983014022187339  0.0987932118265812   T   T   T
  0.9996057220119009  0.2471413275777924  0.0976372910787509   T   T   T
  0.5003177095919751  0.2481391345262670  0.0981955977315605   T   T   T
  0.2516594351290704  0.4990320569058044  0.0976077731225219   T   T   T
  0.7490898073946430  0.4991488676895124  0.0980698123616945   T   T   T
  0.9994078622352168  0.7497045017504692  0.0980364946537266   T   T   T
  0.5003979925303378  0.7495294528383367  0.0988038599969107   T   T   T
  0.9994458178852111  0.9958220940956313  0.1949947442798395   T   T   T
  0.4998654238866627  0.9982822715953589  0.1958864568946760   T   T   T
  0.2515741756899447  0.2469980623145228  0.1946157604876001   T   T   T
  0.7482093922299863  0.2494040741120217  0.1953689472806791   T   T   T
  0.9993845425573614  0.4992076032441062  0.1915532838111835   T   T   T
  0.5038076845452762  0.4996255546084813  0.1952361577288794   T   T   T
  0.2499928963011378  0.7507887020343971  0.1952514520779902   T   T   T
  0.7497387548413411  0.7479742676119486  0.1966974520332886   T   T   T
  0.2499463471675372  0.9980743026334011  0.2940152262049730   T   T   T
  0.7480015941279299  0.9985560876404103  0.2939309959392532   T   T   T
  0.9957589464507521  0.2387315460695010  0.2887845325278275   T   T   T
  0.5024583481321969  0.2468408801566244  0.2942383823295102   T   T   T
  0.2597565421073566  0.5015702212011719  0.2876283105266607   T   T   T
  0.7489180447475942  0.4994462562564315  0.2983257342791277   T   T   T
  0.9972351869846475  0.7527369673788044  0.2967243018385513   T   T   T
  0.5013222431484357  0.7522502349162861  0.2959242998994169   T   T   T
  0.9940115013612673 -0.0002225394650175  0.3962735383153265   T   T   T
  0.4999112486133294  0.9949386094037287  0.3966255057865624   T   T   T
  0.2561898471619412  0.2410119062154003  0.3899258575619932   T   T   T
  0.7447217381301549  0.2667267840599860  0.3969141666981515   T   T   T
  0.4961836097017851  0.5052571773096652  0.3907176683665864   T   T   T
  0.2321278469872507  0.7523526634316519  0.3905268402095088   T   T   T
  0.7639270030408175  0.7397123445896624  0.3985181335158892   T   T   T
  0.9997812711319910  0.9983056302511996  0.0989528137320052   T   T   T
  0.4998595277545697  0.9987454577321447  0.0990556524025741   T   T   T
  0.2497943328563028  0.2489182585213424  0.0982951711141250   T   T   T
  0.7501440091057293  0.2493077956317262  0.0987065281197622   T   T   T
  0.9999185766536934  0.4987589660516989  0.0988672055622190   T   T   T
  0.5005711102041630  0.4989881409016728  0.0991226113141654   T   T   T
  0.2494770633704934  0.7485623350880463  0.0986657623220030   T   T   T
  0.7502759765580465  0.7481970715271541  0.0992119309601398   T   T   T
  0.2491882740697036  0.9987850296772885  0.1939565510853919   T   T   T
  0.7500934340709948  0.9988178362198230  0.1942573539984776   T   T   T
 -0.0000359596261403  0.2512933208240730  0.1939345302453106   T   T   T
  0.4999415293458072  0.2496063728615646  0.1939822872344304   T   T   T
  0.2477887422739973  0.4988217142424692  0.1938007177410822   T   T   T
  0.7536135285293879  0.4987761312943478  0.1953215365901725   T   T   T
  0.9998431514889137  0.7453150797580391  0.1950288900313373   T   T   T
  0.4996284852044116  0.7484179837752907  0.1944572786157428   T   T   T
  0.9994519286233642  0.0020363152737809  0.2922569207024148   T   T   T
  0.4984941750110741  0.9990662458528429  0.2931866794842492   T   T   T
  0.2490921536293480  0.2492026518925008  0.2923744713226957   T   T   T
  0.7513748550226423  0.2519773754079295  0.2927336169246847   T   T   T
  0.0120843804477468  0.4891826210379756  0.3099161141011285   T   T   T
  0.4975169473849594  0.5000935114681485  0.2931044794118389   T   T   T
  0.2469005535642136  0.7477084723715371  0.2928412454579161   T   T   T
  0.7515110273576071  0.7460167047499636  0.2937150334947329   T   T   T
  0.2435618026396302  0.0050202012698534  0.3896909889606647   T   T   T
  0.7466513950035930  0.0075597814037020  0.3835263534329003   T   T   T
  0.0127714600270604  0.3103554743302714  0.3803365445988023   T   T   T
  0.4893770846984357  0.2586712352993894  0.3880605601145650   T   T   T
  0.1926641516223767  0.4889007438137482  0.3802754422426988   T   T   T
  0.7193426130841004  0.5042931641353333  0.3894177387111044   T   T   T
  0.9976253402994819  0.7756827048604591  0.3868843976674667   T   T   T
  0.4773643088648993  0.7462749462358345  0.3891643649870115   T   T   T
  0.7518364100507744  0.0168883245660123  0.4643818353963198   T   T   T
 
  0.00000000E+00  0.00000000E+00  0.00000000E+00
  0.00000000E+00  0.00000000E+00  0.00000000E+00
  0.00000000E+00  0.00000000E+00  0.00000000E+00
  0.00000000E+00  0.00000000E+00  0.00000000E+00
  0.00000000E+00  0.00000000E+00  0.00000000E+00
  0.00000000E+00  0.00000000E+00  0.00000000E+00
  0.00000000E+00  0.00000000E+00  0.00000000E+00
  0.00000000E+00  0.00000000E+00  0.00000000E+00
  0.00000000E+00  0.00000000E+00  0.00000000E+00
  0.00000000E+00  0.00000000E+00  0.00000000E+00
  0.00000000E+00  0.00000000E+00  0.00000000E+00
  0.00000000E+00  0.00000000E+00  0.00000000E+00
  0.00000000E+00  0.00000000E+00  0.00000000E+00
  0.00000000E+00  0.00000000E+00  0.00000000E+00
  0.00000000E+00  0.00000000E+00  0.00000000E+00
  0.00000000E+00  0.00000000E+00  0.00000000E+00
  0.00000000E+00  0.00000000E+00  0.00000000E+00
  0.00000000E+00  0.00000000E+00  0.00000000E+00
  0.00000000E+00  0.00000000E+00  0.00000000E+00
  0.00000000E+00  0.00000000E+00  0.00000000E+00
  0.00000000E+00  0.00000000E+00  0.00000000E+00
  0.00000000E+00  0.00000000E+00  0.00000000E+00
  0.00000000E+00  0.00000000E+00  0.00000000E+00
  0.00000000E+00  0.00000000E+00  0.00000000E+00
  0.00000000E+00  0.00000000E+00  0.00000000E+00
  0.00000000E+00  0.00000000E+00  0.00000000E+00
  0.00000000E+00  0.00000000E+00  0.00000000E+00
  0.00000000E+00  0.00000000E+00  0.00000000E+00
  0.00000000E+00  0.00000000E+00  0.00000000E+00
  0.00000000E+00  0.00000000E+00  0.00000000E+00
  0.00000000E+00  0.00000000E+00  0.00000000E+00
  0.00000000E+00  0.00000000E+00  0.00000000E+00
  0.00000000E+00  0.00000000E+00  0.00000000E+00
  0.00000000E+00  0.00000000E+00  0.00000000E+00
  0.00000000E+00  0.00000000E+00  0.00000000E+00
  0.00000000E+00  0.00000000E+00  0.00000000E+00
  0.00000000E+00  0.00000000E+00  0.00000000E+00
  0.00000000E+00  0.00000000E+00  0.00000000E+00
  0.00000000E+00  0.00000000E+00  0.00000000E+00
  0.00000000E+00  0.00000000E+00  0.00000000E+00
  0.00000000E+00  0.00000000E+00  0.00000000E+00
  0.00000000E+00  0.00000000E+00  0.00000000E+00
  0.00000000E+00  0.00000000E+00  0.00000000E+00
  0.00000000E+00  0.00000000E+00  0.00000000E+00
  0.00000000E+00  0.00000000E+00  0.00000000E+00
  0.00000000E+00  0.00000000E+00  0.00000000E+00
  0.00000000E+00  0.00000000E+00  0.00000000E+00
  0.00000000E+00  0.00000000E+00  0.00000000E+00
  0.00000000E+00  0.00000000E+00  0.00000000E+00
  0.00000000E+00  0.00000000E+00  0.00000000E+00
  0.00000000E+00  0.00000000E+00  0.00000000E+00
  0.00000000E+00  0.00000000E+00  0.00000000E+00
  0.00000000E+00  0.00000000E+00  0.00000000E+00
  0.00000000E+00  0.00000000E+00  0.00000000E+00
  0.00000000E+00  0.00000000E+00  0.00000000E+00
  0.00000000E+00  0.00000000E+00  0.00000000E+00
  0.00000000E+00  0.00000000E+00  0.00000000E+00
  0.00000000E+00  0.00000000E+00  0.00000000E+00
  0.00000000E+00  0.00000000E+00  0.00000000E+00
  0.00000000E+00  0.00000000E+00  0.00000000E+00
  0.00000000E+00  0.00000000E+00  0.00000000E+00
  0.00000000E+00  0.00000000E+00  0.00000000E+00
  0.00000000E+00  0.00000000E+00  0.00000000E+00
  0.00000000E+00  0.00000000E+00  0.00000000E+00
  0.00000000E+00  0.00000000E+00  0.00000000E+00
