B Ca O Ru                               
   1.00000000000000     
     9.6048500000000008    0.0000000000000000    0.0000000000000000
     0.0000000000000000    9.6048500000000008    0.0000000000000000
     0.0000000000000000    0.0000000000000000   24.6048000000000009
   B    Ca   O    Ru
     1    31    32     1
Selective dynamics
Direct
  0.0656261776959134  0.4376130245848441  0.3597826879495460   T   T   T
  0.2505523446457680  0.9984669357157691  0.0980224749142278   T   T   T
  0.7491650513286308  0.9983092103805291  0.0988727934903614   T   T   T
  0.9996496575298740  0.2471691773584829  0.0977464388550110   T   T   T
  0.5003765950820857  0.2480752603457794  0.0982266881037489   T   T   T
  0.2516613979512339  0.4989266921314802  0.0975466525359309   T   T   T
  0.7493029515629849  0.4990564222859756  0.0981145551530823   T   T   T
  0.9994786632901359  0.7496142960470504  0.0980246666034695   T   T   T
  0.5004457985078495  0.7495142751305667  0.0987218634532913   T   T   T
  0.9994104527391704  0.9959088933295698  0.1950396018893796   T   T   T
  0.4998854099404497  0.9982712196955733  0.1960283021033671   T   T   T
  0.2516315943837256  0.2467810779517354  0.1946322870306639   T   T   T
  0.7482020821836344  0.2491131076100041  0.1955707736087071   T   T   T
  0.9996409938278092  0.4991511404234492  0.1917200459112070   T   T   T
  0.5038796081954364  0.4995838844780902  0.1951189138205179   T   T   T
  0.2501095761830509  0.7509044384250650  0.1951055902073765   T   T   T
  0.7496269747784262  0.7482600187898104  0.1966879067346462   T   T   T
  0.2499351730042655  0.9980410525174674  0.2940997008315994   T   T   T
  0.7478611239157147  0.9982053139281828  0.2942305253188758   T   T   T
  0.9961242915886145  0.2383911214174474  0.2889049978897087   T   T   T
  0.5021107048240883  0.2465051921143063  0.2945358439374385   T   T   T
  0.2603403565327966  0.5016700486952324  0.2872923736582873   T   T   T
  0.7483687760263055  0.4999429956587129  0.2977161842754052   T   T   T
  0.9974745848911828  0.7533230730024933  0.2963043378118450   T   T   T
  0.5009020185814395  0.7525213973338875  0.2960047713781783   T   T   T
 -0.0040654007691551  0.9989856827630015  0.3975160466459221   T   T   T
  0.4973354521390198  0.9934785990252102  0.3979025287912629   T   T   T
  0.2556635164082742  0.2415418880187106  0.3900134370466800   T   T   T
  0.7468060281088531  0.2724167959283621  0.3965617970087049   T   T   T
  0.4948023760933350  0.5054250179262828  0.3905660475113744   T   T   T
  0.2314442796318700  0.7512227502296031  0.3902636588985945   T   T   T
  0.7665853042162926  0.7345075358093623  0.3988389537162507   T   T   T
  0.9996516806793433  0.9983288949225505  0.0990088614569654   T   T   T
  0.5000494728008562  0.9987535780462659  0.0991024110257982   T   T   T
  0.2498195541975290  0.2488139547738780  0.0983162044688757   T   T   T
  0.7502228860083470  0.2492561689243710  0.0989697567290234   T   T   T
  0.9998618389136962  0.4986481843835141  0.0989973347031039   T   T   T
  0.5008408597728400  0.4988788776384460  0.0990901464754496   T   T   T
  0.2495351632213538  0.7485247753912029  0.0985592858598847   T   T   T
  0.7503513613077136  0.7482033530755143  0.0993295052221709   T   T   T
  0.2492149613592543  0.9987695032645733  0.1938935018664101   T   T   T
  0.7500237764109005  0.9988512067965448  0.1946462790114128   T   T   T
  0.9997600114357639  0.2512882615279114  0.1940462796782286   T   T   T
  0.5001540090509740  0.2496283142165328  0.1940721992186759   T   T   T
  0.2480596325977040  0.4987196453942723  0.1935825761404724   T   T   T
  0.7536847799925733  0.4987021563139907  0.1956775539626333   T   T   T
  0.9996725448603847  0.7453560804981144  0.1949315696528391   T   T   T
  0.4998313005188436  0.7483784475810282  0.1943957242826647   T   T   T
  0.9989787436465136  0.0020525111303815  0.2920294595708698   T   T   T
  0.4988055185716999  0.9990325436958478  0.2931414211294127   T   T   T
  0.2488670252512064  0.2492474473630497  0.2922870079302168   T   T   T
  0.7514498678093786  0.2513475341135758  0.2936282011995454   T   T   T
  0.0122336906551903  0.4900400469089426  0.3090716156449317   T   T   T
  0.4980359433099691  0.5002002137821966  0.2929015464109109   T   T   T
  0.2467349518150931  0.7477681108669550  0.2923811845211886   T   T   T
  0.7513942449614681  0.7465408257449018  0.2940613152453195   T   T   T
  0.2436002403502488  0.0051435654650608  0.3894935023972604   T   T   T
  0.7460254150682397  0.0063680058379307  0.3851608854822538   T   T   T
  0.0122527897773238  0.3126279287341006  0.3799373594903878   T   T   T
  0.4887137085351622  0.2602400289846843  0.3878873370415063   T   T   T
  0.1928733411484071  0.4900060380491306  0.3795255386243289   T   T   T
  0.7190735149637216  0.5046226975734318  0.3892729301772033   T   T   T
  0.9974480254080902  0.7746273293371403  0.3863664460103221   T   T   T
  0.4752298480604197  0.7451717889518822  0.3888344995498503   T   T   T
  0.7528640741287216  0.0151729253881158  0.4635354990892057   T   T   T
 
  0.00000000E+00  0.00000000E+00  0.00000000E+00
  0.00000000E+00  0.00000000E+00  0.00000000E+00
  0.00000000E+00  0.00000000E+00  0.00000000E+00
  0.00000000E+00  0.00000000E+00  0.00000000E+00
  0.00000000E+00  0.00000000E+00  0.00000000E+00
  0.00000000E+00  0.00000000E+00  0.00000000E+00
  0.00000000E+00  0.00000000E+00  0.00000000E+00
  0.00000000E+00  0.00000000E+00  0.00000000E+00
  0.00000000E+00  0.00000000E+00  0.00000000E+00
  0.00000000E+00  0.00000000E+00  0.00000000E+00
  0.00000000E+00  0.00000000E+00  0.00000000E+00
  0.00000000E+00  0.00000000E+00  0.00000000E+00
  0.00000000E+00  0.00000000E+00  0.00000000E+00
  0.00000000E+00  0.00000000E+00  0.00000000E+00
  0.00000000E+00  0.00000000E+00  0.00000000E+00
  0.00000000E+00  0.00000000E+00  0.00000000E+00
  0.00000000E+00  0.00000000E+00  0.00000000E+00
  0.00000000E+00  0.00000000E+00  0.00000000E+00
  0.00000000E+00  0.00000000E+00  0.00000000E+00
  0.00000000E+00  0.00000000E+00  0.00000000E+00
  0.00000000E+00  0.00000000E+00  0.00000000E+00
  0.00000000E+00  0.00000000E+00  0.00000000E+00
  0.00000000E+00  0.00000000E+00  0.00000000E+00
  0.00000000E+00  0.00000000E+00  0.00000000E+00
  0.00000000E+00  0.00000000E+00  0.00000000E+00
  0.00000000E+00  0.00000000E+00  0.00000000E+00
  0.00000000E+00  0.00000000E+00  0.00000000E+00
  0.00000000E+00  0.00000000E+00  0.00000000E+00
  0.00000000E+00  0.00000000E+00  0.00000000E+00
  0.00000000E+00  0.00000000E+00  0.00000000E+00
  0.00000000E+00  0.00000000E+00  0.00000000E+00
  0.00000000E+00  0.00000000E+00  0.00000000E+00
  0.00000000E+00  0.00000000E+00  0.00000000E+00
  0.00000000E+00  0.00000000E+00  0.00000000E+00
  0.00000000E+00  0.00000000E+00  0.00000000E+00
  0.00000000E+00  0.00000000E+00  0.00000000E+00
  0.00000000E+00  0.00000000E+00  0.00000000E+00
  0.00000000E+00  0.00000000E+00  0.00000000E+00
  0.00000000E+00  0.00000000E+00  0.00000000E+00
  0.00000000E+00  0.00000000E+00  0.00000000E+00
  0.00000000E+00  0.00000000E+00  0.00000000E+00
  0.00000000E+00  0.00000000E+00  0.00000000E+00
  0.00000000E+00  0.00000000E+00  0.00000000E+00
  0.00000000E+00  0.00000000E+00  0.00000000E+00
  0.00000000E+00  0.00000000E+00  0.00000000E+00
  0.00000000E+00  0.00000000E+00  0.00000000E+00
  0.00000000E+00  0.00000000E+00  0.00000000E+00
  0.00000000E+00  0.00000000E+00  0.00000000E+00
  0.00000000E+00  0.00000000E+00  0.00000000E+00
  0.00000000E+00  0.00000000E+00  0.00000000E+00
  0.00000000E+00  0.00000000E+00  0.00000000E+00
  0.00000000E+00  0.00000000E+00  0.00000000E+00
  0.00000000E+00  0.00000000E+00  0.00000000E+00
  0.00000000E+00  0.00000000E+00  0.00000000E+00
  0.00000000E+00  0.00000000E+00  0.00000000E+00
  0.00000000E+00  0.00000000E+00  0.00000000E+00
  0.00000000E+00  0.00000000E+00  0.00000000E+00
  0.00000000E+00  0.00000000E+00  0.00000000E+00
  0.00000000E+00  0.00000000E+00  0.00000000E+00
  0.00000000E+00  0.00000000E+00  0.00000000E+00
  0.00000000E+00  0.00000000E+00  0.00000000E+00
  0.00000000E+00  0.00000000E+00  0.00000000E+00
  0.00000000E+00  0.00000000E+00  0.00000000E+00
  0.00000000E+00  0.00000000E+00  0.00000000E+00
  0.00000000E+00  0.00000000E+00  0.00000000E+00
