B Ca O V                                
   1.00000000000000     
     9.6048500000000008    0.0000000000000000    0.0000000000000000
     0.0000000000000000    9.6048500000000008    0.0000000000000000
     0.0000000000000000    0.0000000000000000   24.6048000000000009
   B    Ca   O    V 
     1    31    32     1
Selective dynamics
Direct
  0.0654871265730953  0.4368019516559741  0.3599025699499060   T   T   T
  0.2505893900354380  0.9985067988405177  0.0974424465663028   T   T   T
  0.7492286774438573  0.9983910175701549  0.0983914687522795   T   T   T
  0.9996496507501943  0.2472512432404724  0.0968800178830394   T   T   T
  0.5005142875961713  0.2480680797388581  0.0975270326190973   T   T   T
  0.2516611167004116  0.4990320929496211  0.0966149368632105   T   T   T
  0.7492510160203678  0.4991360269463078  0.0972900911081305   T   T   T
  0.9993974017345190  0.7497682726241743  0.0971821962574663   T   T   T
  0.5004712094124952  0.7495411964317081  0.0981888334785734   T   T   T
  0.9987671066848136  0.9960618550711187  0.1947564955232717   T   T   T
  0.5006524773100881  0.9982780193109864  0.1957173813832954   T   T   T
  0.2516835047304217  0.2472167852738277  0.1940314264802195   T   T   T
  0.7483459536770238  0.2486299750229520  0.1952269361973928   T   T   T
  0.9996718582183088  0.4993309408570419  0.1910179083331572   T   T   T
  0.5034476521738510  0.4995089914380045  0.1945464390024369   T   T   T
  0.2499009986651127  0.7506194596294961  0.1946245153274057   T   T   T
  0.7496519363808336  0.7489998183186933  0.1964627783389326   T   T   T
  0.2500142065793389  0.9982038751747769  0.2928849647167960   T   T   T
  0.7478402083073543  0.9987159556951726  0.2960103048765230   T   T   T
  0.9968317382868981  0.2397323773484733  0.2881011679593366   T   T   T
  0.5016289015107741  0.2474840363735911  0.2938005455985945   T   T   T
  0.2598433575875657  0.5014507331157961  0.2870902059822900   T   T   T
  0.7476754722393877  0.4998665745565307  0.2963650433187595   T   T   T
  0.9978633043157249  0.7522679786346792  0.2956537458603460   T   T   T
  0.5003182081102557  0.7511843261824064  0.2951646939398883   T   T   T
  0.0009857985919389  0.0001479641477495  0.3939392545438620   T   T   T
  0.4923555507416196  0.9931870223009193  0.3944331228548283   T   T   T
  0.2561121910647982  0.2423444443043689  0.3902187537950721   T   T   T
  0.7474256152300476  0.2736360706707591  0.3949696616630237   T   T   T
  0.4951680048149228  0.5051351854597311  0.3905390111130495   T   T   T
  0.2313757066929650  0.7495320567155971  0.3902837557527135   T   T   T
  0.7659012193836768  0.7330121589859921  0.3969471256408904   T   T   T
  0.9995182509084439  0.9982513210647891  0.0996859915010771   T   T   T
  0.5002596725810624  0.9987037489739696  0.0998376399195268   T   T   T
  0.2499790543320558  0.2488182087643527  0.0987444925122412   T   T   T
  0.7501805903376239  0.2491438007450483  0.0995681299845746   T   T   T
  0.9998110985022600  0.4989829501402673  0.0991628859780016   T   T   T
  0.5009009968562061  0.4989120671645751  0.0995461048031573   T   T   T
  0.2494794276513450  0.7486950274333540  0.0991118523027521   T   T   T
  0.7503622206524095  0.7483840474493063  0.1001133238220233   T   T   T
  0.2491696379589214  0.9988293950721573  0.1943403795670176   T   T   T
  0.7501049453407352  0.9989789525794598  0.1955781807241450   T   T   T
 -0.0000529025471716  0.2513685213092886  0.1939620807354349   T   T   T
  0.5001834458774201  0.2494604952884717  0.1943475532491401   T   T   T
  0.2478993979086770  0.4987888418631629  0.1936721286906662   T   T   T
  0.7536131004447345  0.4987914731425210  0.1960799183724672   T   T   T
  0.9996212817597605  0.7456252239424694  0.1954631820421683   T   T   T
  0.4996063770172464  0.7484299283919444  0.1948130562385398   T   T   T
  0.9984160507493468  0.0029417996359617  0.2934112036371910   T   T   T
  0.4995491349768512  0.9988084685361232  0.2943886672236773   T   T   T
  0.2490602082455021  0.2493819190195034  0.2924209333164279   T   T   T
  0.7517982908818138  0.2507410088003628  0.2942481435584387   T   T   T
  0.0119808246771169  0.4901306858373294  0.3094604575570868   T   T   T
  0.4973140333530791  0.4999043940918974  0.2929494963728387   T   T   T
  0.2464976685619251  0.7476375665430394  0.2927046167712957   T   T   T
  0.7513053861486624  0.7473463040541609  0.2947893810882629   T   T   T
  0.2441878183818252  0.0050123699450406  0.3883440013825766   T   T   T
  0.7467073627772197  0.0082575441483502  0.3917256825321523   T   T   T
  0.0126349154321414  0.3110101915169504  0.3796883485531127   T   T   T
  0.4899594930752546  0.2584099906666046  0.3876868375784435   T   T   T
  0.1927173257004470  0.4894495306866167  0.3798281534762927   T   T   T
  0.7189397475677501  0.5041806947460604  0.3877973960733223   T   T   T
  0.9970073587986329  0.7768396443101870  0.3862005606080660   T   T   T
  0.4761228320754870  0.7458221580481331  0.3884532730127069   T   T   T
  0.7511027970589623  0.0131269252300597  0.4715195014891180   T   T   T
 
  0.00000000E+00  0.00000000E+00  0.00000000E+00
  0.00000000E+00  0.00000000E+00  0.00000000E+00
  0.00000000E+00  0.00000000E+00  0.00000000E+00
  0.00000000E+00  0.00000000E+00  0.00000000E+00
  0.00000000E+00  0.00000000E+00  0.00000000E+00
  0.00000000E+00  0.00000000E+00  0.00000000E+00
  0.00000000E+00  0.00000000E+00  0.00000000E+00
  0.00000000E+00  0.00000000E+00  0.00000000E+00
  0.00000000E+00  0.00000000E+00  0.00000000E+00
  0.00000000E+00  0.00000000E+00  0.00000000E+00
  0.00000000E+00  0.00000000E+00  0.00000000E+00
  0.00000000E+00  0.00000000E+00  0.00000000E+00
  0.00000000E+00  0.00000000E+00  0.00000000E+00
  0.00000000E+00  0.00000000E+00  0.00000000E+00
  0.00000000E+00  0.00000000E+00  0.00000000E+00
  0.00000000E+00  0.00000000E+00  0.00000000E+00
  0.00000000E+00  0.00000000E+00  0.00000000E+00
  0.00000000E+00  0.00000000E+00  0.00000000E+00
  0.00000000E+00  0.00000000E+00  0.00000000E+00
  0.00000000E+00  0.00000000E+00  0.00000000E+00
  0.00000000E+00  0.00000000E+00  0.00000000E+00
  0.00000000E+00  0.00000000E+00  0.00000000E+00
  0.00000000E+00  0.00000000E+00  0.00000000E+00
  0.00000000E+00  0.00000000E+00  0.00000000E+00
  0.00000000E+00  0.00000000E+00  0.00000000E+00
  0.00000000E+00  0.00000000E+00  0.00000000E+00
  0.00000000E+00  0.00000000E+00  0.00000000E+00
  0.00000000E+00  0.00000000E+00  0.00000000E+00
  0.00000000E+00  0.00000000E+00  0.00000000E+00
  0.00000000E+00  0.00000000E+00  0.00000000E+00
  0.00000000E+00  0.00000000E+00  0.00000000E+00
  0.00000000E+00  0.00000000E+00  0.00000000E+00
  0.00000000E+00  0.00000000E+00  0.00000000E+00
  0.00000000E+00  0.00000000E+00  0.00000000E+00
  0.00000000E+00  0.00000000E+00  0.00000000E+00
  0.00000000E+00  0.00000000E+00  0.00000000E+00
  0.00000000E+00  0.00000000E+00  0.00000000E+00
  0.00000000E+00  0.00000000E+00  0.00000000E+00
  0.00000000E+00  0.00000000E+00  0.00000000E+00
  0.00000000E+00  0.00000000E+00  0.00000000E+00
  0.00000000E+00  0.00000000E+00  0.00000000E+00
  0.00000000E+00  0.00000000E+00  0.00000000E+00
  0.00000000E+00  0.00000000E+00  0.00000000E+00
  0.00000000E+00  0.00000000E+00  0.00000000E+00
  0.00000000E+00  0.00000000E+00  0.00000000E+00
  0.00000000E+00  0.00000000E+00  0.00000000E+00
  0.00000000E+00  0.00000000E+00  0.00000000E+00
  0.00000000E+00  0.00000000E+00  0.00000000E+00
  0.00000000E+00  0.00000000E+00  0.00000000E+00
  0.00000000E+00  0.00000000E+00  0.00000000E+00
  0.00000000E+00  0.00000000E+00  0.00000000E+00
  0.00000000E+00  0.00000000E+00  0.00000000E+00
  0.00000000E+00  0.00000000E+00  0.00000000E+00
  0.00000000E+00  0.00000000E+00  0.00000000E+00
  0.00000000E+00  0.00000000E+00  0.00000000E+00
  0.00000000E+00  0.00000000E+00  0.00000000E+00
  0.00000000E+00  0.00000000E+00  0.00000000E+00
  0.00000000E+00  0.00000000E+00  0.00000000E+00
  0.00000000E+00  0.00000000E+00  0.00000000E+00
  0.00000000E+00  0.00000000E+00  0.00000000E+00
  0.00000000E+00  0.00000000E+00  0.00000000E+00
  0.00000000E+00  0.00000000E+00  0.00000000E+00
  0.00000000E+00  0.00000000E+00  0.00000000E+00
  0.00000000E+00  0.00000000E+00  0.00000000E+00
  0.00000000E+00  0.00000000E+00  0.00000000E+00
