B Ca O Rh                               
   1.00000000000000     
     9.6048500000000008    0.0000000000000000    0.0000000000000000
     0.0000000000000000    9.6048500000000008    0.0000000000000000
     0.0000000000000000    0.0000000000000000   24.6048000000000009
   B    Ca   O    Rh
     1    31    32     1
Selective dynamics
Direct
  0.0669795002021298  0.4377443532432463  0.3605439364623922   T   T   T
  0.2511881141896395 -0.0004196524913929  0.0984888004671744   T   T   T
  0.7499582181795094 -0.0007002843757395  0.0994614331918441   T   T   T
  0.0004341908230570  0.2482175044303142  0.0983733923229428   T   T   T
  0.5012141693994924  0.2491992225641577  0.0987696813886488   T   T   T
  0.2524043888593882  0.5000055557004389  0.0981421651107313   T   T   T
  0.7502064437172655  0.5000574040257173  0.0986402728305600   T   T   T
  0.0002035822851039  0.7506424175440675  0.0986393854840594   T   T   T
  0.5012899677867929  0.7504539577836228  0.0992560474092704   T   T   T
  0.0001476009993175  0.9966714170001413  0.1955928181579880   T   T   T
  0.5007073090334543 -0.0009349065522264  0.1963652383864551   T   T   T
  0.2523101458929600  0.2477856879451090  0.1951004070774862   T   T   T
  0.7491475653643294  0.2502712066974595  0.1960015364646056   T   T   T
  0.0003426548337406  0.5000770017179575  0.1923432332775563   T   T   T
  0.5050164046056884  0.5005529950868010  0.1957017219820903   T   T   T
  0.2508504913457799  0.7517123404811044  0.1956180875104671   T   T   T
  0.7505273055613672  0.7488342572813982  0.1972298039394496   T   T   T
  0.2506690812904657 -0.0014689261777940  0.2944027336030879   T   T   T
  0.7485366794139287  0.9988885837983861  0.2944311098412959   T   T   T
  0.9964353048477345  0.2393427660134599  0.2894961163660760   T   T   T
  0.5032174242191008  0.2474566317771471  0.2946018104682422   T   T   T
  0.2611446957929817  0.5022862346014459  0.2877622645529814   T   T   T
  0.7496933354098074  0.5000468363736674  0.2991439330435746   T   T   T
  0.9979802656269333  0.7531545802805334  0.2970329280587854   T   T   T
  0.5019756287980084  0.7526648399540452  0.2963065823041813   T   T   T
 -0.0049418860013987  0.9991343247497804  0.3964835402217043   T   T   T
  0.5000498386000891  0.9948141991935682  0.3969434551093243   T   T   T
  0.2567433437022520  0.2416596987541721  0.3901422416748603   T   T   T
  0.7443242312691656  0.2670236432470323  0.3975415292045783   T   T   T
  0.4961072921847823  0.5057387082523667  0.3911283442717344   T   T   T
  0.2325386601104093  0.7521828612639594  0.3907642939954343   T   T   T
  0.7646192980492085  0.7399030048681787  0.3992290893818117   T   T   T
  0.0004859592741313 -0.0006665143963694  0.0996226407260872   T   T   T
  0.5006783443908963 -0.0001969656944598  0.0995906008440090   T   T   T
  0.2505207516321454  0.2498927882975618  0.0988696659018235   T   T   T
  0.7510558311231605  0.2502410311892155  0.0993930478623764   T   T   T
  0.0007057249372833  0.4997454751220982  0.0996155065476784   T   T   T
  0.5016013260734986  0.4999829731419754  0.0996362080093438   T   T   T
  0.2502844630487998  0.7496950237758621  0.0990834086777627   T   T   T
  0.7511836625132130  0.7491494339877801  0.0998291361996177   T   T   T
  0.2498731116406068 -0.0003114734781487  0.1944501063166504   T   T   T
  0.7508685676444216 -0.0004003531072352  0.1949098238664330   T   T   T
  0.0008790381025616  0.2521502324773904  0.1947060554320084   T   T   T
  0.5008534677858730  0.2505278863134254  0.1945493815231094   T   T   T
  0.2488880073259914  0.4997277398239736  0.1940735342976871   T   T   T
  0.7545806127160103  0.4996171899081957  0.1959729697841094   T   T   T
  0.0006872745184157  0.7462390515458517  0.1955937864285128   T   T   T
  0.5005010096362554  0.7492216310688227  0.1949675811629487   T   T   T
 -0.0000740154783121  0.0025575091162629  0.2929417823902642   T   T   T
  0.4992601890345417 -0.0004846832009360  0.2936623789084741   T   T   T
  0.2499078170007757  0.2497709354086809  0.2927379843573208   T   T   T
  0.7521310329604735  0.2524947354083652  0.2934074147412044   T   T   T
  0.0136937376110583  0.4903560347510566  0.3098338277815496   T   T   T
  0.4985805759860813  0.5007106390617256  0.2935363571966211   T   T   T
  0.2476415482371715  0.7483214425271988  0.2930365625653367   T   T   T
  0.7521559805893580  0.7465138254259709  0.2942451261816809   T   T   T
  0.2438515617205765  0.0054844097304721  0.3899212960719411   T   T   T
  0.7469270071775562  0.0070454449171036  0.3840343806800707   T   T   T
  0.0139621876677780  0.3126252888194502  0.3806288110846726   T   T   T
  0.4901437722515232  0.2589173973455059  0.3884342811975387   T   T   T
  0.1945978187889759  0.4902941991322446  0.3801525459011766   T   T   T
  0.7192601113526687  0.5048349572589051  0.3902015464348310   T   T   T
 -0.0019651967565108  0.7753062176276435  0.3872371266979378   T   T   T
  0.4773168183940286  0.7466987054417583  0.3895861047381071   T   T   T
  0.7531332936025066  0.0168417993725217  0.4648232051647584   T   T   T
 
  0.00000000E+00  0.00000000E+00  0.00000000E+00
  0.00000000E+00  0.00000000E+00  0.00000000E+00
  0.00000000E+00  0.00000000E+00  0.00000000E+00
  0.00000000E+00  0.00000000E+00  0.00000000E+00
  0.00000000E+00  0.00000000E+00  0.00000000E+00
  0.00000000E+00  0.00000000E+00  0.00000000E+00
  0.00000000E+00  0.00000000E+00  0.00000000E+00
  0.00000000E+00  0.00000000E+00  0.00000000E+00
  0.00000000E+00  0.00000000E+00  0.00000000E+00
  0.00000000E+00  0.00000000E+00  0.00000000E+00
  0.00000000E+00  0.00000000E+00  0.00000000E+00
  0.00000000E+00  0.00000000E+00  0.00000000E+00
  0.00000000E+00  0.00000000E+00  0.00000000E+00
  0.00000000E+00  0.00000000E+00  0.00000000E+00
  0.00000000E+00  0.00000000E+00  0.00000000E+00
  0.00000000E+00  0.00000000E+00  0.00000000E+00
  0.00000000E+00  0.00000000E+00  0.00000000E+00
  0.00000000E+00  0.00000000E+00  0.00000000E+00
  0.00000000E+00  0.00000000E+00  0.00000000E+00
  0.00000000E+00  0.00000000E+00  0.00000000E+00
  0.00000000E+00  0.00000000E+00  0.00000000E+00
  0.00000000E+00  0.00000000E+00  0.00000000E+00
  0.00000000E+00  0.00000000E+00  0.00000000E+00
  0.00000000E+00  0.00000000E+00  0.00000000E+00
  0.00000000E+00  0.00000000E+00  0.00000000E+00
  0.00000000E+00  0.00000000E+00  0.00000000E+00
  0.00000000E+00  0.00000000E+00  0.00000000E+00
  0.00000000E+00  0.00000000E+00  0.00000000E+00
  0.00000000E+00  0.00000000E+00  0.00000000E+00
  0.00000000E+00  0.00000000E+00  0.00000000E+00
  0.00000000E+00  0.00000000E+00  0.00000000E+00
  0.00000000E+00  0.00000000E+00  0.00000000E+00
  0.00000000E+00  0.00000000E+00  0.00000000E+00
  0.00000000E+00  0.00000000E+00  0.00000000E+00
  0.00000000E+00  0.00000000E+00  0.00000000E+00
  0.00000000E+00  0.00000000E+00  0.00000000E+00
  0.00000000E+00  0.00000000E+00  0.00000000E+00
  0.00000000E+00  0.00000000E+00  0.00000000E+00
  0.00000000E+00  0.00000000E+00  0.00000000E+00
  0.00000000E+00  0.00000000E+00  0.00000000E+00
  0.00000000E+00  0.00000000E+00  0.00000000E+00
  0.00000000E+00  0.00000000E+00  0.00000000E+00
  0.00000000E+00  0.00000000E+00  0.00000000E+00
  0.00000000E+00  0.00000000E+00  0.00000000E+00
  0.00000000E+00  0.00000000E+00  0.00000000E+00
  0.00000000E+00  0.00000000E+00  0.00000000E+00
  0.00000000E+00  0.00000000E+00  0.00000000E+00
  0.00000000E+00  0.00000000E+00  0.00000000E+00
  0.00000000E+00  0.00000000E+00  0.00000000E+00
  0.00000000E+00  0.00000000E+00  0.00000000E+00
  0.00000000E+00  0.00000000E+00  0.00000000E+00
  0.00000000E+00  0.00000000E+00  0.00000000E+00
  0.00000000E+00  0.00000000E+00  0.00000000E+00
  0.00000000E+00  0.00000000E+00  0.00000000E+00
  0.00000000E+00  0.00000000E+00  0.00000000E+00
  0.00000000E+00  0.00000000E+00  0.00000000E+00
  0.00000000E+00  0.00000000E+00  0.00000000E+00
  0.00000000E+00  0.00000000E+00  0.00000000E+00
  0.00000000E+00  0.00000000E+00  0.00000000E+00
  0.00000000E+00  0.00000000E+00  0.00000000E+00
  0.00000000E+00  0.00000000E+00  0.00000000E+00
  0.00000000E+00  0.00000000E+00  0.00000000E+00
  0.00000000E+00  0.00000000E+00  0.00000000E+00
  0.00000000E+00  0.00000000E+00  0.00000000E+00
  0.00000000E+00  0.00000000E+00  0.00000000E+00
