B Ca O Pd                               
   1.00000000000000     
     9.6048500000000008    0.0000000000000000    0.0000000000000000
     0.0000000000000000    9.6048500000000008    0.0000000000000000
     0.0000000000000000    0.0000000000000000   24.6048000000000009
   B    Ca   O    Pd
     1    31    32     1
Selective dynamics
Direct
  0.0653183012250732  0.4357499161466987  0.3604353085930965   T   T   T
  0.2505263954791203  0.9984865629811366  0.0979335552664322   T   T   T
  0.7491336731591686  0.9983442013331615  0.0985472531665340   T   T   T
  0.9996992071615611  0.2472374157432547  0.0975505062239743   T   T   T
  0.5002618433686394  0.2482121529448378  0.0981123246085632   T   T   T
  0.2516307146935019  0.4990081890439803  0.0975825660708737   T   T   T
  0.7491281492716134  0.4991307531337701  0.0979096873307907   T   T   T
  0.9995211017298535  0.7495984006805313  0.0979560110630884   T   T   T
  0.5003362179789126  0.7494570514537225  0.0987288294691546   T   T   T
  0.9993976774221636  0.9958016546598452  0.1947941708177598   T   T   T
  0.4998857801705489  0.9982985763504520  0.1956946086470354   T   T   T
  0.2515217449488067  0.2470266936313577  0.1945397604354775   T   T   T
  0.7482444689789803  0.2493911595296858  0.1951588538641604   T   T   T
  0.9994463007099356  0.4991872435663297  0.1914989814046509   T   T   T
  0.5037035711823092  0.4996302031147242  0.1951326494342233   T   T   T
  0.2499279354056318  0.7507309632714280  0.1951856156962848   T   T   T
  0.7498172641321836  0.7480863314795756  0.1964879831035304   T   T   T
  0.2498838262980619  0.9981634510870159  0.2938310485461800   T   T   T
  0.7479475567897989  0.9986076665702953  0.2936092373094855   T   T   T
  0.9959877015289197  0.2388328359559986  0.2886605171462810   T   T   T
  0.5021354351846375  0.2470763162352057  0.2940891683032500   T   T   T
  0.2596595550597503  0.5015186252074960  0.2877384045329686   T   T   T
  0.7486760333808854  0.4993399170722693  0.2978476128524259   T   T   T
  0.9975139104510180  0.7525694346124389  0.2966013289430986   T   T   T
  0.5009646239193183  0.7519091490749650  0.2956998990365067   T   T   T
  0.9923928738132345  0.0000018762532978  0.3955913691756592   T   T   T
  0.5017691251368052  0.9949003553734639  0.3957680062500094   T   T   T
  0.2564343530209956  0.2406999412510014  0.3903846516993066   T   T   T
  0.7445128899933462  0.2661529581734177  0.3962187109491098   T   T   T
  0.4962233485891476  0.5052544213908319  0.3909955221056055   T   T   T
  0.2318808430185138  0.7532288198656747  0.3909322305859170   T   T   T
  0.7630992655189053  0.7389938744218727  0.3977719048546842   T   T   T
  0.9998677498502994  0.9982567430910987  0.0988823815165005   T   T   T
  0.4997856148036552  0.9987459383630419  0.0989903181730607   T   T   T
  0.2498259817072220  0.2489364950612539  0.0983106164568995   T   T   T
  0.7501572937219032  0.2494054723867979  0.0986275811434088   T   T   T
  0.9999699598115068  0.4987853734855120  0.0988895348879073   T   T   T
  0.5005631861687986  0.4989851008090144  0.0991422368648029   T   T   T
  0.2494890820737045  0.7485308104957604  0.0986970277884073   T   T   T
  0.7503252834971584  0.7481347864403785  0.0991647398735847   T   T   T
  0.2491696063101493  0.9987506429984372  0.1938771892700498   T   T   T
  0.7500598199331534  0.9988519568250587  0.1938882829920974   T   T   T
 -0.0000024429866343  0.2512875820994857  0.1938850111982855   T   T   T
  0.4999412679534737  0.2496373833991575  0.1939987858436689   T   T   T
  0.2478288335785782  0.4988228713684322  0.1938050472718666   T   T   T
  0.7535265606540935  0.4988200002379811  0.1952597068633364   T   T   T
  0.9998742002744431  0.7453151091461838  0.1950888040913330   T   T   T
  0.4996200190630138  0.7483861282941265  0.1944855708486101   T   T   T
  0.9993542085346173  0.0020198230081605  0.2921702292550090   T   T   T
  0.4983934547661051  0.9990086696915790  0.2930908027857883   T   T   T
  0.2492062758562826  0.2492727796916926  0.2924136867658002   T   T   T
  0.7513474280689613  0.2523463687650312  0.2925789630687620   T   T   T
  0.0119053498608125  0.4890396389874144  0.3098456530510731   T   T   T
  0.4972091710953130  0.5000522441092743  0.2931807886366138   T   T   T
  0.2468275668528382  0.7476028898312022  0.2929592895420500   T   T   T
  0.7515112268904575  0.7458453678628900  0.2936644582146078   T   T   T
  0.2430768742745032  0.0048706757600098  0.3890249966740060   T   T   T
  0.7468949724586221  0.0095442710122265  0.3831798565436714   T   T   T
  0.0123803289637772  0.3096287396815359  0.3801779624337174   T   T   T
  0.4906996877413258  0.2574269408607100  0.3881047960331303   T   T   T
  0.1925023067261273  0.4884808107722437  0.3801665628720950   T   T   T
  0.7192108223371489  0.5037588011162737  0.3887314045901508   T   T   T
  0.9965767568737610  0.7768000115383548  0.3868672861038449   T   T   T
  0.4790886128736318  0.7470807121536449  0.3890212629872973   T   T   T
  0.7528799422978761  0.0171502327742981  0.4726892742264440   T   T   T
 
  0.00000000E+00  0.00000000E+00  0.00000000E+00
  0.00000000E+00  0.00000000E+00  0.00000000E+00
  0.00000000E+00  0.00000000E+00  0.00000000E+00
  0.00000000E+00  0.00000000E+00  0.00000000E+00
  0.00000000E+00  0.00000000E+00  0.00000000E+00
  0.00000000E+00  0.00000000E+00  0.00000000E+00
  0.00000000E+00  0.00000000E+00  0.00000000E+00
  0.00000000E+00  0.00000000E+00  0.00000000E+00
  0.00000000E+00  0.00000000E+00  0.00000000E+00
  0.00000000E+00  0.00000000E+00  0.00000000E+00
  0.00000000E+00  0.00000000E+00  0.00000000E+00
  0.00000000E+00  0.00000000E+00  0.00000000E+00
  0.00000000E+00  0.00000000E+00  0.00000000E+00
  0.00000000E+00  0.00000000E+00  0.00000000E+00
  0.00000000E+00  0.00000000E+00  0.00000000E+00
  0.00000000E+00  0.00000000E+00  0.00000000E+00
  0.00000000E+00  0.00000000E+00  0.00000000E+00
  0.00000000E+00  0.00000000E+00  0.00000000E+00
  0.00000000E+00  0.00000000E+00  0.00000000E+00
  0.00000000E+00  0.00000000E+00  0.00000000E+00
  0.00000000E+00  0.00000000E+00  0.00000000E+00
  0.00000000E+00  0.00000000E+00  0.00000000E+00
  0.00000000E+00  0.00000000E+00  0.00000000E+00
  0.00000000E+00  0.00000000E+00  0.00000000E+00
  0.00000000E+00  0.00000000E+00  0.00000000E+00
  0.00000000E+00  0.00000000E+00  0.00000000E+00
  0.00000000E+00  0.00000000E+00  0.00000000E+00
  0.00000000E+00  0.00000000E+00  0.00000000E+00
  0.00000000E+00  0.00000000E+00  0.00000000E+00
  0.00000000E+00  0.00000000E+00  0.00000000E+00
  0.00000000E+00  0.00000000E+00  0.00000000E+00
  0.00000000E+00  0.00000000E+00  0.00000000E+00
  0.00000000E+00  0.00000000E+00  0.00000000E+00
  0.00000000E+00  0.00000000E+00  0.00000000E+00
  0.00000000E+00  0.00000000E+00  0.00000000E+00
  0.00000000E+00  0.00000000E+00  0.00000000E+00
  0.00000000E+00  0.00000000E+00  0.00000000E+00
  0.00000000E+00  0.00000000E+00  0.00000000E+00
  0.00000000E+00  0.00000000E+00  0.00000000E+00
  0.00000000E+00  0.00000000E+00  0.00000000E+00
  0.00000000E+00  0.00000000E+00  0.00000000E+00
  0.00000000E+00  0.00000000E+00  0.00000000E+00
  0.00000000E+00  0.00000000E+00  0.00000000E+00
  0.00000000E+00  0.00000000E+00  0.00000000E+00
  0.00000000E+00  0.00000000E+00  0.00000000E+00
  0.00000000E+00  0.00000000E+00  0.00000000E+00
  0.00000000E+00  0.00000000E+00  0.00000000E+00
  0.00000000E+00  0.00000000E+00  0.00000000E+00
  0.00000000E+00  0.00000000E+00  0.00000000E+00
  0.00000000E+00  0.00000000E+00  0.00000000E+00
  0.00000000E+00  0.00000000E+00  0.00000000E+00
  0.00000000E+00  0.00000000E+00  0.00000000E+00
  0.00000000E+00  0.00000000E+00  0.00000000E+00
  0.00000000E+00  0.00000000E+00  0.00000000E+00
  0.00000000E+00  0.00000000E+00  0.00000000E+00
  0.00000000E+00  0.00000000E+00  0.00000000E+00
  0.00000000E+00  0.00000000E+00  0.00000000E+00
  0.00000000E+00  0.00000000E+00  0.00000000E+00
  0.00000000E+00  0.00000000E+00  0.00000000E+00
  0.00000000E+00  0.00000000E+00  0.00000000E+00
  0.00000000E+00  0.00000000E+00  0.00000000E+00
  0.00000000E+00  0.00000000E+00  0.00000000E+00
  0.00000000E+00  0.00000000E+00  0.00000000E+00
  0.00000000E+00  0.00000000E+00  0.00000000E+00
  0.00000000E+00  0.00000000E+00  0.00000000E+00
