B Ca O Mn                               
   1.00000000000000     
     9.6048500000000008    0.0000000000000000    0.0000000000000000
     0.0000000000000000    9.6048500000000008    0.0000000000000000
     0.0000000000000000    0.0000000000000000   24.6048000000000009
   B    Ca   O    Mn
     1    31    32     1
Selective dynamics
Direct
  0.0652660588082303  0.4362303614527754  0.3605442308363991   T   T   T
  0.2505290519098185  0.9983954372801641  0.0966702140693721   T   T   T
  0.7492427140334180  0.9983032058999275  0.0975540038386755   T   T   T
  0.9996969727456452  0.2472048167189742  0.0958821609572572   T   T   T
  0.5003649951207293  0.2480666450066389  0.0967635248239691   T   T   T
  0.2515868850211773  0.4989117544691612  0.0956797635939869   T   T   T
  0.7491680334013567  0.4990778753392986  0.0961429550096995   T   T   T
  0.9995095235955612  0.7496256886168405  0.0961393510655393   T   T   T
  0.5004001116995817  0.7494049392830049  0.0974752920870022   T   T   T
  0.9988593977313464  0.9960665615265510  0.1942628411912455   T   T   T
  0.5004691493156005  0.9982071705385570  0.1952062677828518   T   T   T
  0.2515041016157166  0.2473343325717747  0.1935638409228395   T   T   T
  0.7483813146572077  0.2488936594204510  0.1946754872915643   T   T   T
  0.9995549726133355  0.4992365324805176  0.1904072701308393   T   T   T
  0.5031495351704796  0.4994608831986584  0.1941448855306467   T   T   T
  0.2498262822326985  0.7502282589162788  0.1942880391464762   T   T   T
  0.7498050702209451  0.7487051150666131  0.1959545777366636   T   T   T
  0.2498003216403666  0.9980247548573151  0.2922204709010419   T   T   T
  0.7479470363969588  0.9987224640231277  0.2952218938589699   T   T   T
  0.9969433360647187  0.2404860865505802  0.2878099230659206   T   T   T
  0.5013425613736219  0.2479025768681475  0.2933097094568561   T   T   T
  0.2589707832173075  0.5011717951213768  0.2868840213390805   T   T   T
  0.7474372033124137  0.5003484277915771  0.2957903792007573   T   T   T
  0.9980400222667367  0.7517507857719802  0.2955039643360200   T   T   T
  0.5001216410550391  0.7507046664520470  0.2947571712356093   T   T   T
  0.0020714787335357  0.0005668547372401  0.3923421594487378   T   T   T
  0.4920616178456512  0.9932426780308450  0.3928695330802017   T   T   T
  0.2570144964968647  0.2423426900649739  0.3898214884176033   T   T   T
  0.7470169800084411  0.2738332846213068  0.3936059073991809   T   T   T
  0.4950149561433388  0.5053314222234633  0.3902753498080023   T   T   T
  0.2314497037017045  0.7489959682990266  0.3901427281706664   T   T   T
  0.7651128756501728  0.7330863267346420  0.3959640367689926   T   T   T
  0.9994678342227037  0.9980556994986121  0.1001476017313530   T   T   T
  0.5002048795316337  0.9986308016961476  0.1004235290834191   T   T   T
  0.2500021413354794  0.2486204040248594  0.0992162961958136   T   T   T
  0.7500890151018241  0.2490356328404928  0.1000704692671292   T   T   T
  0.9996404700718313  0.4989656574538378  0.0992854130944882   T   T   T
  0.5009176291963573  0.4988722100557932  0.1000101855646860   T   T   T
  0.2494885709531775  0.7486506404006472  0.0997112833413134   T   T   T
  0.7503379244570284  0.7483644311164414  0.1007408889582553   T   T   T
  0.2490858984668553  0.9987266137508055  0.1948644505538919   T   T   T
  0.7501132485951475  0.9989911111312204  0.1962492017752042   T   T   T
  0.9998717192973660  0.2512372461173359  0.1943282923790274   T   T   T
  0.5001562098885022  0.2493469411389251  0.1949768958865560   T   T   T
  0.2477111876533600  0.4986373374720475  0.1939525265161607   T   T   T
  0.7535345834657918  0.4987586488289096  0.1967313296166681   T   T   T
  0.9996428679353452  0.7455384870110684  0.1962718347867953   T   T   T
  0.4997284655732070  0.7484653401311705  0.1955148894424442   T   T   T
  0.9981768149380760  0.0032388708113237  0.2941443414443218   T   T   T
  0.4996174837614508  0.9987511153623153  0.2951292676568779   T   T   T
  0.2490198539608577  0.2493644196965241  0.2929544928778455   T   T   T
  0.7517068304224568  0.2508444557526198  0.2950004170601339   T   T   T
  0.0114026748880401  0.4899219186884692  0.3103590518061931   T   T   T
  0.4966991503404933  0.4999063234712064  0.2935113514672964   T   T   T
  0.2466135868279207  0.7473308866103947  0.2934007139084785   T   T   T
  0.7513219054373151  0.7477880537629051  0.2956608089134816   T   T   T
  0.2444195871397678  0.0048897643159664  0.3881976894270431   T   T   T
  0.7473320222253522  0.0099099244541231  0.3929071074105847   T   T   T
  0.0123606815108236  0.3102082224975179  0.3803323089067355   T   T   T
  0.4914489501773048  0.2573845063249839  0.3881231066363517   T   T   T
  0.1927581523546024  0.4887288718399890  0.3803032071157475   T   T   T
  0.7187812879461847  0.5045089111478395  0.3877172531844731   T   T   T
  0.9967102607872695  0.7776242496448909  0.3867539644458182   T   T   T
  0.4777446569839697  0.7469215865817095  0.3889422872129455   T   T   T
  0.7518829623607700  0.0141251801630931  0.4740424861837965   T   T   T
 
  0.00000000E+00  0.00000000E+00  0.00000000E+00
  0.00000000E+00  0.00000000E+00  0.00000000E+00
  0.00000000E+00  0.00000000E+00  0.00000000E+00
  0.00000000E+00  0.00000000E+00  0.00000000E+00
  0.00000000E+00  0.00000000E+00  0.00000000E+00
  0.00000000E+00  0.00000000E+00  0.00000000E+00
  0.00000000E+00  0.00000000E+00  0.00000000E+00
  0.00000000E+00  0.00000000E+00  0.00000000E+00
  0.00000000E+00  0.00000000E+00  0.00000000E+00
  0.00000000E+00  0.00000000E+00  0.00000000E+00
  0.00000000E+00  0.00000000E+00  0.00000000E+00
  0.00000000E+00  0.00000000E+00  0.00000000E+00
  0.00000000E+00  0.00000000E+00  0.00000000E+00
  0.00000000E+00  0.00000000E+00  0.00000000E+00
  0.00000000E+00  0.00000000E+00  0.00000000E+00
  0.00000000E+00  0.00000000E+00  0.00000000E+00
  0.00000000E+00  0.00000000E+00  0.00000000E+00
  0.00000000E+00  0.00000000E+00  0.00000000E+00
  0.00000000E+00  0.00000000E+00  0.00000000E+00
  0.00000000E+00  0.00000000E+00  0.00000000E+00
  0.00000000E+00  0.00000000E+00  0.00000000E+00
  0.00000000E+00  0.00000000E+00  0.00000000E+00
  0.00000000E+00  0.00000000E+00  0.00000000E+00
  0.00000000E+00  0.00000000E+00  0.00000000E+00
  0.00000000E+00  0.00000000E+00  0.00000000E+00
  0.00000000E+00  0.00000000E+00  0.00000000E+00
  0.00000000E+00  0.00000000E+00  0.00000000E+00
  0.00000000E+00  0.00000000E+00  0.00000000E+00
  0.00000000E+00  0.00000000E+00  0.00000000E+00
  0.00000000E+00  0.00000000E+00  0.00000000E+00
  0.00000000E+00  0.00000000E+00  0.00000000E+00
  0.00000000E+00  0.00000000E+00  0.00000000E+00
  0.00000000E+00  0.00000000E+00  0.00000000E+00
  0.00000000E+00  0.00000000E+00  0.00000000E+00
  0.00000000E+00  0.00000000E+00  0.00000000E+00
  0.00000000E+00  0.00000000E+00  0.00000000E+00
  0.00000000E+00  0.00000000E+00  0.00000000E+00
  0.00000000E+00  0.00000000E+00  0.00000000E+00
  0.00000000E+00  0.00000000E+00  0.00000000E+00
  0.00000000E+00  0.00000000E+00  0.00000000E+00
  0.00000000E+00  0.00000000E+00  0.00000000E+00
  0.00000000E+00  0.00000000E+00  0.00000000E+00
  0.00000000E+00  0.00000000E+00  0.00000000E+00
  0.00000000E+00  0.00000000E+00  0.00000000E+00
  0.00000000E+00  0.00000000E+00  0.00000000E+00
  0.00000000E+00  0.00000000E+00  0.00000000E+00
  0.00000000E+00  0.00000000E+00  0.00000000E+00
  0.00000000E+00  0.00000000E+00  0.00000000E+00
  0.00000000E+00  0.00000000E+00  0.00000000E+00
  0.00000000E+00  0.00000000E+00  0.00000000E+00
  0.00000000E+00  0.00000000E+00  0.00000000E+00
  0.00000000E+00  0.00000000E+00  0.00000000E+00
  0.00000000E+00  0.00000000E+00  0.00000000E+00
  0.00000000E+00  0.00000000E+00  0.00000000E+00
  0.00000000E+00  0.00000000E+00  0.00000000E+00
  0.00000000E+00  0.00000000E+00  0.00000000E+00
  0.00000000E+00  0.00000000E+00  0.00000000E+00
  0.00000000E+00  0.00000000E+00  0.00000000E+00
  0.00000000E+00  0.00000000E+00  0.00000000E+00
  0.00000000E+00  0.00000000E+00  0.00000000E+00
  0.00000000E+00  0.00000000E+00  0.00000000E+00
  0.00000000E+00  0.00000000E+00  0.00000000E+00
  0.00000000E+00  0.00000000E+00  0.00000000E+00
  0.00000000E+00  0.00000000E+00  0.00000000E+00
  0.00000000E+00  0.00000000E+00  0.00000000E+00
