B Ca O Ag                               
   1.00000000000000     
     9.6048500000000008    0.0000000000000000    0.0000000000000000
     0.0000000000000000    9.6048500000000008    0.0000000000000000
     0.0000000000000000    0.0000000000000000   24.6048000000000009
   B    Ca   O    Ag
     1    31    32     1
Selective dynamics
Direct
  0.0650857179645475  0.4347591255326411  0.3603639641721726   T   T   T
  0.2505112897806705  0.9984544382076793  0.0974706459982446   T   T   T
  0.7491804838092578  0.9983591264531487  0.0976295123142448   T   T   T
  0.9999264014436307  0.2473973856882217  0.0972663934425811   T   T   T
  0.5000722997030405  0.2483888157679597  0.0977679405000974   T   T   T
  0.2516327858739253  0.4989604450520888  0.0976306985578811   T   T   T
  0.7491929480485358  0.4991469733733200  0.0974724087095585   T   T   T
  0.9997429885375164  0.7493416851612553  0.0976743019474986   T   T   T
  0.5001937100765833  0.7492461878803418  0.0983712976384467   T   T   T
  0.9995058330651402  0.9957753905886374  0.1941460823000524   T   T   T
  0.4997280989634398  0.9982536264955186  0.1950139054597863   T   T   T
  0.2514855471983327  0.2469277189433069  0.1944137061897401   T   T   T
  0.7483002505029223  0.2495027758167100  0.1944623928451688   T   T   T
  0.9994033127109430  0.4990691694973542  0.1914248860833434   T   T   T
  0.5037148150408722  0.4996030978994727  0.1949730013465947   T   T   T
  0.2499357960592125  0.7507203923039674  0.1950345024259526   T   T   T
  0.7498458486990153  0.7479959774091088  0.1958059972855518   T   T   T
  0.2496909816890263  0.9982815148713207  0.2935531932195743   T   T   T
  0.7479684906216347  0.9985350858935214  0.2919146594749122   T   T   T
  0.9958371846113430  0.2383978152862561  0.2882419370284405   T   T   T
  0.5022040526579774  0.2468209479818683  0.2934749980348436   T   T   T
  0.2594941069896411  0.5014604315014271  0.2878833383124990   T   T   T
  0.7488472914281457  0.4991520242323238  0.2974024245792886   T   T   T
  0.9974347620938884  0.7527598597659889  0.2962716406690319   T   T   T
  0.5009260834284591  0.7520447566845747  0.2951879496186978   T   T   T
  0.9864007795220761  0.0009010350802737  0.3949824405288241   T   T   T
  0.5080520509354872  0.9958518699524175  0.3948710035945558   T   T   T
  0.2566677895116519  0.2392526651994734  0.3901811918560791   T   T   T
  0.7436790635668999  0.2631350621040284  0.3950849765959654   T   T   T
  0.4967523380752975  0.5051743509234732  0.3907708122898365   T   T   T
  0.2316600898088162  0.7564505977117539  0.3909212688768829   T   T   T
  0.7613114781557845  0.7397889120768758  0.3968083488185896   T   T   T
  0.0002385230054070  0.9982235698566743  0.0981992260556747   T   T   T
  0.4994880268730565  0.9987140999859018  0.0982923815393747   T   T   T
  0.2498413756101142  0.2491184517819870  0.0981485428323714   T   T   T
  0.7501781372745207  0.2497381625204085  0.0979026183881579   T   T   T
  0.0002862268188644  0.4987362150443053  0.0988134574598718   T   T   T
  0.5003711132379652  0.4989665732210901  0.0989916454289714   T   T   T
  0.2495445409555903  0.7482905736485508  0.0985437574090020   T   T   T
  0.7503705987216091  0.7478771623996572  0.0984898242640001   T   T   T
  0.2491894117471576  0.9986552547480609  0.1933346571689739   T   T   T
  0.7500295516318619  0.9988849946334973  0.1924469113145887   T   T   T
  0.0001555902783040  0.2512787038259346  0.1935006345959721   T   T   T
  0.4998221666479247  0.2497100586392139  0.1936224645534863   T   T   T
  0.2478620653919817  0.4988103745749618  0.1938534314925264   T   T   T
  0.7534776220117807  0.4989805471676780  0.1946204695988872   T   T   T
  0.9999906627161802  0.7451262792837602  0.1947680583341464   T   T   T
  0.4995517193438734  0.7482421208002287  0.1941389680146659   T   T   T
  0.9995955708151602  0.0016179641780884  0.2911751680649264   T   T   T
  0.4978717142844729  0.9988927945657027  0.2922337364349964   T   T   T
  0.2495041239537013  0.2492535836429528  0.2922877309531382   T   T   T
  0.7512296731319491  0.2535607899895921  0.2914627415797756   T   T   T
  0.0119150470567801  0.4884578620489892  0.3098288784225986   T   T   T
  0.4970064436229419  0.4999591012292454  0.2931808828712565   T   T   T
  0.2468302432083983  0.7475454429418068  0.2930071178062797   T   T   T
  0.7514898675292193  0.7451659538947270  0.2929822975576085   T   T   T
  0.2413668212351663  0.0046840218492670  0.3884993096250528   T   T   T
  0.7472375937713049  0.0132393087246435  0.3807604486880612   T   T   T
  0.0118514883122083  0.3086196071055262  0.3800009786101315   T   T   T
  0.4924500696151279  0.2556158985453510  0.3881464809330504   T   T   T
  0.1918353444983846  0.4875465662455815  0.3802530879752747   T   T   T
  0.7194236756979865  0.5032452122515773  0.3882929677464955   T   T   T
  0.9945761849411761  0.7781652194615459  0.3868899694206360   T   T   T
  0.4819352765568974  0.7483935647539175  0.3889610940552400   T   T   T
  0.7547475505372535  0.0169831888312508  0.5017466264438474   T   T   T
 
  0.00000000E+00  0.00000000E+00  0.00000000E+00
  0.00000000E+00  0.00000000E+00  0.00000000E+00
  0.00000000E+00  0.00000000E+00  0.00000000E+00
  0.00000000E+00  0.00000000E+00  0.00000000E+00
  0.00000000E+00  0.00000000E+00  0.00000000E+00
  0.00000000E+00  0.00000000E+00  0.00000000E+00
  0.00000000E+00  0.00000000E+00  0.00000000E+00
  0.00000000E+00  0.00000000E+00  0.00000000E+00
  0.00000000E+00  0.00000000E+00  0.00000000E+00
  0.00000000E+00  0.00000000E+00  0.00000000E+00
  0.00000000E+00  0.00000000E+00  0.00000000E+00
  0.00000000E+00  0.00000000E+00  0.00000000E+00
  0.00000000E+00  0.00000000E+00  0.00000000E+00
  0.00000000E+00  0.00000000E+00  0.00000000E+00
  0.00000000E+00  0.00000000E+00  0.00000000E+00
  0.00000000E+00  0.00000000E+00  0.00000000E+00
  0.00000000E+00  0.00000000E+00  0.00000000E+00
  0.00000000E+00  0.00000000E+00  0.00000000E+00
  0.00000000E+00  0.00000000E+00  0.00000000E+00
  0.00000000E+00  0.00000000E+00  0.00000000E+00
  0.00000000E+00  0.00000000E+00  0.00000000E+00
  0.00000000E+00  0.00000000E+00  0.00000000E+00
  0.00000000E+00  0.00000000E+00  0.00000000E+00
  0.00000000E+00  0.00000000E+00  0.00000000E+00
  0.00000000E+00  0.00000000E+00  0.00000000E+00
  0.00000000E+00  0.00000000E+00  0.00000000E+00
  0.00000000E+00  0.00000000E+00  0.00000000E+00
  0.00000000E+00  0.00000000E+00  0.00000000E+00
  0.00000000E+00  0.00000000E+00  0.00000000E+00
  0.00000000E+00  0.00000000E+00  0.00000000E+00
  0.00000000E+00  0.00000000E+00  0.00000000E+00
  0.00000000E+00  0.00000000E+00  0.00000000E+00
  0.00000000E+00  0.00000000E+00  0.00000000E+00
  0.00000000E+00  0.00000000E+00  0.00000000E+00
  0.00000000E+00  0.00000000E+00  0.00000000E+00
  0.00000000E+00  0.00000000E+00  0.00000000E+00
  0.00000000E+00  0.00000000E+00  0.00000000E+00
  0.00000000E+00  0.00000000E+00  0.00000000E+00
  0.00000000E+00  0.00000000E+00  0.00000000E+00
  0.00000000E+00  0.00000000E+00  0.00000000E+00
  0.00000000E+00  0.00000000E+00  0.00000000E+00
  0.00000000E+00  0.00000000E+00  0.00000000E+00
  0.00000000E+00  0.00000000E+00  0.00000000E+00
  0.00000000E+00  0.00000000E+00  0.00000000E+00
  0.00000000E+00  0.00000000E+00  0.00000000E+00
  0.00000000E+00  0.00000000E+00  0.00000000E+00
  0.00000000E+00  0.00000000E+00  0.00000000E+00
  0.00000000E+00  0.00000000E+00  0.00000000E+00
  0.00000000E+00  0.00000000E+00  0.00000000E+00
  0.00000000E+00  0.00000000E+00  0.00000000E+00
  0.00000000E+00  0.00000000E+00  0.00000000E+00
  0.00000000E+00  0.00000000E+00  0.00000000E+00
  0.00000000E+00  0.00000000E+00  0.00000000E+00
  0.00000000E+00  0.00000000E+00  0.00000000E+00
  0.00000000E+00  0.00000000E+00  0.00000000E+00
  0.00000000E+00  0.00000000E+00  0.00000000E+00
  0.00000000E+00  0.00000000E+00  0.00000000E+00
  0.00000000E+00  0.00000000E+00  0.00000000E+00
  0.00000000E+00  0.00000000E+00  0.00000000E+00
  0.00000000E+00  0.00000000E+00  0.00000000E+00
  0.00000000E+00  0.00000000E+00  0.00000000E+00
  0.00000000E+00  0.00000000E+00  0.00000000E+00
  0.00000000E+00  0.00000000E+00  0.00000000E+00
  0.00000000E+00  0.00000000E+00  0.00000000E+00
  0.00000000E+00  0.00000000E+00  0.00000000E+00
