B Ca O Ni                               
   1.00000000000000     
     9.6048500000000008    0.0000000000000000    0.0000000000000000
     0.0000000000000000    9.6048500000000008    0.0000000000000000
     0.0000000000000000    0.0000000000000000   24.6048000000000009
   B    Ca   O    Ni
     1    31    32     1
Selective dynamics
Direct
  0.0654229354272576  0.4361118114709542  0.3604512850890039   T   T   T
  0.2505458487935343  0.9984813194171135  0.0979711491857588   T   T   T
  0.7491028206654268  0.9983190152264637  0.0986636729681191   T   T   T
  0.9996068666376395  0.2471285924602074  0.0975132920620563   T   T   T
  0.5003205059540921  0.2481240254944809  0.0980925096249068   T   T   T
  0.2516489105024750  0.4990314004209878  0.0974684471902613   T   T   T
  0.7490840373359219  0.4991574076862615  0.0979678866892335   T   T   T
  0.9994145513734802  0.7497143818580944  0.0979284306460397   T   T   T
  0.5003969341807178  0.7495443727677885  0.0987085866273067   T   T   T
  0.9992204312692056  0.9958502093985352  0.1949244710053889   T   T   T
  0.5000459332596346  0.9983173311547305  0.1958419783446629   T   T   T
  0.2515487348543582  0.2469905586653037  0.1945225556698783   T   T   T
  0.7482291600381461  0.2491882600654247  0.1953091537404840   T   T   T
  0.9993867071480901  0.4992060200531609  0.1914377986970753   T   T   T
  0.5037296613353418  0.4996130972473651  0.1951119723847131   T   T   T
  0.2499520390379459  0.7507986673967129  0.1951698224415852   T   T   T
  0.7497675482567570  0.7482490180891315  0.1966230884211301   T   T   T
  0.2498417659792987  0.9981700960417235  0.2938397290199536   T   T   T
  0.7479752352065808  0.9986337347238854  0.2943284128730061   T   T   T
  0.9959642186365718  0.2389016058968807  0.2886758004170538   T   T   T
  0.5021958293109597  0.2470742635386058  0.2941622330584162   T   T   T
  0.2596446745844729  0.5015485180516968  0.2875737566525559   T   T   T
  0.7486515539973243  0.4994199125896243  0.2978958241180465   T   T   T
  0.9974440484953373  0.7526991078151503  0.2966177381927520   T   T   T
  0.5010694231376446  0.7520048839736641  0.2957595809602052   T   T   T
  0.9943972854433232 -0.0000973638803508  0.3959719180380685   T   T   T
  0.4995391186763540  0.9947215898289845  0.3960252642095643   T   T   T
  0.2563382865622402  0.2410934274957975  0.3903090982537124   T   T   T
  0.7447961345648028  0.2677103597968410  0.3966281209273643   T   T   T
  0.4958836295529503  0.5052987934665401  0.3909005131413318   T   T   T
  0.2319671198879853  0.7522936022495916  0.3908036274282502   T   T   T
  0.7638127941086407  0.7382333614063524  0.3981605517461330   T   T   T
  0.9997919803615772  0.9982897585328525  0.0990755109756975   T   T   T
  0.4998344928831625  0.9987440863879735  0.0991931400667444   T   T   T
  0.2497833904926800  0.2489074957179722  0.0983941274965734   T   T   T
  0.7501371259227847  0.2493540518410671  0.0988484117132671   T   T   T
  0.9998963755042685  0.4987784988177530  0.0989369757408129   T   T   T
  0.5005617126359002  0.4989984454332682  0.0992191817841163   T   T   T
  0.2494771737293773  0.7485714310191331  0.0987842542542885   T   T   T
  0.7502751405286312  0.7482083943971051  0.0993518526070703   T   T   T
  0.2491720222931329  0.9987917488698657  0.1940115213005440   T   T   T
  0.7500458483063205  0.9988664936731789  0.1942633468172131   T   T   T
 -0.0000762567054447  0.2512633044703517  0.1939843027130852   T   T   T
  0.4999711804016148  0.2496098526103673  0.1940929029568328   T   T   T
  0.2478010884683316  0.4988235989181716  0.1937892527886362   T   T   T
  0.7535328552973839  0.4987908458953142  0.1954206551816593   T   T   T
  0.9998199091008847  0.7453647541125745  0.1951601016788350   T   T   T
  0.4996360120150455  0.7484400553305638  0.1945964377975183   T   T   T
  0.9992643743768191  0.0020893167957724  0.2925021574180243   T   T   T
  0.4985129207081281  0.9990605065078543  0.2934616580143769   T   T   T
  0.2491838531952210  0.2493379247867426  0.2924596372688448   T   T   T
  0.7513465176004086  0.2520137752552487  0.2930280717016129   T   T   T
  0.0119597351017906  0.4892706546833319  0.3099071624337615   T   T   T
  0.4972966095623176  0.5000891714536442  0.2931928036206911   T   T   T
  0.2468033623682804  0.7476241041447733  0.2929693605973799   T   T   T
  0.7515515347843149  0.7460541618069226  0.2939612685090827   T   T   T
  0.2435005091562343  0.0049350124021199  0.3892433399938363   T   T   T
  0.7465650779819261  0.0081355885738106  0.3851947245366933   T   T   T
  0.0125689765014317  0.3101497529734377  0.3802679445109937   T   T   T
  0.4905301868083522  0.2577538623726394  0.3882934528114443   T   T   T
  0.1927149960379875  0.4887539158877325  0.3801421060982952   T   T   T
  0.7191620972793666  0.5039609986387721  0.3889990518503010   T   T   T
  0.9967774455135789  0.7765821773871743  0.3870819678894161   T   T   T
  0.4782769066454756  0.7469449650454898  0.3892089141627625   T   T   T
  0.7530287925362266  0.0161183971173314  0.4634545192395704   T   T   T
 
  0.00000000E+00  0.00000000E+00  0.00000000E+00
  0.00000000E+00  0.00000000E+00  0.00000000E+00
  0.00000000E+00  0.00000000E+00  0.00000000E+00
  0.00000000E+00  0.00000000E+00  0.00000000E+00
  0.00000000E+00  0.00000000E+00  0.00000000E+00
  0.00000000E+00  0.00000000E+00  0.00000000E+00
  0.00000000E+00  0.00000000E+00  0.00000000E+00
  0.00000000E+00  0.00000000E+00  0.00000000E+00
  0.00000000E+00  0.00000000E+00  0.00000000E+00
  0.00000000E+00  0.00000000E+00  0.00000000E+00
  0.00000000E+00  0.00000000E+00  0.00000000E+00
  0.00000000E+00  0.00000000E+00  0.00000000E+00
  0.00000000E+00  0.00000000E+00  0.00000000E+00
  0.00000000E+00  0.00000000E+00  0.00000000E+00
  0.00000000E+00  0.00000000E+00  0.00000000E+00
  0.00000000E+00  0.00000000E+00  0.00000000E+00
  0.00000000E+00  0.00000000E+00  0.00000000E+00
  0.00000000E+00  0.00000000E+00  0.00000000E+00
  0.00000000E+00  0.00000000E+00  0.00000000E+00
  0.00000000E+00  0.00000000E+00  0.00000000E+00
  0.00000000E+00  0.00000000E+00  0.00000000E+00
  0.00000000E+00  0.00000000E+00  0.00000000E+00
  0.00000000E+00  0.00000000E+00  0.00000000E+00
  0.00000000E+00  0.00000000E+00  0.00000000E+00
  0.00000000E+00  0.00000000E+00  0.00000000E+00
  0.00000000E+00  0.00000000E+00  0.00000000E+00
  0.00000000E+00  0.00000000E+00  0.00000000E+00
  0.00000000E+00  0.00000000E+00  0.00000000E+00
  0.00000000E+00  0.00000000E+00  0.00000000E+00
  0.00000000E+00  0.00000000E+00  0.00000000E+00
  0.00000000E+00  0.00000000E+00  0.00000000E+00
  0.00000000E+00  0.00000000E+00  0.00000000E+00
  0.00000000E+00  0.00000000E+00  0.00000000E+00
  0.00000000E+00  0.00000000E+00  0.00000000E+00
  0.00000000E+00  0.00000000E+00  0.00000000E+00
  0.00000000E+00  0.00000000E+00  0.00000000E+00
  0.00000000E+00  0.00000000E+00  0.00000000E+00
  0.00000000E+00  0.00000000E+00  0.00000000E+00
  0.00000000E+00  0.00000000E+00  0.00000000E+00
  0.00000000E+00  0.00000000E+00  0.00000000E+00
  0.00000000E+00  0.00000000E+00  0.00000000E+00
  0.00000000E+00  0.00000000E+00  0.00000000E+00
  0.00000000E+00  0.00000000E+00  0.00000000E+00
  0.00000000E+00  0.00000000E+00  0.00000000E+00
  0.00000000E+00  0.00000000E+00  0.00000000E+00
  0.00000000E+00  0.00000000E+00  0.00000000E+00
  0.00000000E+00  0.00000000E+00  0.00000000E+00
  0.00000000E+00  0.00000000E+00  0.00000000E+00
  0.00000000E+00  0.00000000E+00  0.00000000E+00
  0.00000000E+00  0.00000000E+00  0.00000000E+00
  0.00000000E+00  0.00000000E+00  0.00000000E+00
  0.00000000E+00  0.00000000E+00  0.00000000E+00
  0.00000000E+00  0.00000000E+00  0.00000000E+00
  0.00000000E+00  0.00000000E+00  0.00000000E+00
  0.00000000E+00  0.00000000E+00  0.00000000E+00
  0.00000000E+00  0.00000000E+00  0.00000000E+00
  0.00000000E+00  0.00000000E+00  0.00000000E+00
  0.00000000E+00  0.00000000E+00  0.00000000E+00
  0.00000000E+00  0.00000000E+00  0.00000000E+00
  0.00000000E+00  0.00000000E+00  0.00000000E+00
  0.00000000E+00  0.00000000E+00  0.00000000E+00
  0.00000000E+00  0.00000000E+00  0.00000000E+00
  0.00000000E+00  0.00000000E+00  0.00000000E+00
  0.00000000E+00  0.00000000E+00  0.00000000E+00
  0.00000000E+00  0.00000000E+00  0.00000000E+00
