B Ca O V                                
   1.00000000000000     
     9.6048500000000008    0.0000000000000000    0.0000000000000000
     0.0000000000000000    9.6048500000000008    0.0000000000000000
     0.0000000000000000    0.0000000000000000   24.6048000000000009
   B    Ca   O    V 
     1    31    32     1
Selective dynamics
Direct
  0.0018997940322877  0.4426192212252949  0.3633544454753619   T   T   T
  0.2506176128640196  0.9984286700010487  0.0990557107032078   T   T   T
  0.7491345376016499  0.9984010860495621  0.0992266779083896   T   T   T
  0.9998904376672750  0.2474122275031742  0.0976813338855221   T   T   T
  0.4999396810106462  0.2485409741148459  0.0983179633074007   T   T   T
  0.2511486597648064  0.4994906448007166  0.0982220072664046   T   T   T
  0.7486520179443964  0.4994400300181556  0.0984114974699643   T   T   T
  0.9998968682640890  0.7495541375626830  0.0985988408689337   T   T   T
  0.4999162082058759  0.7497502921369009  0.0992878858720565   T   T   T
  0.9996356147697102  0.9956699222763939  0.1952485226469637   T   T   T
  0.5000942795093948  0.9984661844157382  0.1963972570462884   T   T   T
  0.2519298588799207  0.2489810527886104  0.1950096020238733   T   T   T
  0.7479492186352336  0.2484763335637341  0.1952560243837828   T   T   T
  0.0000624349649271  0.4991151814278407  0.1920340370196385   T   T   T
  0.4997130010121719  0.5001950906947547  0.1954409225592862   T   T   T
  0.2501468450641791  0.7489261048268651  0.1966357000516274   T   T   T
  0.7497227464728140  0.7492148711829274  0.1968379360046376   T   T   T
  0.2512147425557072  0.9993293288007919  0.2944961270186425   T   T   T
  0.7483817101582866  0.9987703236878511  0.2961268355584825   T   T   T
  0.9998737471441024  0.2399805330446721  0.2874217258659354   T   T   T
  0.5001663086158584  0.2497580765424430  0.2938158742602410   T   T   T
  0.2569264407474477  0.4999246859565385  0.2941650597529424   T   T   T
  0.7426939134300611  0.4998803162677916  0.2940201595100294   T   T   T
  0.0000929008097624  0.7526929538724650  0.2969935527954237   T   T   T
  0.5001805040304519  0.7505312589033216  0.2962933418897467   T   T   T
  0.0104885166283225  0.0060161483064984  0.3917541718061497   T   T   T
  0.4879523451482238  0.9988027671508145  0.3927548553136375   T   T   T
  0.2577090326197961  0.2643450334906793  0.3907166247499768   T   T   T
  0.7419978869660360  0.2707826574351185  0.3921413788935930   T   T   T
  0.4979932399981860  0.5090197797754070  0.3927198204909906   T   T   T
  0.2350143068405780  0.7350748794423401  0.3932283891686439   T   T   T
  0.7689436127033923  0.7291748029896332  0.3943778901066401   T   T   T
  0.9995918691187475  0.9980159386726117  0.0995839595543947   T   T   T
  0.5001274847918402  0.9989185982818004  0.0997077803534269   T   T   T
  0.2498371826873685  0.2490776917658339  0.0986993009148564   T   T   T
  0.7499820327605778  0.2488878682067146  0.0989686476349886   T   T   T
  0.9998105632205775  0.4992041986797655  0.0992131219052864   T   T   T
  0.4999908528998767  0.4994706453577499  0.0991143952182808   T   T   T
  0.2493988968883089  0.7488941770057262  0.0996470084418575   T   T   T
  0.7504022602356131  0.7490198986930675  0.0998685694204652   T   T   T
  0.2492824355062049  0.9989263875783944  0.1949653963284947   T   T   T
  0.7503523015965642  0.9988583996852213  0.1958978303002764   T   T   T
  0.9997418897503944  0.2502313579981678  0.1934112339120559   T   T   T
  0.5001376628433515  0.2492738010700195  0.1941045442214361   T   T   T
  0.2468824012538436  0.4990773781717477  0.1946974452557760   T   T   T
  0.7529789358085064  0.4988724004128480  0.1950120817285445   T   T   T
  0.9997966323715713  0.7456702045989843  0.1959678798732367   T   T   T
  0.5000390635045265  0.7495433668216582  0.1950062125399361   T   T   T
  0.9990993047837944  0.0026250576902416  0.2934785253538230   T   T   T
  0.5004611021997677  0.9995968486440278  0.2943717442647949   T   T   T
  0.2489063300471165  0.2502560146323521  0.2922450212611711   T   T   T
  0.7512565762751022  0.2487515446543204  0.2933947973410586   T   T   T
  0.0002321323008227  0.4859025013326118  0.3080859858926843   T   T   T
  0.4999356612084720  0.5007161073722560  0.2910567792447722   T   T   T
  0.2467604315585115  0.7481602733462980  0.2940796494720745   T   T   T
  0.7532889345296252  0.7485723377750287  0.2947855788298478   T   T   T
  0.2474268188467081  0.0153682480984735  0.3890157697784545   T   T   T
  0.7520408346966760  0.0117508988271334  0.3943462518032264   T   T   T
  0.0015380140942963  0.3041135758243221  0.3789813819794889   T   T   T
  0.4992803123438190  0.2522599741489961  0.3878606197961570   T   T   T
  0.2677486969721488  0.5002236231621403  0.3856603305310884   T   T   T
  0.7284513184462926  0.5007610468703992  0.3854174491983449   T   T   T
  0.0009859384651851  0.7839785079334960  0.3873601726267795   T   T   T
  0.4963512355142484  0.7555277763137629  0.3897631469971735   T   T   T
  0.7540975063159642  0.0086302532701972  0.4731533677092922   T   T   T
 
  0.00000000E+00  0.00000000E+00  0.00000000E+00
  0.00000000E+00  0.00000000E+00  0.00000000E+00
  0.00000000E+00  0.00000000E+00  0.00000000E+00
  0.00000000E+00  0.00000000E+00  0.00000000E+00
  0.00000000E+00  0.00000000E+00  0.00000000E+00
  0.00000000E+00  0.00000000E+00  0.00000000E+00
  0.00000000E+00  0.00000000E+00  0.00000000E+00
  0.00000000E+00  0.00000000E+00  0.00000000E+00
  0.00000000E+00  0.00000000E+00  0.00000000E+00
  0.00000000E+00  0.00000000E+00  0.00000000E+00
  0.00000000E+00  0.00000000E+00  0.00000000E+00
  0.00000000E+00  0.00000000E+00  0.00000000E+00
  0.00000000E+00  0.00000000E+00  0.00000000E+00
  0.00000000E+00  0.00000000E+00  0.00000000E+00
  0.00000000E+00  0.00000000E+00  0.00000000E+00
  0.00000000E+00  0.00000000E+00  0.00000000E+00
  0.00000000E+00  0.00000000E+00  0.00000000E+00
  0.00000000E+00  0.00000000E+00  0.00000000E+00
  0.00000000E+00  0.00000000E+00  0.00000000E+00
  0.00000000E+00  0.00000000E+00  0.00000000E+00
  0.00000000E+00  0.00000000E+00  0.00000000E+00
  0.00000000E+00  0.00000000E+00  0.00000000E+00
  0.00000000E+00  0.00000000E+00  0.00000000E+00
  0.00000000E+00  0.00000000E+00  0.00000000E+00
  0.00000000E+00  0.00000000E+00  0.00000000E+00
  0.00000000E+00  0.00000000E+00  0.00000000E+00
  0.00000000E+00  0.00000000E+00  0.00000000E+00
  0.00000000E+00  0.00000000E+00  0.00000000E+00
  0.00000000E+00  0.00000000E+00  0.00000000E+00
  0.00000000E+00  0.00000000E+00  0.00000000E+00
  0.00000000E+00  0.00000000E+00  0.00000000E+00
  0.00000000E+00  0.00000000E+00  0.00000000E+00
  0.00000000E+00  0.00000000E+00  0.00000000E+00
  0.00000000E+00  0.00000000E+00  0.00000000E+00
  0.00000000E+00  0.00000000E+00  0.00000000E+00
  0.00000000E+00  0.00000000E+00  0.00000000E+00
  0.00000000E+00  0.00000000E+00  0.00000000E+00
  0.00000000E+00  0.00000000E+00  0.00000000E+00
  0.00000000E+00  0.00000000E+00  0.00000000E+00
  0.00000000E+00  0.00000000E+00  0.00000000E+00
  0.00000000E+00  0.00000000E+00  0.00000000E+00
  0.00000000E+00  0.00000000E+00  0.00000000E+00
  0.00000000E+00  0.00000000E+00  0.00000000E+00
  0.00000000E+00  0.00000000E+00  0.00000000E+00
  0.00000000E+00  0.00000000E+00  0.00000000E+00
  0.00000000E+00  0.00000000E+00  0.00000000E+00
  0.00000000E+00  0.00000000E+00  0.00000000E+00
  0.00000000E+00  0.00000000E+00  0.00000000E+00
  0.00000000E+00  0.00000000E+00  0.00000000E+00
  0.00000000E+00  0.00000000E+00  0.00000000E+00
  0.00000000E+00  0.00000000E+00  0.00000000E+00
  0.00000000E+00  0.00000000E+00  0.00000000E+00
  0.00000000E+00  0.00000000E+00  0.00000000E+00
  0.00000000E+00  0.00000000E+00  0.00000000E+00
  0.00000000E+00  0.00000000E+00  0.00000000E+00
  0.00000000E+00  0.00000000E+00  0.00000000E+00
  0.00000000E+00  0.00000000E+00  0.00000000E+00
  0.00000000E+00  0.00000000E+00  0.00000000E+00
  0.00000000E+00  0.00000000E+00  0.00000000E+00
  0.00000000E+00  0.00000000E+00  0.00000000E+00
  0.00000000E+00  0.00000000E+00  0.00000000E+00
  0.00000000E+00  0.00000000E+00  0.00000000E+00
  0.00000000E+00  0.00000000E+00  0.00000000E+00
  0.00000000E+00  0.00000000E+00  0.00000000E+00
  0.00000000E+00  0.00000000E+00  0.00000000E+00
