B Ca O Cu                               
   1.00000000000000     
     9.6048500000000008    0.0000000000000000    0.0000000000000000
     0.0000000000000000    9.6048500000000008    0.0000000000000000
     0.0000000000000000    0.0000000000000000   24.6048000000000009
   B    Ca   O    Cu
     1    31    32     1
Selective dynamics
Direct
  0.0621533221444814  0.4386191610564307  0.3570355950867167   T   T   T
  0.2481611540035389  0.9959730169478682  0.0975480354499129   T   T   T
  0.7467052662728664  0.9956555055299080  0.0984281407816310   T   T   T
  0.9972562543528849  0.2449551045800347  0.0972988101881828   T   T   T
  0.4981156987671982  0.2455276832307004  0.0978910465153682   T   T   T
  0.2491792944383705  0.4964703255027808  0.0972880220609758   T   T   T
  0.7472108994607221  0.4964809513023581  0.0979405834093130   T   T   T
  0.9970523612579757  0.7468662503445994  0.0977752239911182   T   T   T
  0.4982179060852443  0.7469009937444291  0.0986108425493597   T   T   T
  0.9962405320252326  0.9932878903094734  0.1944117487954430   T   T   T
  0.4975667310455223  0.9961134021512928  0.1957410444023928   T   T   T
  0.2494215814818320  0.2444915850597522  0.1941480654866358   T   T   T
  0.7454248938869609  0.2460696194260380  0.1951644234339948   T   T   T
  0.9973539215950087  0.4969724635131437  0.1919920925657754   T   T   T
  0.5016193096068591  0.4966549858351939  0.1947303901924646   T   T   T
  0.2473641522072504  0.7487218815790831  0.1947915023239279   T   T   T
  0.7473595468430533  0.7459922574064823  0.1965536337896851   T   T   T
  0.2455248446640442  0.9973415146946751  0.2935206795247500   T   T   T
  0.7458239057494414  0.9972979013355862  0.2950726901443408   T   T   T
  0.9942935387685060  0.2361474132184298  0.2874084998160822   T   T   T
  0.4979089605941763  0.2451276695804147  0.2950641821265539   T   T   T
  0.2583074873582841  0.4989725242065657  0.2866336795904110   T   T   T
  0.7462388088705341  0.4947459917399833  0.2972303783485831   T   T   T
  0.9955579675335761  0.7508210485809891  0.2962831645436624   T   T   T
  0.4970850793222144  0.7486684427513833  0.2951667569631786   T   T   T
  0.9853526892239990  0.9971270574395887  0.3970170373353634   T   T   T
  0.4974465636640013  0.9949639275223482  0.3919144040491068   T   T   T
  0.2447309767531150  0.2374441074199787  0.3936092043644776   T   T   T
  0.7514702586471427  0.2636009004244013  0.3974869442152869   T   T   T
  0.4925186616755801  0.4998892855766818  0.3905742664420211   T   T   T
  0.2281259339016027  0.7516039640048879  0.3903063772346375   T   T   T
  0.7561671458506652  0.7367979420252997  0.3934522645550095   T   T   T
  0.9973543739371197  0.9955731326996752  0.0984838216903163   T   T   T
  0.4976046635761657  0.9960821611274160  0.0989553591722304   T   T   T
  0.2478449623630176  0.2463856985042228  0.0978140292519290   T   T   T
  0.7476548954005408  0.2467011696551354  0.0984681767890532   T   T   T
  0.9976713919636555  0.4964096580619698  0.0988613642580243   T   T   T
  0.4985650496671636  0.4963494570571805  0.0989289377752753   T   T   T
  0.2472993492595201  0.7460584291625800  0.0983082134653315   T   T   T
  0.7478764370662460  0.7454896125333476  0.0991571850436726   T   T   T
  0.2466825166414729  0.9963656170786588  0.1933710665552861   T   T   T
  0.7471954833695148  0.9960366018849443  0.1939364740420019   T   T   T
  0.9974748680180380  0.2487208583954971  0.1930352454949040   T   T   T
  0.4975425405396788  0.2469994336716829  0.1940387910158481   T   T   T
  0.2461550066592443  0.4966575758255280  0.1929588325904402   T   T   T
  0.7509500057754438  0.4962083710423352  0.1952135744239556   T   T   T
  0.9972401500690939  0.7433683925417698  0.1948646418762433   T   T   T
  0.4972847211508811  0.7458960964667690  0.1946071072940146   T   T   T
  0.9952126600298796 -0.0001947795283913  0.2918806547331172   T   T   T
  0.4955714063436958  0.9967441890844300  0.2936100400881629   T   T   T
  0.2463081535534499  0.2473512325024555  0.2916691187010940   T   T   T
  0.7486725576442781  0.2484072903820262  0.2928226075133980   T   T   T
  0.0105325994596550  0.4921484308344335  0.3060310249491514   T   T   T
  0.4950552039658505  0.4969337270334280  0.2930656747381282   T   T   T
  0.2449404850096659  0.7459814901056805  0.2924372449634834   T   T   T
  0.7483669807099693  0.7428995909287603  0.2940654958706496   T   T   T
  0.2401787543083713  0.0008328983974526  0.3874862746275324   T   T   T
  0.7394484362519780  0.0010236830855491  0.3869474656466520   T   T   T
  0.0069277045518482  0.3140094430243359  0.3757739001301718   T   T   T
  0.4842741040804069  0.2520844031155400  0.3901468879749759   T   T   T
  0.1886647286611132  0.4898246818622509  0.3778546404555258   T   T   T
  0.7153515041739286  0.4995616595628241  0.3880796123527876   T   T   T
  0.9908631041334782  0.7732338012958375  0.3876060990875376   T   T   T
  0.4782343867553442  0.7445680408255546  0.3896338950732041   T   T   T
  0.9416938584664052  0.1691936674662941  0.4936451984335731   T   T   T
 
  0.00000000E+00  0.00000000E+00  0.00000000E+00
  0.00000000E+00  0.00000000E+00  0.00000000E+00
  0.00000000E+00  0.00000000E+00  0.00000000E+00
  0.00000000E+00  0.00000000E+00  0.00000000E+00
  0.00000000E+00  0.00000000E+00  0.00000000E+00
  0.00000000E+00  0.00000000E+00  0.00000000E+00
  0.00000000E+00  0.00000000E+00  0.00000000E+00
  0.00000000E+00  0.00000000E+00  0.00000000E+00
  0.00000000E+00  0.00000000E+00  0.00000000E+00
  0.00000000E+00  0.00000000E+00  0.00000000E+00
  0.00000000E+00  0.00000000E+00  0.00000000E+00
  0.00000000E+00  0.00000000E+00  0.00000000E+00
  0.00000000E+00  0.00000000E+00  0.00000000E+00
  0.00000000E+00  0.00000000E+00  0.00000000E+00
  0.00000000E+00  0.00000000E+00  0.00000000E+00
  0.00000000E+00  0.00000000E+00  0.00000000E+00
  0.00000000E+00  0.00000000E+00  0.00000000E+00
  0.00000000E+00  0.00000000E+00  0.00000000E+00
  0.00000000E+00  0.00000000E+00  0.00000000E+00
  0.00000000E+00  0.00000000E+00  0.00000000E+00
  0.00000000E+00  0.00000000E+00  0.00000000E+00
  0.00000000E+00  0.00000000E+00  0.00000000E+00
  0.00000000E+00  0.00000000E+00  0.00000000E+00
  0.00000000E+00  0.00000000E+00  0.00000000E+00
  0.00000000E+00  0.00000000E+00  0.00000000E+00
  0.00000000E+00  0.00000000E+00  0.00000000E+00
  0.00000000E+00  0.00000000E+00  0.00000000E+00
  0.00000000E+00  0.00000000E+00  0.00000000E+00
  0.00000000E+00  0.00000000E+00  0.00000000E+00
  0.00000000E+00  0.00000000E+00  0.00000000E+00
  0.00000000E+00  0.00000000E+00  0.00000000E+00
  0.00000000E+00  0.00000000E+00  0.00000000E+00
  0.00000000E+00  0.00000000E+00  0.00000000E+00
  0.00000000E+00  0.00000000E+00  0.00000000E+00
  0.00000000E+00  0.00000000E+00  0.00000000E+00
  0.00000000E+00  0.00000000E+00  0.00000000E+00
  0.00000000E+00  0.00000000E+00  0.00000000E+00
  0.00000000E+00  0.00000000E+00  0.00000000E+00
  0.00000000E+00  0.00000000E+00  0.00000000E+00
  0.00000000E+00  0.00000000E+00  0.00000000E+00
  0.00000000E+00  0.00000000E+00  0.00000000E+00
  0.00000000E+00  0.00000000E+00  0.00000000E+00
  0.00000000E+00  0.00000000E+00  0.00000000E+00
  0.00000000E+00  0.00000000E+00  0.00000000E+00
  0.00000000E+00  0.00000000E+00  0.00000000E+00
  0.00000000E+00  0.00000000E+00  0.00000000E+00
  0.00000000E+00  0.00000000E+00  0.00000000E+00
  0.00000000E+00  0.00000000E+00  0.00000000E+00
  0.00000000E+00  0.00000000E+00  0.00000000E+00
  0.00000000E+00  0.00000000E+00  0.00000000E+00
  0.00000000E+00  0.00000000E+00  0.00000000E+00
  0.00000000E+00  0.00000000E+00  0.00000000E+00
  0.00000000E+00  0.00000000E+00  0.00000000E+00
  0.00000000E+00  0.00000000E+00  0.00000000E+00
  0.00000000E+00  0.00000000E+00  0.00000000E+00
  0.00000000E+00  0.00000000E+00  0.00000000E+00
  0.00000000E+00  0.00000000E+00  0.00000000E+00
  0.00000000E+00  0.00000000E+00  0.00000000E+00
  0.00000000E+00  0.00000000E+00  0.00000000E+00
  0.00000000E+00  0.00000000E+00  0.00000000E+00
  0.00000000E+00  0.00000000E+00  0.00000000E+00
  0.00000000E+00  0.00000000E+00  0.00000000E+00
  0.00000000E+00  0.00000000E+00  0.00000000E+00
  0.00000000E+00  0.00000000E+00  0.00000000E+00
  0.00000000E+00  0.00000000E+00  0.00000000E+00
