B Ca O Fe                               
   1.00000000000000     
     9.6048500000000008    0.0000000000000000    0.0000000000000000
     0.0000000000000000    9.6048500000000008    0.0000000000000000
     0.0000000000000000    0.0000000000000000   24.6048000000000009
   B    Ca   O    Fe
     1    31    32     1
Selective dynamics
Direct
  0.0654688409461907  0.4364439291795436  0.3603760324494080   T   T   T
  0.2504915967728704  0.9984469651505541  0.0971110013089106   T   T   T
  0.7491209645632897  0.9983608291761195  0.0980304309778573   T   T   T
  0.9996069295519989  0.2472074560773573  0.0964447425716602   T   T   T
  0.5003377236890904  0.2481073444831438  0.0972589130844480   T   T   T
  0.2515799738873341  0.4989858302277422  0.0962549018222381   T   T   T
  0.7490841519430416  0.4991351643400459  0.0967818616976589   T   T   T
  0.9993928349544995  0.7497225200725122  0.0967644920318984   T   T   T
  0.5003770246727826  0.7494714268218340  0.0979194449982879   T   T   T
  0.9989246496921040  0.9960321001860331  0.1945404871546190   T   T   T
  0.5003091839486447  0.9982998040512511  0.1954838371132924   T   T   T
  0.2514598638287546  0.2472835832049645  0.1939073298437352   T   T   T
  0.7483409842719588  0.2490348590283275  0.1949755808109367   T   T   T
  0.9994865486559504  0.4992707608845324  0.1907709551738579   T   T   T
  0.5032880989258348  0.4995276265891320  0.1944702981476726   T   T   T
  0.2497749785526693  0.7504458824003513  0.1945492284906133   T   T   T
  0.7497679228878938  0.7485960680944349  0.1962388367262809   T   T   T
  0.2499451502944532  0.9981596494668968  0.2927367605671269   T   T   T
  0.7478635825673662  0.9988008343511516  0.2948839782515712   T   T   T
  0.9966820602842694  0.2398794167630449  0.2882206352070691   T   T   T
  0.5015876999664094  0.2475516645261547  0.2937070415580092   T   T   T
  0.2593451865913950  0.5013706628783521  0.2870591031566113   T   T   T
  0.7476049252508808  0.4999478498779264  0.2964538215837016   T   T   T
  0.9978695646092144  0.7520531971370872  0.2957465064479650   T   T   T
  0.5004172498516891  0.7511390222826686  0.2951034630511374   T   T   T
  0.0015282742742195 -0.0005125890644545  0.3938828533038634   T   T   T
  0.4924427649982256  0.9931142634501869  0.3942932518860170   T   T   T
  0.2565859301457346  0.2423976654207331  0.3899277150237715   T   T   T
  0.7464764465302370  0.2728792987707727  0.3947301722943128   T   T   T
  0.4949975003425057  0.5052031545294676  0.3904305061808848   T   T   T
  0.2317761127506520  0.7490413701166091  0.3901686101408149   T   T   T
  0.7656032263469830  0.7334107947102457  0.3970662180005374   T   T   T
  0.9994630339139658  0.9981686303572991  0.0999754888221786   T   T   T
  0.5000748891670916  0.9986632206873624  0.1002064522901792   T   T   T
  0.2498714263995432  0.2487714482348761  0.0990423108818667   T   T   T
  0.7500925583252855  0.2491652898851710  0.0998448437147523   T   T   T
  0.9996130514934916  0.4989237971085181  0.0992614379161099   T   T   T
  0.5008072509820231  0.4989185736168657  0.0998757459177739   T   T   T
  0.2494332751802754  0.7487178929677270  0.0994817600415896   T   T   T
  0.7502806806940446  0.7483519060341609  0.1004803200071349   T   T   T
  0.2490720968779092  0.9987654526491053  0.1946953496216534   T   T   T
  0.7500448395869650  0.9990129996102997  0.1958014256340213   T   T   T
  0.9998228854217780  0.2512168132339750  0.1942910671734674   T   T   T
  0.5001292932256122  0.2493797294906740  0.1947362314809505   T   T   T
  0.2477402203536873  0.4987506110054393  0.1938894547051610   T   T   T
  0.7534821534225629  0.4988008173070214  0.1965025410574329   T   T   T
  0.9996214885700613  0.7456095921675132  0.1959150037187891   T   T   T
  0.4996560903817704  0.7485326670196381  0.1952194973044663   T   T   T
  0.9984707944933602  0.0027718698711178  0.2939481000500941   T   T   T
  0.4993545699046593  0.9987750125773843  0.2948881722036102   T   T   T
  0.2490576848151222  0.2492683173365296  0.2928175626254390   T   T   T
  0.7516526110339522  0.2510668770981940  0.2945399943133042   T   T   T
  0.0116804594358787  0.4899138880183539  0.3101606047992037   T   T   T
  0.4968868660739973  0.4999795323262403  0.2934054724873326   T   T   T
  0.2466397983327356  0.7475483329300493  0.2932110681613547   T   T   T
  0.7514067811019559  0.7473747116745579  0.2953283795523873   T   T   T
  0.2444736121264802  0.0048025735405368  0.3887867753955503   T   T   T
  0.7467084543689325  0.0109193476836606  0.3898582897286386   T   T   T
  0.0127278353972584  0.3106159481174853  0.3802695386908420   T   T   T
  0.4905345652123904  0.2580212584545529  0.3881344431314565   T   T   T
  0.1929108485381548  0.4890217520727594  0.3801375974078983   T   T   T
  0.7188018539615100  0.5043961074902985  0.3882407057351611   T   T   T
  0.9972346039404811  0.7765547127768870  0.3866787475881265   T   T   T
  0.4773128177893040  0.7465486475006365  0.3889555811644158   T   T   T
  0.7530513545366307  0.0140717476984295  0.4669794119749018   T   T   T
 
  0.00000000E+00  0.00000000E+00  0.00000000E+00
  0.00000000E+00  0.00000000E+00  0.00000000E+00
  0.00000000E+00  0.00000000E+00  0.00000000E+00
  0.00000000E+00  0.00000000E+00  0.00000000E+00
  0.00000000E+00  0.00000000E+00  0.00000000E+00
  0.00000000E+00  0.00000000E+00  0.00000000E+00
  0.00000000E+00  0.00000000E+00  0.00000000E+00
  0.00000000E+00  0.00000000E+00  0.00000000E+00
  0.00000000E+00  0.00000000E+00  0.00000000E+00
  0.00000000E+00  0.00000000E+00  0.00000000E+00
  0.00000000E+00  0.00000000E+00  0.00000000E+00
  0.00000000E+00  0.00000000E+00  0.00000000E+00
  0.00000000E+00  0.00000000E+00  0.00000000E+00
  0.00000000E+00  0.00000000E+00  0.00000000E+00
  0.00000000E+00  0.00000000E+00  0.00000000E+00
  0.00000000E+00  0.00000000E+00  0.00000000E+00
  0.00000000E+00  0.00000000E+00  0.00000000E+00
  0.00000000E+00  0.00000000E+00  0.00000000E+00
  0.00000000E+00  0.00000000E+00  0.00000000E+00
  0.00000000E+00  0.00000000E+00  0.00000000E+00
  0.00000000E+00  0.00000000E+00  0.00000000E+00
  0.00000000E+00  0.00000000E+00  0.00000000E+00
  0.00000000E+00  0.00000000E+00  0.00000000E+00
  0.00000000E+00  0.00000000E+00  0.00000000E+00
  0.00000000E+00  0.00000000E+00  0.00000000E+00
  0.00000000E+00  0.00000000E+00  0.00000000E+00
  0.00000000E+00  0.00000000E+00  0.00000000E+00
  0.00000000E+00  0.00000000E+00  0.00000000E+00
  0.00000000E+00  0.00000000E+00  0.00000000E+00
  0.00000000E+00  0.00000000E+00  0.00000000E+00
  0.00000000E+00  0.00000000E+00  0.00000000E+00
  0.00000000E+00  0.00000000E+00  0.00000000E+00
  0.00000000E+00  0.00000000E+00  0.00000000E+00
  0.00000000E+00  0.00000000E+00  0.00000000E+00
  0.00000000E+00  0.00000000E+00  0.00000000E+00
  0.00000000E+00  0.00000000E+00  0.00000000E+00
  0.00000000E+00  0.00000000E+00  0.00000000E+00
  0.00000000E+00  0.00000000E+00  0.00000000E+00
  0.00000000E+00  0.00000000E+00  0.00000000E+00
  0.00000000E+00  0.00000000E+00  0.00000000E+00
  0.00000000E+00  0.00000000E+00  0.00000000E+00
  0.00000000E+00  0.00000000E+00  0.00000000E+00
  0.00000000E+00  0.00000000E+00  0.00000000E+00
  0.00000000E+00  0.00000000E+00  0.00000000E+00
  0.00000000E+00  0.00000000E+00  0.00000000E+00
  0.00000000E+00  0.00000000E+00  0.00000000E+00
  0.00000000E+00  0.00000000E+00  0.00000000E+00
  0.00000000E+00  0.00000000E+00  0.00000000E+00
  0.00000000E+00  0.00000000E+00  0.00000000E+00
  0.00000000E+00  0.00000000E+00  0.00000000E+00
  0.00000000E+00  0.00000000E+00  0.00000000E+00
  0.00000000E+00  0.00000000E+00  0.00000000E+00
  0.00000000E+00  0.00000000E+00  0.00000000E+00
  0.00000000E+00  0.00000000E+00  0.00000000E+00
  0.00000000E+00  0.00000000E+00  0.00000000E+00
  0.00000000E+00  0.00000000E+00  0.00000000E+00
  0.00000000E+00  0.00000000E+00  0.00000000E+00
  0.00000000E+00  0.00000000E+00  0.00000000E+00
  0.00000000E+00  0.00000000E+00  0.00000000E+00
  0.00000000E+00  0.00000000E+00  0.00000000E+00
  0.00000000E+00  0.00000000E+00  0.00000000E+00
  0.00000000E+00  0.00000000E+00  0.00000000E+00
  0.00000000E+00  0.00000000E+00  0.00000000E+00
  0.00000000E+00  0.00000000E+00  0.00000000E+00
  0.00000000E+00  0.00000000E+00  0.00000000E+00
