B Ca O Ru                               
   1.00000000000000     
     9.6048500000000008    0.0000000000000000    0.0000000000000000
     0.0000000000000000    9.6048500000000008    0.0000000000000000
     0.0000000000000000    0.0000000000000000   24.6048000000000009
   B    Ca   O    Ru
     1    31    32     1
Selective dynamics
Direct
  0.0678220948964130  0.4395414988776846  0.3603463934936517   T   T   T
  0.2507733477218989  0.9992098905768249  0.0985185463965787   T   T   T
  0.7494622056545684  0.9989993934679392  0.0994062158421537   T   T   T
  0.9998778050312173  0.2477380406799063  0.0983617484823035   T   T   T
  0.5006909223145191  0.2485610351165489  0.0987150412853589   T   T   T
  0.2519149716397495  0.4994931310089249  0.0978781872483274   T   T   T
  0.7496255298503506  0.4995906176805444  0.0984486326483280   T   T   T
  0.9997153177938694  0.7504032231571696  0.0984396195434125   T   T   T
  0.5007570501504757  0.7502255180639488  0.0990325650380978   T   T   T
  0.9999196978229752  0.9967564138479421  0.1956699875970461   T   T   T
  0.5003922624299387  0.9989564057988340  0.1964879337241666   T   T   T
  0.2520553189101405  0.2474660643812951  0.1951771069019142   T   T   T
  0.7488411965528282  0.2498028731480520  0.1961514426029399   T   T   T
  0.0001630815112836  0.4999250153389071  0.1920965307240579   T   T   T
  0.5044695144734693  0.5002547499758759  0.1954100969241670   T   T   T
  0.2506315391267425  0.7517337118970675  0.1954611562132443   T   T   T
  0.7501846504599852  0.7489105692994812  0.1970560229958917   T   T   T
  0.2507902345252643  0.9988616687891038  0.2946887841592999   T   T   T
  0.7489241125535921  0.9988545197944617  0.2946660025447952   T   T   T
  0.9972251864316248  0.2393885993893530  0.2897850567203115   T   T   T
  0.5029474092160727  0.2470999852219142  0.2950431100346039   T   T   T
  0.2614913307218826  0.5026712654667871  0.2874938624638857   T   T   T
  0.7491958460631197  0.5006835466759153  0.2981244946263422   T   T   T
  0.9985556026056923  0.7540431313236015  0.2968091155462810   T   T   T
  0.5019147094057873  0.7534598704412213  0.2963482043278365   T   T   T
 -0.0028835671699536  0.9982468661195895  0.3984458862483884   T   T   T
  0.4985840996209705  0.9943027574004211  0.3985025251207150   T   T   T
  0.2566355489877111  0.2420728289403227  0.3906421993038679   T   T   T
  0.7477204517673400  0.2733133990935663  0.3971108296843108   T   T   T
  0.4950486573406507  0.5059962839834071  0.3907825500840737   T   T   T
  0.2330712883314157  0.7519924543733794  0.3906640511992693   T   T   T
  0.7671503144074261  0.7347093566483439  0.3991830328427945   T   T   T
  0.9998994191860036  0.9991037265091273  0.0996122110336616   T   T   T
  0.5002506304436867  0.9993894778427652  0.0995526979378796   T   T   T
  0.2499506070407867  0.2494380248032075  0.0988756595947687   T   T   T
  0.7505161477135477  0.2497957847321746  0.0995233161146682   T   T   T
  0.0000969908227720  0.4992573579684918  0.0993988337551805   T   T   T
  0.5010824857808360  0.4993901084208164  0.0993756755038240   T   T   T
  0.2497410321494533  0.7492696646089244  0.0989142494616602   T   T   T
  0.7506254848011594  0.7488159741862902  0.0996923991295273   T   T   T
  0.2496917482049989  0.9995257779810929  0.1943888690249061   T   T   T
  0.7505437543158181  0.9995268084345481  0.1951803303060173   T   T   T
  0.0002497975422675  0.2521939233671727  0.1948075774819009   T   T   T
  0.5006942870505198  0.2502728209272848  0.1945620158850195   T   T   T
  0.2485491284984396  0.4994548452954195  0.1938630179130308   T   T   T
  0.7542066184195395  0.4993175135701448  0.1960521836521753   T   T   T
  0.0001775101396089  0.7460618053221231  0.1953488647899956   T   T   T
  0.5003658729336449  0.7490454831321933  0.1947145820197966   T   T   T
  0.9999450305820662  0.0029138540134171  0.2926281618282676   T   T   T
  0.4997616601731406  0.9998554779177422  0.2935711376254419   T   T   T
  0.2497972770861718  0.2500016254819863  0.2928634036077117   T   T   T
  0.7525982045265043  0.2522151260114457  0.2943242137545113   T   T   T
  0.0141185032293628  0.4915894897625138  0.3096953155449428   T   T   T
  0.4989987548006629  0.5008937942778989  0.2931555194578356   T   T   T
  0.2479016535453899  0.7487898775267358  0.2927378486745000   T   T   T
  0.7524245216218164  0.7470524733364866  0.2943970699420625   T   T   T
  0.2445832934899406  0.0056734115856576  0.3901832847096461   T   T   T
  0.7472233851948337  0.0059223382416592  0.3857091524727541   T   T   T
  0.0141149276251541  0.3151073970515778  0.3807982885774034   T   T   T
  0.4897312998820122  0.2605729360666373  0.3884052502622871   T   T   T
  0.1956831739653763  0.4914510803278677  0.3798727645131927   T   T   T
  0.7192933913613990  0.5050561383871044  0.3895831728040903   T   T   T
  0.9986430156160316  0.7741703864982379  0.3869094716264015   T   T   T
  0.4768824641929374  0.7460312187406096  0.3891927457418415   T   T   T
  0.7541828358110310  0.0154820648442710  0.4641259019197131   T   T   T
 
  0.00000000E+00  0.00000000E+00  0.00000000E+00
  0.00000000E+00  0.00000000E+00  0.00000000E+00
  0.00000000E+00  0.00000000E+00  0.00000000E+00
  0.00000000E+00  0.00000000E+00  0.00000000E+00
  0.00000000E+00  0.00000000E+00  0.00000000E+00
  0.00000000E+00  0.00000000E+00  0.00000000E+00
  0.00000000E+00  0.00000000E+00  0.00000000E+00
  0.00000000E+00  0.00000000E+00  0.00000000E+00
  0.00000000E+00  0.00000000E+00  0.00000000E+00
  0.00000000E+00  0.00000000E+00  0.00000000E+00
  0.00000000E+00  0.00000000E+00  0.00000000E+00
  0.00000000E+00  0.00000000E+00  0.00000000E+00
  0.00000000E+00  0.00000000E+00  0.00000000E+00
  0.00000000E+00  0.00000000E+00  0.00000000E+00
  0.00000000E+00  0.00000000E+00  0.00000000E+00
  0.00000000E+00  0.00000000E+00  0.00000000E+00
  0.00000000E+00  0.00000000E+00  0.00000000E+00
  0.00000000E+00  0.00000000E+00  0.00000000E+00
  0.00000000E+00  0.00000000E+00  0.00000000E+00
  0.00000000E+00  0.00000000E+00  0.00000000E+00
  0.00000000E+00  0.00000000E+00  0.00000000E+00
  0.00000000E+00  0.00000000E+00  0.00000000E+00
  0.00000000E+00  0.00000000E+00  0.00000000E+00
  0.00000000E+00  0.00000000E+00  0.00000000E+00
  0.00000000E+00  0.00000000E+00  0.00000000E+00
  0.00000000E+00  0.00000000E+00  0.00000000E+00
  0.00000000E+00  0.00000000E+00  0.00000000E+00
  0.00000000E+00  0.00000000E+00  0.00000000E+00
  0.00000000E+00  0.00000000E+00  0.00000000E+00
  0.00000000E+00  0.00000000E+00  0.00000000E+00
  0.00000000E+00  0.00000000E+00  0.00000000E+00
  0.00000000E+00  0.00000000E+00  0.00000000E+00
  0.00000000E+00  0.00000000E+00  0.00000000E+00
  0.00000000E+00  0.00000000E+00  0.00000000E+00
  0.00000000E+00  0.00000000E+00  0.00000000E+00
  0.00000000E+00  0.00000000E+00  0.00000000E+00
  0.00000000E+00  0.00000000E+00  0.00000000E+00
  0.00000000E+00  0.00000000E+00  0.00000000E+00
  0.00000000E+00  0.00000000E+00  0.00000000E+00
  0.00000000E+00  0.00000000E+00  0.00000000E+00
  0.00000000E+00  0.00000000E+00  0.00000000E+00
  0.00000000E+00  0.00000000E+00  0.00000000E+00
  0.00000000E+00  0.00000000E+00  0.00000000E+00
  0.00000000E+00  0.00000000E+00  0.00000000E+00
  0.00000000E+00  0.00000000E+00  0.00000000E+00
  0.00000000E+00  0.00000000E+00  0.00000000E+00
  0.00000000E+00  0.00000000E+00  0.00000000E+00
  0.00000000E+00  0.00000000E+00  0.00000000E+00
  0.00000000E+00  0.00000000E+00  0.00000000E+00
  0.00000000E+00  0.00000000E+00  0.00000000E+00
  0.00000000E+00  0.00000000E+00  0.00000000E+00
  0.00000000E+00  0.00000000E+00  0.00000000E+00
  0.00000000E+00  0.00000000E+00  0.00000000E+00
  0.00000000E+00  0.00000000E+00  0.00000000E+00
  0.00000000E+00  0.00000000E+00  0.00000000E+00
  0.00000000E+00  0.00000000E+00  0.00000000E+00
  0.00000000E+00  0.00000000E+00  0.00000000E+00
  0.00000000E+00  0.00000000E+00  0.00000000E+00
  0.00000000E+00  0.00000000E+00  0.00000000E+00
  0.00000000E+00  0.00000000E+00  0.00000000E+00
  0.00000000E+00  0.00000000E+00  0.00000000E+00
  0.00000000E+00  0.00000000E+00  0.00000000E+00
  0.00000000E+00  0.00000000E+00  0.00000000E+00
  0.00000000E+00  0.00000000E+00  0.00000000E+00
  0.00000000E+00  0.00000000E+00  0.00000000E+00
