B Mg O Nb                               
   1.00000000000000     
     8.4141216974800006    0.0000000000000000    0.0000000000000000
     0.0000000000000000    8.4141216974800006    0.0000000000000000
     0.0000000000000000    0.0000000000000000   23.4141216974799988
   B    Mg   O    Nb
     1    31    32     1
Selective dynamics
Direct
  0.2500000000000000  0.1920076452907187  0.2586364114473561   T   T   T
  0.2500000000000000  0.9989310780394139  0.0046451428837081   T   T   T
  0.2500000000000000  0.4989676458104861  0.0057501253332166   T   T   T
  0.7500000000000000  0.9996246649946466  0.0054609678531214   T   T   T
  0.7500000000000000  0.4996676481699479  0.0064932750441172   T   T   T
  0.9993382294934564  0.2501392792281548  0.0056542934664350   T   T   T
  0.9993063563212722  0.7487319726409744  0.0057748020545718   T   T   T
  0.5006617705065436  0.2501392792281548  0.0056542934664350   T   T   T
  0.5006936436787278  0.7487319726409744  0.0057748020545718   T   T   T
  0.9980047573690612  0.9993539712938481  0.0944383303616954   T   T   T
 -0.0000202502796311  0.4999618483188379  0.0961893813509137   T   T   T
  0.5019952426309388  0.9993539712938481  0.0944383303616954   T   T   T
  0.5000202502796310  0.4999618483188379  0.0961893813509137   T   T   T
  0.2500000000000000  0.2495310388837301  0.0937606026028436   T   T   T
  0.2500000000000000  0.7468864361805597  0.0943530491921207   T   T   T
  0.7500000000000000  0.2510033355951691  0.0956767116997008   T   T   T
  0.7500000000000000  0.7492872739459269  0.0959361501020854   T   T   T
  0.2500000000000000  0.9928730969089465  0.1789455751768540   T   T   T
  0.2500000000000000  0.5026154063394488  0.1891045603634257   T   T   T
  0.7500000000000000  0.0022408024507234  0.1856748486082210   T   T   T
  0.7500000000000000  0.5010010841161930  0.1885523295301035   T   T   T
  0.0034657442907960  0.2518991467737919  0.1853618854974224   T   T   T
  0.9983019610298859  0.7492642180707938  0.1865810327338102   T   T   T
  0.4965342557092041  0.2518991467737919  0.1853618854974224   T   T   T
  0.5016980389701141  0.7492642180707938  0.1865810327338102   T   T   T
  0.0003992421676718  0.0033498093871422  0.2737883572599429   T   T   T
  0.0242069780456124  0.5006172747066647  0.2817291383263447   T   T   T
  0.4996007578323281  0.0033498093871422  0.2737883572599429   T   T   T
  0.4757930219543876  0.5006172747066647  0.2817291383263447   T   T   T
  0.2500000000000000  0.7635394493065992  0.2728010341872562   T   T   T
  0.7500000000000000  0.2506194383216319  0.2829307127878180   T   T   T
  0.7500000000000000  0.7575672782621830  0.2785549176681472   T   T   T
  0.9994859866574769  0.9996138785340584  0.0029968542899913   T   T   T
 -0.0001651173484490  0.4992716050030683  0.0039162338755469   T   T   T
  0.5005140133425231  0.9996138785340584  0.0029968542899913   T   T   T
  0.5001651173484490  0.4992716050030683  0.0039162338755469   T   T   T
  0.2500000000000000  0.2497000801674701  0.0030712331245062   T   T   T
  0.2500000000000000  0.7482965662151999  0.0032535698429110   T   T   T
  0.7500000000000000  0.2500782558983151  0.0037982426791995   T   T   T
  0.7500000000000000  0.7492167263553891  0.0038343615326519   T   T   T
  0.2500000000000000 -0.0001089631002653  0.0929165839458076   T   T   T
  0.2500000000000000  0.4969647077576427  0.0963148351223735   T   T   T
  0.7500000000000000  0.0014610716330549  0.0952265764140910   T   T   T
  0.7500000000000000  0.4989152581809580  0.0965645828755455   T   T   T
 -0.0001630771449981  0.2501627160057873  0.0956765854299661   T   T   T
  0.9993131545925791  0.7491873852402531  0.0953272924858823   T   T   T
  0.5001630771449981  0.2501627160057873  0.0956765854299661   T   T   T
  0.5006868454074209  0.7491873852402531  0.0953272924858823   T   T   T
  0.9976585821564288  0.0026739804626512  0.1837848949684125   T   T   T
  0.0004909972142295  0.4980567105417763  0.1870373660064526   T   T   T
  0.5023414178435712  0.0026739804626512  0.1837848949684125   T   T   T
  0.4995090027857704  0.4980567105417763  0.1870373660064526   T   T   T
  0.2500000000000000  0.2385042321072434  0.1858365709839156   T   T   T
  0.2500000000000000  0.7536592121015150  0.1825063063807060   T   T   T
  0.7500000000000000  0.2526191993894490  0.1906585877249737   T   T   T
  0.7500000000000000  0.7507054288550089  0.1862728158835411   T   T   T
  0.2499999495650016  0.0124090568359966  0.2666708319026184   T   T   T
  0.2499999495650016  0.5357552756519892  0.2754357648726077   T   T   T
  0.7499999495650016  0.0135905678037113  0.2766769595381054   T   T   T
  0.7499998486940029  0.5001961681040950  0.2778046148494414   T   T   T
  0.0853942625544805  0.2424393062152413  0.2731389676821225   T   T   T
  0.0002222457297538  0.7645128054937949  0.2758690068393391   T   T   T
  0.4146057374455196  0.2424393062152413  0.2731389676821225   T   T   T
  0.4997779200752446  0.7645132149377936  0.2758690075173389   T   T   T
  0.7499998486940029  0.4809457161002187  0.3709210326851725   T   T   T
 
  0.00000000E+00  0.00000000E+00  0.00000000E+00
  0.00000000E+00  0.00000000E+00  0.00000000E+00
  0.00000000E+00  0.00000000E+00  0.00000000E+00
  0.00000000E+00  0.00000000E+00  0.00000000E+00
  0.00000000E+00  0.00000000E+00  0.00000000E+00
  0.00000000E+00  0.00000000E+00  0.00000000E+00
  0.00000000E+00  0.00000000E+00  0.00000000E+00
  0.00000000E+00  0.00000000E+00  0.00000000E+00
  0.00000000E+00  0.00000000E+00  0.00000000E+00
  0.00000000E+00  0.00000000E+00  0.00000000E+00
  0.00000000E+00  0.00000000E+00  0.00000000E+00
  0.00000000E+00  0.00000000E+00  0.00000000E+00
  0.00000000E+00  0.00000000E+00  0.00000000E+00
  0.00000000E+00  0.00000000E+00  0.00000000E+00
  0.00000000E+00  0.00000000E+00  0.00000000E+00
  0.00000000E+00  0.00000000E+00  0.00000000E+00
  0.00000000E+00  0.00000000E+00  0.00000000E+00
  0.00000000E+00  0.00000000E+00  0.00000000E+00
  0.00000000E+00  0.00000000E+00  0.00000000E+00
  0.00000000E+00  0.00000000E+00  0.00000000E+00
  0.00000000E+00  0.00000000E+00  0.00000000E+00
  0.00000000E+00  0.00000000E+00  0.00000000E+00
  0.00000000E+00  0.00000000E+00  0.00000000E+00
  0.00000000E+00  0.00000000E+00  0.00000000E+00
  0.00000000E+00  0.00000000E+00  0.00000000E+00
  0.00000000E+00  0.00000000E+00  0.00000000E+00
  0.00000000E+00  0.00000000E+00  0.00000000E+00
  0.00000000E+00  0.00000000E+00  0.00000000E+00
  0.00000000E+00  0.00000000E+00  0.00000000E+00
  0.00000000E+00  0.00000000E+00  0.00000000E+00
  0.00000000E+00  0.00000000E+00  0.00000000E+00
  0.00000000E+00  0.00000000E+00  0.00000000E+00
  0.00000000E+00  0.00000000E+00  0.00000000E+00
  0.00000000E+00  0.00000000E+00  0.00000000E+00
  0.00000000E+00  0.00000000E+00  0.00000000E+00
  0.00000000E+00  0.00000000E+00  0.00000000E+00
  0.00000000E+00  0.00000000E+00  0.00000000E+00
  0.00000000E+00  0.00000000E+00  0.00000000E+00
  0.00000000E+00  0.00000000E+00  0.00000000E+00
  0.00000000E+00  0.00000000E+00  0.00000000E+00
  0.00000000E+00  0.00000000E+00  0.00000000E+00
  0.00000000E+00  0.00000000E+00  0.00000000E+00
  0.00000000E+00  0.00000000E+00  0.00000000E+00
  0.00000000E+00  0.00000000E+00  0.00000000E+00
  0.00000000E+00  0.00000000E+00  0.00000000E+00
  0.00000000E+00  0.00000000E+00  0.00000000E+00
  0.00000000E+00  0.00000000E+00  0.00000000E+00
  0.00000000E+00  0.00000000E+00  0.00000000E+00
  0.00000000E+00  0.00000000E+00  0.00000000E+00
  0.00000000E+00  0.00000000E+00  0.00000000E+00
  0.00000000E+00  0.00000000E+00  0.00000000E+00
  0.00000000E+00  0.00000000E+00  0.00000000E+00
  0.00000000E+00  0.00000000E+00  0.00000000E+00
  0.00000000E+00  0.00000000E+00  0.00000000E+00
  0.00000000E+00  0.00000000E+00  0.00000000E+00
  0.00000000E+00  0.00000000E+00  0.00000000E+00
  0.00000000E+00  0.00000000E+00  0.00000000E+00
  0.00000000E+00  0.00000000E+00  0.00000000E+00
  0.00000000E+00  0.00000000E+00  0.00000000E+00
  0.00000000E+00  0.00000000E+00  0.00000000E+00
  0.00000000E+00  0.00000000E+00  0.00000000E+00
  0.00000000E+00  0.00000000E+00  0.00000000E+00
  0.00000000E+00  0.00000000E+00  0.00000000E+00
  0.00000000E+00  0.00000000E+00  0.00000000E+00
  0.00000000E+00  0.00000000E+00  0.00000000E+00
