B Mg O W                                
   1.00000000000000     
     8.4141216974800006    0.0000000000000000    0.0000000000000000
     0.0000000000000000    8.4141216974800006    0.0000000000000000
     0.0000000000000000    0.0000000000000000   23.4141216974799988
   B    Mg   O    W 
     1    31    32     1
Selective dynamics
Direct
  0.2500000000000000  0.1931837352884540  0.2580518403300785   T   T   T
  0.2500000000000000  0.9990823778809399  0.0046304830708992   T   T   T
  0.2500000000000000  0.4992371319187644  0.0057135310510929   T   T   T
  0.7500000000000000  0.9997078588241847  0.0053660672181560   T   T   T
  0.7500000000000000  0.4998286921303954  0.0063124187973052   T   T   T
  0.9994110670719172  0.2502975414490642  0.0055346576412157   T   T   T
  0.9994020116357792  0.7489415686215812  0.0057797260870945   T   T   T
  0.5005889329280828  0.2502975414490642  0.0055346576412157   T   T   T
  0.5005979883642208  0.7489415686215812  0.0057797260870945   T   T   T
  0.9981356205547529  0.9994896397787827  0.0945178424513584   T   T   T
  0.0002979907760895  0.5001784497051028  0.0963173509027081   T   T   T
  0.5018643794452471  0.9994896397787827  0.0945178424513584   T   T   T
  0.4997020092239104  0.5001784497051028  0.0963173509027081   T   T   T
  0.2500000000000000  0.2499608792343320  0.0937597530931155   T   T   T
  0.2500000000000000  0.7469015135255944  0.0944336847513723   T   T   T
  0.7500000000000000  0.2509739261638130  0.0954252610359533   T   T   T
  0.7500000000000000  0.7492891493606946  0.0958392395002527   T   T   T
  0.2500000000000000  0.9927411742644282  0.1790165124481821   T   T   T
  0.2500000000000000  0.5034617568352470  0.1896980343833074   T   T   T
  0.7500000000000000  0.0012544096943990  0.1854207106310785   T   T   T
  0.7500000000000000  0.5011377535137841  0.1875928155294657   T   T   T
  0.0032264616634885  0.2528041184327465  0.1857345843686733   T   T   T
  0.9984248577680940  0.7484563547466795  0.1869374416114231   T   T   T
  0.4967735383365114  0.2528041184327465  0.1857345843686733   T   T   T
  0.5015751422319060  0.7484563547466795  0.1869374416114231   T   T   T
  0.0018462935436804  0.0031869333615204  0.2737675628252211   T   T   T
  0.0265939783962684  0.5001838871428135  0.2850635837210665   T   T   T
  0.4981537064563196  0.0031869333615204  0.2737675628252211   T   T   T
  0.4734060216037315  0.5001838871428135  0.2850635837210665   T   T   T
  0.2500000000000000  0.7640332177266278  0.2730315437901280   T   T   T
  0.7500000000000000  0.2438715673544088  0.2824470198108614   T   T   T
  0.7500000000000000  0.7602209538946808  0.2782667975093799   T   T   T
  0.9995429516423250  0.9998227660636513  0.0030553086330871   T   T   T
 -0.0000752125559649  0.4994332678515181  0.0039282104946441   T   T   T
  0.5004570483576750  0.9998227660636513  0.0030553086330871   T   T   T
  0.5000752125559651  0.4994332678515181  0.0039282104946441   T   T   T
  0.2500000000000000  0.2499255683195480  0.0030804169415307   T   T   T
  0.2500000000000000  0.7484865143680892  0.0033700555273336   T   T   T
  0.7500000000000000  0.2502039041663143  0.0037829915662909   T   T   T
  0.7500000000000000  0.7493574986219018  0.0038376541493222   T   T   T
  0.2500000000000000  0.0005398823967739  0.0931124117681218   T   T   T
  0.2500000000000000  0.4968569049954289  0.0964889016461247   T   T   T
  0.7500000000000000  0.0017701110471406  0.0952514618188569   T   T   T
  0.7500000000000000  0.4985919662200679  0.0965839372313753   T   T   T
 -0.0000867151329516  0.2503077830067791  0.0959008160959471   T   T   T
  0.9993536731550885  0.7493953286238736  0.0954139239571832   T   T   T
  0.5000867151329516  0.2503077830067791  0.0959008160959471   T   T   T
  0.5006463268449115  0.7493953286238736  0.0954139239571832   T   T   T
  0.9978429598576554  0.0027705194920383  0.1838819927709421   T   T   T
  0.0003687341116059  0.4981949580337445  0.1869994697820738   T   T   T
  0.5021570401423446  0.0027705194920383  0.1838819927709421   T   T   T
  0.4996312658883941  0.4981949580337445  0.1869994697820738   T   T   T
  0.2500000000000000  0.2382763635816560  0.1872231958358434   T   T   T
  0.2500000000000000  0.7538525442417847  0.1827240488043507   T   T   T
  0.7500000000000000  0.2522503823447847  0.1911946077155154   T   T   T
  0.7500000000000000  0.7506435274596485  0.1861404705894056   T   T   T
  0.2499999495650016  0.0129148112627535  0.2666248601517947   T   T   T
  0.2499999495650016  0.5364188393335783  0.2757026273968360   T   T   T
  0.7499999495650016  0.0097609828296204  0.2762151148855522   T   T   T
  0.7499998486940029  0.5044813988660483  0.2760802240256516   T   T   T
  0.0845132612140851  0.2427076241861374  0.2735808004575039   T   T   T
  0.0005050200335730  0.7649248657608905  0.2763626913654971   T   T   T
  0.4154867387859147  0.2427076241861374  0.2735808004575039   T   T   T
  0.4994951457714251  0.7649252752048892  0.2763626920434970   T   T   T
  0.7499998486940029  0.4763351883273135  0.3615981107601852   T   T   T
 
  0.00000000E+00  0.00000000E+00  0.00000000E+00
  0.00000000E+00  0.00000000E+00  0.00000000E+00
  0.00000000E+00  0.00000000E+00  0.00000000E+00
  0.00000000E+00  0.00000000E+00  0.00000000E+00
  0.00000000E+00  0.00000000E+00  0.00000000E+00
  0.00000000E+00  0.00000000E+00  0.00000000E+00
  0.00000000E+00  0.00000000E+00  0.00000000E+00
  0.00000000E+00  0.00000000E+00  0.00000000E+00
  0.00000000E+00  0.00000000E+00  0.00000000E+00
  0.00000000E+00  0.00000000E+00  0.00000000E+00
  0.00000000E+00  0.00000000E+00  0.00000000E+00
  0.00000000E+00  0.00000000E+00  0.00000000E+00
  0.00000000E+00  0.00000000E+00  0.00000000E+00
  0.00000000E+00  0.00000000E+00  0.00000000E+00
  0.00000000E+00  0.00000000E+00  0.00000000E+00
  0.00000000E+00  0.00000000E+00  0.00000000E+00
  0.00000000E+00  0.00000000E+00  0.00000000E+00
  0.00000000E+00  0.00000000E+00  0.00000000E+00
  0.00000000E+00  0.00000000E+00  0.00000000E+00
  0.00000000E+00  0.00000000E+00  0.00000000E+00
  0.00000000E+00  0.00000000E+00  0.00000000E+00
  0.00000000E+00  0.00000000E+00  0.00000000E+00
  0.00000000E+00  0.00000000E+00  0.00000000E+00
  0.00000000E+00  0.00000000E+00  0.00000000E+00
  0.00000000E+00  0.00000000E+00  0.00000000E+00
  0.00000000E+00  0.00000000E+00  0.00000000E+00
  0.00000000E+00  0.00000000E+00  0.00000000E+00
  0.00000000E+00  0.00000000E+00  0.00000000E+00
  0.00000000E+00  0.00000000E+00  0.00000000E+00
  0.00000000E+00  0.00000000E+00  0.00000000E+00
  0.00000000E+00  0.00000000E+00  0.00000000E+00
  0.00000000E+00  0.00000000E+00  0.00000000E+00
  0.00000000E+00  0.00000000E+00  0.00000000E+00
  0.00000000E+00  0.00000000E+00  0.00000000E+00
  0.00000000E+00  0.00000000E+00  0.00000000E+00
  0.00000000E+00  0.00000000E+00  0.00000000E+00
  0.00000000E+00  0.00000000E+00  0.00000000E+00
  0.00000000E+00  0.00000000E+00  0.00000000E+00
  0.00000000E+00  0.00000000E+00  0.00000000E+00
  0.00000000E+00  0.00000000E+00  0.00000000E+00
  0.00000000E+00  0.00000000E+00  0.00000000E+00
  0.00000000E+00  0.00000000E+00  0.00000000E+00
  0.00000000E+00  0.00000000E+00  0.00000000E+00
  0.00000000E+00  0.00000000E+00  0.00000000E+00
  0.00000000E+00  0.00000000E+00  0.00000000E+00
  0.00000000E+00  0.00000000E+00  0.00000000E+00
  0.00000000E+00  0.00000000E+00  0.00000000E+00
  0.00000000E+00  0.00000000E+00  0.00000000E+00
  0.00000000E+00  0.00000000E+00  0.00000000E+00
  0.00000000E+00  0.00000000E+00  0.00000000E+00
  0.00000000E+00  0.00000000E+00  0.00000000E+00
  0.00000000E+00  0.00000000E+00  0.00000000E+00
  0.00000000E+00  0.00000000E+00  0.00000000E+00
  0.00000000E+00  0.00000000E+00  0.00000000E+00
  0.00000000E+00  0.00000000E+00  0.00000000E+00
  0.00000000E+00  0.00000000E+00  0.00000000E+00
  0.00000000E+00  0.00000000E+00  0.00000000E+00
  0.00000000E+00  0.00000000E+00  0.00000000E+00
  0.00000000E+00  0.00000000E+00  0.00000000E+00
  0.00000000E+00  0.00000000E+00  0.00000000E+00
  0.00000000E+00  0.00000000E+00  0.00000000E+00
  0.00000000E+00  0.00000000E+00  0.00000000E+00
  0.00000000E+00  0.00000000E+00  0.00000000E+00
  0.00000000E+00  0.00000000E+00  0.00000000E+00
  0.00000000E+00  0.00000000E+00  0.00000000E+00
