B Mg O Pt                               
   1.00000000000000     
     8.4141216974800006    0.0000000000000000    0.0000000000000000
     0.0000000000000000    8.4141216974800006    0.0000000000000000
     0.0000000000000000    0.0000000000000000   23.4141216974799988
   B    Mg   O    Pt
     1    31    32     1
Selective dynamics
Direct
  0.2500000000000000  0.1933957752880805  0.2584845032370220   T   T   T
  0.2500000000000000  0.9991518557530262  0.0047269585106722   T   T   T
  0.2500000000000000  0.4995513319046780  0.0056773639886934   T   T   T
  0.7500000000000000 -0.0001093070901534  0.0052709076807897   T   T   T
  0.7500000000000000  0.5001633893730258  0.0063060193483956   T   T   T
 -0.0005460438273325  0.2503954276723722  0.0055525871264835   T   T   T
 -0.0004686703869382  0.7492505215637703  0.0057246716892906   T   T   T
  0.5005460438273325  0.2503954276723722  0.0055525871264835   T   T   T
  0.5004686703869382  0.7492505215637703  0.0057246716892906   T   T   T
 -0.0017654624029266 -0.0004974917077958  0.0945698154553635   T   T   T
  0.0011679654355043  0.5005036879731740  0.0960738136643812   T   T   T
  0.5017654624029269 -0.0004974917077958  0.0945698154553635   T   T   T
  0.4988320345644957  0.5005036879731740  0.0960738136643812   T   T   T
  0.2500000000000000  0.2500640664226682  0.0936802274180267   T   T   T
  0.2500000000000000  0.7469373782408165  0.0946251345497932   T   T   T
  0.7500000000000000  0.2506693626686827  0.0953526316247626   T   T   T
  0.7500000000000000  0.7506216106523919  0.0956187961309929   T   T   T
  0.2500000000000000  0.9927351390046911  0.1795618753607542   T   T   T
  0.2500000000000000  0.5031905956962641  0.1905801593843830   T   T   T
  0.7500000000000000  0.0022679698640365  0.1856273926815744   T   T   T
  0.7500000000000000  0.5014351665897050  0.1857958062282587   T   T   T
  0.0034053092082626  0.2528248127380867  0.1854197984519045   T   T   T
 -0.0016872309384055  0.7486632450929416  0.1868441374431355   T   T   T
  0.4965946907917373  0.2528248127380867  0.1854197984519045   T   T   T
  0.5016872309384057  0.7486632450929416  0.1868441374431355   T   T   T
 -0.0000073964494212  0.0036428849726441  0.2740332880462079   T   T   T
  0.0198923644782876  0.5015819194934639  0.2842743534320397   T   T   T
  0.5000073964494210  0.0036428849726441  0.2740332880462079   T   T   T
  0.4801076355217123  0.5015819194934639  0.2842743534320397   T   T   T
  0.2500000000000000  0.7634228801927145  0.2736477073205177   T   T   T
  0.7500000000000000  0.2555221767531274  0.2807519594546296   T   T   T
  0.7500000000000000  0.7520125381274394  0.2779534495566973   T   T   T
 -0.0004681824117528 -0.0000459002418632  0.0029525580783689   T   T   T
 -0.0000851276470117  0.4996602811753498  0.0038203059820856   T   T   T
  0.5004681824117527 -0.0000459002418632  0.0029525580783689   T   T   T
  0.5000851276470116  0.4996602811753498  0.0038203059820856   T   T   T
  0.2500000000000000  0.2500403467777658  0.0030225554392789   T   T   T
  0.2500000000000000  0.7487327610836596  0.0033312370653619   T   T   T
  0.7500000000000000  0.2504067031739928  0.0037465972461714   T   T   T
  0.7500000000000000  0.7496805541904634  0.0037094582936300   T   T   T
  0.2500000000000000  0.0005010634121808  0.0933834720277477   T   T   T
  0.2500000000000000  0.4971291653947655  0.0961844195198704   T   T   T
  0.7500000000000000  0.0018610883754058  0.0949882195895205   T   T   T
  0.7500000000000000  0.4993453751892499  0.0960838911613813   T   T   T
  0.0003966641744595  0.2501642348657391  0.0957047436589453   T   T   T
 -0.0003244650396366  0.7498228810087962  0.0953101877354898   T   T   T
  0.4996033358255404  0.2501642348657391  0.0957047436589453   T   T   T
  0.5003244650396366  0.7498228810087962  0.0953101877354898   T   T   T
 -0.0020070436325989  0.0025836865810064  0.1841483602900058   T   T   T
  0.0022628965499455  0.4985080467231937  0.1862225839898048   T   T   T
  0.5020070436325988  0.0025836865810064  0.1841483602900058   T   T   T
  0.4977371034500546  0.4985080467231937  0.1862225839898048   T   T   T
  0.2500000000000000  0.2380932311898031  0.1877021591939428   T   T   T
  0.2500000000000000  0.7536509577054832  0.1833467032830741   T   T   T
  0.7500000000000000  0.2515183586201947  0.1892762804538233   T   T   T
  0.7500000000000000  0.7527628989819130  0.1855865848481350   T   T   T
  0.2499999495650016  0.0131896380816106  0.2673612858378531   T   T   T
  0.2499999495650016  0.5356197766087442  0.2775210723719841   T   T   T
  0.7499999495650016  0.0173113799125106  0.2771995427139296   T   T   T
  0.7499998486940029  0.5032327393048950  0.2708210468620638   T   T   T
  0.0832546176154457  0.2431388217825668  0.2737808163071577   T   T   T
 -0.0015390393951157  0.7639883375253940  0.2770010005720637   T   T   T
  0.4167453823845543  0.2431388217825668  0.2737808163071577   T   T   T
  0.5015390393951159  0.7639883375253940  0.2770010005720637   T   T   T
  0.7499998486940029  0.4475633420714865  0.3639855604967943   T   T   T
 
  0.00000000E+00  0.00000000E+00  0.00000000E+00
  0.00000000E+00  0.00000000E+00  0.00000000E+00
  0.00000000E+00  0.00000000E+00  0.00000000E+00
  0.00000000E+00  0.00000000E+00  0.00000000E+00
  0.00000000E+00  0.00000000E+00  0.00000000E+00
  0.00000000E+00  0.00000000E+00  0.00000000E+00
  0.00000000E+00  0.00000000E+00  0.00000000E+00
  0.00000000E+00  0.00000000E+00  0.00000000E+00
  0.00000000E+00  0.00000000E+00  0.00000000E+00
  0.00000000E+00  0.00000000E+00  0.00000000E+00
  0.00000000E+00  0.00000000E+00  0.00000000E+00
  0.00000000E+00  0.00000000E+00  0.00000000E+00
  0.00000000E+00  0.00000000E+00  0.00000000E+00
  0.00000000E+00  0.00000000E+00  0.00000000E+00
  0.00000000E+00  0.00000000E+00  0.00000000E+00
  0.00000000E+00  0.00000000E+00  0.00000000E+00
  0.00000000E+00  0.00000000E+00  0.00000000E+00
  0.00000000E+00  0.00000000E+00  0.00000000E+00
  0.00000000E+00  0.00000000E+00  0.00000000E+00
  0.00000000E+00  0.00000000E+00  0.00000000E+00
  0.00000000E+00  0.00000000E+00  0.00000000E+00
  0.00000000E+00  0.00000000E+00  0.00000000E+00
  0.00000000E+00  0.00000000E+00  0.00000000E+00
  0.00000000E+00  0.00000000E+00  0.00000000E+00
  0.00000000E+00  0.00000000E+00  0.00000000E+00
  0.00000000E+00  0.00000000E+00  0.00000000E+00
  0.00000000E+00  0.00000000E+00  0.00000000E+00
  0.00000000E+00  0.00000000E+00  0.00000000E+00
  0.00000000E+00  0.00000000E+00  0.00000000E+00
  0.00000000E+00  0.00000000E+00  0.00000000E+00
  0.00000000E+00  0.00000000E+00  0.00000000E+00
  0.00000000E+00  0.00000000E+00  0.00000000E+00
  0.00000000E+00  0.00000000E+00  0.00000000E+00
  0.00000000E+00  0.00000000E+00  0.00000000E+00
  0.00000000E+00  0.00000000E+00  0.00000000E+00
  0.00000000E+00  0.00000000E+00  0.00000000E+00
  0.00000000E+00  0.00000000E+00  0.00000000E+00
  0.00000000E+00  0.00000000E+00  0.00000000E+00
  0.00000000E+00  0.00000000E+00  0.00000000E+00
  0.00000000E+00  0.00000000E+00  0.00000000E+00
  0.00000000E+00  0.00000000E+00  0.00000000E+00
  0.00000000E+00  0.00000000E+00  0.00000000E+00
  0.00000000E+00  0.00000000E+00  0.00000000E+00
  0.00000000E+00  0.00000000E+00  0.00000000E+00
  0.00000000E+00  0.00000000E+00  0.00000000E+00
  0.00000000E+00  0.00000000E+00  0.00000000E+00
  0.00000000E+00  0.00000000E+00  0.00000000E+00
  0.00000000E+00  0.00000000E+00  0.00000000E+00
  0.00000000E+00  0.00000000E+00  0.00000000E+00
  0.00000000E+00  0.00000000E+00  0.00000000E+00
  0.00000000E+00  0.00000000E+00  0.00000000E+00
  0.00000000E+00  0.00000000E+00  0.00000000E+00
  0.00000000E+00  0.00000000E+00  0.00000000E+00
  0.00000000E+00  0.00000000E+00  0.00000000E+00
  0.00000000E+00  0.00000000E+00  0.00000000E+00
  0.00000000E+00  0.00000000E+00  0.00000000E+00
  0.00000000E+00  0.00000000E+00  0.00000000E+00
  0.00000000E+00  0.00000000E+00  0.00000000E+00
  0.00000000E+00  0.00000000E+00  0.00000000E+00
  0.00000000E+00  0.00000000E+00  0.00000000E+00
  0.00000000E+00  0.00000000E+00  0.00000000E+00
  0.00000000E+00  0.00000000E+00  0.00000000E+00
  0.00000000E+00  0.00000000E+00  0.00000000E+00
  0.00000000E+00  0.00000000E+00  0.00000000E+00
  0.00000000E+00  0.00000000E+00  0.00000000E+00
