B Mg O Rh                               
   1.00000000000000     
     8.4141216974800006    0.0000000000000000    0.0000000000000000
     0.0000000000000000    8.4141216974800006    0.0000000000000000
     0.0000000000000000    0.0000000000000000   23.4141216974799988
   B    Mg   O    Rh
     1    31    32     1
Selective dynamics
Direct
  0.2500000000000000  0.1927012141596046  0.2585988010754476   T   T   T
  0.2500000000000000  0.9989370550709217  0.0049624992879278   T   T   T
  0.2500000000000000  0.4991713486046743  0.0057874148712931   T   T   T
  0.7500000000000000 -0.0002058337105468  0.0055253850841109   T   T   T
  0.7500000000000000  0.4998254381596755  0.0064695676837903   T   T   T
  0.9994242466500199  0.2501956442124277  0.0057777251031514   T   T   T
  0.9994945575938708  0.7489553548097003  0.0059503764204069   T   T   T
  0.5005757533499801  0.2501956442124277  0.0057777251031514   T   T   T
  0.5005054424061292  0.7489553548097003  0.0059503764204069   T   T   T
  0.9981911478181991  0.9994605884894764  0.0947299262782363   T   T   T
  0.0010079605305578  0.5001709748186388  0.0963737367132031   T   T   T
  0.5018088521818009  0.9994605884894764  0.0947299262782363   T   T   T
  0.4989920394694421  0.5001709748186388  0.0963737367132031   T   T   T
  0.2500000000000000  0.2499230639015741  0.0939204434681903   T   T   T
  0.2500000000000000  0.7466928842933265  0.0947461108129573   T   T   T
  0.7500000000000000  0.2506195038835994  0.0956826344774128   T   T   T
  0.7500000000000000  0.7499985388253677  0.0958588028715200   T   T   T
  0.2500000000000000  0.9925283404188960  0.1795301437241368   T   T   T
  0.2500000000000000  0.5030657089805217  0.1905252969039272   T   T   T
  0.7500000000000000  0.0017753607895710  0.1858301351958670   T   T   T
  0.7500000000000000  0.5013699022811016  0.1866669603208446   T   T   T
  0.0034043909278750  0.2527309071557109  0.1857484741430088   T   T   T
  0.9981592688059566  0.7486880896183755  0.1870484435179779   T   T   T
  0.4965956090721250  0.2527309071557109  0.1857484741430088   T   T   T
  0.5018407311940434  0.7486880896183755  0.1870484435179779   T   T   T
  0.0005646211541414  0.0037357553946847  0.2739322896553303   T   T   T
  0.0213481239603339  0.5013202374704400  0.2844378022113425   T   T   T
  0.4994353788458587  0.0037357553946847  0.2739322896553303   T   T   T
  0.4786518760396662  0.5013202374704400  0.2844378022113425   T   T   T
  0.2500000000000000  0.7635133413915639  0.2734729419435989   T   T   T
  0.7500000000000000  0.2535583904560060  0.2814426528813121   T   T   T
  0.7500000000000000  0.7543369830505431  0.2787629488773156   T   T   T
  0.9996393357397997  0.9997792097956790  0.0031655499699367   T   T   T
  0.9999768437724261  0.4993813809320758  0.0040154965533562   T   T   T
  0.5003606642602003  0.9997792097956790  0.0031655499699367   T   T   T
  0.5000231562275739  0.4993813809320758  0.0040154965533562   T   T   T
  0.2500000000000000  0.2496969439845347  0.0031668628628506   T   T   T
  0.2500000000000000  0.7485441950598362  0.0034788289908824   T   T   T
  0.7500000000000000  0.2500941582641745  0.0039683671414166   T   T   T
  0.7500000000000000  0.7495188492358398  0.0039472043474193   T   T   T
  0.2500000000000000  0.0002844628604768  0.0934773026323532   T   T   T
  0.2500000000000000  0.4969241460853968  0.0964108664257797   T   T   T
  0.7500000000000000  0.0017065715037616  0.0952998016884775   T   T   T
  0.7500000000000000  0.4989806951347859  0.0964341015096782   T   T   T
  0.0002424305077999  0.2501585286786838  0.0959299542838212   T   T   T
  0.9995586398497666  0.7495035005447570  0.0955250206277178   T   T   T
  0.4997575694922002  0.2501585286786838  0.0959299542838212   T   T   T
  0.5004413601502334  0.7495035005447570  0.0955250206277178   T   T   T
  0.9977943563796771  0.0026782190286051  0.1841962180358489   T   T   T
  0.0016209084802916  0.4982789899453682  0.1867140456661250   T   T   T
  0.5022056436203229  0.0026782190286051  0.1841962180358489   T   T   T
  0.4983790915197083  0.4982789899453682  0.1867140456661250   T   T   T
  0.2500000000000000  0.2380599568900559  0.1875179972403423   T   T   T
  0.2500000000000000  0.7533965506770248  0.1832481898015600   T   T   T
  0.7500000000000000  0.2517963242189210  0.1900393007982851   T   T   T
  0.7500000000000000  0.7519606682870709  0.1859604310206633   T   T   T
  0.2499999495650016  0.0124777493659490  0.2672397851129501   T   T   T
  0.2499999495650016  0.5355256109878791  0.2773538227435284   T   T   T
  0.7499999495650016  0.0157021589537970  0.2775776590923738   T   T   T
  0.7499998486940029  0.5048169021659361  0.2719804176797928   T   T   T
  0.0842893414086074  0.2422991512497165  0.2738873414398393   T   T   T
 -0.0003423546742856  0.7651307135824823  0.2768195176792982   T   T   T
  0.4157106585913926  0.2422991512497165  0.2738873414398393   T   T   T
  0.5003425204792837  0.7651311230264810  0.2768195183572981   T   T   T
  0.7499998486940029  0.4655120228215157  0.3561812149307695   T   T   T
 
  0.00000000E+00  0.00000000E+00  0.00000000E+00
  0.00000000E+00  0.00000000E+00  0.00000000E+00
  0.00000000E+00  0.00000000E+00  0.00000000E+00
  0.00000000E+00  0.00000000E+00  0.00000000E+00
  0.00000000E+00  0.00000000E+00  0.00000000E+00
  0.00000000E+00  0.00000000E+00  0.00000000E+00
  0.00000000E+00  0.00000000E+00  0.00000000E+00
  0.00000000E+00  0.00000000E+00  0.00000000E+00
  0.00000000E+00  0.00000000E+00  0.00000000E+00
  0.00000000E+00  0.00000000E+00  0.00000000E+00
  0.00000000E+00  0.00000000E+00  0.00000000E+00
  0.00000000E+00  0.00000000E+00  0.00000000E+00
  0.00000000E+00  0.00000000E+00  0.00000000E+00
  0.00000000E+00  0.00000000E+00  0.00000000E+00
  0.00000000E+00  0.00000000E+00  0.00000000E+00
  0.00000000E+00  0.00000000E+00  0.00000000E+00
  0.00000000E+00  0.00000000E+00  0.00000000E+00
  0.00000000E+00  0.00000000E+00  0.00000000E+00
  0.00000000E+00  0.00000000E+00  0.00000000E+00
  0.00000000E+00  0.00000000E+00  0.00000000E+00
  0.00000000E+00  0.00000000E+00  0.00000000E+00
  0.00000000E+00  0.00000000E+00  0.00000000E+00
  0.00000000E+00  0.00000000E+00  0.00000000E+00
  0.00000000E+00  0.00000000E+00  0.00000000E+00
  0.00000000E+00  0.00000000E+00  0.00000000E+00
  0.00000000E+00  0.00000000E+00  0.00000000E+00
  0.00000000E+00  0.00000000E+00  0.00000000E+00
  0.00000000E+00  0.00000000E+00  0.00000000E+00
  0.00000000E+00  0.00000000E+00  0.00000000E+00
  0.00000000E+00  0.00000000E+00  0.00000000E+00
  0.00000000E+00  0.00000000E+00  0.00000000E+00
  0.00000000E+00  0.00000000E+00  0.00000000E+00
  0.00000000E+00  0.00000000E+00  0.00000000E+00
  0.00000000E+00  0.00000000E+00  0.00000000E+00
  0.00000000E+00  0.00000000E+00  0.00000000E+00
  0.00000000E+00  0.00000000E+00  0.00000000E+00
  0.00000000E+00  0.00000000E+00  0.00000000E+00
  0.00000000E+00  0.00000000E+00  0.00000000E+00
  0.00000000E+00  0.00000000E+00  0.00000000E+00
  0.00000000E+00  0.00000000E+00  0.00000000E+00
  0.00000000E+00  0.00000000E+00  0.00000000E+00
  0.00000000E+00  0.00000000E+00  0.00000000E+00
  0.00000000E+00  0.00000000E+00  0.00000000E+00
  0.00000000E+00  0.00000000E+00  0.00000000E+00
  0.00000000E+00  0.00000000E+00  0.00000000E+00
  0.00000000E+00  0.00000000E+00  0.00000000E+00
  0.00000000E+00  0.00000000E+00  0.00000000E+00
  0.00000000E+00  0.00000000E+00  0.00000000E+00
  0.00000000E+00  0.00000000E+00  0.00000000E+00
  0.00000000E+00  0.00000000E+00  0.00000000E+00
  0.00000000E+00  0.00000000E+00  0.00000000E+00
  0.00000000E+00  0.00000000E+00  0.00000000E+00
  0.00000000E+00  0.00000000E+00  0.00000000E+00
  0.00000000E+00  0.00000000E+00  0.00000000E+00
  0.00000000E+00  0.00000000E+00  0.00000000E+00
  0.00000000E+00  0.00000000E+00  0.00000000E+00
  0.00000000E+00  0.00000000E+00  0.00000000E+00
  0.00000000E+00  0.00000000E+00  0.00000000E+00
  0.00000000E+00  0.00000000E+00  0.00000000E+00
  0.00000000E+00  0.00000000E+00  0.00000000E+00
  0.00000000E+00  0.00000000E+00  0.00000000E+00
  0.00000000E+00  0.00000000E+00  0.00000000E+00
  0.00000000E+00  0.00000000E+00  0.00000000E+00
  0.00000000E+00  0.00000000E+00  0.00000000E+00
  0.00000000E+00  0.00000000E+00  0.00000000E+00
