B Mg O Mn                               
   1.00000000000000     
     8.4141216974800006    0.0000000000000000    0.0000000000000000
     0.0000000000000000    8.4141216974800006    0.0000000000000000
     0.0000000000000000    0.0000000000000000   23.4141216974799988
   B    Mg   O    Mn
     1    31    32     1
Selective dynamics
Direct
  0.2500000000000000  0.1945542568836894  0.2577698563360792   T   T   T
  0.2500000000000000  0.9990616739222131  0.0043550749096328   T   T   T
  0.2500000000000000  0.4990603878717064  0.0053760187796968   T   T   T
  0.7500000000000000 -0.0003448147363129  0.0050546796360330   T   T   T
  0.7500000000000000  0.4997995359887140  0.0060302661247011   T   T   T
  0.9994701795039094  0.2501278487689792  0.0051766988096403   T   T   T
  0.9993635671750735  0.7489073793684176  0.0054893948578642   T   T   T
  0.5005298204960906  0.2501278487689792  0.0051766988096403   T   T   T
  0.5006364328249265  0.7489073793684176  0.0054893948578642   T   T   T
  0.9981366843785950  0.9996070422034492  0.0943321182454681   T   T   T
 -0.0000036903888094  0.4999138195056150  0.0960536518833659   T   T   T
  0.5018633156214050  0.9996070422034492  0.0943321182454681   T   T   T
  0.5000036903888094  0.4999138195056150  0.0960536518833659   T   T   T
  0.2500000000000000  0.2496794362398059  0.0933067160045081   T   T   T
  0.2500000000000000  0.7470319718590152  0.0941415825642556   T   T   T
  0.7500000000000000  0.2510384430430146  0.0952179714720781   T   T   T
  0.7500000000000000  0.7492568674444713  0.0955985326025063   T   T   T
  0.2500000000000000  0.9925028526089830  0.1791560142468435   T   T   T
  0.2500000000000000  0.5037602214246113  0.1890031067518676   T   T   T
  0.7500000000000000  0.0023420130734017  0.1852739855043227   T   T   T
  0.7500000000000000  0.5008378062678788  0.1880961621537150   T   T   T
  0.0028198516190235  0.2521815073478652  0.1855454518770278   T   T   T
  0.9985905913764112  0.7495432447935252  0.1861669786506653   T   T   T
  0.4971801483809765  0.2521815073478652  0.1855454518770278   T   T   T
  0.5014094086235888  0.7495432447935252  0.1861669786506653   T   T   T
  0.0012557806944638  0.0035200693063194  0.2740922795858705   T   T   T
  0.0244064439701733  0.5020068166648060  0.2816463124365322   T   T   T
  0.4987442193055363  0.0035200693063194  0.2740922795858705   T   T   T
  0.4755935560298267  0.5020068166648060  0.2816463124365322   T   T   T
  0.2500000000000000  0.7641286919674368  0.2729095594264410   T   T   T
  0.7500000000000000  0.2490717554692123  0.2820447036210581   T   T   T
  0.7500000000000000  0.7584618129109537  0.2764454855532394   T   T   T
  0.9995659518691499  0.9997546715955404  0.0034201534227244   T   T   T
 -0.0000494033760078  0.4992935185459947  0.0043543308363941   T   T   T
  0.5004340481308501  0.9997546715955404  0.0034201534227244   T   T   T
  0.5000494033760078  0.4992935185459947  0.0043543308363941   T   T   T
  0.2500000000000000  0.2498861228920028  0.0033233564290607   T   T   T
  0.2500000000000000  0.7483421442106588  0.0037440273228799   T   T   T
  0.7500000000000000  0.2501890215871084  0.0041419859065269   T   T   T
  0.7500000000000000  0.7492758145646254  0.0042379169301697   T   T   T
  0.2500000000000000  0.0008386774142418  0.0933319962601799   T   T   T
  0.2500000000000000  0.4963795177448172  0.0969314225584188   T   T   T
  0.7500000000000000  0.0018303897376836  0.0954310979092081   T   T   T
  0.7500000000000000  0.4985840103180699  0.0968325147197487   T   T   T
  0.0004087755016675  0.2502933818460515  0.0961874139600364   T   T   T
  0.9994191849755766  0.7492655581064542  0.0955489881404817   T   T   T
  0.4995912244983325  0.2502933818460515  0.0961874139600364   T   T   T
  0.5005808150244234  0.7492655581064542  0.0955489881404817   T   T   T
  0.9977902197081390  0.0026529248948167  0.1840998996173633   T   T   T
  0.0004887501505469  0.4982965875282964  0.1873797405817981   T   T   T
  0.5022097802918610  0.0026529248948167  0.1840998996173633   T   T   T
  0.4995112498494531  0.4982965875282964  0.1873797405817981   T   T   T
  0.2500000000000000  0.2383242672899197  0.1884128432566355   T   T   T
  0.2500000000000000  0.7537200975341593  0.1827981846915975   T   T   T
  0.7500000000000000  0.2526684471187051  0.1910703512755565   T   T   T
  0.7500000000000000  0.7507966020319744  0.1861440183156386   T   T   T
  0.2499999495650016  0.0134237251001682  0.2668726304850081   T   T   T
  0.2499999495650016  0.5363840111529224  0.2755237087530019   T   T   T
  0.7499999495650016  0.0119443500280048  0.2763476244144922   T   T   T
  0.7499998486940029  0.5007353732598077  0.2788736749704092   T   T   T
  0.0833635716089205  0.2436283721210404  0.2739525891926308   T   T   T
  0.9990185178606416  0.7636785103096254  0.2762725601177184   T   T   T
  0.4166364283910794  0.2436283721210404  0.2739525891926308   T   T   T
  0.5009816479443566  0.7636789197536241  0.2762725607957183   T   T   T
  0.7499998486940029  0.4688357084697425  0.3663345357793023   T   T   T
 
  0.00000000E+00  0.00000000E+00  0.00000000E+00
  0.00000000E+00  0.00000000E+00  0.00000000E+00
  0.00000000E+00  0.00000000E+00  0.00000000E+00
  0.00000000E+00  0.00000000E+00  0.00000000E+00
  0.00000000E+00  0.00000000E+00  0.00000000E+00
  0.00000000E+00  0.00000000E+00  0.00000000E+00
  0.00000000E+00  0.00000000E+00  0.00000000E+00
  0.00000000E+00  0.00000000E+00  0.00000000E+00
  0.00000000E+00  0.00000000E+00  0.00000000E+00
  0.00000000E+00  0.00000000E+00  0.00000000E+00
  0.00000000E+00  0.00000000E+00  0.00000000E+00
  0.00000000E+00  0.00000000E+00  0.00000000E+00
  0.00000000E+00  0.00000000E+00  0.00000000E+00
  0.00000000E+00  0.00000000E+00  0.00000000E+00
  0.00000000E+00  0.00000000E+00  0.00000000E+00
  0.00000000E+00  0.00000000E+00  0.00000000E+00
  0.00000000E+00  0.00000000E+00  0.00000000E+00
  0.00000000E+00  0.00000000E+00  0.00000000E+00
  0.00000000E+00  0.00000000E+00  0.00000000E+00
  0.00000000E+00  0.00000000E+00  0.00000000E+00
  0.00000000E+00  0.00000000E+00  0.00000000E+00
  0.00000000E+00  0.00000000E+00  0.00000000E+00
  0.00000000E+00  0.00000000E+00  0.00000000E+00
  0.00000000E+00  0.00000000E+00  0.00000000E+00
  0.00000000E+00  0.00000000E+00  0.00000000E+00
  0.00000000E+00  0.00000000E+00  0.00000000E+00
  0.00000000E+00  0.00000000E+00  0.00000000E+00
  0.00000000E+00  0.00000000E+00  0.00000000E+00
  0.00000000E+00  0.00000000E+00  0.00000000E+00
  0.00000000E+00  0.00000000E+00  0.00000000E+00
  0.00000000E+00  0.00000000E+00  0.00000000E+00
  0.00000000E+00  0.00000000E+00  0.00000000E+00
  0.00000000E+00  0.00000000E+00  0.00000000E+00
  0.00000000E+00  0.00000000E+00  0.00000000E+00
  0.00000000E+00  0.00000000E+00  0.00000000E+00
  0.00000000E+00  0.00000000E+00  0.00000000E+00
  0.00000000E+00  0.00000000E+00  0.00000000E+00
  0.00000000E+00  0.00000000E+00  0.00000000E+00
  0.00000000E+00  0.00000000E+00  0.00000000E+00
  0.00000000E+00  0.00000000E+00  0.00000000E+00
  0.00000000E+00  0.00000000E+00  0.00000000E+00
  0.00000000E+00  0.00000000E+00  0.00000000E+00
  0.00000000E+00  0.00000000E+00  0.00000000E+00
  0.00000000E+00  0.00000000E+00  0.00000000E+00
  0.00000000E+00  0.00000000E+00  0.00000000E+00
  0.00000000E+00  0.00000000E+00  0.00000000E+00
  0.00000000E+00  0.00000000E+00  0.00000000E+00
  0.00000000E+00  0.00000000E+00  0.00000000E+00
  0.00000000E+00  0.00000000E+00  0.00000000E+00
  0.00000000E+00  0.00000000E+00  0.00000000E+00
  0.00000000E+00  0.00000000E+00  0.00000000E+00
  0.00000000E+00  0.00000000E+00  0.00000000E+00
  0.00000000E+00  0.00000000E+00  0.00000000E+00
  0.00000000E+00  0.00000000E+00  0.00000000E+00
  0.00000000E+00  0.00000000E+00  0.00000000E+00
  0.00000000E+00  0.00000000E+00  0.00000000E+00
  0.00000000E+00  0.00000000E+00  0.00000000E+00
  0.00000000E+00  0.00000000E+00  0.00000000E+00
  0.00000000E+00  0.00000000E+00  0.00000000E+00
  0.00000000E+00  0.00000000E+00  0.00000000E+00
  0.00000000E+00  0.00000000E+00  0.00000000E+00
  0.00000000E+00  0.00000000E+00  0.00000000E+00
  0.00000000E+00  0.00000000E+00  0.00000000E+00
  0.00000000E+00  0.00000000E+00  0.00000000E+00
  0.00000000E+00  0.00000000E+00  0.00000000E+00
