B Mg O Pt                               
   1.00000000000000     
     8.4141216974800006    0.0000000000000000    0.0000000000000000
     0.0000000000000000    8.4141216974800006    0.0000000000000000
     0.0000000000000000    0.0000000000000000   23.4141216974799988
   B    Mg   O    Pt
     1    31    32     1
Selective dynamics
Direct
  0.2500000000000000  0.1942893809227735  0.2582258318851660   T   T   T
  0.2500000000000000  0.9988618897363429  0.0049884427026247   T   T   T
  0.2500000000000000  0.4991511550563504  0.0055351484500941   T   T   T
  0.7500000000000000 -0.0001332436575357  0.0053662873186034   T   T   T
  0.7500000000000000  0.4997689156484651  0.0061161087453813   T   T   T
  0.9994831768314273  0.2500403326252101  0.0055833123987563   T   T   T
  0.9996240150157012  0.7490738384180264  0.0057354696286732   T   T   T
  0.5005168231685727  0.2500403326252101  0.0055833123987563   T   T   T
  0.5003759849842988  0.7490738384180264  0.0057354696286732   T   T   T
  0.9982667917519525  0.9994572316713480  0.0947682375889588   T   T   T
  0.0014195191566273  0.5003587755045109  0.0961750124486251   T   T   T
  0.5017332082480475  0.9994572316713480  0.0947682375889588   T   T   T
  0.4985804808433727  0.5003587755045109  0.0961750124486251   T   T   T
  0.2500000000000000  0.2500323892124101  0.0937211472539559   T   T   T
  0.2500000000000000  0.7467971456368463  0.0947787120749056   T   T   T
  0.7500000000000000  0.2505408536463915  0.0954218776307961   T   T   T
  0.7500000000000000  0.7504130353497410  0.0955301765773938   T   T   T
  0.2500000000000000  0.9927205543346717  0.1797793129532904   T   T   T
  0.2500000000000000  0.5041696780193424  0.1907423174652322   T   T   T
  0.7500000000000000  0.0020451031912966  0.1857880992072254   T   T   T
  0.7500000000000000  0.5016951449881932  0.1855972398461975   T   T   T
  0.0032502878716856  0.2529870979662198  0.1856498101376007   T   T   T
  0.9982641784343812  0.7489943370198171  0.1870274800388819   T   T   T
  0.4967497121283144  0.2529870979662198  0.1856498101376007   T   T   T
  0.5017358215656188  0.7489943370198171  0.1870274800388819   T   T   T
  0.0000157989792664  0.0046551551318490  0.2744564994670364   T   T   T
  0.0198972257421549  0.5019231292582789  0.2845499245278141   T   T   T
  0.4999842010207337  0.0046551551318490  0.2744564994670364   T   T   T
  0.4801027742578450  0.5019231292582788  0.2845499245278141   T   T   T
  0.2500000000000000  0.7642211433542307  0.2740045512270581   T   T   T
  0.7500000000000000  0.2564636319600550  0.2802477842603391   T   T   T
  0.7500000000000000  0.7517483295995692  0.2779920078451150   T   T   T
  0.9997118942478661  0.9997875815920828  0.0030985676878567   T   T   T
  0.0000374631098198  0.4993412255014907  0.0037562500612553   T   T   T
  0.5002881057521339  0.9997875815920828  0.0030985676878567   T   T   T
  0.4999625368901802  0.4993412255014907  0.0037562500612553   T   T   T
  0.2500000000000000  0.2495725065355465  0.0030259303888271   T   T   T
  0.2500000000000000  0.7485880376087883  0.0033983919785723   T   T   T
  0.7500000000000000  0.2500660170353354  0.0038035197779626   T   T   T
  0.7500000000000000  0.7495618661721378  0.0036182894333655   T   T   T
  0.2500000000000000  0.0006040303874909  0.0936250812029631   T   T   T
  0.2500000000000000  0.4970083713991905  0.0961493022796257   T   T   T
  0.7500000000000000  0.0018496981880150  0.0950997009171257   T   T   T
  0.7500000000000000  0.4990839750628495  0.0959540976946032   T   T   T
  0.0005378309796156  0.2501427376052834  0.0958829397797789   T   T   T
  0.9997407690330993  0.7497113206357645  0.0953672020366419   T   T   T
  0.4994621690203844  0.2501427376052834  0.0958829397797789   T   T   T
  0.5002592309669007  0.7497113206357645  0.0953672020366419   T   T   T
  0.9981505473655189  0.0027390773209375  0.1843814844860498   T   T   T
  0.0024332178537530  0.4986637986313075  0.1862577930146927   T   T   T
  0.5018494526344811  0.0027390773209375  0.1843814844860498   T   T   T
  0.4975667821462470  0.4986637986313075  0.1862577930146927   T   T   T
  0.2500000000000000  0.2380570583827640  0.1882886072382665   T   T   T
  0.2500000000000000  0.7541104042636492  0.1835012623392393   T   T   T
  0.7500000000000000  0.2516420400094129  0.1892725709436144   T   T   T
  0.7500000000000000  0.7529403552335688  0.1855460743169595   T   T   T
  0.2499999495650016  0.0139126314180175  0.2676341909160946   T   T   T
  0.2499999495650016  0.5361207070591216  0.2776524978108687   T   T   T
  0.7499999495650016  0.0179766848545854  0.2773452422927822   T   T   T
  0.7499998486940029  0.5034445709684385  0.2706156824217881   T   T   T
  0.0830200787114199  0.2438158134971074  0.2738657553972742   T   T   T
  0.9984273953123480  0.7645811102324829  0.2771505608156719   T   T   T
  0.4169799212885801  0.2438158134971074  0.2738657553972742   T   T   T
  0.5015727704926501  0.7645815196764816  0.2771505614936718   T   T   T
  0.7499998486940029  0.4478745117055105  0.3637906436688039   T   T   T
 
  0.00000000E+00  0.00000000E+00  0.00000000E+00
  0.00000000E+00  0.00000000E+00  0.00000000E+00
  0.00000000E+00  0.00000000E+00  0.00000000E+00
  0.00000000E+00  0.00000000E+00  0.00000000E+00
  0.00000000E+00  0.00000000E+00  0.00000000E+00
  0.00000000E+00  0.00000000E+00  0.00000000E+00
  0.00000000E+00  0.00000000E+00  0.00000000E+00
  0.00000000E+00  0.00000000E+00  0.00000000E+00
  0.00000000E+00  0.00000000E+00  0.00000000E+00
  0.00000000E+00  0.00000000E+00  0.00000000E+00
  0.00000000E+00  0.00000000E+00  0.00000000E+00
  0.00000000E+00  0.00000000E+00  0.00000000E+00
  0.00000000E+00  0.00000000E+00  0.00000000E+00
  0.00000000E+00  0.00000000E+00  0.00000000E+00
  0.00000000E+00  0.00000000E+00  0.00000000E+00
  0.00000000E+00  0.00000000E+00  0.00000000E+00
  0.00000000E+00  0.00000000E+00  0.00000000E+00
  0.00000000E+00  0.00000000E+00  0.00000000E+00
  0.00000000E+00  0.00000000E+00  0.00000000E+00
  0.00000000E+00  0.00000000E+00  0.00000000E+00
  0.00000000E+00  0.00000000E+00  0.00000000E+00
  0.00000000E+00  0.00000000E+00  0.00000000E+00
  0.00000000E+00  0.00000000E+00  0.00000000E+00
  0.00000000E+00  0.00000000E+00  0.00000000E+00
  0.00000000E+00  0.00000000E+00  0.00000000E+00
  0.00000000E+00  0.00000000E+00  0.00000000E+00
  0.00000000E+00  0.00000000E+00  0.00000000E+00
  0.00000000E+00  0.00000000E+00  0.00000000E+00
  0.00000000E+00  0.00000000E+00  0.00000000E+00
  0.00000000E+00  0.00000000E+00  0.00000000E+00
  0.00000000E+00  0.00000000E+00  0.00000000E+00
  0.00000000E+00  0.00000000E+00  0.00000000E+00
  0.00000000E+00  0.00000000E+00  0.00000000E+00
  0.00000000E+00  0.00000000E+00  0.00000000E+00
  0.00000000E+00  0.00000000E+00  0.00000000E+00
  0.00000000E+00  0.00000000E+00  0.00000000E+00
  0.00000000E+00  0.00000000E+00  0.00000000E+00
  0.00000000E+00  0.00000000E+00  0.00000000E+00
  0.00000000E+00  0.00000000E+00  0.00000000E+00
  0.00000000E+00  0.00000000E+00  0.00000000E+00
  0.00000000E+00  0.00000000E+00  0.00000000E+00
  0.00000000E+00  0.00000000E+00  0.00000000E+00
  0.00000000E+00  0.00000000E+00  0.00000000E+00
  0.00000000E+00  0.00000000E+00  0.00000000E+00
  0.00000000E+00  0.00000000E+00  0.00000000E+00
  0.00000000E+00  0.00000000E+00  0.00000000E+00
  0.00000000E+00  0.00000000E+00  0.00000000E+00
  0.00000000E+00  0.00000000E+00  0.00000000E+00
  0.00000000E+00  0.00000000E+00  0.00000000E+00
  0.00000000E+00  0.00000000E+00  0.00000000E+00
  0.00000000E+00  0.00000000E+00  0.00000000E+00
  0.00000000E+00  0.00000000E+00  0.00000000E+00
  0.00000000E+00  0.00000000E+00  0.00000000E+00
  0.00000000E+00  0.00000000E+00  0.00000000E+00
  0.00000000E+00  0.00000000E+00  0.00000000E+00
  0.00000000E+00  0.00000000E+00  0.00000000E+00
  0.00000000E+00  0.00000000E+00  0.00000000E+00
  0.00000000E+00  0.00000000E+00  0.00000000E+00
  0.00000000E+00  0.00000000E+00  0.00000000E+00
  0.00000000E+00  0.00000000E+00  0.00000000E+00
  0.00000000E+00  0.00000000E+00  0.00000000E+00
  0.00000000E+00  0.00000000E+00  0.00000000E+00
  0.00000000E+00  0.00000000E+00  0.00000000E+00
  0.00000000E+00  0.00000000E+00  0.00000000E+00
  0.00000000E+00  0.00000000E+00  0.00000000E+00
