B Mg O Cd                               
   1.00000000000000     
     8.4141216974800006    0.0000000000000000    0.0000000000000000
     0.0000000000000000    8.4141216974800006    0.0000000000000000
     0.0000000000000000    0.0000000000000000   23.4141216974799988
   B    Mg   O    Cd
     1    31    32     1
Selective dynamics
Direct
  0.2500000000000000  0.1949371375553393  0.2576216548020717   T   T   T
  0.2500000000000000  0.9989272724425109  0.0041061159827534   T   T   T
  0.2500000000000000  0.4990017520196941  0.0050067123329331   T   T   T
  0.7500000000000000 -0.0005442859046681  0.0048667412551071   T   T   T
  0.7500000000000000  0.4994508304106147  0.0055689262838295   T   T   T
 -0.0006525992791554  0.2498911631008384  0.0048280420420227   T   T   T
  0.9993441651204813  0.7488160065808657  0.0049964515915127   T   T   T
  0.5006525992791556  0.2498911631008384  0.0048280420420227   T   T   T
  0.5006558348795187  0.7488160065808657  0.0049964515915127   T   T   T
  0.9980898160513725  0.9992868581291771  0.0939278513927452   T   T   T
  0.0000490439162339  0.4997294945306132  0.0953308730732421   T   T   T
  0.5019101839486275  0.9992868581291771  0.0939278513927452   T   T   T
  0.4999509560837661  0.4997294945306132  0.0953308730732421   T   T   T
  0.2500000000000000  0.2492696176656094  0.0929682639551773   T   T   T
  0.2500000000000000  0.7472683427204553  0.0937615218291827   T   T   T
  0.7500000000000000  0.2504142865551205  0.0950130901660252   T   T   T
  0.7500000000000000  0.7492344555655676  0.0951061320484051   T   T   T
  0.2500000000000000  0.9926780544920309  0.1790259236213834   T   T   T
  0.2500000000000000  0.5033790154373161  0.1878621692630928   T   T   T
  0.7500000000000000  0.0022784414619030  0.1854817207503266   T   T   T
  0.7500000000000000  0.4992407646602185  0.1872885968848640   T   T   T
  0.0021830530549586  0.2504670978976490  0.1849114830660240   T   T   T
  0.9981920641157184  0.7502760294878124  0.1855886030151087   T   T   T
  0.4978169469450413  0.2504670978976490  0.1849114830660240   T   T   T
  0.5018079358842816  0.7502760294878124  0.1855886030151087   T   T   T
  0.9991041088181245  0.0032999377883725  0.2743328217433854   T   T   T
  0.0205037361683938  0.5018703848976914  0.2773055153080058   T   T   T
  0.5008958911818755  0.0032999377883725  0.2743328217433854   T   T   T
  0.4794962638316061  0.5018703848976914  0.2773055153080058   T   T   T
  0.2500000000000000  0.7633007549359480  0.2726231425964137   T   T   T
  0.7500000000000000  0.2558282194437368  0.2837436411021024   T   T   T
  0.7500000000000000  0.7505175489508438  0.2766846884049187   T   T   T
  0.9995547187355711  0.9995465164757937  0.0027519466644306   T   T   T
 -0.0000774024233662  0.4991275652978441  0.0035265903655928   T   T   T
  0.5004452812644289  0.9995465164757937  0.0027519466644306   T   T   T
  0.5000774024233663  0.4991275652978441  0.0035265903655928   T   T   T
  0.2500000000000000  0.2497690303001453  0.0026470585117496   T   T   T
  0.2500000000000000  0.7482271602596060  0.0030194447715545   T   T   T
  0.7500000000000000  0.2499723854179828  0.0034902463692960   T   T   T
  0.7500000000000000  0.7489910438888108  0.0033617749787972   T   T   T
  0.2500000000000000  0.0003667995570810  0.0929070623122451   T   T   T
  0.2500000000000000  0.4966156227038859  0.0959943784637102   T   T   T
  0.7500000000000000  0.0010320913284114  0.0948184169343154   T   T   T
  0.7500000000000000  0.4986390140336090  0.0959300818232993   T   T   T
  0.0005575197772306  0.2498741596870635  0.0954400446825189   T   T   T
 -0.0004673300487525  0.7491381487224311  0.0949004818823529   T   T   T
  0.4994424802227694  0.2498741596870635  0.0954400446825189   T   T   T
  0.5004673300487524  0.7491381487224311  0.0949004818823529   T   T   T
  0.9983117085317105  0.0016621352274365  0.1838147808519247   T   T   T
  0.0014870271344936  0.4981533215443921  0.1860227453169644   T   T   T
  0.5016882914682895  0.0016621352274365  0.1838147808519247   T   T   T
  0.4985129728655064  0.4981533215443921  0.1860227453169644   T   T   T
  0.2500000000000000  0.2377493330631502  0.1874020226635157   T   T   T
  0.2500000000000000  0.7539198051105690  0.1824320324265748   T   T   T
  0.7500000000000000  0.2513556671150362  0.1889621140805595   T   T   T
  0.7500000000000000  0.7503926078655551  0.1854867366618849   T   T   T
  0.2499999495650016  0.0139074965699416  0.2669374617829357   T   T   T
  0.2499999495650016  0.5352738830142728  0.2749624137152669   T   T   T
  0.7499999495650016  0.0135141401032846  0.2761879441906872   T   T   T
  0.7499998486940029  0.4960426382155463  0.2762984163932592   T   T   T
  0.0835973729204320  0.2450318847419785  0.2732251320292625   T   T   T
  0.9983793434305742  0.7608351757142975  0.2761544079245062   T   T   T
  0.4164026270795679  0.2450318847419785  0.2732251320292625   T   T   T
  0.5016208223744240  0.7608355851582962  0.2761544086025061   T   T   T
  0.7499998486940029  0.4927810118993582  0.4078865408385395   T   T   T
 
  0.00000000E+00  0.00000000E+00  0.00000000E+00
  0.00000000E+00  0.00000000E+00  0.00000000E+00
  0.00000000E+00  0.00000000E+00  0.00000000E+00
  0.00000000E+00  0.00000000E+00  0.00000000E+00
  0.00000000E+00  0.00000000E+00  0.00000000E+00
  0.00000000E+00  0.00000000E+00  0.00000000E+00
  0.00000000E+00  0.00000000E+00  0.00000000E+00
  0.00000000E+00  0.00000000E+00  0.00000000E+00
  0.00000000E+00  0.00000000E+00  0.00000000E+00
  0.00000000E+00  0.00000000E+00  0.00000000E+00
  0.00000000E+00  0.00000000E+00  0.00000000E+00
  0.00000000E+00  0.00000000E+00  0.00000000E+00
  0.00000000E+00  0.00000000E+00  0.00000000E+00
  0.00000000E+00  0.00000000E+00  0.00000000E+00
  0.00000000E+00  0.00000000E+00  0.00000000E+00
  0.00000000E+00  0.00000000E+00  0.00000000E+00
  0.00000000E+00  0.00000000E+00  0.00000000E+00
  0.00000000E+00  0.00000000E+00  0.00000000E+00
  0.00000000E+00  0.00000000E+00  0.00000000E+00
  0.00000000E+00  0.00000000E+00  0.00000000E+00
  0.00000000E+00  0.00000000E+00  0.00000000E+00
  0.00000000E+00  0.00000000E+00  0.00000000E+00
  0.00000000E+00  0.00000000E+00  0.00000000E+00
  0.00000000E+00  0.00000000E+00  0.00000000E+00
  0.00000000E+00  0.00000000E+00  0.00000000E+00
  0.00000000E+00  0.00000000E+00  0.00000000E+00
  0.00000000E+00  0.00000000E+00  0.00000000E+00
  0.00000000E+00  0.00000000E+00  0.00000000E+00
  0.00000000E+00  0.00000000E+00  0.00000000E+00
  0.00000000E+00  0.00000000E+00  0.00000000E+00
  0.00000000E+00  0.00000000E+00  0.00000000E+00
  0.00000000E+00  0.00000000E+00  0.00000000E+00
  0.00000000E+00  0.00000000E+00  0.00000000E+00
  0.00000000E+00  0.00000000E+00  0.00000000E+00
  0.00000000E+00  0.00000000E+00  0.00000000E+00
  0.00000000E+00  0.00000000E+00  0.00000000E+00
  0.00000000E+00  0.00000000E+00  0.00000000E+00
  0.00000000E+00  0.00000000E+00  0.00000000E+00
  0.00000000E+00  0.00000000E+00  0.00000000E+00
  0.00000000E+00  0.00000000E+00  0.00000000E+00
  0.00000000E+00  0.00000000E+00  0.00000000E+00
  0.00000000E+00  0.00000000E+00  0.00000000E+00
  0.00000000E+00  0.00000000E+00  0.00000000E+00
  0.00000000E+00  0.00000000E+00  0.00000000E+00
  0.00000000E+00  0.00000000E+00  0.00000000E+00
  0.00000000E+00  0.00000000E+00  0.00000000E+00
  0.00000000E+00  0.00000000E+00  0.00000000E+00
  0.00000000E+00  0.00000000E+00  0.00000000E+00
  0.00000000E+00  0.00000000E+00  0.00000000E+00
  0.00000000E+00  0.00000000E+00  0.00000000E+00
  0.00000000E+00  0.00000000E+00  0.00000000E+00
  0.00000000E+00  0.00000000E+00  0.00000000E+00
  0.00000000E+00  0.00000000E+00  0.00000000E+00
  0.00000000E+00  0.00000000E+00  0.00000000E+00
  0.00000000E+00  0.00000000E+00  0.00000000E+00
  0.00000000E+00  0.00000000E+00  0.00000000E+00
  0.00000000E+00  0.00000000E+00  0.00000000E+00
  0.00000000E+00  0.00000000E+00  0.00000000E+00
  0.00000000E+00  0.00000000E+00  0.00000000E+00
  0.00000000E+00  0.00000000E+00  0.00000000E+00
  0.00000000E+00  0.00000000E+00  0.00000000E+00
  0.00000000E+00  0.00000000E+00  0.00000000E+00
  0.00000000E+00  0.00000000E+00  0.00000000E+00
  0.00000000E+00  0.00000000E+00  0.00000000E+00
  0.00000000E+00  0.00000000E+00  0.00000000E+00
