B Mg O V                                
   1.00000000000000     
     8.4141216974800006    0.0000000000000000    0.0000000000000000
     0.0000000000000000    8.4141216974800006    0.0000000000000000
     0.0000000000000000    0.0000000000000000   23.4141216974799988
   B    Mg   O    V 
     1    31    32     1
Selective dynamics
Direct
  0.2500000000000000  0.1917271437210709  0.2590061248118019   T   T   T
  0.2500000000000000  0.9991041169152038  0.0046899469416262   T   T   T
  0.2500000000000000  0.4990867974731425  0.0057698873063315   T   T   T
  0.7500000000000000 -0.0002514937890430  0.0054710410671212   T   T   T
  0.7500000000000000  0.4997713947261239  0.0064410262788026   T   T   T
  0.9993698237815293  0.2502052494959693  0.0056403614843583   T   T   T
  0.9993165277848938  0.7488968147188590  0.0058142889388098   T   T   T
  0.5006301762184707  0.2502052494959693  0.0056403614843583   T   T   T
  0.5006834722151062  0.7488968147188590  0.0058142889388098   T   T   T
  0.9980009753650777  0.9994394327254615  0.0944675348981005   T   T   T
  0.0000221922214047  0.4999878225483602  0.0962120558031435   T   T   T
  0.5019990246349223  0.9994394327254615  0.0944675348981005   T   T   T
  0.4999778077785952  0.4999878225483602  0.0962120558031435   T   T   T
  0.2500000000000000  0.2496494409675807  0.0938043952865992   T   T   T
  0.2500000000000000  0.7469892772747478  0.0943545402190721   T   T   T
  0.7500000000000000  0.2509570578246078  0.0956886703487371   T   T   T
  0.7500000000000000  0.7494025882840218  0.0959469851680057   T   T   T
  0.2500000000000000  0.9930089281782510  0.1790896690397992   T   T   T
  0.2500000000000000  0.5023281963458460  0.1891028660312848   T   T   T
  0.7500000000000000  0.0023383083238599  0.1857492560962632   T   T   T
  0.7500000000000000  0.5008359410019528  0.1884152533332370   T   T   T
  0.0036500597304075  0.2519755006547279  0.1853968060545983   T   T   T
  0.9983337455890959  0.7491646282610065  0.1864747739181208   T   T   T
  0.4963499402695926  0.2519755006547279  0.1853968060545983   T   T   T
  0.5016662544109041  0.7491646282610065  0.1864747739181208   T   T   T
  0.0002713047883642  0.0031697464540887  0.2738684005149460   T   T   T
  0.0234307604547650  0.5005855244714934  0.2817941032089089   T   T   T
  0.4997286952116358  0.0031697464540887  0.2738684005149460   T   T   T
  0.4765692395452350  0.5005855244714934  0.2817941032089089   T   T   T
  0.2500000000000000  0.7631411245082835  0.2728278724366913   T   T   T
  0.7500000000000000  0.2522701112889787  0.2830072520771206   T   T   T
  0.7500000000000000  0.7563098196029889  0.2781540326602961   T   T   T
  0.9995209910369877  0.9996917901830790  0.0030992936036821   T   T   T
 -0.0001167945794345  0.4994211564197147  0.0039971864272029   T   T   T
  0.5004790089630123  0.9996917901830790  0.0030992936036821   T   T   T
  0.5001167945794345  0.4994211564197147  0.0039971864272029   T   T   T
  0.2500000000000000  0.2498348604813477  0.0031552559896746   T   T   T
  0.2500000000000000  0.7484183126776627  0.0033552006419403   T   T   T
  0.7500000000000000  0.2501613681873525  0.0038475403810711   T   T   T
  0.7500000000000000  0.7493530995952410  0.0039312111936721   T   T   T
  0.2500000000000000  0.0000351004596102  0.0930595473396622   T   T   T
  0.2500000000000000  0.4970012705676761  0.0963711230305038   T   T   T
  0.7500000000000000  0.0015130424756748  0.0953132635756761   T   T   T
  0.7500000000000000  0.4989348549555652  0.0966023371108803   T   T   T
 -0.0001132174871237  0.2501828681267395  0.0957344027084562   T   T   T
  0.9993240040493883  0.7492789262008991  0.0953836220325441   T   T   T
  0.5001132174871238  0.2501828681267395  0.0957344027084562   T   T   T
  0.5006759959506117  0.7492789262008991  0.0953836220325441   T   T   T
  0.9976157890082928  0.0025409041134253  0.1839196815763591   T   T   T
  0.0006666136475747  0.4980081584350829  0.1870097623194840   T   T   T
  0.5023842109917072  0.0025409041134253  0.1839196815763591   T   T   T
  0.4993333863524254  0.4980081584350829  0.1870097623194840   T   T   T
  0.2500000000000000  0.2386038603012041  0.1860852454893374   T   T   T
  0.2500000000000000  0.7536175909435190  0.1826629287136123   T   T   T
  0.7500000000000000  0.2523231109244832  0.1905441969051932   T   T   T
  0.7500000000000000  0.7510392343851119  0.1863137773136627   T   T   T
  0.2499999495650016  0.0121529077491709  0.2669224592701252   T   T   T
  0.2499999495650016  0.5353652123405378  0.2755658864123994   T   T   T
  0.7499999495650016  0.0139412677048337  0.2769496034558886   T   T   T
  0.7499998486940029  0.5002706412135234  0.2779252229630548   T   T   T
  0.0853218760659345  0.2422657605108519  0.2734931085329995   T   T   T
 -0.0001651941710852  0.7641326865187008  0.2760562293199049   T   T   T
  0.4146781239340655  0.2422657605108519  0.2734931085329995   T   T   T
  0.5001653599760835  0.7641330959626995  0.2760562299979048   T   T   T
  0.7499998486940029  0.4806152712199490  0.3667218885235947   T   T   T
 
  0.00000000E+00  0.00000000E+00  0.00000000E+00
  0.00000000E+00  0.00000000E+00  0.00000000E+00
  0.00000000E+00  0.00000000E+00  0.00000000E+00
  0.00000000E+00  0.00000000E+00  0.00000000E+00
  0.00000000E+00  0.00000000E+00  0.00000000E+00
  0.00000000E+00  0.00000000E+00  0.00000000E+00
  0.00000000E+00  0.00000000E+00  0.00000000E+00
  0.00000000E+00  0.00000000E+00  0.00000000E+00
  0.00000000E+00  0.00000000E+00  0.00000000E+00
  0.00000000E+00  0.00000000E+00  0.00000000E+00
  0.00000000E+00  0.00000000E+00  0.00000000E+00
  0.00000000E+00  0.00000000E+00  0.00000000E+00
  0.00000000E+00  0.00000000E+00  0.00000000E+00
  0.00000000E+00  0.00000000E+00  0.00000000E+00
  0.00000000E+00  0.00000000E+00  0.00000000E+00
  0.00000000E+00  0.00000000E+00  0.00000000E+00
  0.00000000E+00  0.00000000E+00  0.00000000E+00
  0.00000000E+00  0.00000000E+00  0.00000000E+00
  0.00000000E+00  0.00000000E+00  0.00000000E+00
  0.00000000E+00  0.00000000E+00  0.00000000E+00
  0.00000000E+00  0.00000000E+00  0.00000000E+00
  0.00000000E+00  0.00000000E+00  0.00000000E+00
  0.00000000E+00  0.00000000E+00  0.00000000E+00
  0.00000000E+00  0.00000000E+00  0.00000000E+00
  0.00000000E+00  0.00000000E+00  0.00000000E+00
  0.00000000E+00  0.00000000E+00  0.00000000E+00
  0.00000000E+00  0.00000000E+00  0.00000000E+00
  0.00000000E+00  0.00000000E+00  0.00000000E+00
  0.00000000E+00  0.00000000E+00  0.00000000E+00
  0.00000000E+00  0.00000000E+00  0.00000000E+00
  0.00000000E+00  0.00000000E+00  0.00000000E+00
  0.00000000E+00  0.00000000E+00  0.00000000E+00
  0.00000000E+00  0.00000000E+00  0.00000000E+00
  0.00000000E+00  0.00000000E+00  0.00000000E+00
  0.00000000E+00  0.00000000E+00  0.00000000E+00
  0.00000000E+00  0.00000000E+00  0.00000000E+00
  0.00000000E+00  0.00000000E+00  0.00000000E+00
  0.00000000E+00  0.00000000E+00  0.00000000E+00
  0.00000000E+00  0.00000000E+00  0.00000000E+00
  0.00000000E+00  0.00000000E+00  0.00000000E+00
  0.00000000E+00  0.00000000E+00  0.00000000E+00
  0.00000000E+00  0.00000000E+00  0.00000000E+00
  0.00000000E+00  0.00000000E+00  0.00000000E+00
  0.00000000E+00  0.00000000E+00  0.00000000E+00
  0.00000000E+00  0.00000000E+00  0.00000000E+00
  0.00000000E+00  0.00000000E+00  0.00000000E+00
  0.00000000E+00  0.00000000E+00  0.00000000E+00
  0.00000000E+00  0.00000000E+00  0.00000000E+00
  0.00000000E+00  0.00000000E+00  0.00000000E+00
  0.00000000E+00  0.00000000E+00  0.00000000E+00
  0.00000000E+00  0.00000000E+00  0.00000000E+00
  0.00000000E+00  0.00000000E+00  0.00000000E+00
  0.00000000E+00  0.00000000E+00  0.00000000E+00
  0.00000000E+00  0.00000000E+00  0.00000000E+00
  0.00000000E+00  0.00000000E+00  0.00000000E+00
  0.00000000E+00  0.00000000E+00  0.00000000E+00
  0.00000000E+00  0.00000000E+00  0.00000000E+00
  0.00000000E+00  0.00000000E+00  0.00000000E+00
  0.00000000E+00  0.00000000E+00  0.00000000E+00
  0.00000000E+00  0.00000000E+00  0.00000000E+00
  0.00000000E+00  0.00000000E+00  0.00000000E+00
  0.00000000E+00  0.00000000E+00  0.00000000E+00
  0.00000000E+00  0.00000000E+00  0.00000000E+00
  0.00000000E+00  0.00000000E+00  0.00000000E+00
  0.00000000E+00  0.00000000E+00  0.00000000E+00
