B Mg O Ru                               
   1.00000000000000     
     8.4141216974800006    0.0000000000000000    0.0000000000000000
     0.0000000000000000    8.4141216974800006    0.0000000000000000
     0.0000000000000000    0.0000000000000000   23.4141216974799988
   B    Mg   O    Ru
     1    31    32     1
Selective dynamics
Direct
  0.2500000000000000  0.1919896512715272  0.2584989630831316   T   T   T
  0.2500000000000000  0.9989398139355061  0.0049015778488678   T   T   T
  0.2500000000000000  0.4991136896357182  0.0058698837877875   T   T   T
  0.7500000000000000 -0.0001780821575286  0.0055508565506619   T   T   T
  0.7500000000000000  0.4998375482330763  0.0065154235681827   T   T   T
  0.9994002308276323  0.2502003003571085  0.0057978260975651   T   T   T
  0.9994422819672498  0.7489231027470635  0.0059812990788559   T   T   T
  0.5005997691723677  0.2502003003571085  0.0057978260975651   T   T   T
  0.5005577180327502  0.7489231027470635  0.0059812990788559   T   T   T
  0.9981168691808322  0.9993848122895806  0.0947096318757061   T   T   T
  0.0006370408978809  0.5001762535427984  0.0964349468153209   T   T   T
  0.5018831308191678  0.9993848122895806  0.0947096318757061   T   T   T
  0.4993629591021191  0.5001762535427984  0.0964349468153209   T   T   T
  0.2500000000000000  0.2497497380465569  0.0940261410896782   T   T   T
  0.2500000000000000  0.7467907180336543  0.0946785103281183   T   T   T
  0.7500000000000000  0.2508261789330728  0.0956776503198011   T   T   T
  0.7500000000000000  0.7499409648736819  0.0959851553209747   T   T   T
  0.2500000000000000  0.9925637601613070  0.1792525662279373   T   T   T
  0.2500000000000000  0.5031035696823001  0.1899260699717864   T   T   T
  0.7500000000000000  0.0020768684543500  0.1858224321319669   T   T   T
  0.7500000000000000  0.5014341786123503  0.1871692107024948   T   T   T
  0.0031974065309402  0.2523520693148145  0.1857885016611809   T   T   T
  0.9981041616691200  0.7487944005136489  0.1872305012843596   T   T   T
  0.4968025934690599  0.2523520693148145  0.1857885016611809   T   T   T
  0.5018958383308800  0.7487944005136489  0.1872305012843596   T   T   T
  0.0012395022974607  0.0035770540538492  0.2739010330152952   T   T   T
  0.0245289834990850  0.4981301242002321  0.2837045587083087   T   T   T
  0.4987604977025392  0.0035770540538492  0.2739010330152952   T   T   T
  0.4754710165009150  0.4981301242002321  0.2837045587083087   T   T   T
  0.2500000000000000  0.7635087746744689  0.2733419258324697   T   T   T
  0.7500000000000000  0.2500631975921600  0.2833225629413014   T   T   T
  0.7500000000000000  0.7587927999590564  0.2787653434364046   T   T   T
  0.9995674057630621  0.9997467835657438  0.0031712418812060   T   T   T
  0.9999121599239685  0.4993888129307791  0.0040488913512800   T   T   T
  0.5004325942369379  0.9997467835657438  0.0031712418812060   T   T   T
  0.5000878400760315  0.4993888129307791  0.0040488913512800   T   T   T
  0.2500000000000000  0.2497852842753986  0.0032309851642077   T   T   T
  0.2500000000000000  0.7483917490976185  0.0034496862405921   T   T   T
  0.7500000000000000  0.2502423863529730  0.0039143578474008   T   T   T
  0.7500000000000000  0.7494209760449022  0.0039708910405715   T   T   T
  0.2500000000000000  0.0001336179627120  0.0932899841016660   T   T   T
  0.2500000000000000  0.4969251166768799  0.0964836733022262   T   T   T
  0.7500000000000000  0.0019604121583911  0.0952982945852387   T   T   T
  0.7500000000000000  0.4988511158747357  0.0966144261007402   T   T   T
 -0.0000997741423514  0.2502795483089838  0.0959461877290420   T   T   T
  0.9994828123657353  0.7493346487915576  0.0955415457381143   T   T   T
  0.5000997741423515  0.2502795483089838  0.0959461877290420   T   T   T
  0.5005171876342647  0.7493346487915576  0.0955415457381143   T   T   T
  0.9977421965464562  0.0028157021141495  0.1840806588796413   T   T   T
  0.0010530458335445  0.4979690906066117  0.1871404926484469   T   T   T
  0.5022578034535438  0.0028157021141495  0.1840806588796413   T   T   T
  0.4989469541664557  0.4979690906066117  0.1871404926484469   T   T   T
  0.2500000000000000  0.2382250777428823  0.1868312492030548   T   T   T
  0.2500000000000000  0.7534182029876183  0.1829979310551809   T   T   T
  0.7500000000000000  0.2521952501200718  0.1909082710191601   T   T   T
  0.7500000000000000  0.7521710708829744  0.1858873800091023   T   T   T
  0.2499999495650016  0.0124157454263569  0.2668327337784699   T   T   T
  0.2499999495650016  0.5355909523216267  0.2765855957285157   T   T   T
  0.7499999495650016  0.0131678304286427  0.2773221590661744   T   T   T
  0.7499998486940029  0.5110549089812911  0.2734119917649819   T   T   T
  0.0853897658994188  0.2420843523151660  0.2736479258877801   T   T   T
  0.0006861748748257  0.7655588262969012  0.2766968511016739   T   T   T
  0.4146102341005813  0.2420843523151660  0.2736479258877801   T   T   T
  0.4993139909301724  0.7655592357408999  0.2766968517796737   T   T   T
  0.7499998486940029  0.4678088673326893  0.3555906594395747   T   T   T
 
  0.00000000E+00  0.00000000E+00  0.00000000E+00
  0.00000000E+00  0.00000000E+00  0.00000000E+00
  0.00000000E+00  0.00000000E+00  0.00000000E+00
  0.00000000E+00  0.00000000E+00  0.00000000E+00
  0.00000000E+00  0.00000000E+00  0.00000000E+00
  0.00000000E+00  0.00000000E+00  0.00000000E+00
  0.00000000E+00  0.00000000E+00  0.00000000E+00
  0.00000000E+00  0.00000000E+00  0.00000000E+00
  0.00000000E+00  0.00000000E+00  0.00000000E+00
  0.00000000E+00  0.00000000E+00  0.00000000E+00
  0.00000000E+00  0.00000000E+00  0.00000000E+00
  0.00000000E+00  0.00000000E+00  0.00000000E+00
  0.00000000E+00  0.00000000E+00  0.00000000E+00
  0.00000000E+00  0.00000000E+00  0.00000000E+00
  0.00000000E+00  0.00000000E+00  0.00000000E+00
  0.00000000E+00  0.00000000E+00  0.00000000E+00
  0.00000000E+00  0.00000000E+00  0.00000000E+00
  0.00000000E+00  0.00000000E+00  0.00000000E+00
  0.00000000E+00  0.00000000E+00  0.00000000E+00
  0.00000000E+00  0.00000000E+00  0.00000000E+00
  0.00000000E+00  0.00000000E+00  0.00000000E+00
  0.00000000E+00  0.00000000E+00  0.00000000E+00
  0.00000000E+00  0.00000000E+00  0.00000000E+00
  0.00000000E+00  0.00000000E+00  0.00000000E+00
  0.00000000E+00  0.00000000E+00  0.00000000E+00
  0.00000000E+00  0.00000000E+00  0.00000000E+00
  0.00000000E+00  0.00000000E+00  0.00000000E+00
  0.00000000E+00  0.00000000E+00  0.00000000E+00
  0.00000000E+00  0.00000000E+00  0.00000000E+00
  0.00000000E+00  0.00000000E+00  0.00000000E+00
  0.00000000E+00  0.00000000E+00  0.00000000E+00
  0.00000000E+00  0.00000000E+00  0.00000000E+00
  0.00000000E+00  0.00000000E+00  0.00000000E+00
  0.00000000E+00  0.00000000E+00  0.00000000E+00
  0.00000000E+00  0.00000000E+00  0.00000000E+00
  0.00000000E+00  0.00000000E+00  0.00000000E+00
  0.00000000E+00  0.00000000E+00  0.00000000E+00
  0.00000000E+00  0.00000000E+00  0.00000000E+00
  0.00000000E+00  0.00000000E+00  0.00000000E+00
  0.00000000E+00  0.00000000E+00  0.00000000E+00
  0.00000000E+00  0.00000000E+00  0.00000000E+00
  0.00000000E+00  0.00000000E+00  0.00000000E+00
  0.00000000E+00  0.00000000E+00  0.00000000E+00
  0.00000000E+00  0.00000000E+00  0.00000000E+00
  0.00000000E+00  0.00000000E+00  0.00000000E+00
  0.00000000E+00  0.00000000E+00  0.00000000E+00
  0.00000000E+00  0.00000000E+00  0.00000000E+00
  0.00000000E+00  0.00000000E+00  0.00000000E+00
  0.00000000E+00  0.00000000E+00  0.00000000E+00
  0.00000000E+00  0.00000000E+00  0.00000000E+00
  0.00000000E+00  0.00000000E+00  0.00000000E+00
  0.00000000E+00  0.00000000E+00  0.00000000E+00
  0.00000000E+00  0.00000000E+00  0.00000000E+00
  0.00000000E+00  0.00000000E+00  0.00000000E+00
  0.00000000E+00  0.00000000E+00  0.00000000E+00
  0.00000000E+00  0.00000000E+00  0.00000000E+00
  0.00000000E+00  0.00000000E+00  0.00000000E+00
  0.00000000E+00  0.00000000E+00  0.00000000E+00
  0.00000000E+00  0.00000000E+00  0.00000000E+00
  0.00000000E+00  0.00000000E+00  0.00000000E+00
  0.00000000E+00  0.00000000E+00  0.00000000E+00
  0.00000000E+00  0.00000000E+00  0.00000000E+00
  0.00000000E+00  0.00000000E+00  0.00000000E+00
  0.00000000E+00  0.00000000E+00  0.00000000E+00
  0.00000000E+00  0.00000000E+00  0.00000000E+00
