B Mg O Ni                               
   1.00000000000000     
     8.4141216974800006    0.0000000000000000    0.0000000000000000
     0.0000000000000000    8.4141216974800006    0.0000000000000000
     0.0000000000000000    0.0000000000000000   23.4141216974799988
   B    Mg   O    Ni
     1    31    32     1
Selective dynamics
Direct
  0.2500000000000000  0.1935294627653672  0.2585626750356010   T   T   T
  0.2500000000000000  0.9988904163722232  0.0049381928678620   T   T   T
  0.2500000000000000  0.4991264304654205  0.0057548021329690   T   T   T
  0.7500000000000000 -0.0001135254332674  0.0054970063256533   T   T   T
  0.7500000000000000  0.4997707438063357  0.0064793680795847   T   T   T
  0.9993815461124392  0.2501318118023477  0.0057529641706666   T   T   T
  0.9995210648885288  0.7489724836735462  0.0058919112700360   T   T   T
  0.5006184538875608  0.2501318118023477  0.0057529641706666   T   T   T
  0.5004789351114712  0.7489724836735462  0.0058919112700360   T   T   T
  0.9982273761180120  0.9995163357174438  0.0947114216738124   T   T   T
  0.0008004835692450  0.5002329603220619  0.0963799541188979   T   T   T
  0.5017726238819880  0.9995163357174438  0.0947114216738124   T   T   T
  0.4991995164307551  0.5002329603220619  0.0963799541188979   T   T   T
  0.2500000000000000  0.2498695565783446  0.0939068736908862   T   T   T
  0.2500000000000000  0.7468226030144594  0.0947082557815051   T   T   T
  0.7500000000000000  0.2509527834451648  0.0956974985097014   T   T   T
  0.7500000000000000  0.7499711904068116  0.0958651887505634   T   T   T
  0.2500000000000000  0.9928634953251373  0.1796065167525629   T   T   T
  0.2500000000000000  0.5035012063052767  0.1901982880216511   T   T   T
  0.7500000000000000  0.0024833002582422  0.1858547998400570   T   T   T
  0.7500000000000000  0.5014335814642222  0.1872395407758138   T   T   T
  0.0033040052684273  0.2523112759872624  0.1857434248413369   T   T   T
  0.9985275386145825  0.7494820746450767  0.1868828104643934   T   T   T
  0.4966959947315728  0.2523112759872624  0.1857434248413369   T   T   T
  0.5014724613854175  0.7494820746450767  0.1868828104643934   T   T   T
  0.0004797032684844  0.0040407897974005  0.2744539456706712   T   T   T
  0.0212539753502394  0.5014851930335393  0.2829235476172914   T   T   T
  0.4995202967315157  0.0040407897974005  0.2744539456706712   T   T   T
  0.4787460246497607  0.5014851930335393  0.2829235476172914   T   T   T
  0.2500000000000000  0.7637611564231445  0.2738194666354756   T   T   T
  0.7500000000000000  0.2539938101847417  0.2820775227020300   T   T   T
  0.7500000000000000  0.7545180993179347  0.2774836781610017   T   T   T
  0.9996087192466389  0.9997625234645774  0.0031668054285951   T   T   T
  0.9999443616822276  0.4993620500750587  0.0040306942134913   T   T   T
  0.5003912807533611  0.9997625234645774  0.0031668054285951   T   T   T
  0.5000556383177724  0.4993620500750587  0.0040306942134913   T   T   T
  0.2500000000000000  0.2496856242148746  0.0031619409554329   T   T   T
  0.2500000000000000  0.7484738542765257  0.0034664657938733   T   T   T
  0.7500000000000000  0.2501614847965227  0.0040071104756206   T   T   T
  0.7500000000000000  0.7494955579487551  0.0039387521207941   T   T   T
  0.2500000000000000  0.0003117829278253  0.0934904279107705   T   T   T
  0.2500000000000000  0.4970982232530812  0.0964020369094871   T   T   T
  0.7500000000000000  0.0019207872136679  0.0952897452489272   T   T   T
  0.7500000000000000  0.4990388241130287  0.0965197729118876   T   T   T
  0.0002160325137919  0.2502043376785335  0.0959777414689960   T   T   T
  0.9996663203291221  0.7495644457172883  0.0955123333667383   T   T   T
  0.4997839674862082  0.2502043376785335  0.0959777414689960   T   T   T
  0.5003336796708779  0.7495644457172883  0.0955123333667383   T   T   T
  0.9980211822708132  0.0026819439730368  0.1842574636479914   T   T   T
  0.0016197596071550  0.4985086243902725  0.1868029670417966   T   T   T
  0.5019788177291868  0.0026819439730368  0.1842574636479914   T   T   T
  0.4983802403928448  0.4985086243902725  0.1868029670417966   T   T   T
  0.2500000000000000  0.2382708697871625  0.1875061118821338   T   T   T
  0.2500000000000000  0.7539355068397591  0.1832226906120930   T   T   T
  0.7500000000000000  0.2521999671196043  0.1900908684075317   T   T   T
  0.7500000000000000  0.7522042072706175  0.1857745367608060   T   T   T
  0.2499999495650016  0.0131813073155129  0.2673238570005245   T   T   T
  0.2499999495650016  0.5358500868768808  0.2768477076452700   T   T   T
  0.7499999495650016  0.0155090374318767  0.2771511022825673   T   T   T
  0.7499998486940029  0.5037995035612793  0.2742380794075707   T   T   T
  0.0841979818630673  0.2430104446430549  0.2737306572206934   T   T   T
  0.9990639570097142  0.7644478134367357  0.2768900317837021   T   T   T
  0.4158020181369327  0.2430104446430549  0.2737306572206934   T   T   T
  0.5009362087952840  0.7644482228807344  0.2768900324617020   T   T   T
  0.7499998486940029  0.4578025461459932  0.3572305017095478   T   T   T
 
  0.00000000E+00  0.00000000E+00  0.00000000E+00
  0.00000000E+00  0.00000000E+00  0.00000000E+00
  0.00000000E+00  0.00000000E+00  0.00000000E+00
  0.00000000E+00  0.00000000E+00  0.00000000E+00
  0.00000000E+00  0.00000000E+00  0.00000000E+00
  0.00000000E+00  0.00000000E+00  0.00000000E+00
  0.00000000E+00  0.00000000E+00  0.00000000E+00
  0.00000000E+00  0.00000000E+00  0.00000000E+00
  0.00000000E+00  0.00000000E+00  0.00000000E+00
  0.00000000E+00  0.00000000E+00  0.00000000E+00
  0.00000000E+00  0.00000000E+00  0.00000000E+00
  0.00000000E+00  0.00000000E+00  0.00000000E+00
  0.00000000E+00  0.00000000E+00  0.00000000E+00
  0.00000000E+00  0.00000000E+00  0.00000000E+00
  0.00000000E+00  0.00000000E+00  0.00000000E+00
  0.00000000E+00  0.00000000E+00  0.00000000E+00
  0.00000000E+00  0.00000000E+00  0.00000000E+00
  0.00000000E+00  0.00000000E+00  0.00000000E+00
  0.00000000E+00  0.00000000E+00  0.00000000E+00
  0.00000000E+00  0.00000000E+00  0.00000000E+00
  0.00000000E+00  0.00000000E+00  0.00000000E+00
  0.00000000E+00  0.00000000E+00  0.00000000E+00
  0.00000000E+00  0.00000000E+00  0.00000000E+00
  0.00000000E+00  0.00000000E+00  0.00000000E+00
  0.00000000E+00  0.00000000E+00  0.00000000E+00
  0.00000000E+00  0.00000000E+00  0.00000000E+00
  0.00000000E+00  0.00000000E+00  0.00000000E+00
  0.00000000E+00  0.00000000E+00  0.00000000E+00
  0.00000000E+00  0.00000000E+00  0.00000000E+00
  0.00000000E+00  0.00000000E+00  0.00000000E+00
  0.00000000E+00  0.00000000E+00  0.00000000E+00
  0.00000000E+00  0.00000000E+00  0.00000000E+00
  0.00000000E+00  0.00000000E+00  0.00000000E+00
  0.00000000E+00  0.00000000E+00  0.00000000E+00
  0.00000000E+00  0.00000000E+00  0.00000000E+00
  0.00000000E+00  0.00000000E+00  0.00000000E+00
  0.00000000E+00  0.00000000E+00  0.00000000E+00
  0.00000000E+00  0.00000000E+00  0.00000000E+00
  0.00000000E+00  0.00000000E+00  0.00000000E+00
  0.00000000E+00  0.00000000E+00  0.00000000E+00
  0.00000000E+00  0.00000000E+00  0.00000000E+00
  0.00000000E+00  0.00000000E+00  0.00000000E+00
  0.00000000E+00  0.00000000E+00  0.00000000E+00
  0.00000000E+00  0.00000000E+00  0.00000000E+00
  0.00000000E+00  0.00000000E+00  0.00000000E+00
  0.00000000E+00  0.00000000E+00  0.00000000E+00
  0.00000000E+00  0.00000000E+00  0.00000000E+00
  0.00000000E+00  0.00000000E+00  0.00000000E+00
  0.00000000E+00  0.00000000E+00  0.00000000E+00
  0.00000000E+00  0.00000000E+00  0.00000000E+00
  0.00000000E+00  0.00000000E+00  0.00000000E+00
  0.00000000E+00  0.00000000E+00  0.00000000E+00
  0.00000000E+00  0.00000000E+00  0.00000000E+00
  0.00000000E+00  0.00000000E+00  0.00000000E+00
  0.00000000E+00  0.00000000E+00  0.00000000E+00
  0.00000000E+00  0.00000000E+00  0.00000000E+00
  0.00000000E+00  0.00000000E+00  0.00000000E+00
  0.00000000E+00  0.00000000E+00  0.00000000E+00
  0.00000000E+00  0.00000000E+00  0.00000000E+00
  0.00000000E+00  0.00000000E+00  0.00000000E+00
  0.00000000E+00  0.00000000E+00  0.00000000E+00
  0.00000000E+00  0.00000000E+00  0.00000000E+00
  0.00000000E+00  0.00000000E+00  0.00000000E+00
  0.00000000E+00  0.00000000E+00  0.00000000E+00
  0.00000000E+00  0.00000000E+00  0.00000000E+00
