B Mg O Ir                               
   1.00000000000000     
     8.4141216974800006    0.0000000000000000    0.0000000000000000
     0.0000000000000000    8.4141216974800006    0.0000000000000000
     0.0000000000000000    0.0000000000000000   23.4141216974799988
   B    Mg   O    Ir
     1    31    32     1
Selective dynamics
Direct
  0.2500000000000000  0.1928570067420285  0.2584765862664136   T   T   T
  0.2500000000000000  0.9989485951113073  0.0049632953442799   T   T   T
  0.2500000000000000  0.4991969758981150  0.0057405036140254   T   T   T
  0.7500000000000000 -0.0002247723190125  0.0054784774536864   T   T   T
  0.7500000000000000  0.4998213436031776  0.0063859573259690   T   T   T
  0.9994536022324043  0.2501569449184022  0.0057446828204938   T   T   T
  0.9995279596698919  0.7490076469275003  0.0059352504219394   T   T   T
  0.5005463977675957  0.2501569449184022  0.0057446828204938   T   T   T
  0.5004720403301081  0.7490076469275003  0.0059352504219394   T   T   T
  0.9981976551024805  0.9993843895612907  0.0947608266330509   T   T   T
  0.0012570335567820  0.5001572854434198  0.0962934247992143   T   T   T
  0.5018023448975195  0.9993843895612907  0.0947608266330509   T   T   T
  0.4987429664432182  0.5001572854434198  0.0962934247992143   T   T   T
  0.2500000000000000  0.2499318317293769  0.0938709301506696   T   T   T
  0.2500000000000000  0.7466113622357774  0.0947882858089782   T   T   T
  0.7500000000000000  0.2503422643748083  0.0955954489511381   T   T   T
  0.7500000000000000  0.7501404480520159  0.0957947417475890   T   T   T
  0.2500000000000000  0.9922593110408271  0.1795635762289513   T   T   T
  0.2500000000000000  0.5030929983526096  0.1906800686795161   T   T   T
  0.7500000000000000  0.0013256268393843  0.1858629962887265   T   T   T
  0.7500000000000000  0.5014197821450159  0.1858574102182360   T   T   T
  0.0032495819755075  0.2528908194508186  0.1857929774820037   T   T   T
  0.9979101567261186  0.7481830360150313  0.1871682157541204   T   T   T
  0.4967504180244924  0.2528908194508186  0.1857929774820037   T   T   T
  0.5020898432738814  0.7481830360150313  0.1871682157541204   T   T   T
  0.0009156029655557  0.0034269319168988  0.2739129365690302   T   T   T
  0.0219589299757962  0.5010551553629304  0.2855489916477543   T   T   T
  0.4990843970344442  0.0034269319168988  0.2739129365690302   T   T   T
  0.4780410700242037  0.5010551553629304  0.2855489916477543   T   T   T
  0.2500000000000000  0.7635060971830256  0.2734668038503885   T   T   T
  0.7500000000000000  0.2524050391100805  0.2814042722040798   T   T   T
  0.7500000000000000  0.7543436225280119  0.2797041644616890   T   T   T
  0.9996574071047926  0.9997941295830213  0.0031578649134274   T   T   T
  0.9999925341047852  0.4993807107583274  0.0039599155906239   T   T   T
  0.5003425928952074  0.9997941295830213  0.0031578649134274   T   T   T
  0.5000074658952148  0.4993807107583274  0.0039599155906239   T   T   T
  0.2500000000000000  0.2496899634212051  0.0031491542461382   T   T   T
  0.2500000000000000  0.7485870630547378  0.0034765135783938   T   T   T
  0.7500000000000000  0.2500601526499958  0.0039277302297385   T   T   T
  0.7500000000000000  0.7495290432362636  0.0038996075706567   T   T   T
  0.2500000000000000  0.0003583713677603  0.0935323430560265   T   T   T
  0.2500000000000000  0.4968163568658642  0.0963323862535431   T   T   T
  0.7500000000000000  0.0016712452033882  0.0952718583344450   T   T   T
  0.7500000000000000  0.4988402812010636  0.0962573238413935   T   T   T
  0.0003042224996726  0.2500359926957580  0.0959244810138372   T   T   T
  0.9995748094846785  0.7495206604825908  0.0954869072537598   T   T   T
  0.4996957775003275  0.2500359926957580  0.0959244810138372   T   T   T
  0.5004251905153215  0.7495206604825908  0.0954869072537598   T   T   T
  0.9977642066991844  0.0026136182964496  0.1842510956226828   T   T   T
  0.0016976127608247  0.4981199784905047  0.1865085646659095   T   T   T
  0.5022357933008156  0.0026136182964496  0.1842510956226828   T   T   T
  0.4983023872391754  0.4981199784905047  0.1865085646659095   T   T   T
  0.2500000000000000  0.2379505981280986  0.1878607077724166   T   T   T
  0.2500000000000000  0.7532282223470460  0.1833095749155154   T   T   T
  0.7500000000000000  0.2515154252957175  0.1900831025175813   T   T   T
  0.7500000000000000  0.7518941982646841  0.1859198150673950   T   T   T
  0.2499999495650016  0.0127291598994516  0.2672349955216389   T   T   T
  0.2499999495650016  0.5354192693910078  0.2775979050808751   T   T   T
  0.7499999495650016  0.0156387525864101  0.2778340728841531   T   T   T
  0.7499998486940029  0.5049301015980006  0.2707075504425210   T   T   T
  0.0839792035523544  0.2423348865090937  0.2739943029850841   T   T   T
 -0.0001853900886243  0.7649920129826477  0.2768540247270139   T   T   T
  0.4160207964476455  0.2423348865090937  0.2739943029850841   T   T   T
  0.5001855558936226  0.7649924224266464  0.2768540254050137   T   T   T
  0.7499998486940029  0.4707995625803836  0.3549516443893179   T   T   T
 
  0.00000000E+00  0.00000000E+00  0.00000000E+00
  0.00000000E+00  0.00000000E+00  0.00000000E+00
  0.00000000E+00  0.00000000E+00  0.00000000E+00
  0.00000000E+00  0.00000000E+00  0.00000000E+00
  0.00000000E+00  0.00000000E+00  0.00000000E+00
  0.00000000E+00  0.00000000E+00  0.00000000E+00
  0.00000000E+00  0.00000000E+00  0.00000000E+00
  0.00000000E+00  0.00000000E+00  0.00000000E+00
  0.00000000E+00  0.00000000E+00  0.00000000E+00
  0.00000000E+00  0.00000000E+00  0.00000000E+00
  0.00000000E+00  0.00000000E+00  0.00000000E+00
  0.00000000E+00  0.00000000E+00  0.00000000E+00
  0.00000000E+00  0.00000000E+00  0.00000000E+00
  0.00000000E+00  0.00000000E+00  0.00000000E+00
  0.00000000E+00  0.00000000E+00  0.00000000E+00
  0.00000000E+00  0.00000000E+00  0.00000000E+00
  0.00000000E+00  0.00000000E+00  0.00000000E+00
  0.00000000E+00  0.00000000E+00  0.00000000E+00
  0.00000000E+00  0.00000000E+00  0.00000000E+00
  0.00000000E+00  0.00000000E+00  0.00000000E+00
  0.00000000E+00  0.00000000E+00  0.00000000E+00
  0.00000000E+00  0.00000000E+00  0.00000000E+00
  0.00000000E+00  0.00000000E+00  0.00000000E+00
  0.00000000E+00  0.00000000E+00  0.00000000E+00
  0.00000000E+00  0.00000000E+00  0.00000000E+00
  0.00000000E+00  0.00000000E+00  0.00000000E+00
  0.00000000E+00  0.00000000E+00  0.00000000E+00
  0.00000000E+00  0.00000000E+00  0.00000000E+00
  0.00000000E+00  0.00000000E+00  0.00000000E+00
  0.00000000E+00  0.00000000E+00  0.00000000E+00
  0.00000000E+00  0.00000000E+00  0.00000000E+00
  0.00000000E+00  0.00000000E+00  0.00000000E+00
  0.00000000E+00  0.00000000E+00  0.00000000E+00
  0.00000000E+00  0.00000000E+00  0.00000000E+00
  0.00000000E+00  0.00000000E+00  0.00000000E+00
  0.00000000E+00  0.00000000E+00  0.00000000E+00
  0.00000000E+00  0.00000000E+00  0.00000000E+00
  0.00000000E+00  0.00000000E+00  0.00000000E+00
  0.00000000E+00  0.00000000E+00  0.00000000E+00
  0.00000000E+00  0.00000000E+00  0.00000000E+00
  0.00000000E+00  0.00000000E+00  0.00000000E+00
  0.00000000E+00  0.00000000E+00  0.00000000E+00
  0.00000000E+00  0.00000000E+00  0.00000000E+00
  0.00000000E+00  0.00000000E+00  0.00000000E+00
  0.00000000E+00  0.00000000E+00  0.00000000E+00
  0.00000000E+00  0.00000000E+00  0.00000000E+00
  0.00000000E+00  0.00000000E+00  0.00000000E+00
  0.00000000E+00  0.00000000E+00  0.00000000E+00
  0.00000000E+00  0.00000000E+00  0.00000000E+00
  0.00000000E+00  0.00000000E+00  0.00000000E+00
  0.00000000E+00  0.00000000E+00  0.00000000E+00
  0.00000000E+00  0.00000000E+00  0.00000000E+00
  0.00000000E+00  0.00000000E+00  0.00000000E+00
  0.00000000E+00  0.00000000E+00  0.00000000E+00
  0.00000000E+00  0.00000000E+00  0.00000000E+00
  0.00000000E+00  0.00000000E+00  0.00000000E+00
  0.00000000E+00  0.00000000E+00  0.00000000E+00
  0.00000000E+00  0.00000000E+00  0.00000000E+00
  0.00000000E+00  0.00000000E+00  0.00000000E+00
  0.00000000E+00  0.00000000E+00  0.00000000E+00
  0.00000000E+00  0.00000000E+00  0.00000000E+00
  0.00000000E+00  0.00000000E+00  0.00000000E+00
  0.00000000E+00  0.00000000E+00  0.00000000E+00
  0.00000000E+00  0.00000000E+00  0.00000000E+00
  0.00000000E+00  0.00000000E+00  0.00000000E+00
