B Mg O Ag                               
   1.00000000000000     
     8.4141216974800006    0.0000000000000000    0.0000000000000000
     0.0000000000000000    8.4141216974800006    0.0000000000000000
     0.0000000000000000    0.0000000000000000   23.4141216974799988
   B    Mg   O    Ag
     1    31    32     1
Selective dynamics
Direct
  0.2500000000000000  0.1963563063986732  0.2581745912488125   T   T   T
  0.2500000000000000  0.0008601952713462  0.0045664927099243   T   T   T
  0.2500000000000000  0.5010183445549866  0.0056257648316068   T   T   T
  0.7500000000000000  0.0019174220672751  0.0053261911324502   T   T   T
  0.7500000000000000  0.5016916164327329  0.0062169335173236   T   T   T
  0.9994026957557857  0.2520055040265807  0.0053219019239686   T   T   T
  0.9995261259415537  0.7508169406829441  0.0055405823457163   T   T   T
  0.5005973042442143  0.2520055040265807  0.0053219019239686   T   T   T
  0.5004738740584463  0.7508169406829441  0.0055405823457163   T   T   T
  0.9982732898957178  0.0016081995699190  0.0943054547328259   T   T   T
  0.0005615333113820  0.5020360791415102  0.0959346680716145   T   T   T
  0.5017267101042822  0.0016081995699190  0.0943054547328259   T   T   T
  0.4994384666886180  0.5020360791415102  0.0959346680716145   T   T   T
  0.2500000000000000  0.2515984955045443  0.0934979955908678   T   T   T
  0.2500000000000000  0.7493034210896217  0.0942588508039961   T   T   T
  0.7500000000000000  0.2527653137517894  0.0954445710592175   T   T   T
  0.7500000000000000  0.7519200750217682  0.0953345885163323   T   T   T
  0.2500000000000000  0.9951805028472219  0.1792744825675858   T   T   T
  0.2500000000000000  0.5049874138073693  0.1891458913503472   T   T   T
  0.7500000000000000  0.0049095623274476  0.1855376958797065   T   T   T
  0.7500000000000000  0.5025984629522350  0.1872972939908254   T   T   T
  0.0028822708616237  0.2536700619625340  0.1851623054788393   T   T   T
  0.9983414226636728  0.7522156668461273  0.1860448307350541   T   T   T
  0.4971177291383764  0.2536700619625340  0.1851623054788393   T   T   T
  0.5016585773363272  0.7522156668461273  0.1860448307350541   T   T   T
 -0.0020642109632181  0.0065204825899069  0.2745098918827528   T   T   T
  0.0187124183641311  0.5037329651830310  0.2797875000276420   T   T   T
  0.5020642109632180  0.0065204825899069  0.2745098918827528   T   T   T
  0.4812875816358691  0.5037329651830310  0.2797875000276420   T   T   T
  0.2500000000000000  0.7656239664174932  0.2730067951625292   T   T   T
  0.7500000000000000  0.2611966145509333  0.2827624415731193   T   T   T
  0.7500000000000000  0.7517972970833307  0.2757852113307214   T   T   T
  0.9995028014702673  0.0016250845284188  0.0027941627513703   T   T   T
 -0.0000206432837356  0.5012729455526465  0.0037090219096119   T   T   T
  0.5004971985297327  0.0016250845284188  0.0027941627513703   T   T   T
  0.5000206432837354  0.5012729455526465  0.0037090219096119   T   T   T
  0.2500000000000000  0.2518832114326824  0.0027776932077468   T   T   T
  0.2500000000000000  0.7501708946889019  0.0031665976041297   T   T   T
  0.7500000000000000  0.2522130661658461  0.0035132802403187   T   T   T
  0.7500000000000000  0.7513859485734224  0.0035776940338700   T   T   T
  0.2500000000000000  0.0022270925245155  0.0930159497830518   T   T   T
  0.2500000000000000  0.4989692575502978  0.0961106713590168   T   T   T
  0.7500000000000000  0.0037228797887652  0.0949464378393045   T   T   T
  0.7500000000000000  0.5011013384448856  0.0961132658209292   T   T   T
  0.0003892518596578  0.2521054928703985  0.0954851353455530   T   T   T
 -0.0002500635109064  0.7515433930661802  0.0950537423690601   T   T   T
  0.4996107481403421  0.2521054928703985  0.0954851353455530   T   T   T
  0.5002500635109063  0.7515433930661802  0.0950537423690601   T   T   T
  0.9983478864136731  0.0040982822608305  0.1838729520446832   T   T   T
  0.0021122630297553  0.5008086079723754  0.1861628320908934   T   T   T
  0.5016521135863269  0.0040982822608305  0.1838729520446832   T   T   T
  0.4978877369702449  0.5008086079723754  0.1861628320908934   T   T   T
  0.2500000000000000  0.2400579868872606  0.1868237878092868   T   T   T
  0.2500000000000000  0.7561925525478990  0.1829059721285806   T   T   T
  0.7500000000000000  0.2540538068163792  0.1890810322535981   T   T   T
  0.7500000000000000  0.7540301970507539  0.1850626535469850   T   T   T
  0.2499999495650016  0.0161110773347276  0.2673312564974762   T   T   T
  0.2499999495650016  0.5377290334490338  0.2761134516591266   T   T   T
  0.7499999495650016  0.0175556562885135  0.2754689320571352   T   T   T
  0.7499998486940029  0.5027023243214233  0.2742249595844934   T   T   T
  0.0836515204817816  0.2467674413203240  0.2730115599451260   T   T   T
  0.9978426328454799  0.7645589246419516  0.2767617087621892   T   T   T
  0.4163484795182182  0.2467674413203240  0.2730115599451260   T   T   T
  0.5021575329595183  0.7645593340859503  0.2767617094401891   T   T   T
  0.7499998486940029  0.3331402201315643  0.3911628025717603   T   T   T
 
  0.00000000E+00  0.00000000E+00  0.00000000E+00
  0.00000000E+00  0.00000000E+00  0.00000000E+00
  0.00000000E+00  0.00000000E+00  0.00000000E+00
  0.00000000E+00  0.00000000E+00  0.00000000E+00
  0.00000000E+00  0.00000000E+00  0.00000000E+00
  0.00000000E+00  0.00000000E+00  0.00000000E+00
  0.00000000E+00  0.00000000E+00  0.00000000E+00
  0.00000000E+00  0.00000000E+00  0.00000000E+00
  0.00000000E+00  0.00000000E+00  0.00000000E+00
  0.00000000E+00  0.00000000E+00  0.00000000E+00
  0.00000000E+00  0.00000000E+00  0.00000000E+00
  0.00000000E+00  0.00000000E+00  0.00000000E+00
  0.00000000E+00  0.00000000E+00  0.00000000E+00
  0.00000000E+00  0.00000000E+00  0.00000000E+00
  0.00000000E+00  0.00000000E+00  0.00000000E+00
  0.00000000E+00  0.00000000E+00  0.00000000E+00
  0.00000000E+00  0.00000000E+00  0.00000000E+00
  0.00000000E+00  0.00000000E+00  0.00000000E+00
  0.00000000E+00  0.00000000E+00  0.00000000E+00
  0.00000000E+00  0.00000000E+00  0.00000000E+00
  0.00000000E+00  0.00000000E+00  0.00000000E+00
  0.00000000E+00  0.00000000E+00  0.00000000E+00
  0.00000000E+00  0.00000000E+00  0.00000000E+00
  0.00000000E+00  0.00000000E+00  0.00000000E+00
  0.00000000E+00  0.00000000E+00  0.00000000E+00
  0.00000000E+00  0.00000000E+00  0.00000000E+00
  0.00000000E+00  0.00000000E+00  0.00000000E+00
  0.00000000E+00  0.00000000E+00  0.00000000E+00
  0.00000000E+00  0.00000000E+00  0.00000000E+00
  0.00000000E+00  0.00000000E+00  0.00000000E+00
  0.00000000E+00  0.00000000E+00  0.00000000E+00
  0.00000000E+00  0.00000000E+00  0.00000000E+00
  0.00000000E+00  0.00000000E+00  0.00000000E+00
  0.00000000E+00  0.00000000E+00  0.00000000E+00
  0.00000000E+00  0.00000000E+00  0.00000000E+00
  0.00000000E+00  0.00000000E+00  0.00000000E+00
  0.00000000E+00  0.00000000E+00  0.00000000E+00
  0.00000000E+00  0.00000000E+00  0.00000000E+00
  0.00000000E+00  0.00000000E+00  0.00000000E+00
  0.00000000E+00  0.00000000E+00  0.00000000E+00
  0.00000000E+00  0.00000000E+00  0.00000000E+00
  0.00000000E+00  0.00000000E+00  0.00000000E+00
  0.00000000E+00  0.00000000E+00  0.00000000E+00
  0.00000000E+00  0.00000000E+00  0.00000000E+00
  0.00000000E+00  0.00000000E+00  0.00000000E+00
  0.00000000E+00  0.00000000E+00  0.00000000E+00
  0.00000000E+00  0.00000000E+00  0.00000000E+00
  0.00000000E+00  0.00000000E+00  0.00000000E+00
  0.00000000E+00  0.00000000E+00  0.00000000E+00
  0.00000000E+00  0.00000000E+00  0.00000000E+00
  0.00000000E+00  0.00000000E+00  0.00000000E+00
  0.00000000E+00  0.00000000E+00  0.00000000E+00
  0.00000000E+00  0.00000000E+00  0.00000000E+00
  0.00000000E+00  0.00000000E+00  0.00000000E+00
  0.00000000E+00  0.00000000E+00  0.00000000E+00
  0.00000000E+00  0.00000000E+00  0.00000000E+00
  0.00000000E+00  0.00000000E+00  0.00000000E+00
  0.00000000E+00  0.00000000E+00  0.00000000E+00
  0.00000000E+00  0.00000000E+00  0.00000000E+00
  0.00000000E+00  0.00000000E+00  0.00000000E+00
  0.00000000E+00  0.00000000E+00  0.00000000E+00
  0.00000000E+00  0.00000000E+00  0.00000000E+00
  0.00000000E+00  0.00000000E+00  0.00000000E+00
  0.00000000E+00  0.00000000E+00  0.00000000E+00
  0.00000000E+00  0.00000000E+00  0.00000000E+00
