B Mg O Co                               
   1.00000000000000     
     8.4141216974800006    0.0000000000000000    0.0000000000000000
     0.0000000000000000    8.4141216974800006    0.0000000000000000
     0.0000000000000000    0.0000000000000000   23.4141216974799988
   B    Mg   O    Co
     1    31    32     1
Selective dynamics
Direct
  0.2500000000000000  0.1934368858340664  0.2585326329981558   T   T   T
  0.2500000000000000  0.9989809322815536  0.0047985163564135   T   T   T
  0.2500000000000000  0.4992612098935152  0.0057034805023707   T   T   T
  0.7500000000000000 -0.0001253260729356  0.0054801605161637   T   T   T
  0.7500000000000000  0.4999678368543208  0.0063398250657767   T   T   T
  0.9994710420737640  0.2503476393348969  0.0056086115964425   T   T   T
  0.9995338093592206  0.7489973262370432  0.0057308741761500   T   T   T
  0.5005289579262360  0.2503476393348969  0.0056086115964425   T   T   T
  0.5004661906407794  0.7489973262370432  0.0057308741761500   T   T   T
  0.9982180010527323  0.9997379422977517  0.0945488677261395   T   T   T
  0.0005397876343556  0.5003764161446616  0.0963354533324175   T   T   T
  0.5017819989472677  0.9997379422977517  0.0945488677261395   T   T   T
  0.4994602123656445  0.5003764161446616  0.0963354533324175   T   T   T
  0.2500000000000000  0.2500629811534633  0.0938304925327355   T   T   T
  0.2500000000000000  0.7471669135257175  0.0945221330195612   T   T   T
  0.7500000000000000  0.2513087738584979  0.0956507168976928   T   T   T
  0.7500000000000000  0.7498230936718454  0.0957858316564403   T   T   T
  0.2500000000000000  0.9934882294863937  0.1793723400778794   T   T   T
  0.2500000000000000  0.5035200809548767  0.1900690074183091   T   T   T
  0.7500000000000000  0.0028665875691910  0.1856481390998860   T   T   T
  0.7500000000000000  0.5013931962115629  0.1877252970875569   T   T   T
  0.0035742658470436  0.2527392418814391  0.1854598501157440   T   T   T
  0.9986422545416546  0.7497149402975563  0.1866726724700714   T   T   T
  0.4964257341529563  0.2527392418814391  0.1854598501157440   T   T   T
  0.5013577454583454  0.7497149402975563  0.1866726724700714   T   T   T
 -0.0000965156823220  0.0045253219589711  0.2740470695584198   T   T   T
  0.0205311573656316  0.5021113550834978  0.2827162476349173   T   T   T
  0.5000965156823221  0.0045253219589711  0.2740470695584198   T   T   T
  0.4794688426343683  0.5021113550834978  0.2827162476349173   T   T   T
  0.2500000000000000  0.7641861417631093  0.2735306378034043   T   T   T
  0.7500000000000000  0.2561130617590067  0.2817973084117181   T   T   T
  0.7500000000000000  0.7541472374541154  0.2769479115010315   T   T   T
  0.9995646694720299  0.9998839735540627  0.0030391596305257   T   T   T
 -0.0001378521508008  0.4994735700166177  0.0038809702436502   T   T   T
  0.5004353305279701  0.9998839735540627  0.0030391596305257   T   T   T
  0.5001378521508008  0.4994735700166177  0.0038809702436502   T   T   T
  0.2500000000000000  0.2498217668133833  0.0030545368822403   T   T   T
  0.2500000000000000  0.7485761785172902  0.0032992479082932   T   T   T
  0.7500000000000000  0.2503394117243223  0.0038139797387556   T   T   T
  0.7500000000000000  0.7495286794235190  0.0037845103850415   T   T   T
  0.2500000000000000  0.0003763066612795  0.0932054990143302   T   T   T
  0.2500000000000000  0.4973618368481378  0.0963769059805217   T   T   T
  0.7500000000000000  0.0018758192891600  0.0951725374155137   T   T   T
  0.7500000000000000  0.4993544722669216  0.0965126043164043   T   T   T
  0.0000607081458029  0.2505553553277154  0.0957591384041560   T   T   T
  0.9994785380597616  0.7496122320848312  0.0953775277216681   T   T   T
  0.4999392918541970  0.2505553553277154  0.0957591384041560   T   T   T
  0.5005214619402384  0.7496122320848312  0.0953775277216681   T   T   T
  0.9979374045639808  0.0028622240439332  0.1840747041780802   T   T   T
  0.0016178521917444  0.4989179490117852  0.1867843743446595   T   T   T
  0.5020625954360192  0.0028622240439332  0.1840747041780802   T   T   T
  0.4983821478082555  0.4989179490117852  0.1867843743446595   T   T   T
  0.2500000000000000  0.2383395845177608  0.1868897046120125   T   T   T
  0.2500000000000000  0.7542195020723486  0.1831459782923797   T   T   T
  0.7500000000000000  0.2523138862390860  0.1898876287183949   T   T   T
  0.7500000000000000  0.7523747577182548  0.1858559451880690   T   T   T
  0.2499999495650016  0.0133160293575315  0.2672467552392886   T   T   T
  0.2499999495650016  0.5363417425471917  0.2767767314072522   T   T   T
  0.7499999495650016  0.0164577309568733  0.2769779264568983   T   T   T
  0.7499998486940029  0.5022488816044004  0.2754865498013974   T   T   T
  0.0844135563712133  0.2435094298639209  0.2733986994731768   T   T   T
  0.9984354613213673  0.7647685092671276  0.2768123621444918   T   T   T
  0.4155864436287867  0.2435094298639209  0.2733986994731768   T   T   T
  0.5015647044836309  0.7647689187111263  0.2768123628224917   T   T   T
  0.7499998486940029  0.4430324229396164  0.3658540922926674   T   T   T
 
  0.00000000E+00  0.00000000E+00  0.00000000E+00
  0.00000000E+00  0.00000000E+00  0.00000000E+00
  0.00000000E+00  0.00000000E+00  0.00000000E+00
  0.00000000E+00  0.00000000E+00  0.00000000E+00
  0.00000000E+00  0.00000000E+00  0.00000000E+00
  0.00000000E+00  0.00000000E+00  0.00000000E+00
  0.00000000E+00  0.00000000E+00  0.00000000E+00
  0.00000000E+00  0.00000000E+00  0.00000000E+00
  0.00000000E+00  0.00000000E+00  0.00000000E+00
  0.00000000E+00  0.00000000E+00  0.00000000E+00
  0.00000000E+00  0.00000000E+00  0.00000000E+00
  0.00000000E+00  0.00000000E+00  0.00000000E+00
  0.00000000E+00  0.00000000E+00  0.00000000E+00
  0.00000000E+00  0.00000000E+00  0.00000000E+00
  0.00000000E+00  0.00000000E+00  0.00000000E+00
  0.00000000E+00  0.00000000E+00  0.00000000E+00
  0.00000000E+00  0.00000000E+00  0.00000000E+00
  0.00000000E+00  0.00000000E+00  0.00000000E+00
  0.00000000E+00  0.00000000E+00  0.00000000E+00
  0.00000000E+00  0.00000000E+00  0.00000000E+00
  0.00000000E+00  0.00000000E+00  0.00000000E+00
  0.00000000E+00  0.00000000E+00  0.00000000E+00
  0.00000000E+00  0.00000000E+00  0.00000000E+00
  0.00000000E+00  0.00000000E+00  0.00000000E+00
  0.00000000E+00  0.00000000E+00  0.00000000E+00
  0.00000000E+00  0.00000000E+00  0.00000000E+00
  0.00000000E+00  0.00000000E+00  0.00000000E+00
  0.00000000E+00  0.00000000E+00  0.00000000E+00
  0.00000000E+00  0.00000000E+00  0.00000000E+00
  0.00000000E+00  0.00000000E+00  0.00000000E+00
  0.00000000E+00  0.00000000E+00  0.00000000E+00
  0.00000000E+00  0.00000000E+00  0.00000000E+00
  0.00000000E+00  0.00000000E+00  0.00000000E+00
  0.00000000E+00  0.00000000E+00  0.00000000E+00
  0.00000000E+00  0.00000000E+00  0.00000000E+00
  0.00000000E+00  0.00000000E+00  0.00000000E+00
  0.00000000E+00  0.00000000E+00  0.00000000E+00
  0.00000000E+00  0.00000000E+00  0.00000000E+00
  0.00000000E+00  0.00000000E+00  0.00000000E+00
  0.00000000E+00  0.00000000E+00  0.00000000E+00
  0.00000000E+00  0.00000000E+00  0.00000000E+00
  0.00000000E+00  0.00000000E+00  0.00000000E+00
  0.00000000E+00  0.00000000E+00  0.00000000E+00
  0.00000000E+00  0.00000000E+00  0.00000000E+00
  0.00000000E+00  0.00000000E+00  0.00000000E+00
  0.00000000E+00  0.00000000E+00  0.00000000E+00
  0.00000000E+00  0.00000000E+00  0.00000000E+00
  0.00000000E+00  0.00000000E+00  0.00000000E+00
  0.00000000E+00  0.00000000E+00  0.00000000E+00
  0.00000000E+00  0.00000000E+00  0.00000000E+00
  0.00000000E+00  0.00000000E+00  0.00000000E+00
  0.00000000E+00  0.00000000E+00  0.00000000E+00
  0.00000000E+00  0.00000000E+00  0.00000000E+00
  0.00000000E+00  0.00000000E+00  0.00000000E+00
  0.00000000E+00  0.00000000E+00  0.00000000E+00
  0.00000000E+00  0.00000000E+00  0.00000000E+00
  0.00000000E+00  0.00000000E+00  0.00000000E+00
  0.00000000E+00  0.00000000E+00  0.00000000E+00
  0.00000000E+00  0.00000000E+00  0.00000000E+00
  0.00000000E+00  0.00000000E+00  0.00000000E+00
  0.00000000E+00  0.00000000E+00  0.00000000E+00
  0.00000000E+00  0.00000000E+00  0.00000000E+00
  0.00000000E+00  0.00000000E+00  0.00000000E+00
  0.00000000E+00  0.00000000E+00  0.00000000E+00
  0.00000000E+00  0.00000000E+00  0.00000000E+00
