B Mg Mn O                               
   1.00000000000000     
     8.4141216974800006    0.0000000000000000    0.0000000000000000
     0.0000000000000000    8.4141216974800006    0.0000000000000000
     0.0000000000000000    0.0000000000000000   23.4141216974799988
   B    Mg   Mn   O 
     1    31     1    32
Selective dynamics
Direct
  0.2500000000000000  0.1954725829770191  0.2586096086893069   T   T   T
  0.2500000000000000  0.9985464690202225  0.0040088492288339   T   T   T
  0.2500000000000000  0.5001960285714465  0.0048166301853308   T   T   T
  0.7500000000000000  0.9991278886951203  0.0049252396433926   T   T   T
  0.7500000000000000  0.5003819805227984  0.0058100964642469   T   T   T
  0.9991934940532122  0.2502026956377003  0.0047353101287779   T   T   T
  0.9994148118631437  0.7490859162499858  0.0054389326644516   T   T   T
  0.5008065059467878  0.2502026956377003  0.0047353101287779   T   T   T
  0.5005851881368563  0.7490859162499858  0.0054389326644516   T   T   T
 -0.0011874971499807 -0.0006441284203044  0.0943408508055239   T   T   T
  0.0001293780971438  0.4998961367817019  0.0960841185831992   T   T   T
  0.5011874971499806 -0.0006441284203044  0.0943408508055239   T   T   T
  0.4998706219028560  0.4998961367817019  0.0960841185831992   T   T   T
  0.2500000000000000  0.2500688180463341  0.0903928177844483   T   T   T
  0.2500000000000000  0.7470301179598495  0.0945346542217585   T   T   T
  0.7500000000000000  0.2509369296874666  0.0948441229576136   T   T   T
  0.7500000000000000  0.7486498239800877  0.0952718885572028   T   T   T
  0.2500000000000000  0.9918991277886839  0.1803141865607550   T   T   T
  0.2500000000000000  0.5042849154464945  0.1896215439897967   T   T   T
  0.7500000000000000  0.9993965605115767  0.1845119075102352   T   T   T
  0.7500000000000000  0.5009513114155582  0.1873825200174986   T   T   T
  0.9936536435849989  0.2506210653838482  0.1865313040436955   T   T   T
  0.9995019400726253  0.7495941891124817  0.1870680082133842   T   T   T
  0.5063463564150011  0.2506210653838482  0.1865313040436955   T   T   T
  0.5004980599273747  0.7495941891124817  0.1870680082133842   T   T   T
 -0.0082021004778670  0.0062570646169454  0.2745875575795600   T   T   T
  0.0202026732092614  0.4868327290342897  0.2799881134945356   T   T   T
  0.5082021004778667  0.0062570646169454  0.2745875575795600   T   T   T
  0.4797973267907386  0.4868327290342897  0.2799881134945356   T   T   T
  0.2500000000000000  0.7555907022134255  0.2751179025383524   T   T   T
  0.7500000000000000  0.2454655400253913  0.2762489606208955   T   T   T
  0.7500000000000000  0.7572898393115589  0.2770655236913031   T   T   T
  0.7499998486940029  0.5046610840587290  0.3691324746167531   T   T   T
  0.0000063566403202 -0.0000290215601502  0.0025207138777965   T   T   T
  0.0004629356822772  0.4993102330914501  0.0032801679317317   T   T   T
  0.4999936433596796 -0.0000290215601502  0.0025207138777965   T   T   T
  0.4995370643177230  0.4993102330914501  0.0032801679317317   T   T   T
  0.2500000000000000  0.2501298235868549  0.0014586334173225   T   T   T
  0.2500000000000000  0.7486925805654548  0.0031937886777924   T   T   T
  0.7500000000000000  0.2500855488759638  0.0034119667948168   T   T   T
  0.7500000000000000  0.7494187036483413  0.0029244333018540   T   T   T
  0.2500000000000000  0.0026588964768424  0.0935900572377579   T   T   T
  0.2500000000000000  0.4952721105333387  0.0967147286659637   T   T   T
  0.7500000000000000 -0.0000564681773656  0.0942436589972564   T   T   T
  0.7500000000000000  0.4996881813139381  0.0952799433344662   T   T   T
  0.0040454876357729  0.2501088232588944  0.0955424938529474   T   T   T
  0.0003243454052567  0.7490951977783481  0.0948652490236073   T   T   T
  0.4959545123642269  0.2501088232588944  0.0955424938529474   T   T   T
  0.4996756545947433  0.7490951977783481  0.0948652490236073   T   T   T
  0.0005752603529995  0.0007681482532804  0.1830884671757282   T   T   T
  0.0009568495506778  0.4989891026275045  0.1862427053058931   T   T   T
  0.4994247396470004  0.0007681482532804  0.1830884671757282   T   T   T
  0.4990431504493223  0.4989891026275045  0.1862427053058931   T   T   T
  0.2500000000000000  0.2403779456132548  0.1979831004357478   T   T   T
  0.2500000000000000  0.7534109244129108  0.1835917376527470   T   T   T
  0.7500000000000000  0.2518969168064394  0.1834475240884673   T   T   T
  0.7500000000000000  0.7482526261160778  0.1855276518672746   T   T   T
  0.2499999495650016  0.0294577470656289  0.2697070569557025   T   T   T
  0.2499999495650016  0.5255066814158605  0.2762102652315606   T   T   T
  0.7499999495650016  0.0000124869186296  0.2746588554811299   T   T   T
  0.7499998486940029  0.5044928253411803  0.2818384715837022   T   T   T
  0.9892955926811912  0.2456563722520839  0.2736994384457324   T   T   T
  0.0044965624064322  0.7646529025058838  0.2764087529297862   T   T   T
  0.5107044073188088  0.2456563722520839  0.2736994384457324   T   T   T
  0.4955034375935676  0.7646529025058838  0.2764087529297862   T   T   T
 
  0.00000000E+00  0.00000000E+00  0.00000000E+00
  0.00000000E+00  0.00000000E+00  0.00000000E+00
  0.00000000E+00  0.00000000E+00  0.00000000E+00
  0.00000000E+00  0.00000000E+00  0.00000000E+00
  0.00000000E+00  0.00000000E+00  0.00000000E+00
  0.00000000E+00  0.00000000E+00  0.00000000E+00
  0.00000000E+00  0.00000000E+00  0.00000000E+00
  0.00000000E+00  0.00000000E+00  0.00000000E+00
  0.00000000E+00  0.00000000E+00  0.00000000E+00
  0.00000000E+00  0.00000000E+00  0.00000000E+00
  0.00000000E+00  0.00000000E+00  0.00000000E+00
  0.00000000E+00  0.00000000E+00  0.00000000E+00
  0.00000000E+00  0.00000000E+00  0.00000000E+00
  0.00000000E+00  0.00000000E+00  0.00000000E+00
  0.00000000E+00  0.00000000E+00  0.00000000E+00
  0.00000000E+00  0.00000000E+00  0.00000000E+00
  0.00000000E+00  0.00000000E+00  0.00000000E+00
  0.00000000E+00  0.00000000E+00  0.00000000E+00
  0.00000000E+00  0.00000000E+00  0.00000000E+00
  0.00000000E+00  0.00000000E+00  0.00000000E+00
  0.00000000E+00  0.00000000E+00  0.00000000E+00
  0.00000000E+00  0.00000000E+00  0.00000000E+00
  0.00000000E+00  0.00000000E+00  0.00000000E+00
  0.00000000E+00  0.00000000E+00  0.00000000E+00
  0.00000000E+00  0.00000000E+00  0.00000000E+00
  0.00000000E+00  0.00000000E+00  0.00000000E+00
  0.00000000E+00  0.00000000E+00  0.00000000E+00
  0.00000000E+00  0.00000000E+00  0.00000000E+00
  0.00000000E+00  0.00000000E+00  0.00000000E+00
  0.00000000E+00  0.00000000E+00  0.00000000E+00
  0.00000000E+00  0.00000000E+00  0.00000000E+00
  0.00000000E+00  0.00000000E+00  0.00000000E+00
  0.00000000E+00  0.00000000E+00  0.00000000E+00
  0.00000000E+00  0.00000000E+00  0.00000000E+00
  0.00000000E+00  0.00000000E+00  0.00000000E+00
  0.00000000E+00  0.00000000E+00  0.00000000E+00
  0.00000000E+00  0.00000000E+00  0.00000000E+00
  0.00000000E+00  0.00000000E+00  0.00000000E+00
  0.00000000E+00  0.00000000E+00  0.00000000E+00
  0.00000000E+00  0.00000000E+00  0.00000000E+00
  0.00000000E+00  0.00000000E+00  0.00000000E+00
  0.00000000E+00  0.00000000E+00  0.00000000E+00
  0.00000000E+00  0.00000000E+00  0.00000000E+00
  0.00000000E+00  0.00000000E+00  0.00000000E+00
  0.00000000E+00  0.00000000E+00  0.00000000E+00
  0.00000000E+00  0.00000000E+00  0.00000000E+00
  0.00000000E+00  0.00000000E+00  0.00000000E+00
  0.00000000E+00  0.00000000E+00  0.00000000E+00
  0.00000000E+00  0.00000000E+00  0.00000000E+00
  0.00000000E+00  0.00000000E+00  0.00000000E+00
  0.00000000E+00  0.00000000E+00  0.00000000E+00
  0.00000000E+00  0.00000000E+00  0.00000000E+00
  0.00000000E+00  0.00000000E+00  0.00000000E+00
  0.00000000E+00  0.00000000E+00  0.00000000E+00
  0.00000000E+00  0.00000000E+00  0.00000000E+00
  0.00000000E+00  0.00000000E+00  0.00000000E+00
  0.00000000E+00  0.00000000E+00  0.00000000E+00
  0.00000000E+00  0.00000000E+00  0.00000000E+00
  0.00000000E+00  0.00000000E+00  0.00000000E+00
  0.00000000E+00  0.00000000E+00  0.00000000E+00
  0.00000000E+00  0.00000000E+00  0.00000000E+00
  0.00000000E+00  0.00000000E+00  0.00000000E+00
  0.00000000E+00  0.00000000E+00  0.00000000E+00
  0.00000000E+00  0.00000000E+00  0.00000000E+00
  0.00000000E+00  0.00000000E+00  0.00000000E+00
