B Mg O Rh                               
   1.00000000000000     
     8.4141216974800006    0.0000000000000000    0.0000000000000000
     0.0000000000000000    8.4141216974800006    0.0000000000000000
     0.0000000000000000    0.0000000000000000   23.4141216974799988
   B    Mg   O    Rh
     1    31    32     1
Selective dynamics
Direct
  0.2500000000000000  0.2539166672725763  0.2532939238619819   T   T   T
  0.2500000000000000  0.0001154953138719  0.0055361967661973   T   T   T
  0.2500000000000000  0.5005652285097866  0.0053618562593074   T   T   T
  0.7500000000000000  0.0003544035792001  0.0060953057339394   T   T   T
  0.7500000000000000  0.5004045318103280  0.0059633975747954   T   T   T
  0.9993380606722869  0.2501774667955874  0.0054883771530111   T   T   T
 -0.0004966527681192  0.7505501555818082  0.0058682995106298   T   T   T
  0.5006619393277131  0.2501774667955874  0.0054883771530111   T   T   T
  0.5004966527681191  0.7505501555818082  0.0058682995106298   T   T   T
 -0.0004537291631626  0.0000929478457060  0.0957353593879444   T   T   T
 -0.0000528955976690  0.5010512103956023  0.0954950112682317   T   T   T
  0.5004537291631628  0.0000929478457060  0.0957353593879444   T   T   T
  0.5000528955976692  0.5010512103956023  0.0954950112682317   T   T   T
  0.2500000000000000  0.2506543232317839  0.0931565574408545   T   T   T
  0.2500000000000000  0.7503788026574786  0.0947167221935152   T   T   T
  0.7500000000000000  0.2502048285185151  0.0954143025657055   T   T   T
  0.7500000000000000  0.7512552364840098  0.0957405922721952   T   T   T
  0.2500000000000000  0.9915007412673111  0.1857648640630426   T   T   T
  0.2500000000000000  0.5094814124532605  0.1856543526094424   T   T   T
  0.7500000000000000  0.0008646608134345  0.1877530404506655   T   T   T
  0.7500000000000000  0.5015714226803283  0.1859914946980155   T   T   T
 -0.0012614702284491  0.2523343651951890  0.1851449907747700   T   T   T
  0.9975644976724268  0.7488312238319458  0.1867745154088343   T   T   T
  0.5012614702284490  0.2523343651951889  0.1851449907747700   T   T   T
  0.5024355023275732  0.7488312238319458  0.1867745154088343   T   T   T
  0.0161185371422026 -0.0029914816877887  0.2761080002472079   T   T   T
  0.0140320210217242  0.5028862813146580  0.2817249764144933   T   T   T
  0.4838814628577976 -0.0029914816877887  0.2761080002472079   T   T   T
  0.4859679789782758  0.5028862813146580  0.2817249764144933   T   T   T
  0.2500000000000000  0.7483528270102519  0.2741593079269271   T   T   T
  0.7500000000000000  0.2470863708608571  0.2826730109829165   T   T   T
  0.7500000000000000  0.7535384979453765  0.2787657941927539   T   T   T
 -0.0000143407092717  0.0007444163912487  0.0036698602514261   T   T   T
 -0.0000305943468423  0.5000035955361826  0.0034940104282989   T   T   T
  0.5000143407092715  0.0007444163912487  0.0036698602514261   T   T   T
  0.5000305943468423  0.5000035955361826  0.0034940104282989   T   T   T
  0.2500000000000000  0.2502628091791074  0.0028789769625142   T   T   T
  0.2500000000000000  0.7504336934043682  0.0035579813518292   T   T   T
  0.7500000000000000  0.2503042882287158  0.0038028963638837   T   T   T
  0.7500000000000000  0.7505019465016961  0.0036502145654432   T   T   T
  0.2500000000000000  0.0035641358887718  0.0957434217400494   T   T   T
  0.2500000000000000  0.4976123382931146  0.0952581429517210   T   T   T
  0.7500000000000000  0.0024839433060996  0.0958709167434244   T   T   T
  0.7500000000000000  0.4988661420620554  0.0956233224966193   T   T   T
  0.0007582679935287  0.2504784866622307  0.0958816078570876   T   T   T
 -0.0005242044160516  0.7506707866085237  0.0951780636426964   T   T   T
  0.4992417320064713  0.2504784866622307  0.0958816078570876   T   T   T
  0.5005242044160516  0.7506707866085237  0.0951780636426964   T   T   T
 -0.0002996975025420  0.0039601142243601  0.1854451504550736   T   T   T
 -0.0000671900474794  0.4979195612838713  0.1851310085064399   T   T   T
  0.5002996975025419  0.0039601142243601  0.1854451504550736   T   T   T
  0.5000671900474795  0.4979195612838713  0.1851310085064399   T   T   T
  0.2500000000000000  0.2526116693734143  0.1887995427132942   T   T   T
  0.2500000000000000  0.7503509477971524  0.1819900943935209   T   T   T
  0.7500000000000000  0.2503151960005399  0.1899210298060835   T   T   T
  0.7500000000000000  0.7521560329462151  0.1852849629674285   T   T   T
  0.2499999495650016 -0.0233633420004945  0.2729640977330818   T   T   T
  0.2499999495650016  0.5181726989572987  0.2728477660420918   T   T   T
  0.7499999495650016  0.0113366005972566  0.2785397288472538   T   T   T
  0.7499998486940029  0.4987230395773788  0.2715515912480064   T   T   T
  0.0882724559328729  0.2478473287930312  0.2725120059507573   T   T   T
 -0.0044376710310589  0.7526589543282795  0.2759174059501701   T   T   T
  0.4117275440671272  0.2478473287930312  0.2725120059507573   T   T   T
  0.5044376710310590  0.7526589543282795  0.2759174059501701   T   T   T
  0.7499998486940029  0.4610336872310675  0.3560434029873368   T   T   T
 
  0.00000000E+00  0.00000000E+00  0.00000000E+00
  0.00000000E+00  0.00000000E+00  0.00000000E+00
  0.00000000E+00  0.00000000E+00  0.00000000E+00
  0.00000000E+00  0.00000000E+00  0.00000000E+00
  0.00000000E+00  0.00000000E+00  0.00000000E+00
  0.00000000E+00  0.00000000E+00  0.00000000E+00
  0.00000000E+00  0.00000000E+00  0.00000000E+00
  0.00000000E+00  0.00000000E+00  0.00000000E+00
  0.00000000E+00  0.00000000E+00  0.00000000E+00
  0.00000000E+00  0.00000000E+00  0.00000000E+00
  0.00000000E+00  0.00000000E+00  0.00000000E+00
  0.00000000E+00  0.00000000E+00  0.00000000E+00
  0.00000000E+00  0.00000000E+00  0.00000000E+00
  0.00000000E+00  0.00000000E+00  0.00000000E+00
  0.00000000E+00  0.00000000E+00  0.00000000E+00
  0.00000000E+00  0.00000000E+00  0.00000000E+00
  0.00000000E+00  0.00000000E+00  0.00000000E+00
  0.00000000E+00  0.00000000E+00  0.00000000E+00
  0.00000000E+00  0.00000000E+00  0.00000000E+00
  0.00000000E+00  0.00000000E+00  0.00000000E+00
  0.00000000E+00  0.00000000E+00  0.00000000E+00
  0.00000000E+00  0.00000000E+00  0.00000000E+00
  0.00000000E+00  0.00000000E+00  0.00000000E+00
  0.00000000E+00  0.00000000E+00  0.00000000E+00
  0.00000000E+00  0.00000000E+00  0.00000000E+00
  0.00000000E+00  0.00000000E+00  0.00000000E+00
  0.00000000E+00  0.00000000E+00  0.00000000E+00
  0.00000000E+00  0.00000000E+00  0.00000000E+00
  0.00000000E+00  0.00000000E+00  0.00000000E+00
  0.00000000E+00  0.00000000E+00  0.00000000E+00
  0.00000000E+00  0.00000000E+00  0.00000000E+00
  0.00000000E+00  0.00000000E+00  0.00000000E+00
  0.00000000E+00  0.00000000E+00  0.00000000E+00
  0.00000000E+00  0.00000000E+00  0.00000000E+00
  0.00000000E+00  0.00000000E+00  0.00000000E+00
  0.00000000E+00  0.00000000E+00  0.00000000E+00
  0.00000000E+00  0.00000000E+00  0.00000000E+00
  0.00000000E+00  0.00000000E+00  0.00000000E+00
  0.00000000E+00  0.00000000E+00  0.00000000E+00
  0.00000000E+00  0.00000000E+00  0.00000000E+00
  0.00000000E+00  0.00000000E+00  0.00000000E+00
  0.00000000E+00  0.00000000E+00  0.00000000E+00
  0.00000000E+00  0.00000000E+00  0.00000000E+00
  0.00000000E+00  0.00000000E+00  0.00000000E+00
  0.00000000E+00  0.00000000E+00  0.00000000E+00
  0.00000000E+00  0.00000000E+00  0.00000000E+00
  0.00000000E+00  0.00000000E+00  0.00000000E+00
  0.00000000E+00  0.00000000E+00  0.00000000E+00
  0.00000000E+00  0.00000000E+00  0.00000000E+00
  0.00000000E+00  0.00000000E+00  0.00000000E+00
  0.00000000E+00  0.00000000E+00  0.00000000E+00
  0.00000000E+00  0.00000000E+00  0.00000000E+00
  0.00000000E+00  0.00000000E+00  0.00000000E+00
  0.00000000E+00  0.00000000E+00  0.00000000E+00
  0.00000000E+00  0.00000000E+00  0.00000000E+00
  0.00000000E+00  0.00000000E+00  0.00000000E+00
  0.00000000E+00  0.00000000E+00  0.00000000E+00
  0.00000000E+00  0.00000000E+00  0.00000000E+00
  0.00000000E+00  0.00000000E+00  0.00000000E+00
  0.00000000E+00  0.00000000E+00  0.00000000E+00
  0.00000000E+00  0.00000000E+00  0.00000000E+00
  0.00000000E+00  0.00000000E+00  0.00000000E+00
  0.00000000E+00  0.00000000E+00  0.00000000E+00
  0.00000000E+00  0.00000000E+00  0.00000000E+00
  0.00000000E+00  0.00000000E+00  0.00000000E+00
