B Mg O Cr                               
   1.00000000000000     
     8.4141216974800006    0.0000000000000000    0.0000000000000000
     0.0000000000000000    8.4141216974800006    0.0000000000000000
     0.0000000000000000    0.0000000000000000   23.4141216974799988
   B    Mg   O    Cr
     1    31    32     1
Selective dynamics
Direct
  0.2500000000000000  0.1931340156995987  0.2583243209988986   T   T   T
  0.2500000000000000  0.9989276951128344  0.0045364505032231   T   T   T
  0.2500000000000000  0.4991334162818730  0.0055661500588776   T   T   T
  0.7500000000000000 -0.0002472125147506  0.0053471076444286   T   T   T
  0.7500000000000000  0.4997521116385691  0.0063018978555248   T   T   T
  0.9992997113471739  0.2502245374109520  0.0054463475213609   T   T   T
  0.9993609281531075  0.7488744729507075  0.0055694872882841   T   T   T
  0.5007002886528261  0.2502245374109520  0.0054463475213609   T   T   T
  0.5006390718468925  0.7488744729507075  0.0055694872882841   T   T   T
  0.9980134020046280  0.9995164882140491  0.0943192065697989   T   T   T
  0.0001598727454803  0.5001243553382336  0.0960752231380419   T   T   T
  0.5019865979953720  0.9995164882140491  0.0943192065697989   T   T   T
  0.4998401272545197  0.5001243553382336  0.0960752231380419   T   T   T
  0.2500000000000000  0.2497442850475963  0.0936148361992737   T   T   T
  0.2500000000000000  0.7469955358250502  0.0943451633070859   T   T   T
  0.7500000000000000  0.2510808465640859  0.0956055510288292   T   T   T
  0.7500000000000000  0.7494459082768973  0.0957446610382431   T   T   T
  0.2500000000000000  0.9931796768418406  0.1791524853789878   T   T   T
  0.2500000000000000  0.5029753111543328  0.1890865537857674   T   T   T
  0.7500000000000000  0.0027201657676945  0.1857759635212553   T   T   T
  0.7500000000000000  0.5003787187797699  0.1881160456008705   T   T   T
  0.0028862819897790  0.2517924575873891  0.1853457278252611   T   T   T
  0.9981842969718052  0.7497734673789502  0.1863349411612604   T   T   T
  0.4971137180102210  0.2517924575873891  0.1853457278252611   T   T   T
  0.5018157030281948  0.7497734673789502  0.1863349411612604   T   T   T
 -0.0005031305013564  0.0037020765867187  0.2740383656656549   T   T   T
  0.0217711146666985  0.5020828577015051  0.2804034555284147   T   T   T
  0.5005031305013564  0.0037020765867187  0.2740383656656549   T   T   T
  0.4782288853333015  0.5020828577015051  0.2804034555284147   T   T   T
  0.2500000000000000  0.7641213441789885  0.2731445959466220   T   T   T
  0.7500000000000000  0.2553925454919465  0.2836094155453772   T   T   T
  0.7500000000000000  0.7524611569798362  0.2776857622150685   T   T   T
  0.9995397664821852  0.9997356621927156  0.0028034984533378   T   T   T
 -0.0001094020537122  0.4993622467284350  0.0037159600285554   T   T   T
  0.5004602335178148  0.9997356621927156  0.0028034984533378   T   T   T
  0.5001094020537119  0.4993622467284350  0.0037159600285554   T   T   T
  0.2500000000000000  0.2497667400406099  0.0027864583729972   T   T   T
  0.2500000000000000  0.7484046334048902  0.0030704161419867   T   T   T
  0.7500000000000000  0.2501872547660061  0.0036751164860527   T   T   T
  0.7500000000000000  0.7493214162060401  0.0035667838131418   T   T   T
  0.2500000000000000  0.0001379489056351  0.0929846866132809   T   T   T
  0.2500000000000000  0.4971403001425685  0.0961926632459596   T   T   T
  0.7500000000000000  0.0014521108341387  0.0950545512821978   T   T   T
  0.7500000000000000  0.4991087588511073  0.0963641304831437   T   T   T
  0.0001670264895026  0.2502433152688243  0.0955932500462516   T   T   T
  0.9995024458029519  0.7494075272594352  0.0951677383775825   T   T   T
  0.4998329735104974  0.2502433152688243  0.0955932500462516   T   T   T
  0.5004975541970481  0.7494075272594352  0.0951677383775825   T   T   T
  0.9979228262588533  0.0023220065579745  0.1838947431100489   T   T   T
  0.0014437393578189  0.4985711381435620  0.1866674860164533   T   T   T
  0.5020771737411467  0.0023220065579745  0.1838947431100489   T   T   T
  0.4985562606421811  0.4985711381435620  0.1866674860164533   T   T   T
  0.2500000000000000  0.2383836653658223  0.1865202027403574   T   T   T
  0.2500000000000000  0.7541654670194350  0.1827567639698249   T   T   T
  0.7500000000000000  0.2519491476754002  0.1896382957642140   T   T   T
  0.7500000000000000  0.7513938024011050  0.1859367357675654   T   T   T
  0.2499999495650016  0.0130224872659897  0.2669408744041464   T   T   T
  0.2499999495650016  0.5362506898043623  0.2757466189778353   T   T   T
  0.7499999495650016  0.0155483318915863  0.2768352491551750   T   T   T
  0.7499998486940029  0.4986367328210340  0.2767935872670591   T   T   T
  0.0845052743777086  0.2434116668127802  0.2732019703018664   T   T   T
 -0.0012724131318659  0.7635054732643690  0.2764313891599368   T   T   T
  0.4154947256222916  0.2434116668127802  0.2732019703018664   T   T   T
  0.5012725789368641  0.7635058827083677  0.2764313898379367   T   T   T
  0.7499998486940029  0.4683791911919044  0.3787310545984864   T   T   T
 
  0.00000000E+00  0.00000000E+00  0.00000000E+00
  0.00000000E+00  0.00000000E+00  0.00000000E+00
  0.00000000E+00  0.00000000E+00  0.00000000E+00
  0.00000000E+00  0.00000000E+00  0.00000000E+00
  0.00000000E+00  0.00000000E+00  0.00000000E+00
  0.00000000E+00  0.00000000E+00  0.00000000E+00
  0.00000000E+00  0.00000000E+00  0.00000000E+00
  0.00000000E+00  0.00000000E+00  0.00000000E+00
  0.00000000E+00  0.00000000E+00  0.00000000E+00
  0.00000000E+00  0.00000000E+00  0.00000000E+00
  0.00000000E+00  0.00000000E+00  0.00000000E+00
  0.00000000E+00  0.00000000E+00  0.00000000E+00
  0.00000000E+00  0.00000000E+00  0.00000000E+00
  0.00000000E+00  0.00000000E+00  0.00000000E+00
  0.00000000E+00  0.00000000E+00  0.00000000E+00
  0.00000000E+00  0.00000000E+00  0.00000000E+00
  0.00000000E+00  0.00000000E+00  0.00000000E+00
  0.00000000E+00  0.00000000E+00  0.00000000E+00
  0.00000000E+00  0.00000000E+00  0.00000000E+00
  0.00000000E+00  0.00000000E+00  0.00000000E+00
  0.00000000E+00  0.00000000E+00  0.00000000E+00
  0.00000000E+00  0.00000000E+00  0.00000000E+00
  0.00000000E+00  0.00000000E+00  0.00000000E+00
  0.00000000E+00  0.00000000E+00  0.00000000E+00
  0.00000000E+00  0.00000000E+00  0.00000000E+00
  0.00000000E+00  0.00000000E+00  0.00000000E+00
  0.00000000E+00  0.00000000E+00  0.00000000E+00
  0.00000000E+00  0.00000000E+00  0.00000000E+00
  0.00000000E+00  0.00000000E+00  0.00000000E+00
  0.00000000E+00  0.00000000E+00  0.00000000E+00
  0.00000000E+00  0.00000000E+00  0.00000000E+00
  0.00000000E+00  0.00000000E+00  0.00000000E+00
  0.00000000E+00  0.00000000E+00  0.00000000E+00
  0.00000000E+00  0.00000000E+00  0.00000000E+00
  0.00000000E+00  0.00000000E+00  0.00000000E+00
  0.00000000E+00  0.00000000E+00  0.00000000E+00
  0.00000000E+00  0.00000000E+00  0.00000000E+00
  0.00000000E+00  0.00000000E+00  0.00000000E+00
  0.00000000E+00  0.00000000E+00  0.00000000E+00
  0.00000000E+00  0.00000000E+00  0.00000000E+00
  0.00000000E+00  0.00000000E+00  0.00000000E+00
  0.00000000E+00  0.00000000E+00  0.00000000E+00
  0.00000000E+00  0.00000000E+00  0.00000000E+00
  0.00000000E+00  0.00000000E+00  0.00000000E+00
  0.00000000E+00  0.00000000E+00  0.00000000E+00
  0.00000000E+00  0.00000000E+00  0.00000000E+00
  0.00000000E+00  0.00000000E+00  0.00000000E+00
  0.00000000E+00  0.00000000E+00  0.00000000E+00
  0.00000000E+00  0.00000000E+00  0.00000000E+00
  0.00000000E+00  0.00000000E+00  0.00000000E+00
  0.00000000E+00  0.00000000E+00  0.00000000E+00
  0.00000000E+00  0.00000000E+00  0.00000000E+00
  0.00000000E+00  0.00000000E+00  0.00000000E+00
  0.00000000E+00  0.00000000E+00  0.00000000E+00
  0.00000000E+00  0.00000000E+00  0.00000000E+00
  0.00000000E+00  0.00000000E+00  0.00000000E+00
  0.00000000E+00  0.00000000E+00  0.00000000E+00
  0.00000000E+00  0.00000000E+00  0.00000000E+00
  0.00000000E+00  0.00000000E+00  0.00000000E+00
  0.00000000E+00  0.00000000E+00  0.00000000E+00
  0.00000000E+00  0.00000000E+00  0.00000000E+00
  0.00000000E+00  0.00000000E+00  0.00000000E+00
  0.00000000E+00  0.00000000E+00  0.00000000E+00
  0.00000000E+00  0.00000000E+00  0.00000000E+00
  0.00000000E+00  0.00000000E+00  0.00000000E+00
