B Mg O Ru                               
   1.00000000000000     
     8.4141216974800006    0.0000000000000000    0.0000000000000000
     0.0000000000000000    8.4141216974800006    0.0000000000000000
     0.0000000000000000    0.0000000000000000   23.4141216974799988
   B    Mg   O    Ru
     1    31    32     1
Selective dynamics
Direct
  0.2500000000000000  0.1920803675796236  0.2582421361701421   T   T   T
  0.2500000000000000  0.9991506318739956  0.0046880253620789   T   T   T
  0.2500000000000000  0.4992199699212691  0.0057304012168819   T   T   T
  0.7500000000000000  0.0000180356381577  0.0053501909569876   T   T   T
  0.7500000000000000  0.4998446362173776  0.0064190147096296   T   T   T
  0.9993843246905533  0.2504268960198868  0.0056456588431476   T   T   T
 -0.0005636508161614  0.7489220260253479  0.0058326133474330   T   T   T
  0.5006156753094467  0.2504268960198868  0.0056456588431476   T   T   T
  0.5005636508161613  0.7489220260253479  0.0058326133474330   T   T   T
 -0.0017752527167289  0.9993008357743953  0.0945027286924867   T   T   T
  0.0007038105792046  0.5000495297982531  0.0963033621972726   T   T   T
  0.5017752527167287  0.9993008357743953  0.0945027286924867   T   T   T
  0.4992961894207953  0.5000495297982531  0.0963033621972726   T   T   T
  0.2500000000000000  0.2495792313670613  0.0938679948381130   T   T   T
  0.2500000000000000  0.7468180885788852  0.0945495280423723   T   T   T
  0.7500000000000000  0.2506248056888396  0.0955671984175281   T   T   T
  0.7500000000000000  0.7496978494705449  0.0958177885382747   T   T   T
  0.2500000000000000  0.9923615616863516  0.1791137803922675   T   T   T
  0.2500000000000000  0.5028651960399335  0.1897258403432514   T   T   T
  0.7500000000000000  0.0017188546072019  0.1856051082979500   T   T   T
  0.7500000000000000  0.5011640481761173  0.1870505626348343   T   T   T
  0.0031634095668051  0.2520520418741637  0.1856392238425661   T   T   T
  0.9978992219410118  0.7485380079104750  0.1871005303006494   T   T   T
  0.4968365904331951  0.2520520418741637  0.1856392238425661   T   T   T
  0.5021007780589882  0.7485380079104750  0.1871005303006494   T   T   T
  0.0011923893070881  0.0033900607385574  0.2736923144553998   T   T   T
  0.0246593089569218  0.4976426276264848  0.2835245555542970   T   T   T
  0.4988076106929117  0.0033900607385574  0.2736923144553998   T   T   T
  0.4753406910430784  0.4976426276264848  0.2835245555542970   T   T   T
  0.2500000000000000  0.7634216022332917  0.2731764604687876   T   T   T
  0.7500000000000000  0.2498780163206400  0.2832428157502994   T   T   T
  0.7500000000000000  0.7585648898693533  0.2788539628954303   T   T   T
 -0.0004166701956643 -0.0001119779248637  0.0030169866484149   T   T   T
 -0.0000741150746988  0.4994628837206595  0.0039714970205020   T   T   T
  0.5004166701956639 -0.0001119779248637  0.0030169866484149   T   T   T
  0.5000741150746986  0.4994628837206595  0.0039714970205020   T   T   T
  0.2500000000000000  0.2499507502607861  0.0030319723291326   T   T   T
  0.2500000000000000  0.7484777655654075  0.0032667792719845   T   T   T
  0.7500000000000000  0.2504199993936779  0.0037875169619827   T   T   T
  0.7500000000000000  0.7494051226004359  0.0038263247512091   T   T   T
  0.2500000000000000  0.0001140770804835  0.0931082966043034   T   T   T
  0.2500000000000000  0.4968463272642654  0.0963956728642220   T   T   T
  0.7500000000000000  0.0017994786969402  0.0950749465289956   T   T   T
  0.7500000000000000  0.4986276753539813  0.0965006737183349   T   T   T
 -0.0000258439006096  0.2501966571051550  0.0958125413531770   T   T   T
 -0.0005427187204253  0.7491796711727010  0.0953700987934285   T   T   T
  0.5000258439006094  0.2501966571051550  0.0958125413531770   T   T   T
  0.5005427187204254  0.7491796711727010  0.0953700987934285   T   T   T
 -0.0022823406698714  0.0026504957834699  0.1838717404491507   T   T   T
  0.0009824273914638  0.4977431081419352  0.1869873254345656   T   T   T
  0.5022823406698710  0.0026504957834699  0.1838717404491508   T   T   T
  0.4990175726085364  0.4977431081419352  0.1869873254345656   T   T   T
  0.2500000000000000  0.2380742552310856  0.1867354059260620   T   T   T
  0.2500000000000000  0.7531606379192345  0.1828343016361557   T   T   T
  0.7500000000000000  0.2519806360891038  0.1906936939980274   T   T   T
  0.7500000000000000  0.7518609666276264  0.1857136847900316   T   T   T
  0.2499999495650016  0.0120813673360093  0.2666817284697930   T   T   T
  0.2499999495650016  0.5354330833284791  0.2764109659811253   T   T   T
  0.7499999495650016  0.0129230149227971  0.2772039035863588   T   T   T
  0.7499998486940029  0.5105232128731836  0.2732577883825745   T   T   T
  0.0852922234514925  0.2419648626556094  0.2734946287280656   T   T   T
  0.0005972076522175  0.7652714210408605  0.2764809627853999   T   T   T
  0.4147077765485074  0.2419648626556094  0.2734946287280656   T   T   T
  0.4994027923477825  0.7652714210408605  0.2764809627853999   T   T   T
  0.7499998486940029  0.4679976532146751  0.3554880941929462   T   T   T
 
  0.00000000E+00  0.00000000E+00  0.00000000E+00
  0.00000000E+00  0.00000000E+00  0.00000000E+00
  0.00000000E+00  0.00000000E+00  0.00000000E+00
  0.00000000E+00  0.00000000E+00  0.00000000E+00
  0.00000000E+00  0.00000000E+00  0.00000000E+00
  0.00000000E+00  0.00000000E+00  0.00000000E+00
  0.00000000E+00  0.00000000E+00  0.00000000E+00
  0.00000000E+00  0.00000000E+00  0.00000000E+00
  0.00000000E+00  0.00000000E+00  0.00000000E+00
  0.00000000E+00  0.00000000E+00  0.00000000E+00
  0.00000000E+00  0.00000000E+00  0.00000000E+00
  0.00000000E+00  0.00000000E+00  0.00000000E+00
  0.00000000E+00  0.00000000E+00  0.00000000E+00
  0.00000000E+00  0.00000000E+00  0.00000000E+00
  0.00000000E+00  0.00000000E+00  0.00000000E+00
  0.00000000E+00  0.00000000E+00  0.00000000E+00
  0.00000000E+00  0.00000000E+00  0.00000000E+00
  0.00000000E+00  0.00000000E+00  0.00000000E+00
  0.00000000E+00  0.00000000E+00  0.00000000E+00
  0.00000000E+00  0.00000000E+00  0.00000000E+00
  0.00000000E+00  0.00000000E+00  0.00000000E+00
  0.00000000E+00  0.00000000E+00  0.00000000E+00
  0.00000000E+00  0.00000000E+00  0.00000000E+00
  0.00000000E+00  0.00000000E+00  0.00000000E+00
  0.00000000E+00  0.00000000E+00  0.00000000E+00
  0.00000000E+00  0.00000000E+00  0.00000000E+00
  0.00000000E+00  0.00000000E+00  0.00000000E+00
  0.00000000E+00  0.00000000E+00  0.00000000E+00
  0.00000000E+00  0.00000000E+00  0.00000000E+00
  0.00000000E+00  0.00000000E+00  0.00000000E+00
  0.00000000E+00  0.00000000E+00  0.00000000E+00
  0.00000000E+00  0.00000000E+00  0.00000000E+00
  0.00000000E+00  0.00000000E+00  0.00000000E+00
  0.00000000E+00  0.00000000E+00  0.00000000E+00
  0.00000000E+00  0.00000000E+00  0.00000000E+00
  0.00000000E+00  0.00000000E+00  0.00000000E+00
  0.00000000E+00  0.00000000E+00  0.00000000E+00
  0.00000000E+00  0.00000000E+00  0.00000000E+00
  0.00000000E+00  0.00000000E+00  0.00000000E+00
  0.00000000E+00  0.00000000E+00  0.00000000E+00
  0.00000000E+00  0.00000000E+00  0.00000000E+00
  0.00000000E+00  0.00000000E+00  0.00000000E+00
  0.00000000E+00  0.00000000E+00  0.00000000E+00
  0.00000000E+00  0.00000000E+00  0.00000000E+00
  0.00000000E+00  0.00000000E+00  0.00000000E+00
  0.00000000E+00  0.00000000E+00  0.00000000E+00
  0.00000000E+00  0.00000000E+00  0.00000000E+00
  0.00000000E+00  0.00000000E+00  0.00000000E+00
  0.00000000E+00  0.00000000E+00  0.00000000E+00
  0.00000000E+00  0.00000000E+00  0.00000000E+00
  0.00000000E+00  0.00000000E+00  0.00000000E+00
  0.00000000E+00  0.00000000E+00  0.00000000E+00
  0.00000000E+00  0.00000000E+00  0.00000000E+00
  0.00000000E+00  0.00000000E+00  0.00000000E+00
  0.00000000E+00  0.00000000E+00  0.00000000E+00
  0.00000000E+00  0.00000000E+00  0.00000000E+00
  0.00000000E+00  0.00000000E+00  0.00000000E+00
  0.00000000E+00  0.00000000E+00  0.00000000E+00
  0.00000000E+00  0.00000000E+00  0.00000000E+00
  0.00000000E+00  0.00000000E+00  0.00000000E+00
  0.00000000E+00  0.00000000E+00  0.00000000E+00
  0.00000000E+00  0.00000000E+00  0.00000000E+00
  0.00000000E+00  0.00000000E+00  0.00000000E+00
  0.00000000E+00  0.00000000E+00  0.00000000E+00
  0.00000000E+00  0.00000000E+00  0.00000000E+00
