B Mg O V                                
   1.00000000000000     
     8.4141216974800006    0.0000000000000000    0.0000000000000000
     0.0000000000000000    8.4141216974800006    0.0000000000000000
     0.0000000000000000    0.0000000000000000   23.4141216974799988
   B    Mg   O    V 
     1    31    32     1
Selective dynamics
Direct
  0.2500000000000000  0.1952774014948222  0.2590367376473213   T   T   T
  0.2500000000000000  0.9985350482106710  0.0040365666830012   T   T   T
  0.2500000000000000  0.5002286809084389  0.0048742286959613   T   T   T
  0.7500000000000000  0.9991309187230084  0.0050271578735322   T   T   T
  0.7500000000000000  0.5003761392678928  0.0058820344808990   T   T   T
  0.9991401872661201  0.2501950262145918  0.0047808180802427   T   T   T
 -0.0006024288795514  0.7490738242896257  0.0055070152118029   T   T   T
  0.5008598127338799  0.2501950262145918  0.0047808180802427   T   T   T
  0.5006024288795513  0.7490738242896257  0.0055070152118029   T   T   T
 -0.0012155154682211  0.9994131458704201  0.0944348707321774   T   T   T
  0.0001494862351247  0.4998326404699641  0.0961790015589964   T   T   T
  0.5012155154682211  0.9994131458704201  0.0944348707321774   T   T   T
  0.4998505137648752  0.4998326404699641  0.0961790015589964   T   T   T
  0.2500000000000000  0.2501036621362548  0.0903674087657721   T   T   T
  0.2500000000000000  0.7470197822524298  0.0946044709226093   T   T   T
  0.7500000000000000  0.2509257721152324  0.0949667780030292   T   T   T
  0.7500000000000000  0.7486861216628523  0.0953616287061976   T   T   T
  0.2500000000000000  0.9920075454228191  0.1804853740671884   T   T   T
  0.2500000000000000  0.5041178731114782  0.1896346089320172   T   T   T
  0.7500000000000000  0.9993965587738175  0.1845710612823238   T   T   T
  0.7500000000000000  0.5010760220986431  0.1876567370301621   T   T   T
  0.9938774929782549  0.2505071440474372  0.1866662881965896   T   T   T
  0.9994903373050288  0.7497249534435177  0.1870225127452132   T   T   T
  0.5061225070217451  0.2505071440474372  0.1866662881965896   T   T   T
  0.5005096626949712  0.7497249534435177  0.1870225127452132   T   T   T
 -0.0085879655514623  0.0061477741232643  0.2747411532513227   T   T   T
  0.0190571611090841  0.4877159744272754  0.2793578554491291   T   T   T
  0.5085879655514621  0.0061477741232643  0.2747411532513227   T   T   T
  0.4809428388909159  0.4877159744272754  0.2793578554491291   T   T   T
  0.2500000000000000  0.7553408656937085  0.2751970175658964   T   T   T
  0.7500000000000000  0.2467326076770157  0.2759142841090608   T   T   T
  0.7500000000000000  0.7561538608150824  0.2769236725717223   T   T   T
 -0.0000002026801284 -0.0000462901987132  0.0026530569424823   T   T   T
  0.0004529873172582  0.4993043214793817  0.0034336453412484   T   T   T
  0.5000002026801285 -0.0000462901987132  0.0026530569424823   T   T   T
  0.4995470126827419  0.4993043214793817  0.0034336453412484   T   T   T
  0.2500000000000000  0.2501231429762503  0.0015221525747507   T   T   T
  0.2500000000000000  0.7486888623340672  0.0033274846735946   T   T   T
  0.7500000000000000  0.2500593545790362  0.0035475166419199   T   T   T
  0.7500000000000000  0.7494409940296102  0.0030925297982018   T   T   T
  0.2500000000000000  0.0026683493505340  0.0937519092931962   T   T   T
  0.2500000000000000  0.4952752429755833  0.0968333890717427   T   T   T
  0.7500000000000000 -0.0000290912245588  0.0943996810627742   T   T   T
  0.7500000000000000  0.4996884781454696  0.0954783589367149   T   T   T
  0.0040235057718104  0.2500788162607579  0.0956936998592676   T   T   T
  0.0003460570688007  0.7491169786599282  0.0950109868311146   T   T   T
  0.4959764942281895  0.2500788162607579  0.0956936998592676   T   T   T
  0.4996539429311995  0.7491169786599282  0.0950109868311146   T   T   T
  0.0005870050728063  0.0006397359777552  0.1833495396088070   T   T   T
  0.0013200388172479  0.4990151111525372  0.1862330776123558   T   T   T
  0.4994129949271937  0.0006397359777552  0.1833495396088070   T   T   T
  0.4986799611827520  0.4990151111525372  0.1862330776123558   T   T   T
  0.2500000000000000  0.2401634797850380  0.1984320851160788   T   T   T
  0.2500000000000000  0.7534442847491420  0.1838236605668652   T   T   T
  0.7500000000000000  0.2515660156120402  0.1835376063186515   T   T   T
  0.7500000000000000  0.7486862099357506  0.1854893710977837   T   T   T
  0.2499999495650016  0.0290030879606910  0.2700914501504815   T   T   T
  0.2499999495650016  0.5252711534110818  0.2763310435154308   T   T   T
  0.7499999495650016 -0.0000381218295706  0.2747863531139840   T   T   T
  0.7499998486940029  0.5043136965971893  0.2799260266732370   T   T   T
  0.9892581380108012  0.2458539986596925  0.2740942614702479   T   T   T
  0.0043020913402863  0.7641267499476979  0.2767494083868236   T   T   T
  0.5107418619891988  0.2458539986596925  0.2740942614702479   T   T   T
  0.4956979086597139  0.7641267499476979  0.2767494083868236   T   T   T
  0.7499998486940029  0.5052082945512104  0.3687813274222376   T   T   T
 
  0.00000000E+00  0.00000000E+00  0.00000000E+00
  0.00000000E+00  0.00000000E+00  0.00000000E+00
  0.00000000E+00  0.00000000E+00  0.00000000E+00
  0.00000000E+00  0.00000000E+00  0.00000000E+00
  0.00000000E+00  0.00000000E+00  0.00000000E+00
  0.00000000E+00  0.00000000E+00  0.00000000E+00
  0.00000000E+00  0.00000000E+00  0.00000000E+00
  0.00000000E+00  0.00000000E+00  0.00000000E+00
  0.00000000E+00  0.00000000E+00  0.00000000E+00
  0.00000000E+00  0.00000000E+00  0.00000000E+00
  0.00000000E+00  0.00000000E+00  0.00000000E+00
  0.00000000E+00  0.00000000E+00  0.00000000E+00
  0.00000000E+00  0.00000000E+00  0.00000000E+00
  0.00000000E+00  0.00000000E+00  0.00000000E+00
  0.00000000E+00  0.00000000E+00  0.00000000E+00
  0.00000000E+00  0.00000000E+00  0.00000000E+00
  0.00000000E+00  0.00000000E+00  0.00000000E+00
  0.00000000E+00  0.00000000E+00  0.00000000E+00
  0.00000000E+00  0.00000000E+00  0.00000000E+00
  0.00000000E+00  0.00000000E+00  0.00000000E+00
  0.00000000E+00  0.00000000E+00  0.00000000E+00
  0.00000000E+00  0.00000000E+00  0.00000000E+00
  0.00000000E+00  0.00000000E+00  0.00000000E+00
  0.00000000E+00  0.00000000E+00  0.00000000E+00
  0.00000000E+00  0.00000000E+00  0.00000000E+00
  0.00000000E+00  0.00000000E+00  0.00000000E+00
  0.00000000E+00  0.00000000E+00  0.00000000E+00
  0.00000000E+00  0.00000000E+00  0.00000000E+00
  0.00000000E+00  0.00000000E+00  0.00000000E+00
  0.00000000E+00  0.00000000E+00  0.00000000E+00
  0.00000000E+00  0.00000000E+00  0.00000000E+00
  0.00000000E+00  0.00000000E+00  0.00000000E+00
  0.00000000E+00  0.00000000E+00  0.00000000E+00
  0.00000000E+00  0.00000000E+00  0.00000000E+00
  0.00000000E+00  0.00000000E+00  0.00000000E+00
  0.00000000E+00  0.00000000E+00  0.00000000E+00
  0.00000000E+00  0.00000000E+00  0.00000000E+00
  0.00000000E+00  0.00000000E+00  0.00000000E+00
  0.00000000E+00  0.00000000E+00  0.00000000E+00
  0.00000000E+00  0.00000000E+00  0.00000000E+00
  0.00000000E+00  0.00000000E+00  0.00000000E+00
  0.00000000E+00  0.00000000E+00  0.00000000E+00
  0.00000000E+00  0.00000000E+00  0.00000000E+00
  0.00000000E+00  0.00000000E+00  0.00000000E+00
  0.00000000E+00  0.00000000E+00  0.00000000E+00
  0.00000000E+00  0.00000000E+00  0.00000000E+00
  0.00000000E+00  0.00000000E+00  0.00000000E+00
  0.00000000E+00  0.00000000E+00  0.00000000E+00
  0.00000000E+00  0.00000000E+00  0.00000000E+00
  0.00000000E+00  0.00000000E+00  0.00000000E+00
  0.00000000E+00  0.00000000E+00  0.00000000E+00
  0.00000000E+00  0.00000000E+00  0.00000000E+00
  0.00000000E+00  0.00000000E+00  0.00000000E+00
  0.00000000E+00  0.00000000E+00  0.00000000E+00
  0.00000000E+00  0.00000000E+00  0.00000000E+00
  0.00000000E+00  0.00000000E+00  0.00000000E+00
  0.00000000E+00  0.00000000E+00  0.00000000E+00
  0.00000000E+00  0.00000000E+00  0.00000000E+00
  0.00000000E+00  0.00000000E+00  0.00000000E+00
  0.00000000E+00  0.00000000E+00  0.00000000E+00
  0.00000000E+00  0.00000000E+00  0.00000000E+00
  0.00000000E+00  0.00000000E+00  0.00000000E+00
  0.00000000E+00  0.00000000E+00  0.00000000E+00
  0.00000000E+00  0.00000000E+00  0.00000000E+00
  0.00000000E+00  0.00000000E+00  0.00000000E+00
