Ag B Mg O                               
   1.00000000000000     
     8.4141216974800006    0.0000000000000000    0.0000000000000000
     0.0000000000000000    8.4141216974800006    0.0000000000000000
     0.0000000000000000    0.0000000000000000   23.4141216974799988
   Ag   B    Mg   O 
     1     1    31    32
Selective dynamics
Direct
  0.7499998486940029  0.3368279280577945  0.3903968805618694   T   T   T
  0.2500000000000000  0.1959893236377614  0.2589303558220751   T   T   T
  0.2500000000000000  0.0001232784441210  0.0044686880795318   T   T   T
  0.2500000000000000  0.5003763394805673  0.0053446605331553   T   T   T
  0.7500000000000000  0.0008630922060143  0.0050794982608973   T   T   T
  0.7500000000000000  0.5005702506355992  0.0059596789355445   T   T   T
 -0.0007043534409223  0.2513282727651452  0.0051686966050481   T   T   T
 -0.0005442526545200  0.7498753611037002  0.0054628824677793   T   T   T
  0.5007043534409222  0.2513282727651452  0.0051686966050481   T   T   T
  0.5005442526545201  0.7498753611037002  0.0054628824677793   T   T   T
 -0.0017060607090653  0.0010654095970428  0.0941704342344564   T   T   T
  0.0005616026618138  0.5016860921497027  0.0958419679207295   T   T   T
  0.5017060607090655  0.0010654095970428  0.0941704342344564   T   T   T
  0.4994383973381860  0.5016860921497027  0.0958419679207295   T   T   T
  0.2500000000000000  0.2513402717626296  0.0934766691167078   T   T   T
  0.2500000000000000  0.7487142822116700  0.0942645709425674   T   T   T
  0.7500000000000000  0.2523989329670098  0.0954133610410065   T   T   T
  0.7500000000000000  0.7511959765328347  0.0952753750692759   T   T   T
  0.2500000000000000  0.9956815802786380  0.1793354726338822   T   T   T
  0.2500000000000000  0.5048238190777977  0.1893513833900835   T   T   T
  0.7500000000000000  0.0049033692190094  0.1855025549779975   T   T   T
  0.7500000000000000  0.5025743872265372  0.1871780648855218   T   T   T
  0.0036105023003898  0.2538090807570265  0.1849600252976120   T   T   T
 -0.0016975668266145  0.7522682945674759  0.1861182154860304   T   T   T
  0.4963894976996099  0.2538090807570265  0.1849600252976120   T   T   T
  0.5016975668266145  0.7522682945674759  0.1861182154860304   T   T   T
 -0.0023781262666789  0.0068077049970368  0.2745220412353305   T   T   T
  0.0186716819573494  0.5045677213230559  0.2801191870046902   T   T   T
  0.5023781262666789  0.0068077049970369  0.2745220412353305   T   T   T
  0.4813283180426504  0.5045677213230559  0.2801191870046902   T   T   T
  0.2500000000000000  0.7663089854495371  0.2732109978421161   T   T   T
  0.7500000000000000  0.2618645347893116  0.2823271824896062   T   T   T
  0.7500000000000000  0.7520434439284377  0.2761377815783829   T   T   T
 -0.0003236617798507  0.0007777808542634  0.0027455965549423   T   T   T
 -0.0000174297225804  0.5005120211536829  0.0035482152007168   T   T   T
  0.5003236617798507  0.0007777808542634  0.0027455965549423   T   T   T
  0.5000174297225802  0.5005120211536829  0.0035482152007168   T   T   T
  0.2500000000000000  0.2509097623720627  0.0026301118577679   T   T   T
  0.2500000000000000  0.7496970783989302  0.0029304517908688   T   T   T
  0.7500000000000000  0.2512697618333367  0.0033836608079937   T   T   T
  0.7500000000000000  0.7503058886480996  0.0034783664119750   T   T   T
  0.2500000000000000  0.0015927972346848  0.0930014530987882   T   T   T
  0.2500000000000000  0.4988859601452330  0.0960094732533868   T   T   T
  0.7500000000000000  0.0031182820609719  0.0947987170140400   T   T   T
  0.7500000000000000  0.5004819728991162  0.0959724784565437   T   T   T
  0.0002215114583114  0.2518066427631220  0.0953654604921908   T   T   T
 -0.0003913284701218  0.7509443540885866  0.0950274150842955   T   T   T
  0.4997784885416884  0.2518066427631220  0.0953654604921908   T   T   T
  0.5003913284701218  0.7509443540885866  0.0950274150842955   T   T   T
 -0.0014399051930395  0.0042634056884605  0.1839335552047383   T   T   T
  0.0022269953439834  0.5008942462211576  0.1863555046714077   T   T   T
  0.5014399051930395  0.0042634056884605  0.1839335552047383   T   T   T
  0.4977730046560165  0.5008942462211576  0.1863555046714077   T   T   T
  0.2500000000000000  0.2408060036625951  0.1862015338696311   T   T   T
  0.2500000000000000  0.7563609747457923  0.1829997332952067   T   T   T
  0.7500000000000000  0.2543395146792036  0.1888550549483610   T   T   T
  0.7500000000000000  0.7540554289940815  0.1851822441778309   T   T   T
  0.2499999495650016  0.0162082832715230  0.2674894364449284   T   T   T
  0.2499999495650016  0.5382372375158515  0.2764842562425353   T   T   T
  0.7499999495650016  0.0187706119579863  0.2754873827082380   T   T   T
  0.7499998486940029  0.5034455846473899  0.2742778532441403   T   T   T
  0.0841481435518459  0.2466845864650173  0.2732675098251660   T   T   T
 -0.0022195349594015  0.7651876079959601  0.2769995755896288   T   T   T
  0.4158518564481540  0.2466845864650173  0.2732675098251660   T   T   T
  0.5022195349594015  0.7651876079959601  0.2769995755896288   T   T   T
 
  0.00000000E+00  0.00000000E+00  0.00000000E+00
  0.00000000E+00  0.00000000E+00  0.00000000E+00
  0.00000000E+00  0.00000000E+00  0.00000000E+00
  0.00000000E+00  0.00000000E+00  0.00000000E+00
  0.00000000E+00  0.00000000E+00  0.00000000E+00
  0.00000000E+00  0.00000000E+00  0.00000000E+00
  0.00000000E+00  0.00000000E+00  0.00000000E+00
  0.00000000E+00  0.00000000E+00  0.00000000E+00
  0.00000000E+00  0.00000000E+00  0.00000000E+00
  0.00000000E+00  0.00000000E+00  0.00000000E+00
  0.00000000E+00  0.00000000E+00  0.00000000E+00
  0.00000000E+00  0.00000000E+00  0.00000000E+00
  0.00000000E+00  0.00000000E+00  0.00000000E+00
  0.00000000E+00  0.00000000E+00  0.00000000E+00
  0.00000000E+00  0.00000000E+00  0.00000000E+00
  0.00000000E+00  0.00000000E+00  0.00000000E+00
  0.00000000E+00  0.00000000E+00  0.00000000E+00
  0.00000000E+00  0.00000000E+00  0.00000000E+00
  0.00000000E+00  0.00000000E+00  0.00000000E+00
  0.00000000E+00  0.00000000E+00  0.00000000E+00
  0.00000000E+00  0.00000000E+00  0.00000000E+00
  0.00000000E+00  0.00000000E+00  0.00000000E+00
  0.00000000E+00  0.00000000E+00  0.00000000E+00
  0.00000000E+00  0.00000000E+00  0.00000000E+00
  0.00000000E+00  0.00000000E+00  0.00000000E+00
  0.00000000E+00  0.00000000E+00  0.00000000E+00
  0.00000000E+00  0.00000000E+00  0.00000000E+00
  0.00000000E+00  0.00000000E+00  0.00000000E+00
  0.00000000E+00  0.00000000E+00  0.00000000E+00
  0.00000000E+00  0.00000000E+00  0.00000000E+00
  0.00000000E+00  0.00000000E+00  0.00000000E+00
  0.00000000E+00  0.00000000E+00  0.00000000E+00
  0.00000000E+00  0.00000000E+00  0.00000000E+00
  0.00000000E+00  0.00000000E+00  0.00000000E+00
  0.00000000E+00  0.00000000E+00  0.00000000E+00
  0.00000000E+00  0.00000000E+00  0.00000000E+00
  0.00000000E+00  0.00000000E+00  0.00000000E+00
  0.00000000E+00  0.00000000E+00  0.00000000E+00
  0.00000000E+00  0.00000000E+00  0.00000000E+00
  0.00000000E+00  0.00000000E+00  0.00000000E+00
  0.00000000E+00  0.00000000E+00  0.00000000E+00
  0.00000000E+00  0.00000000E+00  0.00000000E+00
  0.00000000E+00  0.00000000E+00  0.00000000E+00
  0.00000000E+00  0.00000000E+00  0.00000000E+00
  0.00000000E+00  0.00000000E+00  0.00000000E+00
  0.00000000E+00  0.00000000E+00  0.00000000E+00
  0.00000000E+00  0.00000000E+00  0.00000000E+00
  0.00000000E+00  0.00000000E+00  0.00000000E+00
  0.00000000E+00  0.00000000E+00  0.00000000E+00
  0.00000000E+00  0.00000000E+00  0.00000000E+00
  0.00000000E+00  0.00000000E+00  0.00000000E+00
  0.00000000E+00  0.00000000E+00  0.00000000E+00
  0.00000000E+00  0.00000000E+00  0.00000000E+00
  0.00000000E+00  0.00000000E+00  0.00000000E+00
  0.00000000E+00  0.00000000E+00  0.00000000E+00
  0.00000000E+00  0.00000000E+00  0.00000000E+00
  0.00000000E+00  0.00000000E+00  0.00000000E+00
  0.00000000E+00  0.00000000E+00  0.00000000E+00
  0.00000000E+00  0.00000000E+00  0.00000000E+00
  0.00000000E+00  0.00000000E+00  0.00000000E+00
  0.00000000E+00  0.00000000E+00  0.00000000E+00
  0.00000000E+00  0.00000000E+00  0.00000000E+00
  0.00000000E+00  0.00000000E+00  0.00000000E+00
  0.00000000E+00  0.00000000E+00  0.00000000E+00
  0.00000000E+00  0.00000000E+00  0.00000000E+00
