B Mg O Mo                               
   1.00000000000000     
     8.4141216974800006    0.0000000000000000    0.0000000000000000
     0.0000000000000000    8.4141216974800006    0.0000000000000000
     0.0000000000000000    0.0000000000000000   23.4141216974799988
   B    Mg   O    Mo
     1    31    32     1
Selective dynamics
Direct
  0.2500000000000000  0.1935816318804702  0.2582968125509631   T   T   T
  0.2500000000000000  0.9991741510438749  0.0044813453738230   T   T   T
  0.2500000000000000  0.4992075722475371  0.0055017325822467   T   T   T
  0.7500000000000000  0.9999016709478973  0.0052441260611063   T   T   T
  0.7500000000000000  0.4998832182416958  0.0061470621436267   T   T   T
  0.9994149863671627  0.2502337143125428  0.0053547920102577   T   T   T
  0.9993951885869252  0.7491521799761495  0.0055083472887244   T   T   T
  0.5005850136328373  0.2502337143125428  0.0053547920102577   T   T   T
  0.5006048114130748  0.7491521799761495  0.0055083472887244   T   T   T
  0.9980306233405232  0.9995911363500699  0.0943018291389759   T   T   T
  0.0001704743861908  0.5002303399169632  0.0959058910418698   T   T   T
  0.5019693766594768  0.9995911363500699  0.0943018291389759   T   T   T
  0.4998295256138092  0.5002303399169632  0.0959058910418698   T   T   T
  0.2500000000000000  0.2497211405780546  0.0935852402144508   T   T   T
  0.2500000000000000  0.7472552082345141  0.0941935851982315   T   T   T
  0.7500000000000000  0.2510517791476192  0.0954705477292745   T   T   T
  0.7500000000000000  0.7497412005052841  0.0956593812733118   T   T   T
  0.2500000000000000  0.9932529516525320  0.1790324016494795   T   T   T
  0.2500000000000000  0.5031623701342687  0.1888727432908516   T   T   T
  0.7500000000000000  0.0030178203643990  0.1857683006808065   T   T   T
  0.7500000000000000  0.5003167370306640  0.1879148261990933   T   T   T
  0.0028335801789157  0.2518351355132071  0.1852830687767535   T   T   T
  0.9982229399319921  0.7499082596086867  0.1862286441543751   T   T   T
  0.4971664198210844  0.2518351355132071  0.1852830687767535   T   T   T
  0.5017770600680079  0.7499082596086867  0.1862286441543751   T   T   T
 -0.0005335811609904  0.0039195658156159  0.2740190164394284   T   T   T
  0.0214999511437338  0.5020005388928099  0.2800407736841836   T   T   T
  0.5005335811609906  0.0039195658156159  0.2740190164394284   T   T   T
  0.4785000488562663  0.5020005388928099  0.2800407736841836   T   T   T
  0.2500000000000000  0.7638041681182369  0.2730190876239401   T   T   T
  0.7500000000000000  0.2552446274119811  0.2845511250871380   T   T   T
  0.7500000000000000  0.7531121234368527  0.2774765069730639   T   T   T
  0.9995145696481810  0.9998247326733141  0.0028140537841707   T   T   T
 -0.0001775655386183  0.4995576641635833  0.0036624702011798   T   T   T
  0.5004854303518190  0.9998247326733141  0.0028140537841707   T   T   T
  0.5001775655386184  0.4995576641635833  0.0036624702011798   T   T   T
  0.2500000000000000  0.2499258770088444  0.0028536374920945   T   T   T
  0.2500000000000000  0.7485343048532979  0.0030673583593489   T   T   T
  0.7500000000000000  0.2504216763192303  0.0035649611366188   T   T   T
  0.7500000000000000  0.7493999476824278  0.0035337590356308   T   T   T
  0.2500000000000000  0.0003018377402374  0.0928935605694834   T   T   T
  0.2500000000000000  0.4972088694164033  0.0960434070094043   T   T   T
  0.7500000000000000  0.0016527481877408  0.0949480834212676   T   T   T
  0.7500000000000000  0.4991656376620997  0.0962590312379969   T   T   T
  0.0001286674975797  0.2503213174168498  0.0955137783142162   T   T   T
  0.9994509607090210  0.7494971796223496  0.0950832909934876   T   T   T
  0.4998713325024203  0.2503213174168498  0.0955137783142162   T   T   T
  0.5005490392909790  0.7494971796223496  0.0950832909934876   T   T   T
  0.9978826845013865  0.0023839125270014  0.1838687876627950   T   T   T
  0.0014848627623404  0.4985926912375855  0.1864844786503917   T   T   T
  0.5021173154986135  0.0023839125270014  0.1838687876627950   T   T   T
  0.4985151372376596  0.4985926912375855  0.1864844786503917   T   T   T
  0.2500000000000000  0.2385460528563333  0.1863819830910514   T   T   T
  0.2500000000000000  0.7541519593987476  0.1826328269894654   T   T   T
  0.7500000000000000  0.2519998037631902  0.1897365367975557   T   T   T
  0.7500000000000000  0.7516950308227990  0.1857477539279889   T   T   T
  0.2499999495650016  0.0133155730186908  0.2668741292370958   T   T   T
  0.2499999495650016  0.5360515598137229  0.2754670893164353   T   T   T
  0.7499999495650016  0.0149927156295701  0.2767488982975871   T   T   T
  0.7499998486940029  0.5000910490886193  0.2761809113513070   T   T   T
  0.0845605532063186  0.2436926273120748  0.2731591292031509   T   T   T
 -0.0010878657086132  0.7634315421330116  0.2762970507702263   T   T   T
  0.4154394467936814  0.2436926273120748  0.2731591292031509   T   T   T
  0.5010880315136115  0.7634319515770103  0.2762970514482262   T   T   T
  0.7499998486940029  0.4605156093255190  0.3843691739658494   T   T   T
 
  0.00000000E+00  0.00000000E+00  0.00000000E+00
  0.00000000E+00  0.00000000E+00  0.00000000E+00
  0.00000000E+00  0.00000000E+00  0.00000000E+00
  0.00000000E+00  0.00000000E+00  0.00000000E+00
  0.00000000E+00  0.00000000E+00  0.00000000E+00
  0.00000000E+00  0.00000000E+00  0.00000000E+00
  0.00000000E+00  0.00000000E+00  0.00000000E+00
  0.00000000E+00  0.00000000E+00  0.00000000E+00
  0.00000000E+00  0.00000000E+00  0.00000000E+00
  0.00000000E+00  0.00000000E+00  0.00000000E+00
  0.00000000E+00  0.00000000E+00  0.00000000E+00
  0.00000000E+00  0.00000000E+00  0.00000000E+00
  0.00000000E+00  0.00000000E+00  0.00000000E+00
  0.00000000E+00  0.00000000E+00  0.00000000E+00
  0.00000000E+00  0.00000000E+00  0.00000000E+00
  0.00000000E+00  0.00000000E+00  0.00000000E+00
  0.00000000E+00  0.00000000E+00  0.00000000E+00
  0.00000000E+00  0.00000000E+00  0.00000000E+00
  0.00000000E+00  0.00000000E+00  0.00000000E+00
  0.00000000E+00  0.00000000E+00  0.00000000E+00
  0.00000000E+00  0.00000000E+00  0.00000000E+00
  0.00000000E+00  0.00000000E+00  0.00000000E+00
  0.00000000E+00  0.00000000E+00  0.00000000E+00
  0.00000000E+00  0.00000000E+00  0.00000000E+00
  0.00000000E+00  0.00000000E+00  0.00000000E+00
  0.00000000E+00  0.00000000E+00  0.00000000E+00
  0.00000000E+00  0.00000000E+00  0.00000000E+00
  0.00000000E+00  0.00000000E+00  0.00000000E+00
  0.00000000E+00  0.00000000E+00  0.00000000E+00
  0.00000000E+00  0.00000000E+00  0.00000000E+00
  0.00000000E+00  0.00000000E+00  0.00000000E+00
  0.00000000E+00  0.00000000E+00  0.00000000E+00
  0.00000000E+00  0.00000000E+00  0.00000000E+00
  0.00000000E+00  0.00000000E+00  0.00000000E+00
  0.00000000E+00  0.00000000E+00  0.00000000E+00
  0.00000000E+00  0.00000000E+00  0.00000000E+00
  0.00000000E+00  0.00000000E+00  0.00000000E+00
  0.00000000E+00  0.00000000E+00  0.00000000E+00
  0.00000000E+00  0.00000000E+00  0.00000000E+00
  0.00000000E+00  0.00000000E+00  0.00000000E+00
  0.00000000E+00  0.00000000E+00  0.00000000E+00
  0.00000000E+00  0.00000000E+00  0.00000000E+00
  0.00000000E+00  0.00000000E+00  0.00000000E+00
  0.00000000E+00  0.00000000E+00  0.00000000E+00
  0.00000000E+00  0.00000000E+00  0.00000000E+00
  0.00000000E+00  0.00000000E+00  0.00000000E+00
  0.00000000E+00  0.00000000E+00  0.00000000E+00
  0.00000000E+00  0.00000000E+00  0.00000000E+00
  0.00000000E+00  0.00000000E+00  0.00000000E+00
  0.00000000E+00  0.00000000E+00  0.00000000E+00
  0.00000000E+00  0.00000000E+00  0.00000000E+00
  0.00000000E+00  0.00000000E+00  0.00000000E+00
  0.00000000E+00  0.00000000E+00  0.00000000E+00
  0.00000000E+00  0.00000000E+00  0.00000000E+00
  0.00000000E+00  0.00000000E+00  0.00000000E+00
  0.00000000E+00  0.00000000E+00  0.00000000E+00
  0.00000000E+00  0.00000000E+00  0.00000000E+00
  0.00000000E+00  0.00000000E+00  0.00000000E+00
  0.00000000E+00  0.00000000E+00  0.00000000E+00
  0.00000000E+00  0.00000000E+00  0.00000000E+00
  0.00000000E+00  0.00000000E+00  0.00000000E+00
  0.00000000E+00  0.00000000E+00  0.00000000E+00
  0.00000000E+00  0.00000000E+00  0.00000000E+00
  0.00000000E+00  0.00000000E+00  0.00000000E+00
  0.00000000E+00  0.00000000E+00  0.00000000E+00
