Au B Mg O                               
   1.00000000000000     
     8.4141216974800006    0.0000000000000000    0.0000000000000000
     0.0000000000000000    8.4141216974800006    0.0000000000000000
     0.0000000000000000    0.0000000000000000   23.4141216974799988
   Au   B    Mg   O 
     1     1    31    32
Selective dynamics
Direct
  0.7499998486940029  0.3015847476081142  0.3873848601495924   T   T   T
  0.2500000000000000  0.1970262987487383  0.2579589664877702   T   T   T
  0.2500000000000000  0.0012767877415451  0.0045369291773033   T   T   T
  0.2500000000000000  0.5016696279734344  0.0053668725409369   T   T   T
  0.7500000000000000  0.0021826184284101  0.0053587981115143   T   T   T
  0.7500000000000000  0.5023578868202915  0.0062968237634828   T   T   T
 -0.0006158875853529  0.2524830383476119  0.0054992117143954   T   T   T
 -0.0006272704837509  0.7512660429205291  0.0055861162067679   T   T   T
  0.5006158875853529  0.2524830383476119  0.0054992117143954   T   T   T
  0.5006272704837507  0.7512660429205292  0.0055861162067679   T   T   T
 -0.0016666262639804  0.0015738204303593  0.0943192741793950   T   T   T
  0.0006916429460632  0.5025209279164335  0.0960546821308922   T   T   T
  0.5016666262639803  0.0015738204303593  0.0943192741793950   T   T   T
  0.4993083570539368  0.5025209279164335  0.0960546821308922   T   T   T
  0.2500000000000000  0.2520901771171113  0.0934512604727602   T   T   T
  0.2500000000000000  0.7491563798720814  0.0942835549977883   T   T   T
  0.7500000000000000  0.2530661283426782  0.0952886212524013   T   T   T
  0.7500000000000000  0.7519218660191295  0.0954792420496919   T   T   T
  0.2500000000000000  0.9951309821537507  0.1795478868241097   T   T   T
  0.2500000000000000  0.5055235583660471  0.1896604173224692   T   T   T
  0.7500000000000000  0.0047889275148498  0.1854113880475069   T   T   T
  0.7500000000000000  0.5031764458772853  0.1871779531061264   T   T   T
  0.0030985029201110  0.2536582232972027  0.1850404439200660   T   T   T
  0.9988127575812908  0.7527563042633540  0.1862455631532353   T   T   T
  0.4969014970798891  0.2536582232972027  0.1850404439200660   T   T   T
  0.5011872424187092  0.7527563042633540  0.1862455631532353   T   T   T
 -0.0021047060678700  0.0074827411664025  0.2750088495131435   T   T   T
  0.0181923464063551  0.5041507762099492  0.2802195170827608   T   T   T
  0.5021047060678702  0.0074827411664025  0.2750088495131435   T   T   T
  0.4818076535936450  0.5041507762099492  0.2802195170827608   T   T   T
  0.2500000000000000  0.7662116950522180  0.2735670537631338   T   T   T
  0.7500000000000000  0.2611419655544580  0.2813419128905337   T   T   T
  0.7500000000000000  0.7529100456415880  0.2755344407872504   T   T   T
 -0.0005100968308791  0.0019625015090518  0.0028318646512209   T   T   T
  0.0000260671163319  0.5019033153769971  0.0036665703128950   T   T   T
  0.5005100968308791  0.0019625015090518  0.0028318646512209   T   T   T
  0.4999739328836680  0.5019033153769971  0.0036665703128950   T   T   T
  0.2500000000000000  0.2522720127459125  0.0028476132228491   T   T   T
  0.2500000000000000  0.7507078745574545  0.0030775862442381   T   T   T
  0.7500000000000000  0.2526184814640858  0.0036950008126327   T   T   T
  0.7500000000000000  0.7518373457595452  0.0037040042212020   T   T   T
  0.2500000000000000  0.0025084389801642  0.0930964440880397   T   T   T
  0.2500000000000000  0.4992232514454609  0.0961357525699829   T   T   T
  0.7500000000000000  0.0038364791940070  0.0947681164574074   T   T   T
  0.7500000000000000  0.5013789988480964  0.0961269401403947   T   T   T
  0.0005914743465626  0.2524095087850267  0.0954563577080942   T   T   T
 -0.0000448808445816  0.7516699670437387  0.0950488234573929   T   T   T
  0.4994085256534379  0.2524095087850267  0.0954563577080942   T   T   T
  0.5000448808445814  0.7516699670437387  0.0950488234573929   T   T   T
 -0.0013825572562620  0.0043574867387333  0.1838103082638094   T   T   T
  0.0023150357680879  0.5009957281112076  0.1863751376529732   T   T   T
  0.5013825572562620  0.0043574867387333  0.1838103082638094   T   T   T
  0.4976849642319121  0.5009957281112076  0.1863751376529732   T   T   T
  0.2500000000000000  0.2404737162698737  0.1872182958777961   T   T   T
  0.2500000000000000  0.7561422644390534  0.1831277885076859   T   T   T
  0.7500000000000000  0.2545608648871498  0.1886653054713023   T   T   T
  0.7500000000000000  0.7540336306253301  0.1848810693578876   T   T   T
  0.2499999495650016  0.0168702915109993  0.2674064528149209   T   T   T
  0.2499999495650016  0.5380543340916427  0.2768513230713622   T   T   T
  0.7499999495650016  0.0174837684152716  0.2744857905481700   T   T   T
  0.7499998486940029  0.5034008103078241  0.2739629231466241   T   T   T
  0.0832183891023354  0.2473446678173329  0.2730851003081454   T   T   T
 -0.0023469221796137  0.7651766508557670  0.2769274603623704   T   T   T
  0.4167816108976650  0.2473446678173329  0.2730851003081454   T   T   T
  0.5023469221796136  0.7651766508557670  0.2769274603623704   T   T   T
 
  0.00000000E+00  0.00000000E+00  0.00000000E+00
  0.00000000E+00  0.00000000E+00  0.00000000E+00
  0.00000000E+00  0.00000000E+00  0.00000000E+00
  0.00000000E+00  0.00000000E+00  0.00000000E+00
  0.00000000E+00  0.00000000E+00  0.00000000E+00
  0.00000000E+00  0.00000000E+00  0.00000000E+00
  0.00000000E+00  0.00000000E+00  0.00000000E+00
  0.00000000E+00  0.00000000E+00  0.00000000E+00
  0.00000000E+00  0.00000000E+00  0.00000000E+00
  0.00000000E+00  0.00000000E+00  0.00000000E+00
  0.00000000E+00  0.00000000E+00  0.00000000E+00
  0.00000000E+00  0.00000000E+00  0.00000000E+00
  0.00000000E+00  0.00000000E+00  0.00000000E+00
  0.00000000E+00  0.00000000E+00  0.00000000E+00
  0.00000000E+00  0.00000000E+00  0.00000000E+00
  0.00000000E+00  0.00000000E+00  0.00000000E+00
  0.00000000E+00  0.00000000E+00  0.00000000E+00
  0.00000000E+00  0.00000000E+00  0.00000000E+00
  0.00000000E+00  0.00000000E+00  0.00000000E+00
  0.00000000E+00  0.00000000E+00  0.00000000E+00
  0.00000000E+00  0.00000000E+00  0.00000000E+00
  0.00000000E+00  0.00000000E+00  0.00000000E+00
  0.00000000E+00  0.00000000E+00  0.00000000E+00
  0.00000000E+00  0.00000000E+00  0.00000000E+00
  0.00000000E+00  0.00000000E+00  0.00000000E+00
  0.00000000E+00  0.00000000E+00  0.00000000E+00
  0.00000000E+00  0.00000000E+00  0.00000000E+00
  0.00000000E+00  0.00000000E+00  0.00000000E+00
  0.00000000E+00  0.00000000E+00  0.00000000E+00
  0.00000000E+00  0.00000000E+00  0.00000000E+00
  0.00000000E+00  0.00000000E+00  0.00000000E+00
  0.00000000E+00  0.00000000E+00  0.00000000E+00
  0.00000000E+00  0.00000000E+00  0.00000000E+00
  0.00000000E+00  0.00000000E+00  0.00000000E+00
  0.00000000E+00  0.00000000E+00  0.00000000E+00
  0.00000000E+00  0.00000000E+00  0.00000000E+00
  0.00000000E+00  0.00000000E+00  0.00000000E+00
  0.00000000E+00  0.00000000E+00  0.00000000E+00
  0.00000000E+00  0.00000000E+00  0.00000000E+00
  0.00000000E+00  0.00000000E+00  0.00000000E+00
  0.00000000E+00  0.00000000E+00  0.00000000E+00
  0.00000000E+00  0.00000000E+00  0.00000000E+00
  0.00000000E+00  0.00000000E+00  0.00000000E+00
  0.00000000E+00  0.00000000E+00  0.00000000E+00
  0.00000000E+00  0.00000000E+00  0.00000000E+00
  0.00000000E+00  0.00000000E+00  0.00000000E+00
  0.00000000E+00  0.00000000E+00  0.00000000E+00
  0.00000000E+00  0.00000000E+00  0.00000000E+00
  0.00000000E+00  0.00000000E+00  0.00000000E+00
  0.00000000E+00  0.00000000E+00  0.00000000E+00
  0.00000000E+00  0.00000000E+00  0.00000000E+00
  0.00000000E+00  0.00000000E+00  0.00000000E+00
  0.00000000E+00  0.00000000E+00  0.00000000E+00
  0.00000000E+00  0.00000000E+00  0.00000000E+00
  0.00000000E+00  0.00000000E+00  0.00000000E+00
  0.00000000E+00  0.00000000E+00  0.00000000E+00
  0.00000000E+00  0.00000000E+00  0.00000000E+00
  0.00000000E+00  0.00000000E+00  0.00000000E+00
  0.00000000E+00  0.00000000E+00  0.00000000E+00
  0.00000000E+00  0.00000000E+00  0.00000000E+00
  0.00000000E+00  0.00000000E+00  0.00000000E+00
  0.00000000E+00  0.00000000E+00  0.00000000E+00
  0.00000000E+00  0.00000000E+00  0.00000000E+00
  0.00000000E+00  0.00000000E+00  0.00000000E+00
  0.00000000E+00  0.00000000E+00  0.00000000E+00
