B Mg O                                  
   1.00000000000000     
     8.4141216974800006    0.0000000000000000    0.0000000000000000
     0.0000000000000000    8.4141216974800006    0.0000000000000000
     0.0000000000000000    0.0000000000000000   23.4141216974799988
   B    Mg   O 
     1    31    32
Selective dynamics
Direct
  0.2500000000000000  0.1769404057408427  0.2779048269707074   T   T   T
  0.2500000000000000  0.9995552335072692  0.0039645064147865   T   T   T
  0.2500000000000000  0.5018672634558506  0.0046901025769732   T   T   T
  0.7500000000000000  0.0005309864336667  0.0050222550618259   T   T   T
  0.7500000000000000  0.5008714372926718  0.0057059989946303   T   T   T
  0.9985439875581588  0.2511585415157471  0.0044234188777845   T   T   T
  0.9994502083882372  0.7501675145618981  0.0052594626827072   T   T   T
  0.5014560124418412  0.2511585415157471  0.0044234188777845   T   T   T
  0.5005497916117628  0.7501675145618981  0.0052594626827072   T   T   T
  0.9990394171924594  0.0007904297375434  0.0938830670279770   T   T   T
  0.0004033202528738  0.5005678766366438  0.0951814191111532   T   T   T
  0.5009605828075406  0.0007904297375434  0.0938830670279770   T   T   T
  0.4995966797471262  0.5005678766366438  0.0951814191111532   T   T   T
  0.2500000000000000  0.2520666797117342  0.0915949632348808   T   T   T
  0.2500000000000000  0.7496499491299115  0.0943741842349472   T   T   T
  0.7500000000000000  0.2515433983504021  0.0949227952138622   T   T   T
  0.7500000000000000  0.7500340122658324  0.0956325467463831   T   T   T
  0.2500000000000000  0.0035898334776330  0.1802052261835813   T   T   T
  0.2500000000000000  0.4961672254387761  0.1880227999414436   T   T   T
  0.7500000000000000  0.0042686903992042  0.1858088335246658   T   T   T
  0.7500000000000000  0.4974852915606039  0.1880272604349623   T   T   T
  0.0104112158165818  0.2508614045008313  0.1838305477941188   T   T   T
  0.9998364333260066  0.7503683787514051  0.1857446701309930   T   T   T
  0.4895887841834183  0.2508614045008313  0.1838305477941188   T   T   T
  0.5001635666739934  0.7503683787514051  0.1857446701309930   T   T   T
  0.9947511631432752 -0.0020153726293489  0.2753622455553082   T   T   T
  0.0192609376432434  0.5042686875289689  0.2785570774357465   T   T   T
  0.5052488368567248 -0.0020153726293489  0.2753622455553082   T   T   T
  0.4807390623567566  0.5042686875289689  0.2785570774357465   T   T   T
  0.2500000000000000  0.7593720674278674  0.2732740381880126   T   T   T
  0.7500000000000000  0.2560381352924510  0.2837865264245510   T   T   T
  0.7500000000000000  0.7468389299946766  0.2760988884313166   T   T   T
  0.9991587848328092  0.0002284711612858  0.0024978127774332   T   T   T
 -0.0005460246781078  0.5010735903796845  0.0031181836381924   T   T   T
  0.5008412151671908  0.0002284711612858  0.0024978127774332   T   T   T
  0.5005460246781076  0.5010735903796845  0.0031181836381924   T   T   T
  0.2500000000000000  0.2511783070370859  0.0017498996343459   T   T   T
  0.2500000000000000  0.7503196760653306  0.0022787878926793   T   T   T
  0.7500000000000000  0.2509047249742451  0.0024737208150502   T   T   T
  0.7500000000000000  0.7505000362624882  0.0037704913612816   T   T   T
  0.2500000000000000  0.9991306378995064  0.0924245321135728   T   T   T
  0.2500000000000000  0.5025402481865444  0.0944578701637890   T   T   T
  0.7500000000000000  0.0015807729268060  0.0954925217623934   T   T   T
  0.7500000000000000  0.4999965117091213  0.0962942209941387   T   T   T
  0.9971522685623968  0.2508219025170378  0.0939989757379567   T   T   T
  0.9992605057147966  0.7505539410612013  0.0955011751734085   T   T   T
  0.5028477314376032  0.2508219025170378  0.0939989757379567   T   T   T
  0.5007394942852034  0.7505539410612013  0.0955011751734085   T   T   T
  0.0002478208902731  0.0037955652921655  0.1855669721109930   T   T   T
  0.0010028571494157  0.4972344117520734  0.1872535784946836   T   T   T
  0.4997521791097270  0.0037955652921655  0.1855669721109930   T   T   T
  0.4989971428505844  0.4972344117520734  0.1872535784946836   T   T   T
  0.2500000000000000  0.2477247867099264  0.1767243067351746   T   T   T
  0.2500000000000000  0.7576812921534619  0.1838892214363120   T   T   T
  0.7500000000000000  0.2511314080729278  0.1899681547588025   T   T   T
  0.7500000000000000  0.7509850076970509  0.1860073829116262   T   T   T
  0.2499999495650016  0.0039062189886962  0.2753692572869778   T   T   T
  0.2499999495650016  0.5321400623740256  0.2760117553996855   T   T   T
  0.7499999495650016  0.0113645919018465  0.2771405994987384   T   T   T
  0.7499999495650016  0.4958401870863088  0.2784950799632444   T   T   T
  0.0926697241066772  0.2362526316264589  0.2798243806350747   T   T   T
  0.9970758201708857  0.7579424117195217  0.2769833164788342   T   T   T
  0.4073302758933229  0.2362526316264589  0.2798243806350747   T   T   T
  0.5029241798291143  0.7579424117195217  0.2769833164788342   T   T   T
 
  0.00000000E+00  0.00000000E+00  0.00000000E+00
  0.00000000E+00  0.00000000E+00  0.00000000E+00
  0.00000000E+00  0.00000000E+00  0.00000000E+00
  0.00000000E+00  0.00000000E+00  0.00000000E+00
  0.00000000E+00  0.00000000E+00  0.00000000E+00
  0.00000000E+00  0.00000000E+00  0.00000000E+00
  0.00000000E+00  0.00000000E+00  0.00000000E+00
  0.00000000E+00  0.00000000E+00  0.00000000E+00
  0.00000000E+00  0.00000000E+00  0.00000000E+00
  0.00000000E+00  0.00000000E+00  0.00000000E+00
  0.00000000E+00  0.00000000E+00  0.00000000E+00
  0.00000000E+00  0.00000000E+00  0.00000000E+00
  0.00000000E+00  0.00000000E+00  0.00000000E+00
  0.00000000E+00  0.00000000E+00  0.00000000E+00
  0.00000000E+00  0.00000000E+00  0.00000000E+00
  0.00000000E+00  0.00000000E+00  0.00000000E+00
  0.00000000E+00  0.00000000E+00  0.00000000E+00
  0.00000000E+00  0.00000000E+00  0.00000000E+00
  0.00000000E+00  0.00000000E+00  0.00000000E+00
  0.00000000E+00  0.00000000E+00  0.00000000E+00
  0.00000000E+00  0.00000000E+00  0.00000000E+00
  0.00000000E+00  0.00000000E+00  0.00000000E+00
  0.00000000E+00  0.00000000E+00  0.00000000E+00
  0.00000000E+00  0.00000000E+00  0.00000000E+00
  0.00000000E+00  0.00000000E+00  0.00000000E+00
  0.00000000E+00  0.00000000E+00  0.00000000E+00
  0.00000000E+00  0.00000000E+00  0.00000000E+00
  0.00000000E+00  0.00000000E+00  0.00000000E+00
  0.00000000E+00  0.00000000E+00  0.00000000E+00
  0.00000000E+00  0.00000000E+00  0.00000000E+00
  0.00000000E+00  0.00000000E+00  0.00000000E+00
  0.00000000E+00  0.00000000E+00  0.00000000E+00
  0.00000000E+00  0.00000000E+00  0.00000000E+00
  0.00000000E+00  0.00000000E+00  0.00000000E+00
  0.00000000E+00  0.00000000E+00  0.00000000E+00
  0.00000000E+00  0.00000000E+00  0.00000000E+00
  0.00000000E+00  0.00000000E+00  0.00000000E+00
  0.00000000E+00  0.00000000E+00  0.00000000E+00
  0.00000000E+00  0.00000000E+00  0.00000000E+00
  0.00000000E+00  0.00000000E+00  0.00000000E+00
  0.00000000E+00  0.00000000E+00  0.00000000E+00
  0.00000000E+00  0.00000000E+00  0.00000000E+00
  0.00000000E+00  0.00000000E+00  0.00000000E+00
  0.00000000E+00  0.00000000E+00  0.00000000E+00
  0.00000000E+00  0.00000000E+00  0.00000000E+00
  0.00000000E+00  0.00000000E+00  0.00000000E+00
  0.00000000E+00  0.00000000E+00  0.00000000E+00
  0.00000000E+00  0.00000000E+00  0.00000000E+00
  0.00000000E+00  0.00000000E+00  0.00000000E+00
  0.00000000E+00  0.00000000E+00  0.00000000E+00
  0.00000000E+00  0.00000000E+00  0.00000000E+00
  0.00000000E+00  0.00000000E+00  0.00000000E+00
  0.00000000E+00  0.00000000E+00  0.00000000E+00
  0.00000000E+00  0.00000000E+00  0.00000000E+00
  0.00000000E+00  0.00000000E+00  0.00000000E+00
  0.00000000E+00  0.00000000E+00  0.00000000E+00
  0.00000000E+00  0.00000000E+00  0.00000000E+00
  0.00000000E+00  0.00000000E+00  0.00000000E+00
  0.00000000E+00  0.00000000E+00  0.00000000E+00
  0.00000000E+00  0.00000000E+00  0.00000000E+00
  0.00000000E+00  0.00000000E+00  0.00000000E+00
  0.00000000E+00  0.00000000E+00  0.00000000E+00
  0.00000000E+00  0.00000000E+00  0.00000000E+00
  0.00000000E+00  0.00000000E+00  0.00000000E+00
