B Mg O Cu                               
   1.00000000000000     
     8.4141216974800006    0.0000000000000000    0.0000000000000000
     0.0000000000000000    8.4141216974800006    0.0000000000000000
     0.0000000000000000    0.0000000000000000   23.4141216974799988
   B    Mg   O    Cu
     1    31    32     1
Selective dynamics
Direct
  0.2500000000000000  0.1971826187314814  0.2577776969205027   T   T   T
  0.2500000000000000  0.0023313451313919  0.0043462129991406   T   T   T
  0.2500000000000000  0.5023878741094162  0.0054887222384971   T   T   T
  0.7500000000000000  0.0031439188114615  0.0052234424311288   T   T   T
  0.7500000000000000  0.5029464445803101  0.0062425325975395   T   T   T
  0.9993135131293358  0.2532372388701709  0.0053003929020624   T   T   T
 -0.0006471080323223  0.7521673837446677  0.0054487707693690   T   T   T
  0.5006864868706642  0.2532372388701709  0.0053003929020624   T   T   T
  0.5006471080323222  0.7521673837446677  0.0054487707693690   T   T   T
  0.9980631483464720  0.0027495016241639  0.0942560298276477   T   T   T
  0.0002423836837587  0.5031125836579976  0.0959088095064028   T   T   T
  0.5019368516535280  0.0027495016241639  0.0942560298276477   T   T   T
  0.4997576163162414  0.5031125836579976  0.0959088095064028   T   T   T
  0.2500000000000000  0.2526001639434423  0.0934502869690472   T   T   T
  0.2500000000000000  0.7503386128429892  0.0939929450305439   T   T   T
  0.7500000000000000  0.2538641766004258  0.0955915564464109   T   T   T
  0.7500000000000000  0.7526341838444868  0.0954978443261785   T   T   T
  0.2500000000000000  0.9957907211989510  0.1791199464806054   T   T   T
  0.2500000000000000  0.5058899170237191  0.1886663196115401   T   T   T
  0.7500000000000000  0.0061506012826483  0.1857346559275006   T   T   T
  0.7500000000000000  0.5020563269203346  0.1878481406636296   T   T   T
  0.0020352801650744  0.2537931077014378  0.1853114493848634   T   T   T
  0.9982491514114422  0.7533267884029737  0.1858934108052664   T   T   T
  0.4979647198349257  0.2537931077014378  0.1853114493848634   T   T   T
  0.5017508485885578  0.7533267884029737  0.1858934108052664   T   T   T
 -0.0021497822249744  0.0071596965183465  0.2747064876317251   T   T   T
  0.0195128286153701  0.5046050432151714  0.2786951482283027   T   T   T
  0.5021497822249742  0.0071596965183465  0.2747064876317251   T   T   T
  0.4804871713846299  0.5046050432151714  0.2786951482283027   T   T   T
  0.2500000000000000  0.7667257490865749  0.2727011662024590   T   T   T
  0.7500000000000000  0.2606302505079818  0.2860740674765619   T   T   T
  0.7500000000000000  0.7529179519019710  0.2757656984913407   T   T   T
 -0.0004920528371899  0.0029734087993519  0.0027045969347853   T   T   T
 -0.0000732626651262  0.5024548544391217  0.0036570931272812   T   T   T
  0.5004920528371901  0.0029734087993519  0.0027045969347853   T   T   T
  0.5000732626651264  0.5024548544391217  0.0036570931272812   T   T   T
  0.2500000000000000  0.2532367729313269  0.0026520251246759   T   T   T
  0.2500000000000000  0.7514977265202717  0.0030193672116104   T   T   T
  0.7500000000000000  0.2535049248640913  0.0036245136452349   T   T   T
  0.7500000000000000  0.7525063186053129  0.0035332266907168   T   T   T
  0.2500000000000000  0.0033413515110154  0.0928229630990682   T   T   T
  0.2500000000000000  0.5000862156033277  0.0960789073272726   T   T   T
  0.7500000000000000  0.0045385651248885  0.0948899599419044   T   T   T
  0.7500000000000000  0.5021382086793212  0.0961814364661970   T   T   T
  0.0004860409444812  0.2531487702406647  0.0954639623829766   T   T   T
 -0.0002280676819356  0.7525902569245480  0.0950355172122565   T   T   T
  0.4995139590555188  0.2531487702406647  0.0954639623829766   T   T   T
  0.5002280676819356  0.7525902569245480  0.0950355172122565   T   T   T
  0.9983162994758841  0.0046858811159221  0.1838468263285161   T   T   T
  0.0018220765585868  0.5015694871442121  0.1863243623581370   T   T   T
  0.5016837005241159  0.0046858811159221  0.1838468263285161   T   T   T
  0.4981779234414132  0.5015694871442121  0.1863243623581370   T   T   T
  0.2500000000000000  0.2407976832376282  0.1869289626576934   T   T   T
  0.2500000000000000  0.7569392787393803  0.1825899666942132   T   T   T
  0.7500000000000000  0.2548393036513260  0.1890592996977901   T   T   T
  0.7500000000000000  0.7537438512126619  0.1852488079903236   T   T   T
  0.2499999495650016  0.0167582361677101  0.2670722980571151   T   T   T
  0.2499999495650016  0.5386295128672879  0.2756387744171178   T   T   T
  0.7499999495650016  0.0164938372043003  0.2751426603185377   T   T   T
  0.7499998486940029  0.5014593678734018  0.2758109082187170   T   T   T
  0.0835627917783423  0.2476712242461896  0.2728941462392613   T   T   T
  0.9980942910091625  0.7646805299355391  0.2766078787013514   T   T   T
  0.4164372082216576  0.2476712242461896  0.2728941462392613   T   T   T
  0.5019058747958357  0.7646809393795378  0.2766078793793513   T   T   T
  0.7499998486940029  0.2797901740352041  0.3916436530447522   T   T   T
 
  0.00000000E+00  0.00000000E+00  0.00000000E+00
  0.00000000E+00  0.00000000E+00  0.00000000E+00
  0.00000000E+00  0.00000000E+00  0.00000000E+00
  0.00000000E+00  0.00000000E+00  0.00000000E+00
  0.00000000E+00  0.00000000E+00  0.00000000E+00
  0.00000000E+00  0.00000000E+00  0.00000000E+00
  0.00000000E+00  0.00000000E+00  0.00000000E+00
  0.00000000E+00  0.00000000E+00  0.00000000E+00
  0.00000000E+00  0.00000000E+00  0.00000000E+00
  0.00000000E+00  0.00000000E+00  0.00000000E+00
  0.00000000E+00  0.00000000E+00  0.00000000E+00
  0.00000000E+00  0.00000000E+00  0.00000000E+00
  0.00000000E+00  0.00000000E+00  0.00000000E+00
  0.00000000E+00  0.00000000E+00  0.00000000E+00
  0.00000000E+00  0.00000000E+00  0.00000000E+00
  0.00000000E+00  0.00000000E+00  0.00000000E+00
  0.00000000E+00  0.00000000E+00  0.00000000E+00
  0.00000000E+00  0.00000000E+00  0.00000000E+00
  0.00000000E+00  0.00000000E+00  0.00000000E+00
  0.00000000E+00  0.00000000E+00  0.00000000E+00
  0.00000000E+00  0.00000000E+00  0.00000000E+00
  0.00000000E+00  0.00000000E+00  0.00000000E+00
  0.00000000E+00  0.00000000E+00  0.00000000E+00
  0.00000000E+00  0.00000000E+00  0.00000000E+00
  0.00000000E+00  0.00000000E+00  0.00000000E+00
  0.00000000E+00  0.00000000E+00  0.00000000E+00
  0.00000000E+00  0.00000000E+00  0.00000000E+00
  0.00000000E+00  0.00000000E+00  0.00000000E+00
  0.00000000E+00  0.00000000E+00  0.00000000E+00
  0.00000000E+00  0.00000000E+00  0.00000000E+00
  0.00000000E+00  0.00000000E+00  0.00000000E+00
  0.00000000E+00  0.00000000E+00  0.00000000E+00
  0.00000000E+00  0.00000000E+00  0.00000000E+00
  0.00000000E+00  0.00000000E+00  0.00000000E+00
  0.00000000E+00  0.00000000E+00  0.00000000E+00
  0.00000000E+00  0.00000000E+00  0.00000000E+00
  0.00000000E+00  0.00000000E+00  0.00000000E+00
  0.00000000E+00  0.00000000E+00  0.00000000E+00
  0.00000000E+00  0.00000000E+00  0.00000000E+00
  0.00000000E+00  0.00000000E+00  0.00000000E+00
  0.00000000E+00  0.00000000E+00  0.00000000E+00
  0.00000000E+00  0.00000000E+00  0.00000000E+00
  0.00000000E+00  0.00000000E+00  0.00000000E+00
  0.00000000E+00  0.00000000E+00  0.00000000E+00
  0.00000000E+00  0.00000000E+00  0.00000000E+00
  0.00000000E+00  0.00000000E+00  0.00000000E+00
  0.00000000E+00  0.00000000E+00  0.00000000E+00
  0.00000000E+00  0.00000000E+00  0.00000000E+00
  0.00000000E+00  0.00000000E+00  0.00000000E+00
  0.00000000E+00  0.00000000E+00  0.00000000E+00
  0.00000000E+00  0.00000000E+00  0.00000000E+00
  0.00000000E+00  0.00000000E+00  0.00000000E+00
  0.00000000E+00  0.00000000E+00  0.00000000E+00
  0.00000000E+00  0.00000000E+00  0.00000000E+00
  0.00000000E+00  0.00000000E+00  0.00000000E+00
  0.00000000E+00  0.00000000E+00  0.00000000E+00
  0.00000000E+00  0.00000000E+00  0.00000000E+00
  0.00000000E+00  0.00000000E+00  0.00000000E+00
  0.00000000E+00  0.00000000E+00  0.00000000E+00
  0.00000000E+00  0.00000000E+00  0.00000000E+00
  0.00000000E+00  0.00000000E+00  0.00000000E+00
  0.00000000E+00  0.00000000E+00  0.00000000E+00
  0.00000000E+00  0.00000000E+00  0.00000000E+00
  0.00000000E+00  0.00000000E+00  0.00000000E+00
  0.00000000E+00  0.00000000E+00  0.00000000E+00
