B Mg O Pd                               
   1.00000000000000     
     8.4141216974800006    0.0000000000000000    0.0000000000000000
     0.0000000000000000    8.4141216974800006    0.0000000000000000
     0.0000000000000000    0.0000000000000000   23.4141216974799988
   B    Mg   O    Pd
     1    31    32     1
Selective dynamics
Direct
  0.2500000000000000  0.1941583046763985  0.2582263744812845   T   T   T
  0.2500000000000000  0.9988724079900549  0.0048395305436268   T   T   T
  0.2500000000000000  0.4990464540917061  0.0055685513476429   T   T   T
  0.7500000000000000 -0.0001531913316072  0.0053396365169052   T   T   T
  0.7500000000000000  0.4997528566163252  0.0062208035268482   T   T   T
  0.9994366908364531  0.2500238611334261  0.0055688075173695   T   T   T
  0.9995308856842976  0.7489952331837660  0.0057013158935098   T   T   T
  0.5005633091635469  0.2500238611334261  0.0055688075173695   T   T   T
  0.5004691143157024  0.7489952331837660  0.0057013158935098   T   T   T
  0.9981554403247408  0.9995732793456034  0.0946666362121178   T   T   T
  0.0008900387346843  0.5002978631207177  0.0961547574287556   T   T   T
  0.5018445596752592  0.9995732793456034  0.0946666362121178   T   T   T
  0.4991099612653158  0.5002978631207177  0.0961547574287556   T   T   T
  0.2500000000000000  0.2498981864210289  0.0937845398706990   T   T   T
  0.2500000000000000  0.7468453695885965  0.0946175792723093   T   T   T
  0.7500000000000000  0.2509779975057346  0.0955174755468251   T   T   T
  0.7500000000000000  0.7501550472307749  0.0956429614658831   T   T   T
  0.2500000000000000  0.9929951150687089  0.1795747109724849   T   T   T
  0.2500000000000000  0.5038138501294679  0.1902461931106628   T   T   T
  0.7500000000000000  0.0027826645403901  0.1858596424709131   T   T   T
  0.7500000000000000  0.5015732725204245  0.1867760911565159   T   T   T
  0.0031471271642601  0.2527326782299504  0.1856630112282920   T   T   T
  0.9982188987843553  0.7496055705162864  0.1867934204702334   T   T   T
  0.4968528728357399  0.2527326782299504  0.1856630112282920   T   T   T
  0.5017811012156447  0.7496055705162864  0.1867934204702334   T   T   T
 -0.0001781866705308  0.0047539344958089  0.2744922477994430   T   T   T
  0.0206003434234450  0.5023103884185479  0.2828634873439941   T   T   T
  0.5001781866705308  0.0047539344958089  0.2744922477994430   T   T   T
  0.4793996565765551  0.5023103884185479  0.2828634873439941   T   T   T
  0.2500000000000000  0.7646709070360770  0.2736144495212786   T   T   T
  0.7500000000000000  0.2562711885692929  0.2815448103427058   T   T   T
  0.7500000000000000  0.7529733775904619  0.2774890123560557   T   T   T
  0.9996404889372204  0.9997362553752658  0.0030481219615371   T   T   T
 -0.0000124269971233  0.4992976605825001  0.0037945669396756   T   T   T
  0.5003595110627796  0.9997362553752658  0.0030481219615371   T   T   T
  0.5000124269971231  0.4992976605825001  0.0037945669396756   T   T   T
  0.2500000000000000  0.2495979047307798  0.0030158280901466   T   T   T
  0.2500000000000000  0.7484551919377077  0.0033376611123332   T   T   T
  0.7500000000000000  0.2501320263638636  0.0038299615199584   T   T   T
  0.7500000000000000  0.7494697609365674  0.0036473143657998   T   T   T
  0.2500000000000000  0.0004768387937055  0.0934251612968826   T   T   T
  0.2500000000000000  0.4969704614869547  0.0962094098554822   T   T   T
  0.7500000000000000  0.0019248228473410  0.0951004445201093   T   T   T
  0.7500000000000000  0.4991929026720202  0.0962384300600671   T   T   T
  0.0003974956369845  0.2502445467893732  0.0958385502852015   T   T   T
  0.9996344250567182  0.7496706956383860  0.0953169262190151   T   T   T
  0.4996025043630156  0.2502445467893732  0.0958385502852015   T   T   T
  0.5003655749432818  0.7496706956383860  0.0953169262190151   T   T   T
  0.9979034948141766  0.0028552929382237  0.1842288028370112   T   T   T
  0.0019927323909495  0.4988566511792902  0.1865390194124270   T   T   T
  0.5020965051858234  0.0028552929382237  0.1842288028370112   T   T   T
  0.4980072676090505  0.4988566511792902  0.1865390194124270   T   T   T
  0.2500000000000000  0.2384103486431758  0.1877567600487392   T   T   T
  0.2500000000000000  0.7541279453358668  0.1831995134931991   T   T   T
  0.7500000000000000  0.2523739562311265  0.1896142734840449   T   T   T
  0.7500000000000000  0.7526586370251935  0.1856378669607292   T   T   T
  0.2499999495650016  0.0137184925074278  0.2672441512409320   T   T   T
  0.2499999495650016  0.5366927476211208  0.2770365328899763   T   T   T
  0.7499999495650016  0.0169848309953704  0.2771528130745437   T   T   T
  0.7499998486940029  0.5034402428804635  0.2730618341755305   T   T   T
  0.0837747817841811  0.2439065107047513  0.2737194081487124   T   T   T
  0.9983700932171033  0.7645714193598765  0.2769832300784740   T   T   T
  0.4162252182158189  0.2439065107047513  0.2737194081487124   T   T   T
  0.5016300725878948  0.7645718288038752  0.2769832307564739   T   T   T
  0.7499998486940029  0.4436190972309306  0.3664537918533237   T   T   T
 
  0.00000000E+00  0.00000000E+00  0.00000000E+00
  0.00000000E+00  0.00000000E+00  0.00000000E+00
  0.00000000E+00  0.00000000E+00  0.00000000E+00
  0.00000000E+00  0.00000000E+00  0.00000000E+00
  0.00000000E+00  0.00000000E+00  0.00000000E+00
  0.00000000E+00  0.00000000E+00  0.00000000E+00
  0.00000000E+00  0.00000000E+00  0.00000000E+00
  0.00000000E+00  0.00000000E+00  0.00000000E+00
  0.00000000E+00  0.00000000E+00  0.00000000E+00
  0.00000000E+00  0.00000000E+00  0.00000000E+00
  0.00000000E+00  0.00000000E+00  0.00000000E+00
  0.00000000E+00  0.00000000E+00  0.00000000E+00
  0.00000000E+00  0.00000000E+00  0.00000000E+00
  0.00000000E+00  0.00000000E+00  0.00000000E+00
  0.00000000E+00  0.00000000E+00  0.00000000E+00
  0.00000000E+00  0.00000000E+00  0.00000000E+00
  0.00000000E+00  0.00000000E+00  0.00000000E+00
  0.00000000E+00  0.00000000E+00  0.00000000E+00
  0.00000000E+00  0.00000000E+00  0.00000000E+00
  0.00000000E+00  0.00000000E+00  0.00000000E+00
  0.00000000E+00  0.00000000E+00  0.00000000E+00
  0.00000000E+00  0.00000000E+00  0.00000000E+00
  0.00000000E+00  0.00000000E+00  0.00000000E+00
  0.00000000E+00  0.00000000E+00  0.00000000E+00
  0.00000000E+00  0.00000000E+00  0.00000000E+00
  0.00000000E+00  0.00000000E+00  0.00000000E+00
  0.00000000E+00  0.00000000E+00  0.00000000E+00
  0.00000000E+00  0.00000000E+00  0.00000000E+00
  0.00000000E+00  0.00000000E+00  0.00000000E+00
  0.00000000E+00  0.00000000E+00  0.00000000E+00
  0.00000000E+00  0.00000000E+00  0.00000000E+00
  0.00000000E+00  0.00000000E+00  0.00000000E+00
  0.00000000E+00  0.00000000E+00  0.00000000E+00
  0.00000000E+00  0.00000000E+00  0.00000000E+00
  0.00000000E+00  0.00000000E+00  0.00000000E+00
  0.00000000E+00  0.00000000E+00  0.00000000E+00
  0.00000000E+00  0.00000000E+00  0.00000000E+00
  0.00000000E+00  0.00000000E+00  0.00000000E+00
  0.00000000E+00  0.00000000E+00  0.00000000E+00
  0.00000000E+00  0.00000000E+00  0.00000000E+00
  0.00000000E+00  0.00000000E+00  0.00000000E+00
  0.00000000E+00  0.00000000E+00  0.00000000E+00
  0.00000000E+00  0.00000000E+00  0.00000000E+00
  0.00000000E+00  0.00000000E+00  0.00000000E+00
  0.00000000E+00  0.00000000E+00  0.00000000E+00
  0.00000000E+00  0.00000000E+00  0.00000000E+00
  0.00000000E+00  0.00000000E+00  0.00000000E+00
  0.00000000E+00  0.00000000E+00  0.00000000E+00
  0.00000000E+00  0.00000000E+00  0.00000000E+00
  0.00000000E+00  0.00000000E+00  0.00000000E+00
  0.00000000E+00  0.00000000E+00  0.00000000E+00
  0.00000000E+00  0.00000000E+00  0.00000000E+00
  0.00000000E+00  0.00000000E+00  0.00000000E+00
  0.00000000E+00  0.00000000E+00  0.00000000E+00
  0.00000000E+00  0.00000000E+00  0.00000000E+00
  0.00000000E+00  0.00000000E+00  0.00000000E+00
  0.00000000E+00  0.00000000E+00  0.00000000E+00
  0.00000000E+00  0.00000000E+00  0.00000000E+00
  0.00000000E+00  0.00000000E+00  0.00000000E+00
  0.00000000E+00  0.00000000E+00  0.00000000E+00
  0.00000000E+00  0.00000000E+00  0.00000000E+00
  0.00000000E+00  0.00000000E+00  0.00000000E+00
  0.00000000E+00  0.00000000E+00  0.00000000E+00
  0.00000000E+00  0.00000000E+00  0.00000000E+00
  0.00000000E+00  0.00000000E+00  0.00000000E+00
