B Mg O                                  
   1.00000000000000     
     8.4141216974800006    0.0000000000000000    0.0000000000000000
     0.0000000000000000    8.4141216974800006    0.0000000000000000
     0.0000000000000000    0.0000000000000000   23.4141216974799988
   B    Mg   O 
     1    31    32
Selective dynamics
Direct
  0.2500000000000000  0.2500000000000000  0.2608929097188391   T   T   T
  0.2500000000000000 -0.0010010656739643  0.0051117264443321   T   T   T
  0.2500000000000000  0.5010010656739643  0.0051117264443321   T   T   T
  0.7500000000000000 -0.0006789599882622  0.0059931889888193   T   T   T
  0.7500000000000000  0.5006789599882622  0.0059931889888193   T   T   T
 -0.0009978845381715  0.2500000000000000  0.0051208882184327   T   T   T
 -0.0006763806876551  0.7500000000000000  0.0059935186753072   T   T   T
  0.5009978845381716  0.2500000000000000  0.0051208882184327   T   T   T
  0.5006763806876554  0.7500000000000000  0.0059935186753072   T   T   T
 -0.0003031296116039 -0.0002996170486537  0.0956800000836681   T   T   T
 -0.0003031296116039  0.5002996170486538  0.0956800000836681   T   T   T
  0.5003031296116039 -0.0002996170486537  0.0956800000836681   T   T   T
  0.5003031296116039  0.5002996170486538  0.0956800000836681   T   T   T
  0.2500000000000000  0.2500000000000000  0.0901404861572495   T   T   T
  0.2500000000000000  0.7500000000000000  0.0951904792269683   T   T   T
  0.7500000000000000  0.2500000000000000  0.0951956119309747   T   T   T
  0.7500000000000000  0.7500000000000000  0.0956103624844269   T   T   T
  0.2500000000000000 -0.0073957553389383  0.1865413378999108   T   T   T
  0.2500000000000000  0.5073957553389384  0.1865413378999108   T   T   T
  0.7500000000000000 -0.0009557421705852  0.1868236386366502   T   T   T
  0.7500000000000000  0.5009557421705852  0.1868236386366502   T   T   T
 -0.0073914004569128  0.2500000000000000  0.1865231273720698   T   T   T
 -0.0009669254574034  0.7500000000000000  0.1867823823499384   T   T   T
  0.5073914004569129  0.2500000000000000  0.1865231273720698   T   T   T
  0.5009669254574035  0.7500000000000000  0.1867823823499384   T   T   T
  0.0050606005336531  0.0050515954673764  0.2762167629741526   T   T   T
  0.0050606005336531  0.4949484045326234  0.2762167629741526   T   T   T
  0.4949393994663469  0.0050515954673764  0.2762167629741526   T   T   T
  0.4949393994663469  0.4949484045326234  0.2762167629741526   T   T   T
  0.2500000000000000  0.7500000000000000  0.2754856177425818   T   T   T
  0.7500000000000000  0.2500000000000000  0.2754859779926264   T   T   T
  0.7500000000000000  0.7500000000000000  0.2763220494679992   T   T   T
  0.0003809761000338  0.0003769760523999  0.0033989209616674   T   T   T
  0.0003809761000338  0.4996230239476001  0.0033989209616674   T   T   T
  0.4996190238999662  0.0003769760523999  0.0033989209616674   T   T   T
  0.4996190238999662  0.4996230239476001  0.0033989209616674   T   T   T
  0.2500000000000000  0.2500000000000000  0.0018944909572488   T   T   T
  0.2500000000000000  0.7500000000000000  0.0038151370726980   T   T   T
  0.7500000000000000  0.2500000000000000  0.0038206018323662   T   T   T
  0.7500000000000000  0.7500000000000000  0.0033660604448998   T   T   T
  0.2500000000000000  0.0045257012889886  0.0960023479434421   T   T   T
  0.2500000000000000  0.4954742987110114  0.0960023479434421   T   T   T
  0.7500000000000000  0.0004655017979248  0.0951169990061811   T   T   T
  0.7500000000000000  0.4995344982020753  0.0951169990061811   T   T   T
  0.0045430331635098  0.2500000000000000  0.0959843465161322   T   T   T
  0.0004784742023525  0.7500000000000000  0.0951063825412294   T   T   T
  0.4954569668364901  0.2500000000000000  0.0959843465161322   T   T   T
  0.4995215257976475  0.7500000000000000  0.0951063825412294   T   T   T
  0.0010619163598845  0.0010638989828762  0.1845121944300499   T   T   T
  0.0010619163598845  0.4989361010171238  0.1845121944300499   T   T   T
  0.4989380836401153  0.0010638989828762  0.1845121944300499   T   T   T
  0.4989380836401153  0.4989361010171238  0.1845121944300499   T   T   T
  0.2500000000000000  0.2500000000000000  0.2007705250438367   T   T   T
  0.2500000000000000  0.7500000000000000  0.1836069916023133   T   T   T
  0.7500000000000000  0.2500000000000000  0.1836127133059889   T   T   T
  0.7500000000000000  0.7500000000000000  0.1849698644854840   T   T   T
  0.2499999495650016 -0.0055374699589361  0.2738959630930535   T   T   T
  0.2499999495650016  0.5055374699589359  0.2738959630930535   T   T   T
  0.7499999495650016 -0.0000434124042346  0.2770734584483288   T   T   T
  0.7499999495650016  0.5000434124042348  0.2770734584483288   T   T   T
 -0.0055310303080849  0.2500000000000000  0.2739015608823307   T   T   T
 -0.0000650821128029  0.7500000000000000  0.2771015176675244   T   T   T
  0.5055310303080851  0.2500000000000000  0.2739015608823307   T   T   T
  0.5000650821128029  0.7500000000000000  0.2771015176675244   T   T   T
 
  0.00000000E+00  0.00000000E+00  0.00000000E+00
  0.00000000E+00  0.00000000E+00  0.00000000E+00
  0.00000000E+00  0.00000000E+00  0.00000000E+00
  0.00000000E+00  0.00000000E+00  0.00000000E+00
  0.00000000E+00  0.00000000E+00  0.00000000E+00
  0.00000000E+00  0.00000000E+00  0.00000000E+00
  0.00000000E+00  0.00000000E+00  0.00000000E+00
  0.00000000E+00  0.00000000E+00  0.00000000E+00
  0.00000000E+00  0.00000000E+00  0.00000000E+00
  0.00000000E+00  0.00000000E+00  0.00000000E+00
  0.00000000E+00  0.00000000E+00  0.00000000E+00
  0.00000000E+00  0.00000000E+00  0.00000000E+00
  0.00000000E+00  0.00000000E+00  0.00000000E+00
  0.00000000E+00  0.00000000E+00  0.00000000E+00
  0.00000000E+00  0.00000000E+00  0.00000000E+00
  0.00000000E+00  0.00000000E+00  0.00000000E+00
  0.00000000E+00  0.00000000E+00  0.00000000E+00
  0.00000000E+00  0.00000000E+00  0.00000000E+00
  0.00000000E+00  0.00000000E+00  0.00000000E+00
  0.00000000E+00  0.00000000E+00  0.00000000E+00
  0.00000000E+00  0.00000000E+00  0.00000000E+00
  0.00000000E+00  0.00000000E+00  0.00000000E+00
  0.00000000E+00  0.00000000E+00  0.00000000E+00
  0.00000000E+00  0.00000000E+00  0.00000000E+00
  0.00000000E+00  0.00000000E+00  0.00000000E+00
  0.00000000E+00  0.00000000E+00  0.00000000E+00
  0.00000000E+00  0.00000000E+00  0.00000000E+00
  0.00000000E+00  0.00000000E+00  0.00000000E+00
  0.00000000E+00  0.00000000E+00  0.00000000E+00
  0.00000000E+00  0.00000000E+00  0.00000000E+00
  0.00000000E+00  0.00000000E+00  0.00000000E+00
  0.00000000E+00  0.00000000E+00  0.00000000E+00
  0.00000000E+00  0.00000000E+00  0.00000000E+00
  0.00000000E+00  0.00000000E+00  0.00000000E+00
  0.00000000E+00  0.00000000E+00  0.00000000E+00
  0.00000000E+00  0.00000000E+00  0.00000000E+00
  0.00000000E+00  0.00000000E+00  0.00000000E+00
  0.00000000E+00  0.00000000E+00  0.00000000E+00
  0.00000000E+00  0.00000000E+00  0.00000000E+00
  0.00000000E+00  0.00000000E+00  0.00000000E+00
  0.00000000E+00  0.00000000E+00  0.00000000E+00
  0.00000000E+00  0.00000000E+00  0.00000000E+00
  0.00000000E+00  0.00000000E+00  0.00000000E+00
  0.00000000E+00  0.00000000E+00  0.00000000E+00
  0.00000000E+00  0.00000000E+00  0.00000000E+00
  0.00000000E+00  0.00000000E+00  0.00000000E+00
  0.00000000E+00  0.00000000E+00  0.00000000E+00
  0.00000000E+00  0.00000000E+00  0.00000000E+00
  0.00000000E+00  0.00000000E+00  0.00000000E+00
  0.00000000E+00  0.00000000E+00  0.00000000E+00
  0.00000000E+00  0.00000000E+00  0.00000000E+00
  0.00000000E+00  0.00000000E+00  0.00000000E+00
  0.00000000E+00  0.00000000E+00  0.00000000E+00
  0.00000000E+00  0.00000000E+00  0.00000000E+00
  0.00000000E+00  0.00000000E+00  0.00000000E+00
  0.00000000E+00  0.00000000E+00  0.00000000E+00
  0.00000000E+00  0.00000000E+00  0.00000000E+00
  0.00000000E+00  0.00000000E+00  0.00000000E+00
  0.00000000E+00  0.00000000E+00  0.00000000E+00
  0.00000000E+00  0.00000000E+00  0.00000000E+00
  0.00000000E+00  0.00000000E+00  0.00000000E+00
  0.00000000E+00  0.00000000E+00  0.00000000E+00
  0.00000000E+00  0.00000000E+00  0.00000000E+00
  0.00000000E+00  0.00000000E+00  0.00000000E+00
