B Co Mg O                               
   1.00000000000000     
     8.4141216974800006    0.0000000000000000    0.0000000000000000
     0.0000000000000000    8.4141216974800006    0.0000000000000000
     0.0000000000000000    0.0000000000000000   23.4141216974799988
   B    Co   Mg   O 
     1     1    31    32
Selective dynamics
Direct
  0.2500000000000000  0.1933295635494564  0.2582041402155324   T   T   T
  0.7499998486940029  0.4555626662888720  0.3658549845134114   T   T   T
  0.2500000000000000  0.9991116985509410  0.0045063197656584   T   T   T
  0.2500000000000000  0.4991601128086958  0.0055733269912086   T   T   T
  0.7500000000000000 -0.0001745817602637  0.0052203816507186   T   T   T
  0.7500000000000000  0.4996516800330145  0.0063243705853347   T   T   T
 -0.0006330554298289  0.2503780958088405  0.0054561135663428   T   T   T
 -0.0005658121402485  0.7489006458262415  0.0055573877895460   T   T   T
  0.5006330554298287  0.2503780958088405  0.0054561135663428   T   T   T
  0.5005658121402485  0.7489006458262415  0.0055573877895460   T   T   T
 -0.0018410425686409 -0.0004897223658536  0.0943468487016116   T   T   T
  0.0007025693541091  0.5001675387294465  0.0960292454252307   T   T   T
  0.5018410425686409 -0.0004897223658536  0.0943468487016116   T   T   T
  0.4992974306458908  0.5001675387294465  0.0960292454252307   T   T   T
  0.2500000000000000  0.2498075914667517  0.0935915105306632   T   T   T
  0.2500000000000000  0.7468549485768530  0.0943661493031272   T   T   T
  0.7500000000000000  0.2506962050188276  0.0955289190148168   T   T   T
  0.7500000000000000  0.7500443107426930  0.0955090840665366   T   T   T
  0.2500000000000000  0.9927912920769396  0.1792323056376244   T   T   T
  0.2500000000000000  0.5029474524879979  0.1897853018656056   T   T   T
  0.7500000000000000  0.0026199175676793  0.1856308547813547   T   T   T
  0.7500000000000000  0.5012577048386058  0.1871046302580667   T   T   T
  0.0029822215719003  0.2523106088370548  0.1853306022162691   T   T   T
  0.9985202329437343  0.7492554633168890  0.1863813736396349   T   T   T
  0.4970177784280997  0.2523106088370548  0.1853306022162691   T   T   T
  0.5014797670562657  0.7492554633168890  0.1863813736396349   T   T   T
 -0.0001204763183241  0.0036525976088455  0.2738446347463587   T   T   T
  0.0205757594530956  0.5016855362666334  0.2821446032479094   T   T   T
  0.5001204763183240  0.0036525976088455  0.2738446347463587   T   T   T
  0.4794242405469046  0.5016855362666334  0.2821446032479094   T   T   T
  0.2500000000000000  0.7633338502844891  0.2732338978751663   T   T   T
  0.7500000000000000  0.2570052192038770  0.2820010599855481   T   T   T
  0.7500000000000000  0.7519606328075141  0.2773399222499122   T   T   T
 -0.0004014170257796 -0.0001021515609766  0.0027801420731647   T   T   T
 -0.0000307102575048  0.4993846897747113  0.0038042336356379   T   T   T
  0.5004014170257796 -0.0001021515609766  0.0027801420731647   T   T   T
  0.5000307102575047  0.4993846897747113  0.0038042336356379   T   T   T
  0.2500000000000000  0.2498342719785625  0.0028931427883167   T   T   T
  0.2500000000000000  0.7484968928613085  0.0030903813954494   T   T   T
  0.7500000000000000  0.2502357433817764  0.0037071993179678   T   T   T
  0.7500000000000000  0.7493105932328691  0.0035614722916297   T   T   T
  0.2500000000000000  0.0003551860889653  0.0930338791152484   T   T   T
  0.2500000000000000  0.4968766498656341  0.0961100112615015   T   T   T
  0.7500000000000000  0.0016426108869011  0.0948973812534970   T   T   T
  0.7500000000000000  0.4991891849267586  0.0962344639792612   T   T   T
  0.0003671392976719  0.2500891083454255  0.0955839964721044   T   T   T
 -0.0003318091184947  0.7495503258323900  0.0951484722276013   T   T   T
  0.4996328607023281  0.2500891083454255  0.0955839964721044   T   T   T
  0.5003318091184946  0.7495503258323900  0.0951484722276013   T   T   T
 -0.0020302430412974  0.0025159551546389  0.1838962484607086   T   T   T
  0.0018937787893535  0.4984566604313007  0.1863551567783843   T   T   T
  0.5020302430412975  0.0025159551546389  0.1838962484607086   T   T   T
  0.4981062212106465  0.4984566604313007  0.1863551567783843   T   T   T
  0.2500000000000000  0.2383613899892372  0.1872373899850337   T   T   T
  0.2500000000000000  0.7536982304086173  0.1829112889226617   T   T   T
  0.7500000000000000  0.2517148825846897  0.1893627988142304   T   T   T
  0.7500000000000000  0.7523441542509165  0.1855515721725537   T   T   T
  0.2499999495650016  0.0131897998549715  0.2670057836312628   T   T   T
  0.2499999495650016  0.5355668953862325  0.2764412135415646   T   T   T
  0.7499999495650016  0.0170401119596693  0.2769340811339767   T   T   T
  0.7499998486940029  0.5008895672979915  0.2740257139539143   T   T   T
  0.0837718054561538  0.2430464047630645  0.2734648959976150   T   T   T
 -0.0013702036937212  0.7638660804588245  0.2764911631546965   T   T   T
  0.4162281945438460  0.2430464047630645  0.2734648959976150   T   T   T
  0.5013702036937215  0.7638660804588245  0.2764911631546965   T   T   T
 
  0.00000000E+00  0.00000000E+00  0.00000000E+00
  0.00000000E+00  0.00000000E+00  0.00000000E+00
  0.00000000E+00  0.00000000E+00  0.00000000E+00
  0.00000000E+00  0.00000000E+00  0.00000000E+00
  0.00000000E+00  0.00000000E+00  0.00000000E+00
  0.00000000E+00  0.00000000E+00  0.00000000E+00
  0.00000000E+00  0.00000000E+00  0.00000000E+00
  0.00000000E+00  0.00000000E+00  0.00000000E+00
  0.00000000E+00  0.00000000E+00  0.00000000E+00
  0.00000000E+00  0.00000000E+00  0.00000000E+00
  0.00000000E+00  0.00000000E+00  0.00000000E+00
  0.00000000E+00  0.00000000E+00  0.00000000E+00
  0.00000000E+00  0.00000000E+00  0.00000000E+00
  0.00000000E+00  0.00000000E+00  0.00000000E+00
  0.00000000E+00  0.00000000E+00  0.00000000E+00
  0.00000000E+00  0.00000000E+00  0.00000000E+00
  0.00000000E+00  0.00000000E+00  0.00000000E+00
  0.00000000E+00  0.00000000E+00  0.00000000E+00
  0.00000000E+00  0.00000000E+00  0.00000000E+00
  0.00000000E+00  0.00000000E+00  0.00000000E+00
  0.00000000E+00  0.00000000E+00  0.00000000E+00
  0.00000000E+00  0.00000000E+00  0.00000000E+00
  0.00000000E+00  0.00000000E+00  0.00000000E+00
  0.00000000E+00  0.00000000E+00  0.00000000E+00
  0.00000000E+00  0.00000000E+00  0.00000000E+00
  0.00000000E+00  0.00000000E+00  0.00000000E+00
  0.00000000E+00  0.00000000E+00  0.00000000E+00
  0.00000000E+00  0.00000000E+00  0.00000000E+00
  0.00000000E+00  0.00000000E+00  0.00000000E+00
  0.00000000E+00  0.00000000E+00  0.00000000E+00
  0.00000000E+00  0.00000000E+00  0.00000000E+00
  0.00000000E+00  0.00000000E+00  0.00000000E+00
  0.00000000E+00  0.00000000E+00  0.00000000E+00
  0.00000000E+00  0.00000000E+00  0.00000000E+00
  0.00000000E+00  0.00000000E+00  0.00000000E+00
  0.00000000E+00  0.00000000E+00  0.00000000E+00
  0.00000000E+00  0.00000000E+00  0.00000000E+00
  0.00000000E+00  0.00000000E+00  0.00000000E+00
  0.00000000E+00  0.00000000E+00  0.00000000E+00
  0.00000000E+00  0.00000000E+00  0.00000000E+00
  0.00000000E+00  0.00000000E+00  0.00000000E+00
  0.00000000E+00  0.00000000E+00  0.00000000E+00
  0.00000000E+00  0.00000000E+00  0.00000000E+00
  0.00000000E+00  0.00000000E+00  0.00000000E+00
  0.00000000E+00  0.00000000E+00  0.00000000E+00
  0.00000000E+00  0.00000000E+00  0.00000000E+00
  0.00000000E+00  0.00000000E+00  0.00000000E+00
  0.00000000E+00  0.00000000E+00  0.00000000E+00
  0.00000000E+00  0.00000000E+00  0.00000000E+00
  0.00000000E+00  0.00000000E+00  0.00000000E+00
  0.00000000E+00  0.00000000E+00  0.00000000E+00
  0.00000000E+00  0.00000000E+00  0.00000000E+00
  0.00000000E+00  0.00000000E+00  0.00000000E+00
  0.00000000E+00  0.00000000E+00  0.00000000E+00
  0.00000000E+00  0.00000000E+00  0.00000000E+00
  0.00000000E+00  0.00000000E+00  0.00000000E+00
  0.00000000E+00  0.00000000E+00  0.00000000E+00
  0.00000000E+00  0.00000000E+00  0.00000000E+00
  0.00000000E+00  0.00000000E+00  0.00000000E+00
  0.00000000E+00  0.00000000E+00  0.00000000E+00
  0.00000000E+00  0.00000000E+00  0.00000000E+00
  0.00000000E+00  0.00000000E+00  0.00000000E+00
  0.00000000E+00  0.00000000E+00  0.00000000E+00
  0.00000000E+00  0.00000000E+00  0.00000000E+00
  0.00000000E+00  0.00000000E+00  0.00000000E+00
