B Mg O Zn                               
   1.00000000000000     
     8.4141216974800006    0.0000000000000000    0.0000000000000000
     0.0000000000000000    8.4141216974800006    0.0000000000000000
     0.0000000000000000    0.0000000000000000   23.4141216974799988
   B    Mg   O    Zn
     1    31    32     1
Selective dynamics
Direct
  0.2500000000000000  0.1948522591815029  0.2580018246517261   T   T   T
  0.2500000000000000  0.9989323111806688  0.0041214624017319   T   T   T
  0.2500000000000000  0.4990196698102400  0.0050341096988578   T   T   T
  0.7500000000000000 -0.0004840006251924  0.0048767229131224   T   T   T
  0.7500000000000000  0.4996048145555269  0.0057781079706894   T   T   T
  0.9993277255626177  0.2499970226005454  0.0049598281532957   T   T   T
  0.9992951833624505  0.7487877977288615  0.0051435729450653   T   T   T
  0.5006722744373823  0.2499970226005454  0.0049598281532957   T   T   T
  0.5007048166375495  0.7487877977288615  0.0051435729450653   T   T   T
  0.9980949813084239  0.9993386401556508  0.0939939632664025   T   T   T
  0.0001455739692243  0.4998057594716024  0.0954927865631729   T   T   T
  0.5019050186915761  0.9993386401556508  0.0939939632664025   T   T   T
  0.4998544260307757  0.4998057594716024  0.0954927865631729   T   T   T
  0.2500000000000000  0.2494355473255263  0.0931381698170937   T   T   T
  0.2500000000000000  0.7471476829481490  0.0938424560225844   T   T   T
  0.7500000000000000  0.2505562922646519  0.0951455411470307   T   T   T
  0.7500000000000000  0.7492112862199313  0.0953162131112216   T   T   T
  0.2500000000000000  0.9928035178631129  0.1790856586223245   T   T   T
  0.2500000000000000  0.5031948108970266  0.1882994774051316   T   T   T
  0.7500000000000000  0.0023848577464855  0.1856629366686452   T   T   T
  0.7500000000000000  0.4992043350704091  0.1876007025314403   T   T   T
  0.0022403862854862  0.2506223510926199  0.1850245713816327   T   T   T
  0.9981384817165188  0.7503344920161635  0.1857484679265186   T   T   T
  0.4977596137145137  0.2506223510926199  0.1850245713816327   T   T   T
  0.5018615182834812  0.7503344920161635  0.1857484679265186   T   T   T
 -0.0010161208769462  0.0033915331880116  0.2744059444267742   T   T   T
  0.0206071498215636  0.5023642419045646  0.2775924994106383   T   T   T
  0.5010161208769464  0.0033915331880116  0.2744059444267742   T   T   T
  0.4793928501784365  0.5023642419045646  0.2775924994106383   T   T   T
  0.2500000000000000  0.7634713183432238  0.2729420031646522   T   T   T
  0.7500000000000000  0.2554630583471412  0.2845968399191622   T   T   T
  0.7500000000000000  0.7511920205252828  0.2769011811995561   T   T   T
  0.9995311626940667  0.9995689653096276  0.0028186495282877   T   T   T
  0.0000047971766289  0.4991956541410614  0.0036583812261053   T   T   T
  0.5004688373059333  0.9995689653096276  0.0028186495282877   T   T   T
  0.4999952028233711  0.4991956541410614  0.0036583812261053   T   T   T
  0.2500000000000000  0.2497234938717099  0.0027422891858360   T   T   T
  0.2500000000000000  0.7483056312522159  0.0030471978706814   T   T   T
  0.7500000000000000  0.2499381904052592  0.0035881896600151   T   T   T
  0.7500000000000000  0.7491760307957278  0.0035246460527119   T   T   T
  0.2500000000000000  0.0002106556619312  0.0929530060486780   T   T   T
  0.2500000000000000  0.4967898451230879  0.0961058585104859   T   T   T
  0.7500000000000000  0.0010449359318636  0.0949545365785786   T   T   T
  0.7500000000000000  0.4987762714503510  0.0961640056491837   T   T   T
  0.0005459573570070  0.2498645238377248  0.0955078823235704   T   T   T
  0.9996195012881265  0.7492226205071942  0.0950764935311019   T   T   T
  0.4994540426429930  0.2498645238377248  0.0955078823235704   T   T   T
  0.5003804987118735  0.7492226205071942  0.0950764935311019   T   T   T
  0.9982383097316945  0.0017443411267174  0.1839212151207382   T   T   T
  0.0015629251430785  0.4981852949630942  0.1863239442120348   T   T   T
  0.5017616902683055  0.0017443411267174  0.1839212151207382   T   T   T
  0.4984370748569215  0.4981852949630942  0.1863239442120348   T   T   T
  0.2500000000000000  0.2380444639038911  0.1873247088233747   T   T   T
  0.2500000000000000  0.7537840678481095  0.1826827182833262   T   T   T
  0.7500000000000000  0.2514495174681619  0.1892247740361911   T   T   T
  0.7500000000000000  0.7503731659524994  0.1856498598612044   T   T   T
  0.2499999495650016  0.0137035011012376  0.2670986854677171   T   T   T
  0.2499999495650016  0.5355540240191028  0.2755382639036610   T   T   T
  0.7499999495650016  0.0135044884503343  0.2764073035159994   T   T   T
  0.7499998486940029  0.4964837446236749  0.2760782058765888   T   T   T
  0.0838123273837790  0.2449750724213320  0.2734900283590383   T   T   T
  0.9982489396563838  0.7610143094599228  0.2763972691303756   T   T   T
  0.4161876726162212  0.2449750724213320  0.2734900283590383   T   T   T
  0.5017512261486143  0.7610147189039215  0.2763972698083755   T   T   T
  0.7499998486940029  0.4880666491447677  0.3970300785172679   T   T   T
 
  0.00000000E+00  0.00000000E+00  0.00000000E+00
  0.00000000E+00  0.00000000E+00  0.00000000E+00
  0.00000000E+00  0.00000000E+00  0.00000000E+00
  0.00000000E+00  0.00000000E+00  0.00000000E+00
  0.00000000E+00  0.00000000E+00  0.00000000E+00
  0.00000000E+00  0.00000000E+00  0.00000000E+00
  0.00000000E+00  0.00000000E+00  0.00000000E+00
  0.00000000E+00  0.00000000E+00  0.00000000E+00
  0.00000000E+00  0.00000000E+00  0.00000000E+00
  0.00000000E+00  0.00000000E+00  0.00000000E+00
  0.00000000E+00  0.00000000E+00  0.00000000E+00
  0.00000000E+00  0.00000000E+00  0.00000000E+00
  0.00000000E+00  0.00000000E+00  0.00000000E+00
  0.00000000E+00  0.00000000E+00  0.00000000E+00
  0.00000000E+00  0.00000000E+00  0.00000000E+00
  0.00000000E+00  0.00000000E+00  0.00000000E+00
  0.00000000E+00  0.00000000E+00  0.00000000E+00
  0.00000000E+00  0.00000000E+00  0.00000000E+00
  0.00000000E+00  0.00000000E+00  0.00000000E+00
  0.00000000E+00  0.00000000E+00  0.00000000E+00
  0.00000000E+00  0.00000000E+00  0.00000000E+00
  0.00000000E+00  0.00000000E+00  0.00000000E+00
  0.00000000E+00  0.00000000E+00  0.00000000E+00
  0.00000000E+00  0.00000000E+00  0.00000000E+00
  0.00000000E+00  0.00000000E+00  0.00000000E+00
  0.00000000E+00  0.00000000E+00  0.00000000E+00
  0.00000000E+00  0.00000000E+00  0.00000000E+00
  0.00000000E+00  0.00000000E+00  0.00000000E+00
  0.00000000E+00  0.00000000E+00  0.00000000E+00
  0.00000000E+00  0.00000000E+00  0.00000000E+00
  0.00000000E+00  0.00000000E+00  0.00000000E+00
  0.00000000E+00  0.00000000E+00  0.00000000E+00
  0.00000000E+00  0.00000000E+00  0.00000000E+00
  0.00000000E+00  0.00000000E+00  0.00000000E+00
  0.00000000E+00  0.00000000E+00  0.00000000E+00
  0.00000000E+00  0.00000000E+00  0.00000000E+00
  0.00000000E+00  0.00000000E+00  0.00000000E+00
  0.00000000E+00  0.00000000E+00  0.00000000E+00
  0.00000000E+00  0.00000000E+00  0.00000000E+00
  0.00000000E+00  0.00000000E+00  0.00000000E+00
  0.00000000E+00  0.00000000E+00  0.00000000E+00
  0.00000000E+00  0.00000000E+00  0.00000000E+00
  0.00000000E+00  0.00000000E+00  0.00000000E+00
  0.00000000E+00  0.00000000E+00  0.00000000E+00
  0.00000000E+00  0.00000000E+00  0.00000000E+00
  0.00000000E+00  0.00000000E+00  0.00000000E+00
  0.00000000E+00  0.00000000E+00  0.00000000E+00
  0.00000000E+00  0.00000000E+00  0.00000000E+00
  0.00000000E+00  0.00000000E+00  0.00000000E+00
  0.00000000E+00  0.00000000E+00  0.00000000E+00
  0.00000000E+00  0.00000000E+00  0.00000000E+00
  0.00000000E+00  0.00000000E+00  0.00000000E+00
  0.00000000E+00  0.00000000E+00  0.00000000E+00
  0.00000000E+00  0.00000000E+00  0.00000000E+00
  0.00000000E+00  0.00000000E+00  0.00000000E+00
  0.00000000E+00  0.00000000E+00  0.00000000E+00
  0.00000000E+00  0.00000000E+00  0.00000000E+00
  0.00000000E+00  0.00000000E+00  0.00000000E+00
  0.00000000E+00  0.00000000E+00  0.00000000E+00
  0.00000000E+00  0.00000000E+00  0.00000000E+00
  0.00000000E+00  0.00000000E+00  0.00000000E+00
  0.00000000E+00  0.00000000E+00  0.00000000E+00
  0.00000000E+00  0.00000000E+00  0.00000000E+00
  0.00000000E+00  0.00000000E+00  0.00000000E+00
  0.00000000E+00  0.00000000E+00  0.00000000E+00
