B Mg O Pd                               
   1.00000000000000     
     8.4141216974800006    0.0000000000000000    0.0000000000000000
     0.0000000000000000    8.4141216974800006    0.0000000000000000
     0.0000000000000000    0.0000000000000000   23.4141216974799988
   B    Mg   O    Pd
     1    31    32     1
Selective dynamics
Direct
  0.2500000000000000  0.1935349895253349  0.2583358184330826   T   T   T
  0.2500000000000000  0.9992932083484829  0.0046392130703150   T   T   T
  0.2500000000000000  0.4990908489961656  0.0057609391399497   T   T   T
  0.7500000000000000  0.0001445954861864  0.0053275995536077   T   T   T
  0.7500000000000000  0.4996242038690060  0.0065949197372724   T   T   T
 -0.0006445098031649  0.2506202557283209  0.0057203705124442   T   T   T
 -0.0005549454185990  0.7487963100667760  0.0057297929436314   T   T   T
  0.5006445098031649  0.2506202557283209  0.0057203705124442   T   T   T
  0.5005549454185988  0.7487963100667760  0.0057297929436314   T   T   T
 -0.0016867416835324 -0.0003970112673853  0.0944454477339581   T   T   T
  0.0009297248913152  0.4999602558880090  0.0962655564910809   T   T   T
  0.5016867416835323 -0.0003970112673853  0.0944454477339581   T   T   T
  0.4990702751086847  0.4999602558880090  0.0962655564910809   T   T   T
  0.2500000000000000  0.2497165375216266  0.0938221499106481   T   T   T
  0.2500000000000000  0.7468893221973751  0.0945259398353703   T   T   T
  0.7500000000000000  0.2507194290146944  0.0956898126586935   T   T   T
  0.7500000000000000  0.7498945639289408  0.0955812642453967   T   T   T
  0.2500000000000000  0.9929658477016150  0.1793402477596083   T   T   T
  0.2500000000000000  0.5030171680604050  0.1900448342624882   T   T   T
  0.7500000000000000  0.0026439485805389  0.1855891401767459   T   T   T
  0.7500000000000000  0.5013486244675474  0.1867928208054502   T   T   T
  0.0032349088811235  0.2523346219046670  0.1856477000656674   T   T   T
  0.9982594089651087  0.7493679966324667  0.1865144838023367   T   T   T
  0.4967650911188765  0.2523346219046670  0.1856477000656674   T   T   T
  0.5017405910348913  0.7493679966324667  0.1865144838023367   T   T   T
 -0.0002197049862910  0.0041366752631668  0.2740330853715044   T   T   T
  0.0205573420193068  0.5027939062529200  0.2825134142905787   T   T   T
  0.5002197049862910  0.0041366752631668  0.2740330853715044   T   T   T
  0.4794426579806932  0.5027939062529200  0.2825134142905787   T   T   T
  0.2500000000000000  0.7641993667187081  0.2732796215360589   T   T   T
  0.7500000000000000  0.2565264707160507  0.2817777816903535   T   T   T
  0.7500000000000000  0.7529502229353831  0.2771465858781776   T   T   T
 -0.0003220238475648  0.0000528787452568  0.0029321439127550   T   T   T
 -0.0000740287673344  0.4993912943299679  0.0040653462764823   T   T   T
  0.5003220238475649  0.0000528787452568  0.0029321439127550   T   T   T
  0.5000740287673345  0.4993912943299679  0.0040653462764823   T   T   T
  0.2500000000000000  0.2499266662238903  0.0030289458752287   T   T   T
  0.2500000000000000  0.7485537942046561  0.0032375307886887   T   T   T
  0.7500000000000000  0.2504526589695032  0.0039588151182621   T   T   T
  0.7500000000000000  0.7492763560643063  0.0038063052116927   T   T   T
  0.2500000000000000  0.0002641336486074  0.0931302308756637   T   T   T
  0.2500000000000000  0.4969160122256776  0.0963126307678715   T   T   T
  0.7500000000000000  0.0017117176196975  0.0949544250780826   T   T   T
  0.7500000000000000  0.4990986719326764  0.0963517889875727   T   T   T
  0.0004018143403992  0.2501095525351924  0.0957955282301048   T   T   T
 -0.0003252859309016  0.7495164861970709  0.0952644046282029   T   T   T
  0.4995981856596008  0.2501095525351924  0.0957955282301048   T   T   T
  0.5003252859309015  0.7495164861970709  0.0952644046282029   T   T   T
 -0.0019442032154858  0.0027215419419675  0.1839248558795485   T   T   T
  0.0017835391627643  0.4985638290596300  0.1865576119383817   T   T   T
  0.5019442032154859  0.0027215419419675  0.1839248558795485   T   T   T
  0.4982164608372358  0.4985638290596300  0.1865576119383817   T   T   T
  0.2500000000000000  0.2383496227877246  0.1873078641750375   T   T   T
  0.2500000000000000  0.7536847176743295  0.1829819350971240   T   T   T
  0.7500000000000000  0.2522677546537853  0.1895238902792410   T   T   T
  0.7500000000000000  0.7524775769081785  0.1853836130654512   T   T   T
  0.2499999495650016  0.0128580045993638  0.2670991677822926   T   T   T
  0.2499999495650016  0.5362508452389178  0.2768943778635903   T   T   T
  0.7499999495650016  0.0168892456251217  0.2768569178049889   T   T   T
  0.7499998486940029  0.5033100726265455  0.2730103693690475   T   T   T
  0.0840621018504241  0.2430172372713977  0.2736805797010519   T   T   T
 -0.0015016134172922  0.7641900915044063  0.2764989103277355   T   T   T
  0.4159378981495758  0.2430172372713977  0.2736805797010519   T   T   T
  0.5015016134172923  0.7641900915044063  0.2764989103277355   T   T   T
  0.7499998486940029  0.4448430607742955  0.3665110616819988   T   T   T
 
  0.00000000E+00  0.00000000E+00  0.00000000E+00
  0.00000000E+00  0.00000000E+00  0.00000000E+00
  0.00000000E+00  0.00000000E+00  0.00000000E+00
  0.00000000E+00  0.00000000E+00  0.00000000E+00
  0.00000000E+00  0.00000000E+00  0.00000000E+00
  0.00000000E+00  0.00000000E+00  0.00000000E+00
  0.00000000E+00  0.00000000E+00  0.00000000E+00
  0.00000000E+00  0.00000000E+00  0.00000000E+00
  0.00000000E+00  0.00000000E+00  0.00000000E+00
  0.00000000E+00  0.00000000E+00  0.00000000E+00
  0.00000000E+00  0.00000000E+00  0.00000000E+00
  0.00000000E+00  0.00000000E+00  0.00000000E+00
  0.00000000E+00  0.00000000E+00  0.00000000E+00
  0.00000000E+00  0.00000000E+00  0.00000000E+00
  0.00000000E+00  0.00000000E+00  0.00000000E+00
  0.00000000E+00  0.00000000E+00  0.00000000E+00
  0.00000000E+00  0.00000000E+00  0.00000000E+00
  0.00000000E+00  0.00000000E+00  0.00000000E+00
  0.00000000E+00  0.00000000E+00  0.00000000E+00
  0.00000000E+00  0.00000000E+00  0.00000000E+00
  0.00000000E+00  0.00000000E+00  0.00000000E+00
  0.00000000E+00  0.00000000E+00  0.00000000E+00
  0.00000000E+00  0.00000000E+00  0.00000000E+00
  0.00000000E+00  0.00000000E+00  0.00000000E+00
  0.00000000E+00  0.00000000E+00  0.00000000E+00
  0.00000000E+00  0.00000000E+00  0.00000000E+00
  0.00000000E+00  0.00000000E+00  0.00000000E+00
  0.00000000E+00  0.00000000E+00  0.00000000E+00
  0.00000000E+00  0.00000000E+00  0.00000000E+00
  0.00000000E+00  0.00000000E+00  0.00000000E+00
  0.00000000E+00  0.00000000E+00  0.00000000E+00
  0.00000000E+00  0.00000000E+00  0.00000000E+00
  0.00000000E+00  0.00000000E+00  0.00000000E+00
  0.00000000E+00  0.00000000E+00  0.00000000E+00
  0.00000000E+00  0.00000000E+00  0.00000000E+00
  0.00000000E+00  0.00000000E+00  0.00000000E+00
  0.00000000E+00  0.00000000E+00  0.00000000E+00
  0.00000000E+00  0.00000000E+00  0.00000000E+00
  0.00000000E+00  0.00000000E+00  0.00000000E+00
  0.00000000E+00  0.00000000E+00  0.00000000E+00
  0.00000000E+00  0.00000000E+00  0.00000000E+00
  0.00000000E+00  0.00000000E+00  0.00000000E+00
  0.00000000E+00  0.00000000E+00  0.00000000E+00
  0.00000000E+00  0.00000000E+00  0.00000000E+00
  0.00000000E+00  0.00000000E+00  0.00000000E+00
  0.00000000E+00  0.00000000E+00  0.00000000E+00
  0.00000000E+00  0.00000000E+00  0.00000000E+00
  0.00000000E+00  0.00000000E+00  0.00000000E+00
  0.00000000E+00  0.00000000E+00  0.00000000E+00
  0.00000000E+00  0.00000000E+00  0.00000000E+00
  0.00000000E+00  0.00000000E+00  0.00000000E+00
  0.00000000E+00  0.00000000E+00  0.00000000E+00
  0.00000000E+00  0.00000000E+00  0.00000000E+00
  0.00000000E+00  0.00000000E+00  0.00000000E+00
  0.00000000E+00  0.00000000E+00  0.00000000E+00
  0.00000000E+00  0.00000000E+00  0.00000000E+00
  0.00000000E+00  0.00000000E+00  0.00000000E+00
  0.00000000E+00  0.00000000E+00  0.00000000E+00
  0.00000000E+00  0.00000000E+00  0.00000000E+00
  0.00000000E+00  0.00000000E+00  0.00000000E+00
  0.00000000E+00  0.00000000E+00  0.00000000E+00
  0.00000000E+00  0.00000000E+00  0.00000000E+00
  0.00000000E+00  0.00000000E+00  0.00000000E+00
  0.00000000E+00  0.00000000E+00  0.00000000E+00
  0.00000000E+00  0.00000000E+00  0.00000000E+00
