B Fe Mg O                               
   1.00000000000000     
     8.4141216974800006    0.0000000000000000    0.0000000000000000
     0.0000000000000000    8.4141216974800006    0.0000000000000000
     0.0000000000000000    0.0000000000000000   23.4141216974799988
   B    Fe   Mg   O 
     1     1    31    32
Selective dynamics
Direct
  0.2500000000000000  0.1952450122787168  0.2590911722561384   T   T   T
  0.7499998486940029  0.5043699202590655  0.3618476415016926   T   T   T
  0.2500000000000000  0.9986031824893401  0.0040822133514919   T   T   T
  0.2500000000000000  0.5002459620191635  0.0048851490364721   T   T   T
  0.7500000000000000  0.9991249217741435  0.0049894469905061   T   T   T
  0.7500000000000000  0.5004632114199539  0.0059340702721206   T   T   T
  0.9992996507862947  0.2502697297145842  0.0048668563770790   T   T   T
  0.9994710653877324  0.7491445929130580  0.0055626309205133   T   T   T
  0.5007003492137053  0.2502697297145842  0.0048668563770790   T   T   T
  0.5005289346122676  0.7491445929130580  0.0055626309205133   T   T   T
 -0.0012078146953676  0.9993877306400593  0.0944912424299645   T   T   T
  0.0004775200589223  0.4998901377693188  0.0961855058762007   T   T   T
  0.5012078146953680  0.9993877306400593  0.0944912424299645   T   T   T
  0.4995224799410774  0.4998901377693188  0.0961855058762007   T   T   T
  0.2500000000000000  0.2501014220654215  0.0905845094230330   T   T   T
  0.2500000000000000  0.7470509794326878  0.0946665052867301   T   T   T
  0.7500000000000000  0.2506584279033060  0.0948929705166109   T   T   T
  0.7500000000000000  0.7489650074468672  0.0953217845713008   T   T   T
  0.2500000000000000  0.9920992779626348  0.1804119602910872   T   T   T
  0.2500000000000000  0.5041112932911213  0.1898237452120628   T   T   T
  0.7500000000000000  0.9992939507626800  0.1845420661783384   T   T   T
  0.7500000000000000  0.5008591003044712  0.1868658006750450   T   T   T
  0.9936042906735278  0.2506997896472805  0.1867565525616573   T   T   T
  0.9994113061158861  0.7494819344657424  0.1872803031552366   T   T   T
  0.5063957093264722  0.2506997896472805  0.1867565525616573   T   T   T
  0.5005886938841139  0.7494819344657424  0.1872803031552366   T   T   T
 -0.0077835076594405  0.0062952420997918  0.2746629202810837   T   T   T
  0.0217426982165278  0.4858630717255790  0.2804775813156503   T   T   T
  0.5077835076594405  0.0062952420997918  0.2746629202810837   T   T   T
  0.4782573017834723  0.4858630717255790  0.2804775813156503   T   T   T
  0.2500000000000000  0.7565414289219864  0.2751653202985004   T   T   T
  0.7500000000000000  0.2433659347732354  0.2767026666886593   T   T   T
  0.7500000000000000  0.7589440564154366  0.2774701579283062   T   T   T
  0.0000109672509228  0.0000273543381857  0.0025734185328377   T   T   T
  0.0005023316500667  0.4993849573700884  0.0033868826994714   T   T   T
  0.4999890327490774  0.0000273543381857  0.0025734185328377   T   T   T
  0.4994976683499334  0.4993849573700884  0.0033868826994714   T   T   T
  0.2500000000000000  0.2501815644316084  0.0015768546073421   T   T   T
  0.2500000000000000  0.7487519759689057  0.0032835323363267   T   T   T
  0.7500000000000000  0.2500767629625704  0.0035261407252915   T   T   T
  0.7500000000000000  0.7495305630355573  0.0029926705468027   T   T   T
  0.2500000000000000  0.0025493744299925  0.0936580752755699   T   T   T
  0.2500000000000000  0.4953424349189593  0.0967480313656199   T   T   T
  0.7500000000000000 -0.0001470373356123  0.0942582183944680   T   T   T
  0.7500000000000000  0.4998365439674116  0.0953212204561266   T   T   T
  0.0040594344847480  0.2501274434557286  0.0955837979972690   T   T   T
  0.0003349615386907  0.7491046536551533  0.0949581942046817   T   T   T
  0.4959405655152520  0.2501274434557286  0.0955837979972690   T   T   T
  0.4996650384613092  0.7491046536551533  0.0949581942046817   T   T   T
  0.0003331192600680  0.0006617289458345  0.1832431834733468   T   T   T
  0.0009171796329824  0.4989689504048169  0.1864172044034744   T   T   T
  0.4996668807399320  0.0006617289458345  0.1832431834733468   T   T   T
  0.4990828203670173  0.4989689504048169  0.1864172044034744   T   T   T
  0.2500000000000000  0.2400896692811052  0.1982817751734111   T   T   T
  0.2500000000000000  0.7534537403920325  0.1836914885334081   T   T   T
  0.7500000000000000  0.2518059898380310  0.1834536545115995   T   T   T
  0.7500000000000000  0.7483227862163724  0.1856523411575138   T   T   T
  0.2499999495650016  0.0284471413651532  0.2696346821109040   T   T   T
  0.2499999495650016  0.5267155428955648  0.2764259742978443   T   T   T
  0.7499999495650016 -0.0001612749251757  0.2748633712023981   T   T   T
  0.7499998486940029  0.5052148885278006  0.2803968508913510   T   T   T
  0.9874938300102957  0.2458607625374094  0.2739753027212715   T   T   T
  0.0041981040246001  0.7648260945486152  0.2766749765752192   T   T   T
  0.5125061699897043  0.2458607625374094  0.2739753027212715   T   T   T
  0.4958018959753996  0.7648260945486152  0.2766749765752192   T   T   T
 
  0.00000000E+00  0.00000000E+00  0.00000000E+00
  0.00000000E+00  0.00000000E+00  0.00000000E+00
  0.00000000E+00  0.00000000E+00  0.00000000E+00
  0.00000000E+00  0.00000000E+00  0.00000000E+00
  0.00000000E+00  0.00000000E+00  0.00000000E+00
  0.00000000E+00  0.00000000E+00  0.00000000E+00
  0.00000000E+00  0.00000000E+00  0.00000000E+00
  0.00000000E+00  0.00000000E+00  0.00000000E+00
  0.00000000E+00  0.00000000E+00  0.00000000E+00
  0.00000000E+00  0.00000000E+00  0.00000000E+00
  0.00000000E+00  0.00000000E+00  0.00000000E+00
  0.00000000E+00  0.00000000E+00  0.00000000E+00
  0.00000000E+00  0.00000000E+00  0.00000000E+00
  0.00000000E+00  0.00000000E+00  0.00000000E+00
  0.00000000E+00  0.00000000E+00  0.00000000E+00
  0.00000000E+00  0.00000000E+00  0.00000000E+00
  0.00000000E+00  0.00000000E+00  0.00000000E+00
  0.00000000E+00  0.00000000E+00  0.00000000E+00
  0.00000000E+00  0.00000000E+00  0.00000000E+00
  0.00000000E+00  0.00000000E+00  0.00000000E+00
  0.00000000E+00  0.00000000E+00  0.00000000E+00
  0.00000000E+00  0.00000000E+00  0.00000000E+00
  0.00000000E+00  0.00000000E+00  0.00000000E+00
  0.00000000E+00  0.00000000E+00  0.00000000E+00
  0.00000000E+00  0.00000000E+00  0.00000000E+00
  0.00000000E+00  0.00000000E+00  0.00000000E+00
  0.00000000E+00  0.00000000E+00  0.00000000E+00
  0.00000000E+00  0.00000000E+00  0.00000000E+00
  0.00000000E+00  0.00000000E+00  0.00000000E+00
  0.00000000E+00  0.00000000E+00  0.00000000E+00
  0.00000000E+00  0.00000000E+00  0.00000000E+00
  0.00000000E+00  0.00000000E+00  0.00000000E+00
  0.00000000E+00  0.00000000E+00  0.00000000E+00
  0.00000000E+00  0.00000000E+00  0.00000000E+00
  0.00000000E+00  0.00000000E+00  0.00000000E+00
  0.00000000E+00  0.00000000E+00  0.00000000E+00
  0.00000000E+00  0.00000000E+00  0.00000000E+00
  0.00000000E+00  0.00000000E+00  0.00000000E+00
  0.00000000E+00  0.00000000E+00  0.00000000E+00
  0.00000000E+00  0.00000000E+00  0.00000000E+00
  0.00000000E+00  0.00000000E+00  0.00000000E+00
  0.00000000E+00  0.00000000E+00  0.00000000E+00
  0.00000000E+00  0.00000000E+00  0.00000000E+00
  0.00000000E+00  0.00000000E+00  0.00000000E+00
  0.00000000E+00  0.00000000E+00  0.00000000E+00
  0.00000000E+00  0.00000000E+00  0.00000000E+00
  0.00000000E+00  0.00000000E+00  0.00000000E+00
  0.00000000E+00  0.00000000E+00  0.00000000E+00
  0.00000000E+00  0.00000000E+00  0.00000000E+00
  0.00000000E+00  0.00000000E+00  0.00000000E+00
  0.00000000E+00  0.00000000E+00  0.00000000E+00
  0.00000000E+00  0.00000000E+00  0.00000000E+00
  0.00000000E+00  0.00000000E+00  0.00000000E+00
  0.00000000E+00  0.00000000E+00  0.00000000E+00
  0.00000000E+00  0.00000000E+00  0.00000000E+00
  0.00000000E+00  0.00000000E+00  0.00000000E+00
  0.00000000E+00  0.00000000E+00  0.00000000E+00
  0.00000000E+00  0.00000000E+00  0.00000000E+00
  0.00000000E+00  0.00000000E+00  0.00000000E+00
  0.00000000E+00  0.00000000E+00  0.00000000E+00
  0.00000000E+00  0.00000000E+00  0.00000000E+00
  0.00000000E+00  0.00000000E+00  0.00000000E+00
  0.00000000E+00  0.00000000E+00  0.00000000E+00
  0.00000000E+00  0.00000000E+00  0.00000000E+00
  0.00000000E+00  0.00000000E+00  0.00000000E+00
