B Mg Ni O                               
   1.00000000000000     
     8.4141216974800006    0.0000000000000000    0.0000000000000000
     0.0000000000000000    8.4141216974800006    0.0000000000000000
     0.0000000000000000    0.0000000000000000   23.4141216974799988
   B    Mg   Ni   O 
     1    31     1    32
Selective dynamics
Direct
  0.2500000000000000  0.1930591540756093  0.2585463200331159   T   T   T
  0.2500000000000000  0.9991822350615848  0.0047913013942490   T   T   T
  0.2500000000000000  0.4992559300617380  0.0057627921423555   T   T   T
  0.7500000000000000  0.0000298551797270  0.0053532622207485   T   T   T
  0.7500000000000000  0.4999201510383583  0.0062706406961518   T   T   T
  0.9994143647974035  0.2503606273568885  0.0056162408459252   T   T   T
  0.9993697025321302  0.7490385960438591  0.0057647997876068   T   T   T
  0.5005856352025965  0.2503606273568885  0.0056162408459252   T   T   T
  0.5006302974678698  0.7490385960438591  0.0057647997876068   T   T   T
 -0.0018816395870964  0.9993954838380487  0.0944795624641140   T   T   T
  0.0004949189600272  0.5000819720121098  0.0961714078721604   T   T   T
  0.5018816395870963  0.9993954838380487  0.0944795624641140   T   T   T
  0.4995050810399727  0.5000819720121098  0.0961714078721604   T   T   T
  0.2500000000000000  0.2497475641527776  0.0937990830063116   T   T   T
  0.2500000000000000  0.7468835565220332  0.0943785695350832   T   T   T
  0.7500000000000000  0.2508261722143214  0.0955393689412290   T   T   T
  0.7500000000000000  0.7494749222132832  0.0956916529543761   T   T   T
  0.2500000000000000  0.9926754122402118  0.1792415664829655   T   T   T
  0.2500000000000000  0.5030463511978096  0.1896826955170590   T   T   T
  0.7500000000000000  0.0022545038622091  0.1855143619676372   T   T   T
  0.7500000000000000  0.5007874496182215  0.1872701273794454   T   T   T
  0.0033752055180642  0.2521694039301486  0.1854926947729980   T   T   T
  0.9982228166111847  0.7490504804667312  0.1865304380346615   T   T   T
  0.4966247944819357  0.2521694039301486  0.1854926947729980   T   T   T
  0.5017771833888153  0.7490504804667312  0.1865304380346615   T   T   T
  0.0002343374819785  0.0036908157142894  0.2739455820025827   T   T   T
  0.0212097786092868  0.5014164389363887  0.2826285534607806   T   T   T
  0.4997656625180218  0.0036908157142894  0.2739455820025827   T   T   T
  0.4787902213907132  0.5014164389363887  0.2826285534607806   T   T   T
  0.2500000000000000  0.7636213860689365  0.2730895446513091   T   T   T
  0.7500000000000000  0.2539032726556055  0.2822608514839465   T   T   T
  0.7500000000000000  0.7546561286511371  0.2773965146480195   T   T   T
  0.7499998486940029  0.4577896297510509  0.3572015505226774   T   T   T
 -0.0003239823778824 -0.0000849683697277  0.0030452671358299   T   T   T
  0.0000083747952975  0.4994951302290277  0.0039294946444344   T   T   T
  0.5003239823778826 -0.0000849683697277  0.0030452671358299   T   T   T
  0.4999916252047027  0.4994951302290277  0.0039294946444344   T   T   T
  0.2500000000000000  0.2498957518843300  0.0030678458839259   T   T   T
  0.2500000000000000  0.7486221733379321  0.0032892762277275   T   T   T
  0.7500000000000000  0.2503793077486493  0.0037581074818029   T   T   T
  0.7500000000000000  0.7495119414681768  0.0037533135029910   T   T   T
  0.2500000000000000  0.0002268920071428  0.0932107305390405   T   T   T
  0.2500000000000000  0.4969088011978279  0.0962989226989323   T   T   T
  0.7500000000000000  0.0017593784325628  0.0950676966091562   T   T   T
  0.7500000000000000  0.4987261280991117  0.0963981888001453   T   T   T
  0.0001580703817285  0.2500765666005671  0.0957527253718466   T   T   T
 -0.0005126629480562  0.7494239714279599  0.0952793258371910   T   T   T
  0.4998419296182716  0.2500765666005671  0.0957527253718466   T   T   T
  0.5005126629480560  0.7494239714279599  0.0952793258371910   T   T   T
 -0.0021984066151183  0.0023876245504860  0.1839666601287194   T   T   T
  0.0015135966274874  0.4982362181056033  0.1864939785841795   T   T   T
  0.5021984066151185  0.0023876245504860  0.1839666601287194   T   T   T
  0.4984864033725123  0.4982362181056033  0.1864939785841795   T   T   T
  0.2500000000000000  0.2380764343205675  0.1870416323823793   T   T   T
  0.2500000000000000  0.7536852631242192  0.1828580834458049   T   T   T
  0.7500000000000000  0.2517608496466610  0.1900746476034827   T   T   T
  0.7500000000000000  0.7520028920001351  0.1856137512091722   T   T   T
  0.2499999495650016  0.0127743119415355  0.2669636330784368   T   T   T
  0.2499999495650016  0.5357355643931213  0.2762925110849928   T   T   T
  0.7499999495650016  0.0153547046117125  0.2771144264870298   T   T   T
  0.7499998486940029  0.5038598458269110  0.2742151285458607   T   T   T
  0.0842588580194533  0.2429271113693671  0.2736096430136026   T   T   T
 -0.0011726658916209  0.7641586224621481  0.2765071610215806   T   T   T
  0.4157411419805468  0.2429271113693671  0.2736096430136026   T   T   T
  0.5011726658916210  0.7641586224621479  0.2765071610215806   T   T   T
 
  0.00000000E+00  0.00000000E+00  0.00000000E+00
  0.00000000E+00  0.00000000E+00  0.00000000E+00
  0.00000000E+00  0.00000000E+00  0.00000000E+00
  0.00000000E+00  0.00000000E+00  0.00000000E+00
  0.00000000E+00  0.00000000E+00  0.00000000E+00
  0.00000000E+00  0.00000000E+00  0.00000000E+00
  0.00000000E+00  0.00000000E+00  0.00000000E+00
  0.00000000E+00  0.00000000E+00  0.00000000E+00
  0.00000000E+00  0.00000000E+00  0.00000000E+00
  0.00000000E+00  0.00000000E+00  0.00000000E+00
  0.00000000E+00  0.00000000E+00  0.00000000E+00
  0.00000000E+00  0.00000000E+00  0.00000000E+00
  0.00000000E+00  0.00000000E+00  0.00000000E+00
  0.00000000E+00  0.00000000E+00  0.00000000E+00
  0.00000000E+00  0.00000000E+00  0.00000000E+00
  0.00000000E+00  0.00000000E+00  0.00000000E+00
  0.00000000E+00  0.00000000E+00  0.00000000E+00
  0.00000000E+00  0.00000000E+00  0.00000000E+00
  0.00000000E+00  0.00000000E+00  0.00000000E+00
  0.00000000E+00  0.00000000E+00  0.00000000E+00
  0.00000000E+00  0.00000000E+00  0.00000000E+00
  0.00000000E+00  0.00000000E+00  0.00000000E+00
  0.00000000E+00  0.00000000E+00  0.00000000E+00
  0.00000000E+00  0.00000000E+00  0.00000000E+00
  0.00000000E+00  0.00000000E+00  0.00000000E+00
  0.00000000E+00  0.00000000E+00  0.00000000E+00
  0.00000000E+00  0.00000000E+00  0.00000000E+00
  0.00000000E+00  0.00000000E+00  0.00000000E+00
  0.00000000E+00  0.00000000E+00  0.00000000E+00
  0.00000000E+00  0.00000000E+00  0.00000000E+00
  0.00000000E+00  0.00000000E+00  0.00000000E+00
  0.00000000E+00  0.00000000E+00  0.00000000E+00
  0.00000000E+00  0.00000000E+00  0.00000000E+00
  0.00000000E+00  0.00000000E+00  0.00000000E+00
  0.00000000E+00  0.00000000E+00  0.00000000E+00
  0.00000000E+00  0.00000000E+00  0.00000000E+00
  0.00000000E+00  0.00000000E+00  0.00000000E+00
  0.00000000E+00  0.00000000E+00  0.00000000E+00
  0.00000000E+00  0.00000000E+00  0.00000000E+00
  0.00000000E+00  0.00000000E+00  0.00000000E+00
  0.00000000E+00  0.00000000E+00  0.00000000E+00
  0.00000000E+00  0.00000000E+00  0.00000000E+00
  0.00000000E+00  0.00000000E+00  0.00000000E+00
  0.00000000E+00  0.00000000E+00  0.00000000E+00
  0.00000000E+00  0.00000000E+00  0.00000000E+00
  0.00000000E+00  0.00000000E+00  0.00000000E+00
  0.00000000E+00  0.00000000E+00  0.00000000E+00
  0.00000000E+00  0.00000000E+00  0.00000000E+00
  0.00000000E+00  0.00000000E+00  0.00000000E+00
  0.00000000E+00  0.00000000E+00  0.00000000E+00
  0.00000000E+00  0.00000000E+00  0.00000000E+00
  0.00000000E+00  0.00000000E+00  0.00000000E+00
  0.00000000E+00  0.00000000E+00  0.00000000E+00
  0.00000000E+00  0.00000000E+00  0.00000000E+00
  0.00000000E+00  0.00000000E+00  0.00000000E+00
  0.00000000E+00  0.00000000E+00  0.00000000E+00
  0.00000000E+00  0.00000000E+00  0.00000000E+00
  0.00000000E+00  0.00000000E+00  0.00000000E+00
  0.00000000E+00  0.00000000E+00  0.00000000E+00
  0.00000000E+00  0.00000000E+00  0.00000000E+00
  0.00000000E+00  0.00000000E+00  0.00000000E+00
  0.00000000E+00  0.00000000E+00  0.00000000E+00
  0.00000000E+00  0.00000000E+00  0.00000000E+00
  0.00000000E+00  0.00000000E+00  0.00000000E+00
  0.00000000E+00  0.00000000E+00  0.00000000E+00
