B Cu Mg O                               
   1.00000000000000     
     8.4141216974800006    0.0000000000000000    0.0000000000000000
     0.0000000000000000    8.4141216974800006    0.0000000000000000
     0.0000000000000000    0.0000000000000000   23.4141216974799988
   B    Cu   Mg   O 
     1     1    31    32
Selective dynamics
Direct
  0.2500000000000000  0.1968479776606404  0.2580145091680697   T   T   T
  0.7499998486940029  0.2864965672428899  0.3909507006068078   T   T   T
  0.2500000000000000  0.0020929555931531  0.0040085616505433   T   T   T
  0.2500000000000000  0.5020357119567335  0.0053256134071203   T   T   T
  0.7500000000000000  0.0028401375393261  0.0050987669771372   T   T   T
  0.7500000000000000  0.5026942476979989  0.0060474495102994   T   T   T
  0.9992435542817892  0.2532763814095633  0.0050079840815370   T   T   T
 -0.0006737642819789  0.7517155447496836  0.0051462856162262   T   T   T
  0.5007564457182108  0.2532763814095633  0.0050079840815370   T   T   T
  0.5006737642819791  0.7517155447496836  0.0051462856162262   T   T   T
 -0.0016140518718443  0.0025579978899102  0.0938843252154048   T   T   T
  0.0001297524976659  0.5031267579517203  0.0956392672975469   T   T   T
  0.5016140518718447  0.0025579978899102  0.0938843252154048   T   T   T
  0.4998702475023343  0.5031267579517203  0.0956392672975469   T   T   T
  0.2500000000000000  0.2525714069769582  0.0932550114108220   T   T   T
  0.2500000000000000  0.7505027007512114  0.0937972897992622   T   T   T
  0.7500000000000000  0.2539663347880140  0.0952964252623456   T   T   T
  0.7500000000000000  0.7523706764843471  0.0951432538005345   T   T   T
  0.2500000000000000  0.9957066718393500  0.1790762051970990   T   T   T
  0.2500000000000000  0.5053260741154761  0.1885590080259887   T   T   T
  0.7500000000000000  0.0058911476138414  0.1854109130518249   T   T   T
  0.7500000000000000  0.5022180959558313  0.1877176571203238   T   T   T
  0.0023756910559223  0.2536697419339204  0.1850678632800351   T   T   T
  0.9985003686715982  0.7529941322528951  0.1856524446317624   T   T   T
  0.4976243089440776  0.2536697419339204  0.1850678632800351   T   T   T
  0.5014996313284018  0.7529941322528951  0.1856524446317624   T   T   T
 -0.0023189454638548  0.0061851207563802  0.2743069920333630   T   T   T
  0.0188014131482599  0.5046120850994236  0.2787405140903232   T   T   T
  0.5023189454638554  0.0061851207563802  0.2743069920333630   T   T   T
  0.4811985868517402  0.5046120850994236  0.2787405140903232   T   T   T
  0.2500000000000000  0.7657408365447330  0.2727664453955724   T   T   T
  0.7500000000000000  0.2602927369170887  0.2856129047925079   T   T   T
  0.7500000000000000  0.7528813158011585  0.2754589483801588   T   T   T
 -0.0004289421366064  0.0026830953984485  0.0025127532321684   T   T   T
 -0.0001578959475963  0.5024734069029448  0.0034465655216859   T   T   T
  0.5004289421366060  0.0026830953984485  0.0025127532321684   T   T   T
  0.5001578959475966  0.5024734069029448  0.0034465655216859   T   T   T
  0.2500000000000000  0.2529297972872548  0.0026858253840901   T   T   T
  0.2500000000000000  0.7512937978472580  0.0028403238388343   T   T   T
  0.7500000000000000  0.2534118183508608  0.0033383169612745   T   T   T
  0.7500000000000000  0.7521230987196444  0.0032095222852454   T   T   T
  0.2500000000000000  0.0032541021770954  0.0927352687169059   T   T   T
  0.2500000000000000  0.5000422262458368  0.0958736770739664   T   T   T
  0.7500000000000000  0.0044799046855528  0.0946879393067592   T   T   T
  0.7500000000000000  0.5020158495259966  0.0959658366770869   T   T   T
  0.0002929359052633  0.2531976677485944  0.0952376469555414   T   T   T
 -0.0003638977053803  0.7524182796328256  0.0946482809242176   T   T   T
  0.4997070640947366  0.2531976677485944  0.0952376469555414   T   T   T
  0.5003638977053807  0.7524182796328256  0.0946482809242176   T   T   T
 -0.0015477656701869  0.0043304936962828  0.1835251298487060   T   T   T
  0.0019392644168311  0.5012135096331030  0.1860573068773119   T   T   T
  0.5015477656701869  0.0043304936962828  0.1835251298487060   T   T   T
  0.4980607355831688  0.5012135096331030  0.1860573068773119   T   T   T
  0.2500000000000000  0.2407971921912584  0.1865471724875826   T   T   T
  0.2500000000000000  0.7567108375469532  0.1826275817152201   T   T   T
  0.7500000000000000  0.2546281198154849  0.1890382371671263   T   T   T
  0.7500000000000000  0.7536308118402805  0.1848434210041447   T   T   T
  0.2499999495650016  0.0162847825999554  0.2671121302797713   T   T   T
  0.2499999495650016  0.5380028695494300  0.2757287305829815   T   T   T
  0.7499999495650016  0.0160456798239536  0.2748731509611024   T   T   T
  0.7499998486940029  0.5023296756362170  0.2755262672492786   T   T   T
  0.0837002959006153  0.2470784533725287  0.2727718447904668   T   T   T
 -0.0019136330007286  0.7642603038873838  0.2763858475368042   T   T   T
  0.4162997040993845  0.2470784533725287  0.2727718447904668   T   T   T
  0.5019136330007286  0.7642603038873838  0.2763858475368042   T   T   T
 
  0.00000000E+00  0.00000000E+00  0.00000000E+00
  0.00000000E+00  0.00000000E+00  0.00000000E+00
  0.00000000E+00  0.00000000E+00  0.00000000E+00
  0.00000000E+00  0.00000000E+00  0.00000000E+00
  0.00000000E+00  0.00000000E+00  0.00000000E+00
  0.00000000E+00  0.00000000E+00  0.00000000E+00
  0.00000000E+00  0.00000000E+00  0.00000000E+00
  0.00000000E+00  0.00000000E+00  0.00000000E+00
  0.00000000E+00  0.00000000E+00  0.00000000E+00
  0.00000000E+00  0.00000000E+00  0.00000000E+00
  0.00000000E+00  0.00000000E+00  0.00000000E+00
  0.00000000E+00  0.00000000E+00  0.00000000E+00
  0.00000000E+00  0.00000000E+00  0.00000000E+00
  0.00000000E+00  0.00000000E+00  0.00000000E+00
  0.00000000E+00  0.00000000E+00  0.00000000E+00
  0.00000000E+00  0.00000000E+00  0.00000000E+00
  0.00000000E+00  0.00000000E+00  0.00000000E+00
  0.00000000E+00  0.00000000E+00  0.00000000E+00
  0.00000000E+00  0.00000000E+00  0.00000000E+00
  0.00000000E+00  0.00000000E+00  0.00000000E+00
  0.00000000E+00  0.00000000E+00  0.00000000E+00
  0.00000000E+00  0.00000000E+00  0.00000000E+00
  0.00000000E+00  0.00000000E+00  0.00000000E+00
  0.00000000E+00  0.00000000E+00  0.00000000E+00
  0.00000000E+00  0.00000000E+00  0.00000000E+00
  0.00000000E+00  0.00000000E+00  0.00000000E+00
  0.00000000E+00  0.00000000E+00  0.00000000E+00
  0.00000000E+00  0.00000000E+00  0.00000000E+00
  0.00000000E+00  0.00000000E+00  0.00000000E+00
  0.00000000E+00  0.00000000E+00  0.00000000E+00
  0.00000000E+00  0.00000000E+00  0.00000000E+00
  0.00000000E+00  0.00000000E+00  0.00000000E+00
  0.00000000E+00  0.00000000E+00  0.00000000E+00
  0.00000000E+00  0.00000000E+00  0.00000000E+00
  0.00000000E+00  0.00000000E+00  0.00000000E+00
  0.00000000E+00  0.00000000E+00  0.00000000E+00
  0.00000000E+00  0.00000000E+00  0.00000000E+00
  0.00000000E+00  0.00000000E+00  0.00000000E+00
  0.00000000E+00  0.00000000E+00  0.00000000E+00
  0.00000000E+00  0.00000000E+00  0.00000000E+00
  0.00000000E+00  0.00000000E+00  0.00000000E+00
  0.00000000E+00  0.00000000E+00  0.00000000E+00
  0.00000000E+00  0.00000000E+00  0.00000000E+00
  0.00000000E+00  0.00000000E+00  0.00000000E+00
  0.00000000E+00  0.00000000E+00  0.00000000E+00
  0.00000000E+00  0.00000000E+00  0.00000000E+00
  0.00000000E+00  0.00000000E+00  0.00000000E+00
  0.00000000E+00  0.00000000E+00  0.00000000E+00
  0.00000000E+00  0.00000000E+00  0.00000000E+00
  0.00000000E+00  0.00000000E+00  0.00000000E+00
  0.00000000E+00  0.00000000E+00  0.00000000E+00
  0.00000000E+00  0.00000000E+00  0.00000000E+00
  0.00000000E+00  0.00000000E+00  0.00000000E+00
  0.00000000E+00  0.00000000E+00  0.00000000E+00
  0.00000000E+00  0.00000000E+00  0.00000000E+00
  0.00000000E+00  0.00000000E+00  0.00000000E+00
  0.00000000E+00  0.00000000E+00  0.00000000E+00
  0.00000000E+00  0.00000000E+00  0.00000000E+00
  0.00000000E+00  0.00000000E+00  0.00000000E+00
  0.00000000E+00  0.00000000E+00  0.00000000E+00
  0.00000000E+00  0.00000000E+00  0.00000000E+00
  0.00000000E+00  0.00000000E+00  0.00000000E+00
  0.00000000E+00  0.00000000E+00  0.00000000E+00
  0.00000000E+00  0.00000000E+00  0.00000000E+00
  0.00000000E+00  0.00000000E+00  0.00000000E+00
