B Mg O Fe                               
   1.00000000000000     
     8.4141216974800006    0.0000000000000000    0.0000000000000000
     0.0000000000000000    8.4141216974800006    0.0000000000000000
     0.0000000000000000    0.0000000000000000   23.4141216974799988
   B    Mg   O    Fe
     1    31    32     1
Selective dynamics
Direct
  0.2500000000000000  0.1944490746858855  0.2580005626783285   T   T   T
  0.2500000000000000  0.9990402900190838  0.0044567844587104   T   T   T
  0.2500000000000000  0.4990907274318058  0.0054365197964502   T   T   T
  0.7500000000000000 -0.0002501167584991  0.0051161318366634   T   T   T
  0.7500000000000000  0.4997456092787523  0.0061136232131850   T   T   T
  0.9993772252887664  0.2501715284002063  0.0052692619102729   T   T   T
  0.9993647077949360  0.7489253124324223  0.0055461267894668   T   T   T
  0.5006227747112336  0.2501715284002063  0.0052692619102729   T   T   T
  0.5006352922050640  0.7489253124324223  0.0055461267894668   T   T   T
  0.9981548135679991  0.9996817926477820  0.0944022665392196   T   T   T
  0.0003236762600948  0.5000979164355738  0.0961346512265745   T   T   T
  0.5018451864320009  0.9996817926477820  0.0944022665392196   T   T   T
  0.4996763237399052  0.5000979164355738  0.0961346512265745   T   T   T
  0.2500000000000000  0.2498947889409451  0.0934409721809295   T   T   T
  0.2500000000000000  0.7468823805782002  0.0943272011886822   T   T   T
  0.7500000000000000  0.2510525200434056  0.0953483846683816   T   T   T
  0.7500000000000000  0.7494569190829588  0.0956253216627355   T   T   T
  0.2500000000000000  0.9927783026425915  0.1792204361086467   T   T   T
  0.2500000000000000  0.5037740383609127  0.1895706111496226   T   T   T
  0.7500000000000000  0.0021904099213887  0.1854286376038818   T   T   T
  0.7500000000000000  0.5012238140748588  0.1879090994190450   T   T   T
  0.0030689957954491  0.2524709525184554  0.1856336231557234   T   T   T
  0.9983774605514188  0.7496582059443269  0.1863615763547771   T   T   T
  0.4969310042045510  0.2524709525184554  0.1856336231557234   T   T   T
  0.5016225394485812  0.7496582059443269  0.1863615763547771   T   T   T
  0.0012914704097536  0.0037708421684584  0.2740980828728100   T   T   T
  0.0233555736456797  0.5029834369308807  0.2823771258938703   T   T   T
  0.4987085295902464  0.0037708421684584  0.2740980828728100   T   T   T
  0.4766444263543203  0.5029834369308807  0.2823771258938703   T   T   T
  0.2500000000000000  0.7647344354960984  0.2729770205387618   T   T   T
  0.7500000000000000  0.2498610298670993  0.2812428905426147   T   T   T
  0.7500000000000000  0.7573429437527821  0.2769749306075248   T   T   T
  0.9995464354673943  0.9997978507994737  0.0033956983376004   T   T   T
 -0.0000184979507927  0.4993254288019732  0.0043313862384129   T   T   T
  0.5004535645326057  0.9997978507994737  0.0033956983376004   T   T   T
  0.5000184979507928  0.4993254288019732  0.0043313862384129   T   T   T
  0.2500000000000000  0.2499121980496418  0.0033085115085969   T   T   T
  0.2500000000000000  0.7483278116870197  0.0037212435447507   T   T   T
  0.7500000000000000  0.2501684036740089  0.0042077561015241   T   T   T
  0.7500000000000000  0.7493577663157753  0.0041949268532653   T   T   T
  0.2500000000000000  0.0007409712161675  0.0934227878222361   T   T   T
  0.2500000000000000  0.4966651380934834  0.0968534930548485   T   T   T
  0.7500000000000000  0.0018453081548401  0.0954670016759785   T   T   T
  0.7500000000000000  0.4987897914761393  0.0968586522421176   T   T   T
  0.0002869288060169  0.2503679442798959  0.0961840146013827   T   T   T
  0.9994155121865014  0.7494278840320541  0.0956005178237531   T   T   T
  0.4997130711939832  0.2503679442798959  0.0961840146013827   T   T   T
  0.5005844878134986  0.7494278840320541  0.0956005178237531   T   T   T
  0.9977458168154473  0.0028400013054270  0.1841691192482726   T   T   T
  0.0008194161969762  0.4986885716941608  0.1873542529386764   T   T   T
  0.5022541831845527  0.0028400013054270  0.1841691192482726   T   T   T
  0.4991805838030237  0.4986885716941608  0.1873542529386764   T   T   T
  0.2500000000000000  0.2386069326365273  0.1881632134314049   T   T   T
  0.2500000000000000  0.7539660064440425  0.1829391555044734   T   T   T
  0.7500000000000000  0.2525218481587746  0.1907924611093860   T   T   T
  0.7500000000000000  0.7512064281804558  0.1861520793815289   T   T   T
  0.2499999495650016  0.0134707942183673  0.2669069817528461   T   T   T
  0.2499999495650016  0.5370504972907946  0.2763005530219068   T   T   T
  0.7499999495650016  0.0129424561353875  0.2768792774054970   T   T   T
  0.7499998486940029  0.5008261648367905  0.2774940498799473   T   T   T
  0.0837239653537837  0.2434899187935827  0.2739203205425884   T   T   T
  0.9988588965653995  0.7642265502407429  0.2765076260194866   T   T   T
  0.4162760346462163  0.2434899187935827  0.2739203205425884   T   T   T
  0.5011412692395987  0.7642269596847416  0.2765076266974865   T   T   T
  0.7499998486940029  0.4582297396696818  0.3621461571657298   T   T   T
 
  0.00000000E+00  0.00000000E+00  0.00000000E+00
  0.00000000E+00  0.00000000E+00  0.00000000E+00
  0.00000000E+00  0.00000000E+00  0.00000000E+00
  0.00000000E+00  0.00000000E+00  0.00000000E+00
  0.00000000E+00  0.00000000E+00  0.00000000E+00
  0.00000000E+00  0.00000000E+00  0.00000000E+00
  0.00000000E+00  0.00000000E+00  0.00000000E+00
  0.00000000E+00  0.00000000E+00  0.00000000E+00
  0.00000000E+00  0.00000000E+00  0.00000000E+00
  0.00000000E+00  0.00000000E+00  0.00000000E+00
  0.00000000E+00  0.00000000E+00  0.00000000E+00
  0.00000000E+00  0.00000000E+00  0.00000000E+00
  0.00000000E+00  0.00000000E+00  0.00000000E+00
  0.00000000E+00  0.00000000E+00  0.00000000E+00
  0.00000000E+00  0.00000000E+00  0.00000000E+00
  0.00000000E+00  0.00000000E+00  0.00000000E+00
  0.00000000E+00  0.00000000E+00  0.00000000E+00
  0.00000000E+00  0.00000000E+00  0.00000000E+00
  0.00000000E+00  0.00000000E+00  0.00000000E+00
  0.00000000E+00  0.00000000E+00  0.00000000E+00
  0.00000000E+00  0.00000000E+00  0.00000000E+00
  0.00000000E+00  0.00000000E+00  0.00000000E+00
  0.00000000E+00  0.00000000E+00  0.00000000E+00
  0.00000000E+00  0.00000000E+00  0.00000000E+00
  0.00000000E+00  0.00000000E+00  0.00000000E+00
  0.00000000E+00  0.00000000E+00  0.00000000E+00
  0.00000000E+00  0.00000000E+00  0.00000000E+00
  0.00000000E+00  0.00000000E+00  0.00000000E+00
  0.00000000E+00  0.00000000E+00  0.00000000E+00
  0.00000000E+00  0.00000000E+00  0.00000000E+00
  0.00000000E+00  0.00000000E+00  0.00000000E+00
  0.00000000E+00  0.00000000E+00  0.00000000E+00
  0.00000000E+00  0.00000000E+00  0.00000000E+00
  0.00000000E+00  0.00000000E+00  0.00000000E+00
  0.00000000E+00  0.00000000E+00  0.00000000E+00
  0.00000000E+00  0.00000000E+00  0.00000000E+00
  0.00000000E+00  0.00000000E+00  0.00000000E+00
  0.00000000E+00  0.00000000E+00  0.00000000E+00
  0.00000000E+00  0.00000000E+00  0.00000000E+00
  0.00000000E+00  0.00000000E+00  0.00000000E+00
  0.00000000E+00  0.00000000E+00  0.00000000E+00
  0.00000000E+00  0.00000000E+00  0.00000000E+00
  0.00000000E+00  0.00000000E+00  0.00000000E+00
  0.00000000E+00  0.00000000E+00  0.00000000E+00
  0.00000000E+00  0.00000000E+00  0.00000000E+00
  0.00000000E+00  0.00000000E+00  0.00000000E+00
  0.00000000E+00  0.00000000E+00  0.00000000E+00
  0.00000000E+00  0.00000000E+00  0.00000000E+00
  0.00000000E+00  0.00000000E+00  0.00000000E+00
  0.00000000E+00  0.00000000E+00  0.00000000E+00
  0.00000000E+00  0.00000000E+00  0.00000000E+00
  0.00000000E+00  0.00000000E+00  0.00000000E+00
  0.00000000E+00  0.00000000E+00  0.00000000E+00
  0.00000000E+00  0.00000000E+00  0.00000000E+00
  0.00000000E+00  0.00000000E+00  0.00000000E+00
  0.00000000E+00  0.00000000E+00  0.00000000E+00
  0.00000000E+00  0.00000000E+00  0.00000000E+00
  0.00000000E+00  0.00000000E+00  0.00000000E+00
  0.00000000E+00  0.00000000E+00  0.00000000E+00
  0.00000000E+00  0.00000000E+00  0.00000000E+00
  0.00000000E+00  0.00000000E+00  0.00000000E+00
  0.00000000E+00  0.00000000E+00  0.00000000E+00
  0.00000000E+00  0.00000000E+00  0.00000000E+00
  0.00000000E+00  0.00000000E+00  0.00000000E+00
  0.00000000E+00  0.00000000E+00  0.00000000E+00
