B Mg O Au                               
   1.00000000000000     
     8.4141216974800006    0.0000000000000000    0.0000000000000000
     0.0000000000000000    8.4141216974800006    0.0000000000000000
     0.0000000000000000    0.0000000000000000   23.4141216974799988
   B    Mg   O    Au
     1    31    32     1
Selective dynamics
Direct
  0.2500000000000000  0.1968477348256060  0.2582563743808813   T   T   T
  0.2500000000000000  0.0017475670530445  0.0046365467297697   T   T   T
  0.2500000000000000  0.5021660796171905  0.0053730872960528   T   T   T
  0.7500000000000000  0.0024281421599381  0.0052023090839832   T   T   T
  0.7500000000000000  0.5026353725346530  0.0060917816552444   T   T   T
 -0.0004950700655518  0.2529502971744507  0.0054392386972016   T   T   T
 -0.0004622558470170  0.7518613853351728  0.0055055688164783   T   T   T
  0.5004950700655516  0.2529502971744507  0.0054392386972016   T   T   T
  0.5004622558470170  0.7518613853351728  0.0055055688164783   T   T   T
  0.9983592131262615  0.0018289754347808  0.0943444574716025   T   T   T
  0.0006525818273067  0.5030480280206405  0.0958433198046875   T   T   T
  0.5016407868737385  0.0018289754347808  0.0943444574716025   T   T   T
  0.4993474181726934  0.5030480280206405  0.0958433198046875   T   T   T
  0.2500000000000000  0.2525885256134096  0.0934809878371596   T   T   T
  0.2500000000000000  0.7497113558655579  0.0944020223797658   T   T   T
  0.7500000000000000  0.2534071589157242  0.0952983272479378   T   T   T
  0.7500000000000000  0.7522408162758372  0.0953838630401839   T   T   T
  0.2500000000000000  0.9952652872402432  0.1796176253688024   T   T   T
  0.2500000000000000  0.5055956847073881  0.1896936874910187   T   T   T
  0.7500000000000000  0.0047268103067956  0.1854640036988548   T   T   T
  0.7500000000000000  0.5029849626912993  0.1871864437800779   T   T   T
  0.0032173561850251  0.2537360502561670  0.1849599050613324   T   T   T
  0.9985324343742253  0.7525306964417819  0.1864144028127354   T   T   T
  0.4967826438149750  0.2537360502561670  0.1849599050613324   T   T   T
  0.5014675656257747  0.7525306964417819  0.1864144028127354   T   T   T
 -0.0022308799737601  0.0069746159204718  0.2750238177803680   T   T   T
  0.0181294377318110  0.5031601240798327  0.2801987539052867   T   T   T
  0.5022308799737604  0.0069746159204718  0.2750238177803680   T   T   T
  0.4818705622681892  0.5031601240798327  0.2801987539052867   T   T   T
  0.2500000000000000  0.7656707425028266  0.2738377631335219   T   T   T
  0.7500000000000000  0.2604695000734035  0.2813925023111146   T   T   T
  0.7500000000000000  0.7519852509751608  0.2759549393123645   T   T   T
 -0.0004306917550471  0.0024851049641208  0.0028731803322408   T   T   T
  0.0000137131080498  0.5022458262950018  0.0035963720610128   T   T   T
  0.5004306917550472  0.0024851049641208  0.0028731803322408   T   T   T
  0.4999862868919501  0.5022458262950018  0.0035963720610128   T   T   T
  0.2500000000000000  0.2526385875942385  0.0028432669940857   T   T   T
  0.2500000000000000  0.7514432766139318  0.0030588126981068   T   T   T
  0.7500000000000000  0.2528585109759081  0.0035837475657791   T   T   T
  0.7500000000000000  0.7522256534812835  0.0033745498643326   T   T   T
  0.2500000000000000  0.0028186303353902  0.0932587985797819   T   T   T
  0.2500000000000000  0.4997676546632487  0.0960181059773627   T   T   T
  0.7500000000000000  0.0040742946151755  0.0948279185479977   T   T   T
  0.7500000000000000  0.5017928233858003  0.0959228293270585   T   T   T
  0.0006061416093582  0.2527171715573589  0.0954522009488232   T   T   T
 -0.0002114925445243  0.7521140068635884  0.0950961461059966   T   T   T
  0.4993938583906418  0.2527171715573589  0.0954522009488232   T   T   T
  0.5002114925445245  0.7521140068635884  0.0950961461059966   T   T   T
  0.9986047126644991  0.0043451739944398  0.1839163054420762   T   T   T
  0.0023759559408904  0.5010683200599302  0.1863073950255680   T   T   T
  0.5013952873355009  0.0043451739944398  0.1839163054420762   T   T   T
  0.4976240440591098  0.5010683200599302  0.1863073950255680   T   T   T
  0.2500000000000000  0.2407561808457336  0.1871704351731567   T   T   T
  0.2500000000000000  0.7562815136311009  0.1833415629845310   T   T   T
  0.7500000000000000  0.2542764435663771  0.1887117590458832   T   T   T
  0.7500000000000000  0.7540381717192178  0.1851158102604939   T   T   T
  0.2499999495650016  0.0167531390286280  0.2675912539344736   T   T   T
  0.2499999495650016  0.5377192656369738  0.2768056980004028   T   T   T
  0.7499999495650016  0.0171919700929810  0.2746643411623236   T   T   T
  0.7499998486940029  0.5025727392150765  0.2739605965076018   T   T   T
  0.0831042746984644  0.2470226356195054  0.2731584063262130   T   T   T
  0.9977165072798195  0.7646899129668155  0.2771955936737822   T   T   T
  0.4168957253015356  0.2470226356195054  0.2731584063262130   T   T   T
  0.5022836585251786  0.7646903224108142  0.2771955943517821   T   T   T
  0.7499998486940029  0.3045072017797368  0.3873968501950598   T   T   T
 
  0.00000000E+00  0.00000000E+00  0.00000000E+00
  0.00000000E+00  0.00000000E+00  0.00000000E+00
  0.00000000E+00  0.00000000E+00  0.00000000E+00
  0.00000000E+00  0.00000000E+00  0.00000000E+00
  0.00000000E+00  0.00000000E+00  0.00000000E+00
  0.00000000E+00  0.00000000E+00  0.00000000E+00
  0.00000000E+00  0.00000000E+00  0.00000000E+00
  0.00000000E+00  0.00000000E+00  0.00000000E+00
  0.00000000E+00  0.00000000E+00  0.00000000E+00
  0.00000000E+00  0.00000000E+00  0.00000000E+00
  0.00000000E+00  0.00000000E+00  0.00000000E+00
  0.00000000E+00  0.00000000E+00  0.00000000E+00
  0.00000000E+00  0.00000000E+00  0.00000000E+00
  0.00000000E+00  0.00000000E+00  0.00000000E+00
  0.00000000E+00  0.00000000E+00  0.00000000E+00
  0.00000000E+00  0.00000000E+00  0.00000000E+00
  0.00000000E+00  0.00000000E+00  0.00000000E+00
  0.00000000E+00  0.00000000E+00  0.00000000E+00
  0.00000000E+00  0.00000000E+00  0.00000000E+00
  0.00000000E+00  0.00000000E+00  0.00000000E+00
  0.00000000E+00  0.00000000E+00  0.00000000E+00
  0.00000000E+00  0.00000000E+00  0.00000000E+00
  0.00000000E+00  0.00000000E+00  0.00000000E+00
  0.00000000E+00  0.00000000E+00  0.00000000E+00
  0.00000000E+00  0.00000000E+00  0.00000000E+00
  0.00000000E+00  0.00000000E+00  0.00000000E+00
  0.00000000E+00  0.00000000E+00  0.00000000E+00
  0.00000000E+00  0.00000000E+00  0.00000000E+00
  0.00000000E+00  0.00000000E+00  0.00000000E+00
  0.00000000E+00  0.00000000E+00  0.00000000E+00
  0.00000000E+00  0.00000000E+00  0.00000000E+00
  0.00000000E+00  0.00000000E+00  0.00000000E+00
  0.00000000E+00  0.00000000E+00  0.00000000E+00
  0.00000000E+00  0.00000000E+00  0.00000000E+00
  0.00000000E+00  0.00000000E+00  0.00000000E+00
  0.00000000E+00  0.00000000E+00  0.00000000E+00
  0.00000000E+00  0.00000000E+00  0.00000000E+00
  0.00000000E+00  0.00000000E+00  0.00000000E+00
  0.00000000E+00  0.00000000E+00  0.00000000E+00
  0.00000000E+00  0.00000000E+00  0.00000000E+00
  0.00000000E+00  0.00000000E+00  0.00000000E+00
  0.00000000E+00  0.00000000E+00  0.00000000E+00
  0.00000000E+00  0.00000000E+00  0.00000000E+00
  0.00000000E+00  0.00000000E+00  0.00000000E+00
  0.00000000E+00  0.00000000E+00  0.00000000E+00
  0.00000000E+00  0.00000000E+00  0.00000000E+00
  0.00000000E+00  0.00000000E+00  0.00000000E+00
  0.00000000E+00  0.00000000E+00  0.00000000E+00
  0.00000000E+00  0.00000000E+00  0.00000000E+00
  0.00000000E+00  0.00000000E+00  0.00000000E+00
  0.00000000E+00  0.00000000E+00  0.00000000E+00
  0.00000000E+00  0.00000000E+00  0.00000000E+00
  0.00000000E+00  0.00000000E+00  0.00000000E+00
  0.00000000E+00  0.00000000E+00  0.00000000E+00
  0.00000000E+00  0.00000000E+00  0.00000000E+00
  0.00000000E+00  0.00000000E+00  0.00000000E+00
  0.00000000E+00  0.00000000E+00  0.00000000E+00
  0.00000000E+00  0.00000000E+00  0.00000000E+00
  0.00000000E+00  0.00000000E+00  0.00000000E+00
  0.00000000E+00  0.00000000E+00  0.00000000E+00
  0.00000000E+00  0.00000000E+00  0.00000000E+00
  0.00000000E+00  0.00000000E+00  0.00000000E+00
  0.00000000E+00  0.00000000E+00  0.00000000E+00
  0.00000000E+00  0.00000000E+00  0.00000000E+00
  0.00000000E+00  0.00000000E+00  0.00000000E+00
