B Ir Mg O                               
   1.00000000000000     
     8.4141216974800006    0.0000000000000000    0.0000000000000000
     0.0000000000000000    8.4141216974800006    0.0000000000000000
     0.0000000000000000    0.0000000000000000   23.4141216974799988
   B    Ir   Mg   O 
     1     1    31    32
Selective dynamics
Direct
  0.2500000000000000  0.1915284140806972  0.2591322263746675   T   T   T
  0.7499998486940029  0.4669371464322229  0.3553014268740020   T   T   T
  0.2500000000000000 -0.0005068833709714  0.0046410690031348   T   T   T
  0.2500000000000000  0.4998648181981139  0.0056471830641776   T   T   T
  0.7500000000000000  0.0000660718111479  0.0052471477553346   T   T   T
  0.7500000000000000  0.5005085614617064  0.0063342921630799   T   T   T
 -0.0005090346099793  0.2507121961015526  0.0054118954287604   T   T   T
 -0.0005235565820304  0.7495853873338740  0.0057823427280089   T   T   T
  0.5005090346099796  0.2507121961015526  0.0054118954287604   T   T   T
  0.5005235565820304  0.7495853873338740  0.0057823427280089   T   T   T
 -0.0019187557276594 -0.0002920192029919  0.0945625685631242   T   T   T
  0.0010997234125749  0.5005062851683100  0.0961538608236422   T   T   T
  0.5019187557276595 -0.0002920192029919  0.0945625685631242   T   T   T
  0.4989002765874253  0.5005062851683100  0.0961538608236422   T   T   T
  0.2500000000000000  0.2502344133839848  0.0937565677389952   T   T   T
  0.2500000000000000  0.7469316504892077  0.0946206691848913   T   T   T
  0.7500000000000000  0.2507998856429004  0.0952679867152328   T   T   T
  0.7500000000000000  0.7506121803075828  0.0958866188166661   T   T   T
  0.2500000000000000  0.9925373117738220  0.1792574914436958   T   T   T
  0.2500000000000000  0.5024858614889506  0.1906271467719442   T   T   T
  0.7500000000000000  0.0014217017187868  0.1857204989888349   T   T   T
  0.7500000000000000  0.5010002370308617  0.1860887784686975   T   T   T
  0.0039384194633886  0.2525607223528918  0.1855937588806969   T   T   T
 -0.0018481174325863  0.7479278774471331  0.1871843571650528   T   T   T
  0.4960615805366111  0.2525607223528918  0.1855937588806969   T   T   T
  0.5018481174325864  0.7479278774471331  0.1871843571650528   T   T   T
  0.0006395622432583  0.0025482088130048  0.2737977589288917   T   T   T
  0.0219492260761146  0.4999140025068394  0.2856401228940292   T   T   T
  0.4993604377567418  0.0025482088130048  0.2737977589288917   T   T   T
  0.4780507739238852  0.4999140025068394  0.2856401228940292   T   T   T
  0.2500000000000000  0.7627299381109791  0.2734258535737386   T   T   T
  0.7500000000000000  0.2506021237125531  0.2814819891616212   T   T   T
  0.7500000000000000  0.7540654808943671  0.2795176723978059   T   T   T
 -0.0006276113931456  0.0002308788512389  0.0028832859077278   T   T   T
 -0.0001764609252738  0.4999997787871261  0.0038003164216514   T   T   T
  0.5006276113931457  0.0002308788512389  0.0028832859077278   T   T   T
  0.5001764609252737  0.4999997787871261  0.0038003164216514   T   T   T
  0.2500000000000000  0.2503782622708206  0.0028961521668057   T   T   T
  0.2500000000000000  0.7490355380394941  0.0033034070756695   T   T   T
  0.7500000000000000  0.2506296847773891  0.0035536014137401   T   T   T
  0.7500000000000000  0.7499900682378907  0.0038217015229478   T   T   T
  0.2500000000000000  0.0004061022873237  0.0932094101595489   T   T   T
  0.2500000000000000  0.4972695637622309  0.0961438601982059   T   T   T
  0.7500000000000000  0.0020428736221256  0.0951523738821651   T   T   T
  0.7500000000000000  0.4992428076096297  0.0962896376334246   T   T   T
  0.0000207211382901  0.2502814725649592  0.0956245543106382   T   T   T
 -0.0004916652900745  0.7498770669367629  0.0954274581485096   T   T   T
  0.4999792788617099  0.2502814725649592  0.0956245543106382   T   T   T
  0.5004916652900743  0.7498770669367629  0.0954274581485096   T   T   T
 -0.0023325397496038  0.0024163257482105  0.1841304586374711   T   T   T
  0.0016456815063729  0.4978572828025034  0.1865432222538418   T   T   T
  0.5023325397496039  0.0024163257482105  0.1841304586374711   T   T   T
  0.4983543184936269  0.4978572828025034  0.1865432222538418   T   T   T
  0.2500000000000000  0.2380016455206403  0.1870403664681030   T   T   T
  0.2500000000000000  0.7533152531714782  0.1832793199665923   T   T   T
  0.7500000000000000  0.2512618128557180  0.1903016547842998   T   T   T
  0.7500000000000000  0.7515917128986432  0.1860669737440157   T   T   T
  0.2499999495650016  0.0118485233070361  0.2671466731415761   T   T   T
  0.2499999495650016  0.5347457006734886  0.2775514591593808   T   T   T
  0.7499999495650016  0.0140348264574680  0.2777428022410454   T   T   T
  0.7499998486940029  0.5048894573225261  0.2712498143239667   T   T   T
  0.0846479788008427  0.2412772661848953  0.2740355849910666   T   T   T
 -0.0001352844765828  0.7643669465897817  0.2769650520908743   T   T   T
  0.4153520211991571  0.2412772661848953  0.2740355849910666   T   T   T
  0.5001352844765830  0.7643669465897817  0.2769650520908743   T   T   T
 
  0.00000000E+00  0.00000000E+00  0.00000000E+00
  0.00000000E+00  0.00000000E+00  0.00000000E+00
  0.00000000E+00  0.00000000E+00  0.00000000E+00
  0.00000000E+00  0.00000000E+00  0.00000000E+00
  0.00000000E+00  0.00000000E+00  0.00000000E+00
  0.00000000E+00  0.00000000E+00  0.00000000E+00
  0.00000000E+00  0.00000000E+00  0.00000000E+00
  0.00000000E+00  0.00000000E+00  0.00000000E+00
  0.00000000E+00  0.00000000E+00  0.00000000E+00
  0.00000000E+00  0.00000000E+00  0.00000000E+00
  0.00000000E+00  0.00000000E+00  0.00000000E+00
  0.00000000E+00  0.00000000E+00  0.00000000E+00
  0.00000000E+00  0.00000000E+00  0.00000000E+00
  0.00000000E+00  0.00000000E+00  0.00000000E+00
  0.00000000E+00  0.00000000E+00  0.00000000E+00
  0.00000000E+00  0.00000000E+00  0.00000000E+00
  0.00000000E+00  0.00000000E+00  0.00000000E+00
  0.00000000E+00  0.00000000E+00  0.00000000E+00
  0.00000000E+00  0.00000000E+00  0.00000000E+00
  0.00000000E+00  0.00000000E+00  0.00000000E+00
  0.00000000E+00  0.00000000E+00  0.00000000E+00
  0.00000000E+00  0.00000000E+00  0.00000000E+00
  0.00000000E+00  0.00000000E+00  0.00000000E+00
  0.00000000E+00  0.00000000E+00  0.00000000E+00
  0.00000000E+00  0.00000000E+00  0.00000000E+00
  0.00000000E+00  0.00000000E+00  0.00000000E+00
  0.00000000E+00  0.00000000E+00  0.00000000E+00
  0.00000000E+00  0.00000000E+00  0.00000000E+00
  0.00000000E+00  0.00000000E+00  0.00000000E+00
  0.00000000E+00  0.00000000E+00  0.00000000E+00
  0.00000000E+00  0.00000000E+00  0.00000000E+00
  0.00000000E+00  0.00000000E+00  0.00000000E+00
  0.00000000E+00  0.00000000E+00  0.00000000E+00
  0.00000000E+00  0.00000000E+00  0.00000000E+00
  0.00000000E+00  0.00000000E+00  0.00000000E+00
  0.00000000E+00  0.00000000E+00  0.00000000E+00
  0.00000000E+00  0.00000000E+00  0.00000000E+00
  0.00000000E+00  0.00000000E+00  0.00000000E+00
  0.00000000E+00  0.00000000E+00  0.00000000E+00
  0.00000000E+00  0.00000000E+00  0.00000000E+00
  0.00000000E+00  0.00000000E+00  0.00000000E+00
  0.00000000E+00  0.00000000E+00  0.00000000E+00
  0.00000000E+00  0.00000000E+00  0.00000000E+00
  0.00000000E+00  0.00000000E+00  0.00000000E+00
  0.00000000E+00  0.00000000E+00  0.00000000E+00
  0.00000000E+00  0.00000000E+00  0.00000000E+00
  0.00000000E+00  0.00000000E+00  0.00000000E+00
  0.00000000E+00  0.00000000E+00  0.00000000E+00
  0.00000000E+00  0.00000000E+00  0.00000000E+00
  0.00000000E+00  0.00000000E+00  0.00000000E+00
  0.00000000E+00  0.00000000E+00  0.00000000E+00
  0.00000000E+00  0.00000000E+00  0.00000000E+00
  0.00000000E+00  0.00000000E+00  0.00000000E+00
  0.00000000E+00  0.00000000E+00  0.00000000E+00
  0.00000000E+00  0.00000000E+00  0.00000000E+00
  0.00000000E+00  0.00000000E+00  0.00000000E+00
  0.00000000E+00  0.00000000E+00  0.00000000E+00
  0.00000000E+00  0.00000000E+00  0.00000000E+00
  0.00000000E+00  0.00000000E+00  0.00000000E+00
  0.00000000E+00  0.00000000E+00  0.00000000E+00
  0.00000000E+00  0.00000000E+00  0.00000000E+00
  0.00000000E+00  0.00000000E+00  0.00000000E+00
  0.00000000E+00  0.00000000E+00  0.00000000E+00
  0.00000000E+00  0.00000000E+00  0.00000000E+00
  0.00000000E+00  0.00000000E+00  0.00000000E+00
