H Mg O Ir                               
   1.00000000000000     
    16.8282433949600012    0.0000000000000000    0.0000000000000000
     0.0000000000000000    8.4141216974800006    0.0000000000000000
     0.0000000000000000    0.0000000000000000   23.4141216974799988
   H    Mg   O    Ir
     2    64    65     1
Selective dynamics
Direct
  0.0419849147149728  0.1734150811698250  0.3898697203211432   T   T   T
  0.5285265978097011  0.1361118862305755  0.3909589034731720   T   T   T
  0.1255142123950030  0.0014522791183838  0.0030934919414492   T   T   T
  0.6254234686505190  0.0016262513412716  0.0015644859537227   T   T   T
  0.1252753989625039  0.5018093183949783  0.0027587215825900   T   T   T
  0.6253631687625772  0.5023321315356901  0.0005433297145924   T   T   T
  0.3749898280849264  0.0019752997345538  0.0028087569092775   T   T   T
  0.8757978889537459  0.0020221628523574  0.0029026028503830   T   T   T
  0.3745694311411671  0.5018168572925834  0.0021854388421306   T   T   T
  0.8761215458127873  0.5018907369004829  0.0025043096365611   T   T   T
  0.0004285031926556  0.2518351990203341  0.0030881274418676   T   T   T
  0.4995709932463287  0.2515676007478085  0.0019922654616182   T   T   T
  0.0006356648267361  0.7519986445170000  0.0030528870434422   T   T   T
  0.4998394885472455  0.7525524143931829  0.0020693497211523   T   T   T
  0.2502702193694903  0.2513776214063366  0.0030284009007481   T   T   T
  0.7510415637607772  0.2514451965173412  0.0019660289877660   T   T   T
  0.2501127939183079  0.7520027405353491  0.0031241492840416   T   T   T
  0.7509972210218054  0.7523420782253519  0.0021243386303237   T   T   T
  0.0004717886464616  0.0020220144196053  0.0925322556848179   T   T   T
  0.5002620466597987  0.0025861181382208  0.0921999144903695   T   T   T
  0.0010575246332998  0.5023221426295064  0.0926134390097072   T   T   T
  0.4994617059944047  0.5020290393601271  0.0903269408937294   T   T   T
  0.2505370473704040  0.0021164680520791  0.0930641135626655   T   T   T
  0.7509730957128790  0.0024015227779260  0.0922030985424620   T   T   T
  0.2494028514581969  0.5010616184606711  0.0922918825385486   T   T   T
  0.7513095968309318  0.5013416129517063  0.0903634884419022   T   T   T
  0.1255082741831174  0.2514379358065444  0.0923982243237945   T   T   T
  0.6251246326738902  0.2506682586933096  0.0897293277330961   T   T   T
  0.1252762400452293  0.7513843469434250  0.0928924153750563   T   T   T
  0.6253060883934926  0.7532670345487098  0.0904896701709833   T   T   T
  0.3753068376156402  0.2508044176067175  0.0926222834609148   T   T   T
  0.8751699146732493  0.2512847503154453  0.0927908926551691   T   T   T
  0.3753660212901260  0.7530141859101349  0.0922675777922452   T   T   T
  0.8759022117342126  0.7528378452331063  0.0925554489955743   T   T   T
  0.1240225979051013  0.0046499689372399  0.1832937042139531   T   T   T
  0.6242683071813484  0.0106894055276901  0.1817425732376355   T   T   T
  0.1248154648157838  0.4970824086799492  0.1836239833240273   T   T   T
  0.6246814499869844  0.4973709212317012  0.1738882331301172   T   T   T
  0.3776884841548226  0.0028763402145657  0.1837973839542996   T   T   T
  0.8774996839912640  0.0032570312598321  0.1839866502323047   T   T   T
  0.3735560599541307  0.5010776436828878  0.1801976625300525   T   T   T
  0.8780678720631875  0.5015159917179295  0.1821440793134344   T   T   T
  0.0032253327735572  0.2482470225091221  0.1837255654381583   T   T   T
  0.5029606443596392  0.2514117808632033  0.1845123255039311   T   T   T
  0.0017780391245605  0.7572210568496095  0.1840960383168359   T   T   T
  0.5008762140336573  0.7544462740718962  0.1832496414926769   T   T   T
  0.2480263365486868  0.2507117128218151  0.1845389486230645   T   T   T
  0.7464701835574464  0.2529908288304470  0.1832633202477555   T   T   T
  0.2498944120602220  0.7515782217929267  0.1833055005190592   T   T   T
  0.7501308904651953  0.7505505939770668  0.1823819609009565   T   T   T
  0.0099914731976281  0.0105972700931191  0.2903583243485464   T   T   T
  0.5021643428267996  0.0017585694155290  0.2875413074106366   T   T   T
  0.0026633458573283  0.5014869674981846  0.2719108851489566   T   T   T
  0.4892684367157455  0.5040242516091821  0.2718898405994295   T   T   T
  0.2479822943303285  0.0012357639169952  0.2719445796619675   T   T   T
  0.7509123347543344  0.0044051565526755  0.2717527688665531   T   T   T
  0.2432719665971145  0.4988523482974634  0.2739367370749514   T   T   T
  0.7638447715835257  0.4997491152051018  0.2717030058186810   T   T   T
  0.1211930712121492  0.2395640053673964  0.2898837312727862   T   T   T
  0.6185863946206909  0.2101203685383298  0.2991288247649181   T   T   T
  0.1253378740360280  0.7529529316841973  0.2721135792974322   T   T   T
  0.6262102427486462  0.7732424400414087  0.2696429360651155   T   T   T
  0.3731010856650565  0.2432291431858863  0.2747692180708701   T   T   T
  0.8803790097606606  0.2497133119699127  0.2723319396413396   T   T   T
  0.3714214216671882  0.7606138438856351  0.2746996372417416   T   T   T
  0.8803993922305630  0.7562616965621906  0.2732211329235685   T   T   T
  0.0002220295521332  0.0018886214030232  0.0006975747377022   T   T   T
  0.5004304354081123  0.0019099476065611  0.0003417529034618   T   T   T
  0.0001794765657315  0.5019791338652165  0.0005424584465019   T   T   T
  0.5000249094852107  0.5022529875941176  0.9994200830415604   T   T   T
  0.2507466964469773  0.0015741996363930  0.0008439186631476   T   T   T
  0.7503504243408199  0.0016652279784717  0.0003245609620973   T   T   T
  0.2505215029429317  0.5018511356888642  0.0004623901254217   T   T   T
  0.7506422551462740  0.5021717000890750  0.9995727430392746   T   T   T
  0.1254394913871265  0.2515447372652078  0.0006036180660631   T   T   T
  0.6252569698073929  0.2514288380577633  0.9992353475247894   T   T   T
  0.1254996040615434  0.7517140559204650  0.0005775929543823   T   T   T
  0.6254088655292830  0.7525159870791023  0.9993375815946294   T   T   T
  0.3754002479195387  0.2517115284203330  0.0003752294562008   T   T   T
  0.8752155847411470  0.2519911669681674  0.0004817748580679   T   T   T
  0.3754858580171977  0.7520699609174960  0.0006377177196120   T   T   T
  0.8752044152215033  0.7518861186628283  0.0007138437028424   T   T   T
  0.1259077827007400  0.0008560727309545  0.0921826293231670   T   T   T
  0.6256527716002364  0.0006350255461944  0.0920325930168874   T   T   T
  0.1255849989957195  0.5018820117977165  0.0919402372677234   T   T   T
  0.6253163058099880  0.5034177513700580  0.0891402243918840   T   T   T
  0.3763296005603143  0.0016592805082886  0.0928629990685214   T   T   T
  0.8744450060982482  0.0018091451678704  0.0926573480619696   T   T   T
  0.3758112874298478  0.5021783214527239  0.0924057958466590   T   T   T
  0.8745335629174371  0.5023406273233850  0.0929282658783241   T   T   T
  0.9992803289841394  0.2527271740188575  0.0924109750684158   T   T   T
  0.5001285029788270  0.2532380785661483  0.0919775429751350   T   T   T
  0.9997541846956246  0.7516868345562895  0.0923928484966278   T   T   T
  0.5007757306206998  0.7513672666458769  0.0923948021914788   T   T   T
  0.2515584426047762  0.2520677616009970  0.0925365432396190   T   T   T
  0.7500647647186717  0.2527678559792116  0.0917920034429921   T   T   T
  0.2513519976765223  0.7510834073783290  0.0929038166280988   T   T   T
  0.7499867070890541  0.7509354674155396  0.0926934294627388   T   T   T
  0.9992784198400497  0.0017571953620122  0.1807145937146745   T   T   T
  0.5013790887522772  0.0015641692907564  0.1829512770390777   T   T   T
  0.0003040123796266  0.5046465380819709  0.1819750824232765   T   T   T
  0.5018217142326379  0.5046883588823903  0.1838008845997215   T   T   T
  0.2534337621271116  0.0014543703422555  0.1823506250026813   T   T   T
  0.7504154585208277  0.0019773352457939  0.1832557604313448   T   T   T
  0.2508470345504749  0.5009163306813993  0.1832059500169028   T   T   T
  0.7477418866720825  0.5011288171343868  0.1844085838003479   T   T   T
  0.1259591936801065  0.2520173574304248  0.1801955884100568   T   T   T
  0.6252779898972644  0.2576214328983477  0.1783083928132660   T   T   T
  0.1257055675645179  0.7487373487015654  0.1819400206672831   T   T   T
  0.6256947673519015  0.7428277036301523  0.1830394152693611   T   T   T
  0.3766931961906280  0.2539215273457597  0.1844521819508327   T   T   T
  0.8713265124531665  0.2529732134947066  0.1837984748992777   T   T   T
  0.3771178317791879  0.7498722217226356  0.1844719839284283   T   T   T
  0.8738872678257170  0.7518258571592876  0.1841708049680682   T   T   T
  0.1288993592984405  0.9946714027036768  0.2686364749532627   T   T   T
  0.6300828875941321  0.9985880573475883  0.2678781185606687   T   T   T
  0.1240012468938942  0.5013309569521934  0.2759452701195779   T   T   T
  0.3792506560351818  0.0011797760957410  0.2766857632367506   T   T   T
  0.8707550895477647  0.0034808247135064  0.2771123530619952   T   T   T
  0.3702187918417867  0.5035405259961729  0.2728530624602857   T   T   T
  0.8789609499090095  0.5028865528203965  0.2746166488749794   T   T   T
  0.5056231447467541  0.2722797952241030  0.2727285706382183   T   T   T
  0.9978876574569461  0.2571155411481651  0.2697861723100070   T   T   T
  0.0009690516346594  0.7552111045134292  0.2762011445569730   T   T   T
  0.5080658557160805  0.7396277820152281  0.2764157045631710   T   T   T
  0.2500719262144115  0.2491348279430998  0.2757199343930031   T   T   T
  0.7382457384557038  0.2669103381530359  0.2808962251753349   T   T   T
  0.2504678323871830  0.7514829173059948  0.2737449767023257   T   T   T
  0.7438681029402741  0.7356621251086408  0.2767440087121747   T   T   T
  0.0691565320142615  0.1176185665959723  0.3593330301806367   T   T   T
  0.5590104620320898  0.0869089048964790  0.3605722637533091   T   T   T
  0.3728605666771233  0.5015411600244269  0.3585255527759920   T   T   T
 
  0.00000000E+00  0.00000000E+00  0.00000000E+00
  0.00000000E+00  0.00000000E+00  0.00000000E+00
  0.00000000E+00  0.00000000E+00  0.00000000E+00
  0.00000000E+00  0.00000000E+00  0.00000000E+00
  0.00000000E+00  0.00000000E+00  0.00000000E+00
  0.00000000E+00  0.00000000E+00  0.00000000E+00
  0.00000000E+00  0.00000000E+00  0.00000000E+00
  0.00000000E+00  0.00000000E+00  0.00000000E+00
  0.00000000E+00  0.00000000E+00  0.00000000E+00
  0.00000000E+00  0.00000000E+00  0.00000000E+00
  0.00000000E+00  0.00000000E+00  0.00000000E+00
  0.00000000E+00  0.00000000E+00  0.00000000E+00
  0.00000000E+00  0.00000000E+00  0.00000000E+00
  0.00000000E+00  0.00000000E+00  0.00000000E+00
  0.00000000E+00  0.00000000E+00  0.00000000E+00
  0.00000000E+00  0.00000000E+00  0.00000000E+00
  0.00000000E+00  0.00000000E+00  0.00000000E+00
  0.00000000E+00  0.00000000E+00  0.00000000E+00
  0.00000000E+00  0.00000000E+00  0.00000000E+00
  0.00000000E+00  0.00000000E+00  0.00000000E+00
  0.00000000E+00  0.00000000E+00  0.00000000E+00
  0.00000000E+00  0.00000000E+00  0.00000000E+00
  0.00000000E+00  0.00000000E+00  0.00000000E+00
  0.00000000E+00  0.00000000E+00  0.00000000E+00
  0.00000000E+00  0.00000000E+00  0.00000000E+00
  0.00000000E+00  0.00000000E+00  0.00000000E+00
  0.00000000E+00  0.00000000E+00  0.00000000E+00
  0.00000000E+00  0.00000000E+00  0.00000000E+00
  0.00000000E+00  0.00000000E+00  0.00000000E+00
  0.00000000E+00  0.00000000E+00  0.00000000E+00
  0.00000000E+00  0.00000000E+00  0.00000000E+00
  0.00000000E+00  0.00000000E+00  0.00000000E+00
  0.00000000E+00  0.00000000E+00  0.00000000E+00
  0.00000000E+00  0.00000000E+00  0.00000000E+00
  0.00000000E+00  0.00000000E+00  0.00000000E+00
  0.00000000E+00  0.00000000E+00  0.00000000E+00
  0.00000000E+00  0.00000000E+00  0.00000000E+00
  0.00000000E+00  0.00000000E+00  0.00000000E+00
  0.00000000E+00  0.00000000E+00  0.00000000E+00
  0.00000000E+00  0.00000000E+00  0.00000000E+00
  0.00000000E+00  0.00000000E+00  0.00000000E+00
  0.00000000E+00  0.00000000E+00  0.00000000E+00
  0.00000000E+00  0.00000000E+00  0.00000000E+00
  0.00000000E+00  0.00000000E+00  0.00000000E+00
  0.00000000E+00  0.00000000E+00  0.00000000E+00
  0.00000000E+00  0.00000000E+00  0.00000000E+00
  0.00000000E+00  0.00000000E+00  0.00000000E+00
  0.00000000E+00  0.00000000E+00  0.00000000E+00
  0.00000000E+00  0.00000000E+00  0.00000000E+00
  0.00000000E+00  0.00000000E+00  0.00000000E+00
  0.00000000E+00  0.00000000E+00  0.00000000E+00
  0.00000000E+00  0.00000000E+00  0.00000000E+00
  0.00000000E+00  0.00000000E+00  0.00000000E+00
  0.00000000E+00  0.00000000E+00  0.00000000E+00
  0.00000000E+00  0.00000000E+00  0.00000000E+00
  0.00000000E+00  0.00000000E+00  0.00000000E+00
  0.00000000E+00  0.00000000E+00  0.00000000E+00
  0.00000000E+00  0.00000000E+00  0.00000000E+00
  0.00000000E+00  0.00000000E+00  0.00000000E+00
  0.00000000E+00  0.00000000E+00  0.00000000E+00
  0.00000000E+00  0.00000000E+00  0.00000000E+00
  0.00000000E+00  0.00000000E+00  0.00000000E+00
  0.00000000E+00  0.00000000E+00  0.00000000E+00
  0.00000000E+00  0.00000000E+00  0.00000000E+00
  0.00000000E+00  0.00000000E+00  0.00000000E+00
  0.00000000E+00  0.00000000E+00  0.00000000E+00
  0.00000000E+00  0.00000000E+00  0.00000000E+00
  0.00000000E+00  0.00000000E+00  0.00000000E+00
  0.00000000E+00  0.00000000E+00  0.00000000E+00
  0.00000000E+00  0.00000000E+00  0.00000000E+00
  0.00000000E+00  0.00000000E+00  0.00000000E+00
  0.00000000E+00  0.00000000E+00  0.00000000E+00
  0.00000000E+00  0.00000000E+00  0.00000000E+00
  0.00000000E+00  0.00000000E+00  0.00000000E+00
  0.00000000E+00  0.00000000E+00  0.00000000E+00
  0.00000000E+00  0.00000000E+00  0.00000000E+00
  0.00000000E+00  0.00000000E+00  0.00000000E+00
  0.00000000E+00  0.00000000E+00  0.00000000E+00
  0.00000000E+00  0.00000000E+00  0.00000000E+00
  0.00000000E+00  0.00000000E+00  0.00000000E+00
  0.00000000E+00  0.00000000E+00  0.00000000E+00
  0.00000000E+00  0.00000000E+00  0.00000000E+00
  0.00000000E+00  0.00000000E+00  0.00000000E+00
  0.00000000E+00  0.00000000E+00  0.00000000E+00
  0.00000000E+00  0.00000000E+00  0.00000000E+00
  0.00000000E+00  0.00000000E+00  0.00000000E+00
  0.00000000E+00  0.00000000E+00  0.00000000E+00
  0.00000000E+00  0.00000000E+00  0.00000000E+00
  0.00000000E+00  0.00000000E+00  0.00000000E+00
  0.00000000E+00  0.00000000E+00  0.00000000E+00
  0.00000000E+00  0.00000000E+00  0.00000000E+00
  0.00000000E+00  0.00000000E+00  0.00000000E+00
  0.00000000E+00  0.00000000E+00  0.00000000E+00
  0.00000000E+00  0.00000000E+00  0.00000000E+00
  0.00000000E+00  0.00000000E+00  0.00000000E+00
  0.00000000E+00  0.00000000E+00  0.00000000E+00
  0.00000000E+00  0.00000000E+00  0.00000000E+00
  0.00000000E+00  0.00000000E+00  0.00000000E+00
  0.00000000E+00  0.00000000E+00  0.00000000E+00
  0.00000000E+00  0.00000000E+00  0.00000000E+00
  0.00000000E+00  0.00000000E+00  0.00000000E+00
  0.00000000E+00  0.00000000E+00  0.00000000E+00
  0.00000000E+00  0.00000000E+00  0.00000000E+00
  0.00000000E+00  0.00000000E+00  0.00000000E+00
  0.00000000E+00  0.00000000E+00  0.00000000E+00
  0.00000000E+00  0.00000000E+00  0.00000000E+00
  0.00000000E+00  0.00000000E+00  0.00000000E+00
  0.00000000E+00  0.00000000E+00  0.00000000E+00
  0.00000000E+00  0.00000000E+00  0.00000000E+00
  0.00000000E+00  0.00000000E+00  0.00000000E+00
  0.00000000E+00  0.00000000E+00  0.00000000E+00
  0.00000000E+00  0.00000000E+00  0.00000000E+00
  0.00000000E+00  0.00000000E+00  0.00000000E+00
  0.00000000E+00  0.00000000E+00  0.00000000E+00
  0.00000000E+00  0.00000000E+00  0.00000000E+00
  0.00000000E+00  0.00000000E+00  0.00000000E+00
  0.00000000E+00  0.00000000E+00  0.00000000E+00
  0.00000000E+00  0.00000000E+00  0.00000000E+00
  0.00000000E+00  0.00000000E+00  0.00000000E+00
  0.00000000E+00  0.00000000E+00  0.00000000E+00
  0.00000000E+00  0.00000000E+00  0.00000000E+00
  0.00000000E+00  0.00000000E+00  0.00000000E+00
  0.00000000E+00  0.00000000E+00  0.00000000E+00
  0.00000000E+00  0.00000000E+00  0.00000000E+00
  0.00000000E+00  0.00000000E+00  0.00000000E+00
  0.00000000E+00  0.00000000E+00  0.00000000E+00
  0.00000000E+00  0.00000000E+00  0.00000000E+00
  0.00000000E+00  0.00000000E+00  0.00000000E+00
  0.00000000E+00  0.00000000E+00  0.00000000E+00
  0.00000000E+00  0.00000000E+00  0.00000000E+00
  0.00000000E+00  0.00000000E+00  0.00000000E+00
  0.00000000E+00  0.00000000E+00  0.00000000E+00
