H Mg O Pd                               
   1.00000000000000     
    16.8282433949600012    0.0000000000000000    0.0000000000000000
     0.0000000000000000    8.4141216974800006    0.0000000000000000
     0.0000000000000000    0.0000000000000000   23.4141216974799988
   H    Mg   O    Pd
     2    64    65     1
Selective dynamics
Direct
  0.0418545133398713  0.1736924595561520  0.3897316964307343   T   T   T
  0.5283721010188021  0.1357778880350178  0.3908832368763345   T   T   T
  0.1255191439586420  0.0014647517353986  0.0030965269637555   T   T   T
  0.6254330855094367  0.0016297589139167  0.0015636214821469   T   T   T
  0.1252890710070533  0.5018170277651602  0.0027838118741404   T   T   T
  0.6253613236706168  0.5023315398382342  0.0005608559416318   T   T   T
  0.3749939062483842  0.0019753923131016  0.0028521491239507   T   T   T
  0.8758160005742539  0.0020384304453993  0.0029075488776120   T   T   T
  0.3745846357101197  0.5018133253234270  0.0022900705178266   T   T   T
  0.8761265272246048  0.5019170381213507  0.0025017940075691   T   T   T
  0.0004465723747270  0.2518352964282558  0.0030936959785734   T   T   T
  0.4995811328240472  0.2515615458964552  0.0020055244000810   T   T   T
  0.0006501712455688  0.7520338119486907  0.0030663249513123   T   T   T
  0.4998532110899366  0.7525516502604708  0.0020836323781457   T   T   T
  0.2502704992847438  0.2513640148929575  0.0030407152110475   T   T   T
  0.7510525874761631  0.2514478246354178  0.0019648101372333   T   T   T
  0.2501244991144181  0.7520175550819671  0.0031419506653719   T   T   T
  0.7510050769768710  0.7523663829916625  0.0021236853312783   T   T   T
  0.0004732702476400  0.0020479010591714  0.0925431095788521   T   T   T
  0.5002039671599224  0.0025946885033874  0.0921413759002665   T   T   T
  0.0010552215654041  0.5023346924910443  0.0925996947346488   T   T   T
  0.4993358748387050  0.5020103755608759  0.0904707693346519   T   T   T
  0.2506041207236980  0.0020981468831283  0.0930021843770602   T   T   T
  0.7509799726414261  0.0024146375678600  0.0921867298284487   T   T   T
  0.2495043195258554  0.5010603815819917  0.0923685855978663   T   T   T
  0.7513108340854133  0.5013574065294162  0.0903322894778859   T   T   T
  0.1254923196682709  0.2515262874559797  0.0923843117795939   T   T   T
  0.6251268763706901  0.2507120936900936  0.0897008551749396   T   T   T
  0.1252679421240047  0.7513094958999634  0.0928652560542021   T   T   T
  0.6253197709592049  0.7532292400570600  0.0904556291009420   T   T   T
  0.3753107651220922  0.2510296435168292  0.0926982398323851   T   T   T
  0.8751824792520195  0.2513165362469115  0.0927871396350577   T   T   T
  0.3753664639762394  0.7527996341317191  0.0923443611756976   T   T   T
  0.8759062440160623  0.7528505192771302  0.0925452013019556   T   T   T
  0.1239648369994969  0.0045598246993654  0.1832852553255911   T   T   T
  0.6243985327293956  0.0106371487344070  0.1817120771468814   T   T   T
  0.1248453972623824  0.4970923964771382  0.1836252631363027   T   T   T
  0.6247130948453966  0.4973312174461255  0.1738568242317635   T   T   T
  0.3776438735872281  0.0028611419699790  0.1837546447768052   T   T   T
  0.8774881236693862  0.0032940256950313  0.1839599345837688   T   T   T
  0.3732640104413348  0.5010814866335070  0.1808678079141730   T   T   T
  0.8780693749903560  0.5015298248360328  0.1821559144542213   T   T   T
  0.0031886141419884  0.2482415587227733  0.1837216451283799   T   T   T
  0.5030732517294600  0.2514322372848257  0.1844371995713933   T   T   T
  0.0017564308574905  0.7572479645777140  0.1840808913420072   T   T   T
  0.5009800259654634  0.7544288477870857  0.1830558873598551   T   T   T
  0.2478167442390010  0.2504245744624307  0.1843902837038820   T   T   T
  0.7465029339239418  0.2529704442921752  0.1832076511347334   T   T   T
  0.2496461937618588  0.7518234419251236  0.1831361866393715   T   T   T
  0.7501721275496364  0.7506180641506631  0.1823428581097753   T   T   T
  0.0100644884032707  0.0105862735381495  0.2902784141761178   T   T   T
  0.5018432115047905  0.0018290609828746  0.2873436901108936   T   T   T
  0.0028297975667552  0.5015235069563606  0.2719480136296760   T   T   T
  0.4880453675669653  0.5040726227243169  0.2711707495718982   T   T   T
  0.2481863079606916  0.0012129772646828  0.2719989748770038   T   T   T
  0.7509070263900071  0.0043694485275071  0.2717433798768150   T   T   T
  0.2445336968163802  0.4989013743284693  0.2732454483786494   T   T   T
  0.7638689287063393  0.4997556174741087  0.2716967105937717   T   T   T
  0.1214521771989021  0.2398297183244556  0.2897347265930578   T   T   T
  0.6184593613273500  0.2101657858894665  0.2990142486885873   T   T   T
  0.1255664342336456  0.7526517993276506  0.2721246052638837   T   T   T
  0.6260961754774070  0.7730037441643054  0.2696276518024848   T   T   T
  0.3728794544765478  0.2454585664178267  0.2739072398168731   T   T   T
  0.8803385639779464  0.2498426526869218  0.2723349847221818   T   T   T
  0.3712756093885925  0.7584420182115804  0.2738332111693239   T   T   T
  0.8803487923353142  0.7561781543633969  0.2732189541716027   T   T   T
  0.0002326533677278  0.0019059288941947  0.0007090820000507   T   T   T
  0.5004459538824623  0.0019052051692611  0.0003238922573923   T   T   T
  0.0001697636946505  0.5019967754522555  0.0005289900124020   T   T   T
  0.4999937200122275  0.5022511782313374  0.9994578252059949   T   T   T
  0.2507501715996988  0.0015717402062440  0.0008335544763827   T   T   T
  0.7503600756162395  0.0016804998337748  0.0003312557238756   T   T   T
  0.2505842498709671  0.5018560036460050  0.0004998608145724   T   T   T
  0.7506588629408997  0.5021822808219760  0.9995576718137362   T   T   T
  0.1254480742813163  0.2515435359695303  0.0005951265129880   T   T   T
  0.6252701623304470  0.2514276481193083  0.9992245708893295   T   T   T
  0.1255144184600957  0.7517300146580121  0.0005774765044423   T   T   T
  0.6254192805729036  0.7525155566015760  0.9993331625986981   T   T   T
  0.3754079572381360  0.2518456054395372  0.0003902920508346   T   T   T
  0.8752268265652666  0.2520117409076438  0.0004835629643304   T   T   T
  0.3755013672952210  0.7519249656558279  0.0006603092310118   T   T   T
  0.8752104067895177  0.7519069448099372  0.0007200483156989   T   T   T
  0.1259010656837734  0.0008918116482283  0.0921975030044827   T   T   T
  0.6256356564870132  0.0006553957052858  0.0920458938847097   T   T   T
  0.1255594569519499  0.5018571364471316  0.0919182098290996   T   T   T
  0.6253523625416909  0.5033878445004734  0.0891469423927749   T   T   T
  0.3763562675201310  0.0016707801837416  0.0928121622997292   T   T   T
  0.8744525476597754  0.0018326072418489  0.0926653734598164   T   T   T
  0.3757920300499519  0.5021745645306224  0.0926032310605232   T   T   T
  0.8745276677804718  0.5023588103001433  0.0929254275461630   T   T   T
  0.9992881092206420  0.2527163555850229  0.0924305504938632   T   T   T
  0.5001904246284404  0.2531146249445884  0.0919672372775047   T   T   T
  0.9997540108431524  0.7517311234546347  0.0924079653672334   T   T   T
  0.5008372694754306  0.7514970923884737  0.0923784726872826   T   T   T
  0.2514952224578448  0.2519692994304695  0.0925102419441793   T   T   T
  0.7500565514501835  0.2527721895417499  0.0917941786128951   T   T   T
  0.2513000755485743  0.7511627501568617  0.0928543183073254   T   T   T
  0.7499869611039462  0.7509609002342978  0.0926868365608791   T   T   T
  0.9992441762149983  0.0017893722178283  0.1807522044983506   T   T   T
  0.5014143138909348  0.0015544373527370  0.1831337062429760   T   T   T
  0.0003469924174012  0.5046382115504082  0.1820432671366815   T   T   T
  0.5019871643001029  0.5047442619300148  0.1835262682362095   T   T   T
  0.2533624017354389  0.0014198346631390  0.1823185306380061   T   T   T
  0.7504425889851910  0.0020010570473799  0.1832621003523534   T   T   T
  0.2505726428902521  0.5009160588918842  0.1829590237850028   T   T   T
  0.7477021253064862  0.5011530313041871  0.1844242455803223   T   T   T
  0.1258671789664365  0.2519991965009046  0.1802413044708398   T   T   T
  0.6253202882927393  0.2575320804594966  0.1783493918965524   T   T   T
  0.1256446252800617  0.7487188066218564  0.1819200556480389   T   T   T
  0.6257173080436863  0.7429688131934131  0.1830130787797452   T   T   T
  0.3767019268951917  0.2533392321719013  0.1842237864085552   T   T   T
  0.8713059167677809  0.2529777928318080  0.1838269719198703   T   T   T
  0.3771247191375866  0.7504491603126867  0.1842238570705684   T   T   T
  0.8738684071456677  0.7518655161846911  0.1841821937132428   T   T   T
  0.1289909425925489  0.9945372429140279  0.2686091975100917   T   T   T
  0.6300368896711377  0.9983396965614757  0.2678795213083257   T   T   T
  0.1244578364519276  0.5012920201536485  0.2759666311176825   T   T   T
  0.3791442701817053  0.0010601369647149  0.2766862388477457   T   T   T
  0.8707831379289399  0.0035278546918508  0.2771477864163338   T   T   T
  0.3703206903243894  0.5032657647435408  0.2730656010151044   T   T   T
  0.8789699582503627  0.5028431435766479  0.2746513096431275   T   T   T
  0.5055944617504983  0.2727211263893631  0.2728704370665467   T   T   T
  0.9979522792317579  0.2572001944036632  0.2698702764466117   T   T   T
  0.0009920371766981  0.7550301963819142  0.2762082588821991   T   T   T
  0.5080859641255150  0.7389216059077960  0.2765776764308827   T   T   T
  0.2501480831150299  0.2489671564591527  0.2756356596590701   T   T   T
  0.7382327522811456  0.2669520092251582  0.2809494756869632   T   T   T
  0.2504747842124782  0.7515676622634335  0.2736661539785430   T   T   T
  0.7438726226002850  0.7356842090488334  0.2767601671965713   T   T   T
  0.0693453660628267  0.1174940458765595  0.3593875559887145   T   T   T
  0.5590021407235741  0.0866097883562713  0.3605620661961100   T   T   T
  0.3726784313118491  0.5027310413705197  0.3620135007689722   T   T   T
 
  0.00000000E+00  0.00000000E+00  0.00000000E+00
  0.00000000E+00  0.00000000E+00  0.00000000E+00
  0.00000000E+00  0.00000000E+00  0.00000000E+00
  0.00000000E+00  0.00000000E+00  0.00000000E+00
  0.00000000E+00  0.00000000E+00  0.00000000E+00
  0.00000000E+00  0.00000000E+00  0.00000000E+00
  0.00000000E+00  0.00000000E+00  0.00000000E+00
  0.00000000E+00  0.00000000E+00  0.00000000E+00
  0.00000000E+00  0.00000000E+00  0.00000000E+00
  0.00000000E+00  0.00000000E+00  0.00000000E+00
  0.00000000E+00  0.00000000E+00  0.00000000E+00
  0.00000000E+00  0.00000000E+00  0.00000000E+00
  0.00000000E+00  0.00000000E+00  0.00000000E+00
  0.00000000E+00  0.00000000E+00  0.00000000E+00
  0.00000000E+00  0.00000000E+00  0.00000000E+00
  0.00000000E+00  0.00000000E+00  0.00000000E+00
  0.00000000E+00  0.00000000E+00  0.00000000E+00
  0.00000000E+00  0.00000000E+00  0.00000000E+00
  0.00000000E+00  0.00000000E+00  0.00000000E+00
  0.00000000E+00  0.00000000E+00  0.00000000E+00
  0.00000000E+00  0.00000000E+00  0.00000000E+00
  0.00000000E+00  0.00000000E+00  0.00000000E+00
  0.00000000E+00  0.00000000E+00  0.00000000E+00
  0.00000000E+00  0.00000000E+00  0.00000000E+00
  0.00000000E+00  0.00000000E+00  0.00000000E+00
  0.00000000E+00  0.00000000E+00  0.00000000E+00
  0.00000000E+00  0.00000000E+00  0.00000000E+00
  0.00000000E+00  0.00000000E+00  0.00000000E+00
  0.00000000E+00  0.00000000E+00  0.00000000E+00
  0.00000000E+00  0.00000000E+00  0.00000000E+00
  0.00000000E+00  0.00000000E+00  0.00000000E+00
  0.00000000E+00  0.00000000E+00  0.00000000E+00
  0.00000000E+00  0.00000000E+00  0.00000000E+00
  0.00000000E+00  0.00000000E+00  0.00000000E+00
  0.00000000E+00  0.00000000E+00  0.00000000E+00
  0.00000000E+00  0.00000000E+00  0.00000000E+00
  0.00000000E+00  0.00000000E+00  0.00000000E+00
  0.00000000E+00  0.00000000E+00  0.00000000E+00
  0.00000000E+00  0.00000000E+00  0.00000000E+00
  0.00000000E+00  0.00000000E+00  0.00000000E+00
  0.00000000E+00  0.00000000E+00  0.00000000E+00
  0.00000000E+00  0.00000000E+00  0.00000000E+00
  0.00000000E+00  0.00000000E+00  0.00000000E+00
  0.00000000E+00  0.00000000E+00  0.00000000E+00
  0.00000000E+00  0.00000000E+00  0.00000000E+00
  0.00000000E+00  0.00000000E+00  0.00000000E+00
  0.00000000E+00  0.00000000E+00  0.00000000E+00
  0.00000000E+00  0.00000000E+00  0.00000000E+00
  0.00000000E+00  0.00000000E+00  0.00000000E+00
  0.00000000E+00  0.00000000E+00  0.00000000E+00
  0.00000000E+00  0.00000000E+00  0.00000000E+00
  0.00000000E+00  0.00000000E+00  0.00000000E+00
  0.00000000E+00  0.00000000E+00  0.00000000E+00
  0.00000000E+00  0.00000000E+00  0.00000000E+00
  0.00000000E+00  0.00000000E+00  0.00000000E+00
  0.00000000E+00  0.00000000E+00  0.00000000E+00
  0.00000000E+00  0.00000000E+00  0.00000000E+00
  0.00000000E+00  0.00000000E+00  0.00000000E+00
  0.00000000E+00  0.00000000E+00  0.00000000E+00
  0.00000000E+00  0.00000000E+00  0.00000000E+00
  0.00000000E+00  0.00000000E+00  0.00000000E+00
  0.00000000E+00  0.00000000E+00  0.00000000E+00
  0.00000000E+00  0.00000000E+00  0.00000000E+00
  0.00000000E+00  0.00000000E+00  0.00000000E+00
  0.00000000E+00  0.00000000E+00  0.00000000E+00
  0.00000000E+00  0.00000000E+00  0.00000000E+00
  0.00000000E+00  0.00000000E+00  0.00000000E+00
  0.00000000E+00  0.00000000E+00  0.00000000E+00
  0.00000000E+00  0.00000000E+00  0.00000000E+00
  0.00000000E+00  0.00000000E+00  0.00000000E+00
  0.00000000E+00  0.00000000E+00  0.00000000E+00
  0.00000000E+00  0.00000000E+00  0.00000000E+00
  0.00000000E+00  0.00000000E+00  0.00000000E+00
  0.00000000E+00  0.00000000E+00  0.00000000E+00
  0.00000000E+00  0.00000000E+00  0.00000000E+00
  0.00000000E+00  0.00000000E+00  0.00000000E+00
  0.00000000E+00  0.00000000E+00  0.00000000E+00
  0.00000000E+00  0.00000000E+00  0.00000000E+00
  0.00000000E+00  0.00000000E+00  0.00000000E+00
  0.00000000E+00  0.00000000E+00  0.00000000E+00
  0.00000000E+00  0.00000000E+00  0.00000000E+00
  0.00000000E+00  0.00000000E+00  0.00000000E+00
  0.00000000E+00  0.00000000E+00  0.00000000E+00
  0.00000000E+00  0.00000000E+00  0.00000000E+00
  0.00000000E+00  0.00000000E+00  0.00000000E+00
  0.00000000E+00  0.00000000E+00  0.00000000E+00
  0.00000000E+00  0.00000000E+00  0.00000000E+00
  0.00000000E+00  0.00000000E+00  0.00000000E+00
  0.00000000E+00  0.00000000E+00  0.00000000E+00
  0.00000000E+00  0.00000000E+00  0.00000000E+00
  0.00000000E+00  0.00000000E+00  0.00000000E+00
  0.00000000E+00  0.00000000E+00  0.00000000E+00
  0.00000000E+00  0.00000000E+00  0.00000000E+00
  0.00000000E+00  0.00000000E+00  0.00000000E+00
  0.00000000E+00  0.00000000E+00  0.00000000E+00
  0.00000000E+00  0.00000000E+00  0.00000000E+00
  0.00000000E+00  0.00000000E+00  0.00000000E+00
  0.00000000E+00  0.00000000E+00  0.00000000E+00
  0.00000000E+00  0.00000000E+00  0.00000000E+00
  0.00000000E+00  0.00000000E+00  0.00000000E+00
  0.00000000E+00  0.00000000E+00  0.00000000E+00
  0.00000000E+00  0.00000000E+00  0.00000000E+00
  0.00000000E+00  0.00000000E+00  0.00000000E+00
  0.00000000E+00  0.00000000E+00  0.00000000E+00
  0.00000000E+00  0.00000000E+00  0.00000000E+00
  0.00000000E+00  0.00000000E+00  0.00000000E+00
  0.00000000E+00  0.00000000E+00  0.00000000E+00
  0.00000000E+00  0.00000000E+00  0.00000000E+00
  0.00000000E+00  0.00000000E+00  0.00000000E+00
  0.00000000E+00  0.00000000E+00  0.00000000E+00
  0.00000000E+00  0.00000000E+00  0.00000000E+00
  0.00000000E+00  0.00000000E+00  0.00000000E+00
  0.00000000E+00  0.00000000E+00  0.00000000E+00
  0.00000000E+00  0.00000000E+00  0.00000000E+00
  0.00000000E+00  0.00000000E+00  0.00000000E+00
  0.00000000E+00  0.00000000E+00  0.00000000E+00
  0.00000000E+00  0.00000000E+00  0.00000000E+00
  0.00000000E+00  0.00000000E+00  0.00000000E+00
  0.00000000E+00  0.00000000E+00  0.00000000E+00
  0.00000000E+00  0.00000000E+00  0.00000000E+00
  0.00000000E+00  0.00000000E+00  0.00000000E+00
  0.00000000E+00  0.00000000E+00  0.00000000E+00
  0.00000000E+00  0.00000000E+00  0.00000000E+00
  0.00000000E+00  0.00000000E+00  0.00000000E+00
  0.00000000E+00  0.00000000E+00  0.00000000E+00
  0.00000000E+00  0.00000000E+00  0.00000000E+00
  0.00000000E+00  0.00000000E+00  0.00000000E+00
  0.00000000E+00  0.00000000E+00  0.00000000E+00
  0.00000000E+00  0.00000000E+00  0.00000000E+00
  0.00000000E+00  0.00000000E+00  0.00000000E+00
  0.00000000E+00  0.00000000E+00  0.00000000E+00
  0.00000000E+00  0.00000000E+00  0.00000000E+00
