H Mg O Ru                               
   1.00000000000000     
    16.8282433949600012    0.0000000000000000    0.0000000000000000
     0.0000000000000000    8.4141216974800006    0.0000000000000000
     0.0000000000000000    0.0000000000000000   23.4141216974799988
   H    Mg   O    Ru
     2    64    65     1
Selective dynamics
Direct
  0.0418921236896861  0.1735202830865772  0.3897777992390989   T   T   T
  0.5279760093314710  0.1363755861399059  0.3903910371606180   T   T   T
  0.1255044777580126  0.0014771766506353  0.0031057038494843   T   T   T
  0.6254923319891309  0.0016239406781953  0.0015945102116056   T   T   T
  0.1253350150334817  0.5018415470299590  0.0028011735493154   T   T   T
  0.6253550080887562  0.5023762865997295  0.0005606707623595   T   T   T
  0.3749862239142441  0.0019484252876824  0.0028423504595915   T   T   T
  0.8758155910814399  0.0020547996349660  0.0028987638299256   T   T   T
  0.3746027317544420  0.5017983668975343  0.0022050189249409   T   T   T
  0.8761110250186199  0.5019215802298179  0.0024997417489466   T   T   T
  0.0004411077170574  0.2518289690954140  0.0030937014629337   T   T   T
  0.4995969607200382  0.2516368434738839  0.0019868266887002   T   T   T
  0.0006559091095962  0.7520683244988406  0.0030691163096566   T   T   T
  0.4998860227238783  0.7525002058446179  0.0020802885851913   T   T   T
  0.2502708432962867  0.2514342170304712  0.0030408276333446   T   T   T
  0.7510765599167080  0.2514451788569571  0.0019803545444706   T   T   T
  0.2501347323599143  0.7519594566268877  0.0031480186256234   T   T   T
  0.7510191381238904  0.7523989604359038  0.0021472544582283   T   T   T
  0.0004599882586072  0.0020861440401203  0.0924980219641828   T   T   T
  0.5002608156185839  0.0025466373593419  0.0921247337316106   T   T   T
  0.0009874570360856  0.5023487521203277  0.0926027392143481   T   T   T
  0.4994029666208765  0.5020818227672789  0.0904113990350557   T   T   T
  0.2505696997812557  0.0021463557795941  0.0930234214957135   T   T   T
  0.7509949969397022  0.0024645650320966  0.0921885993852603   T   T   T
  0.2495507561476529  0.5010421317479548  0.0923943494417961   T   T   T
  0.7512918058681283  0.5013744752867524  0.0903553312554074   T   T   T
  0.1255032986434437  0.2515580440966759  0.0923827323543699   T   T   T
  0.6251805504138789  0.2507514298698506  0.0896697255797241   T   T   T
  0.1252553858981872  0.7513395155990595  0.0928622590695174   T   T   T
  0.6253536297979230  0.7532852117868590  0.0905140623728785   T   T   T
  0.3753116048595221  0.2510495072880762  0.0926602212480859   T   T   T
  0.8751706288534529  0.2513502753420281  0.0927853669863550   T   T   T
  0.3754142144345038  0.7526710386471954  0.0923302259645601   T   T   T
  0.8759040289105950  0.7528567259332088  0.0925235012778163   T   T   T
  0.1238677493511214  0.0046802939588063  0.1831784212515202   T   T   T
  0.6244196073600784  0.0109115526007295  0.1816502579025344   T   T   T
  0.1245403174220881  0.4971333012631713  0.1835356724058657   T   T   T
  0.6247596721082094  0.4973292072661369  0.1738992300558409   T   T   T
  0.3776945555253479  0.0029506525034527  0.1836003920486935   T   T   T
  0.8774741356818604  0.0033571530670387  0.1839238846069844   T   T   T
  0.3736298265238899  0.5008970525083548  0.1807187377135794   T   T   T
  0.8779698976793650  0.5015357127517163  0.1821388363677613   T   T   T
  0.0030961400045004  0.2483214871453238  0.1837328209290576   T   T   T
  0.5032273224113195  0.2513605459489101  0.1843483486494274   T   T   T
  0.0016270926159623  0.7572310429477008  0.1840382938715544   T   T   T
  0.5011266694551060  0.7545702783325873  0.1831530313735802   T   T   T
  0.2478712355629419  0.2505821461022985  0.1845735025810159   T   T   T
  0.7464999779961055  0.2530792171036638  0.1831910746826247   T   T   T
  0.2496348682062728  0.7518296072444558  0.1832045337446778   T   T   T
  0.7502046593589876  0.7506762110917929  0.1823044169706926   T   T   T
  0.0096165940443427  0.0105580243010701  0.2902685920513774   T   T   T
  0.5024737285458464  0.0020594058083198  0.2872469515592974   T   T   T
  0.0024029797119654  0.5015610175405381  0.2718818607054868   T   T   T
  0.4903130031533022  0.5043234696350676  0.2720423476428032   T   T   T
  0.2476743425373824  0.0012102136615287  0.2719194328006867   T   T   T
  0.7509551401962242  0.0047682885842497  0.2717086949211851   T   T   T
  0.2425998589066323  0.4992017628183962  0.2735860143037187   T   T   T
  0.7636969300926399  0.4998504284237941  0.2717375555512122   T   T   T
  0.1210178415947799  0.2394283646146390  0.2898955527458773   T   T   T
  0.6185487171967478  0.2102517453709403  0.2993166857676922   T   T   T
  0.1251769316759160  0.7530858001947440  0.2720045673572568   T   T   T
  0.6263563720776649  0.7733411808331621  0.2695460016209039   T   T   T
  0.3733605423008611  0.2413486400618277  0.2745133051244883   T   T   T
  0.8800911614778740  0.2500087926610381  0.2723224933191429   T   T   T
  0.3717675343938433  0.7619524864389745  0.2741506307226045   T   T   T
  0.8801109727056794  0.7561581939541123  0.2731813945377198   T   T   T
  0.0002660263793102  0.0019187674363530  0.0006965044432827   T   T   T
  0.5004146920638897  0.0018971293157718  0.0003641195430307   T   T   T
  0.0002200439177878  0.5020200828525729  0.0005482080459849   T   T   T
  0.4999630341087684  0.5022729189415607  0.9994230307158677   T   T   T
  0.2507566351489867  0.0015537788267258  0.0008807143777657   T   T   T
  0.7503882218770392  0.0016943406697293  0.0003196093689409   T   T   T
  0.2506090630992538  0.5018822360729390  0.0005224113842302   T   T   T
  0.7506381496591974  0.5021980243414942  0.9995530440168913   T   T   T
  0.1254760822897274  0.2515921550991869  0.0006217615033639   T   T   T
  0.6252625238215941  0.2514571933317879  0.9992291130070742   T   T   T
  0.1255501256731374  0.7517219670697365  0.0006205917374575   T   T   T
  0.6254110539017256  0.7525266863282137  0.9993510129331353   T   T   T
  0.3753889694676492  0.2517941188181012  0.0003971806728608   T   T   T
  0.8752589469580148  0.2520284451235346  0.0004711061572376   T   T   T
  0.3754881437561579  0.7519393618170322  0.0006686897462023   T   T   T
  0.8752457037630337  0.7519105363282511  0.0007039556471036   T   T   T
  0.1259358319262971  0.0009126543809848  0.0921827593548285   T   T   T
  0.6256736399614247  0.0006825412859375  0.0919682837710721   T   T   T
  0.1256747297507801  0.5018916046423990  0.0919807666585678   T   T   T
  0.6252567111582683  0.5034573587394230  0.0891488602567091   T   T   T
  0.3762850033619035  0.0016283436268601  0.0928730535892278   T   T   T
  0.8744808864768268  0.0018620073964788  0.0926210631340535   T   T   T
  0.3757999604501261  0.5021202500448014  0.0926479033554403   T   T   T
  0.8745219929431525  0.5023756232878192  0.0928926958579517   T   T   T
  0.9993146587145534  0.2527623798700154  0.0924014593811999   T   T   T
  0.5000715175477994  0.2533446578168890  0.0919487550135571   T   T   T
  0.9997745312608979  0.7517278074726927  0.0923696646517808   T   T   T
  0.5007418561975634  0.7512736364448902  0.0923868959729258   T   T   T
  0.2515801616642651  0.2521651873715625  0.0925759726266440   T   T   T
  0.7501205280920800  0.2528253821700213  0.0917332761119520   T   T   T
  0.2513831811767441  0.7509949851451967  0.0929484197702832   T   T   T
  0.7500413233059469  0.7509691486849239  0.0926351564904264   T   T   T
  0.9992114951518655  0.0018561087036704  0.1806561846223504   T   T   T
  0.5013619818333527  0.0015838914434238  0.1827408429081672   T   T   T
  0.0002068889345915  0.5046310572201013  0.1819633685414612   T   T   T
  0.5016872937530847  0.5048059613146453  0.1838601883556840   T   T   T
  0.2534100616729717  0.0016610675027993  0.1822880604793276   T   T   T
  0.7505561147230001  0.0020897533898530  0.1831968225120230   T   T   T
  0.2509688596249817  0.5008402486623353  0.1834231031807790   T   T   T
  0.7477322575739791  0.5011876182030341  0.1843887248861785   T   T   T
  0.1258951166864735  0.2522012961693658  0.1802111918890822   T   T   T
  0.6254421311434868  0.2576658657481448  0.1780408250369707   T   T   T
  0.1255697580487422  0.7486071123005122  0.1818386407349930   T   T   T
  0.6258738410371527  0.7429683979839814  0.1828572556154262   T   T   T
  0.3766627104172239  0.2541654842002496  0.1846465897769858   T   T   T
  0.8713015615568155  0.2529916839620774  0.1837804934206377   T   T   T
  0.3771435792363737  0.7494068035246504  0.1846070946557535   T   T   T
  0.8738720545493631  0.7519285983522817  0.1841136194230387   T   T   T
  0.1286939050666943  0.9946433455846253  0.2685356371594137   T   T   T
  0.6302864605300216  0.9987684247751073  0.2678072751528386   T   T   T
  0.1236303835399691  0.5014663386093342  0.2758021066468100   T   T   T
  0.3793248548446418  0.0010472589355119  0.2763046165919940   T   T   T
  0.8708349039430013  0.0035975648276460  0.2771230681373280   T   T   T
  0.3705166303152845  0.5022328240879309  0.2758679919819355   T   T   T
  0.8788208748996409  0.5029028202537862  0.2746152282457257   T   T   T
  0.5061450951000974  0.2716013665772539  0.2721745250184027   T   T   T
  0.9977336486031261  0.2571883380202389  0.2698702073708816   T   T   T
  0.0007836428737799  0.7551313445129220  0.2761496255281714   T   T   T
  0.5082665946403998  0.7405502432862281  0.2758145796494016   T   T   T
  0.2500382777860241  0.2491249388904537  0.2758022465618023   T   T   T
  0.7384353309262042  0.2668850285995383  0.2808932074775458   T   T   T
  0.2504538455189729  0.7517213397044665  0.2731630759752042   T   T   T
  0.7440259909379149  0.7358162880285480  0.2767014017509618   T   T   T
  0.0690959329061365  0.1172574353572738  0.3593690352120283   T   T   T
  0.5590690266083218  0.0861720305080338  0.3605433739942798   T   T   T
  0.3727634566915020  0.4987303172181010  0.3605078065738251   T   T   T
 
  0.00000000E+00  0.00000000E+00  0.00000000E+00
  0.00000000E+00  0.00000000E+00  0.00000000E+00
  0.00000000E+00  0.00000000E+00  0.00000000E+00
  0.00000000E+00  0.00000000E+00  0.00000000E+00
  0.00000000E+00  0.00000000E+00  0.00000000E+00
  0.00000000E+00  0.00000000E+00  0.00000000E+00
  0.00000000E+00  0.00000000E+00  0.00000000E+00
  0.00000000E+00  0.00000000E+00  0.00000000E+00
  0.00000000E+00  0.00000000E+00  0.00000000E+00
  0.00000000E+00  0.00000000E+00  0.00000000E+00
  0.00000000E+00  0.00000000E+00  0.00000000E+00
  0.00000000E+00  0.00000000E+00  0.00000000E+00
  0.00000000E+00  0.00000000E+00  0.00000000E+00
  0.00000000E+00  0.00000000E+00  0.00000000E+00
  0.00000000E+00  0.00000000E+00  0.00000000E+00
  0.00000000E+00  0.00000000E+00  0.00000000E+00
  0.00000000E+00  0.00000000E+00  0.00000000E+00
  0.00000000E+00  0.00000000E+00  0.00000000E+00
  0.00000000E+00  0.00000000E+00  0.00000000E+00
  0.00000000E+00  0.00000000E+00  0.00000000E+00
  0.00000000E+00  0.00000000E+00  0.00000000E+00
  0.00000000E+00  0.00000000E+00  0.00000000E+00
  0.00000000E+00  0.00000000E+00  0.00000000E+00
  0.00000000E+00  0.00000000E+00  0.00000000E+00
  0.00000000E+00  0.00000000E+00  0.00000000E+00
  0.00000000E+00  0.00000000E+00  0.00000000E+00
  0.00000000E+00  0.00000000E+00  0.00000000E+00
  0.00000000E+00  0.00000000E+00  0.00000000E+00
  0.00000000E+00  0.00000000E+00  0.00000000E+00
  0.00000000E+00  0.00000000E+00  0.00000000E+00
  0.00000000E+00  0.00000000E+00  0.00000000E+00
  0.00000000E+00  0.00000000E+00  0.00000000E+00
  0.00000000E+00  0.00000000E+00  0.00000000E+00
  0.00000000E+00  0.00000000E+00  0.00000000E+00
  0.00000000E+00  0.00000000E+00  0.00000000E+00
  0.00000000E+00  0.00000000E+00  0.00000000E+00
  0.00000000E+00  0.00000000E+00  0.00000000E+00
  0.00000000E+00  0.00000000E+00  0.00000000E+00
  0.00000000E+00  0.00000000E+00  0.00000000E+00
  0.00000000E+00  0.00000000E+00  0.00000000E+00
  0.00000000E+00  0.00000000E+00  0.00000000E+00
  0.00000000E+00  0.00000000E+00  0.00000000E+00
  0.00000000E+00  0.00000000E+00  0.00000000E+00
  0.00000000E+00  0.00000000E+00  0.00000000E+00
  0.00000000E+00  0.00000000E+00  0.00000000E+00
  0.00000000E+00  0.00000000E+00  0.00000000E+00
  0.00000000E+00  0.00000000E+00  0.00000000E+00
  0.00000000E+00  0.00000000E+00  0.00000000E+00
  0.00000000E+00  0.00000000E+00  0.00000000E+00
  0.00000000E+00  0.00000000E+00  0.00000000E+00
  0.00000000E+00  0.00000000E+00  0.00000000E+00
  0.00000000E+00  0.00000000E+00  0.00000000E+00
  0.00000000E+00  0.00000000E+00  0.00000000E+00
  0.00000000E+00  0.00000000E+00  0.00000000E+00
  0.00000000E+00  0.00000000E+00  0.00000000E+00
  0.00000000E+00  0.00000000E+00  0.00000000E+00
  0.00000000E+00  0.00000000E+00  0.00000000E+00
  0.00000000E+00  0.00000000E+00  0.00000000E+00
  0.00000000E+00  0.00000000E+00  0.00000000E+00
  0.00000000E+00  0.00000000E+00  0.00000000E+00
  0.00000000E+00  0.00000000E+00  0.00000000E+00
  0.00000000E+00  0.00000000E+00  0.00000000E+00
  0.00000000E+00  0.00000000E+00  0.00000000E+00
  0.00000000E+00  0.00000000E+00  0.00000000E+00
  0.00000000E+00  0.00000000E+00  0.00000000E+00
  0.00000000E+00  0.00000000E+00  0.00000000E+00
  0.00000000E+00  0.00000000E+00  0.00000000E+00
  0.00000000E+00  0.00000000E+00  0.00000000E+00
  0.00000000E+00  0.00000000E+00  0.00000000E+00
  0.00000000E+00  0.00000000E+00  0.00000000E+00
  0.00000000E+00  0.00000000E+00  0.00000000E+00
  0.00000000E+00  0.00000000E+00  0.00000000E+00
  0.00000000E+00  0.00000000E+00  0.00000000E+00
  0.00000000E+00  0.00000000E+00  0.00000000E+00
  0.00000000E+00  0.00000000E+00  0.00000000E+00
  0.00000000E+00  0.00000000E+00  0.00000000E+00
  0.00000000E+00  0.00000000E+00  0.00000000E+00
  0.00000000E+00  0.00000000E+00  0.00000000E+00
  0.00000000E+00  0.00000000E+00  0.00000000E+00
  0.00000000E+00  0.00000000E+00  0.00000000E+00
  0.00000000E+00  0.00000000E+00  0.00000000E+00
  0.00000000E+00  0.00000000E+00  0.00000000E+00
  0.00000000E+00  0.00000000E+00  0.00000000E+00
  0.00000000E+00  0.00000000E+00  0.00000000E+00
  0.00000000E+00  0.00000000E+00  0.00000000E+00
  0.00000000E+00  0.00000000E+00  0.00000000E+00
  0.00000000E+00  0.00000000E+00  0.00000000E+00
  0.00000000E+00  0.00000000E+00  0.00000000E+00
  0.00000000E+00  0.00000000E+00  0.00000000E+00
  0.00000000E+00  0.00000000E+00  0.00000000E+00
  0.00000000E+00  0.00000000E+00  0.00000000E+00
  0.00000000E+00  0.00000000E+00  0.00000000E+00
  0.00000000E+00  0.00000000E+00  0.00000000E+00
  0.00000000E+00  0.00000000E+00  0.00000000E+00
  0.00000000E+00  0.00000000E+00  0.00000000E+00
  0.00000000E+00  0.00000000E+00  0.00000000E+00
  0.00000000E+00  0.00000000E+00  0.00000000E+00
  0.00000000E+00  0.00000000E+00  0.00000000E+00
  0.00000000E+00  0.00000000E+00  0.00000000E+00
  0.00000000E+00  0.00000000E+00  0.00000000E+00
  0.00000000E+00  0.00000000E+00  0.00000000E+00
  0.00000000E+00  0.00000000E+00  0.00000000E+00
  0.00000000E+00  0.00000000E+00  0.00000000E+00
  0.00000000E+00  0.00000000E+00  0.00000000E+00
  0.00000000E+00  0.00000000E+00  0.00000000E+00
  0.00000000E+00  0.00000000E+00  0.00000000E+00
  0.00000000E+00  0.00000000E+00  0.00000000E+00
  0.00000000E+00  0.00000000E+00  0.00000000E+00
  0.00000000E+00  0.00000000E+00  0.00000000E+00
  0.00000000E+00  0.00000000E+00  0.00000000E+00
  0.00000000E+00  0.00000000E+00  0.00000000E+00
  0.00000000E+00  0.00000000E+00  0.00000000E+00
  0.00000000E+00  0.00000000E+00  0.00000000E+00
  0.00000000E+00  0.00000000E+00  0.00000000E+00
  0.00000000E+00  0.00000000E+00  0.00000000E+00
  0.00000000E+00  0.00000000E+00  0.00000000E+00
  0.00000000E+00  0.00000000E+00  0.00000000E+00
  0.00000000E+00  0.00000000E+00  0.00000000E+00
  0.00000000E+00  0.00000000E+00  0.00000000E+00
  0.00000000E+00  0.00000000E+00  0.00000000E+00
  0.00000000E+00  0.00000000E+00  0.00000000E+00
  0.00000000E+00  0.00000000E+00  0.00000000E+00
  0.00000000E+00  0.00000000E+00  0.00000000E+00
  0.00000000E+00  0.00000000E+00  0.00000000E+00
  0.00000000E+00  0.00000000E+00  0.00000000E+00
  0.00000000E+00  0.00000000E+00  0.00000000E+00
  0.00000000E+00  0.00000000E+00  0.00000000E+00
  0.00000000E+00  0.00000000E+00  0.00000000E+00
  0.00000000E+00  0.00000000E+00  0.00000000E+00
  0.00000000E+00  0.00000000E+00  0.00000000E+00
  0.00000000E+00  0.00000000E+00  0.00000000E+00
  0.00000000E+00  0.00000000E+00  0.00000000E+00
