H Mg O Mn                               
   1.00000000000000     
    16.8282433949600012    0.0000000000000000    0.0000000000000000
     0.0000000000000000    8.4141216974800006    0.0000000000000000
     0.0000000000000000    0.0000000000000000   23.4141216974799988
   H    Mg   O    Mn
     2    64    65     1
Selective dynamics
Direct
  0.0423264935694614  0.1720833076724005  0.3900368789885913   T   T   T
  0.5278700540272071  0.1352777912549852  0.3907614956631839   T   T   T
  0.1253990009654594  0.0015565329720987  0.0030168974654207   T   T   T
  0.6256658127473282  0.0016471827014557  0.0014985244726135   T   T   T
  0.1251893280307194  0.5019151471188221  0.0027581519180799   T   T   T
  0.6255476657788027  0.5024465165973749  0.0004857944574190   T   T   T
  0.3749960262895107  0.0019548182683954  0.0025853465946605   T   T   T
  0.8758109367395364  0.0021291016990839  0.0028823827008065   T   T   T
  0.3746501270986797  0.5018519124475399  0.0019874548857886   T   T   T
  0.8760973117983141  0.5020251686454515  0.0025097537067521   T   T   T
  0.0003258954648283  0.2520450964404935  0.0030249719735119   T   T   T
  0.4997369515148714  0.2516303893424241  0.0017549707018717   T   T   T
  0.0005325763988115  0.7520528688127189  0.0030162552253672   T   T   T
  0.5000460514928662  0.7525084237109529  0.0018566609525557   T   T   T
  0.2501724803277947  0.2515029223858812  0.0028752348196564   T   T   T
  0.7511890746528078  0.2515739983692587  0.0019281276803069   T   T   T
  0.2500448257040326  0.7519917918287292  0.0029749202904185   T   T   T
  0.7511099532312926  0.7524236946740147  0.0021189734409799   T   T   T
  0.0002971227188178  0.0021868545886425  0.0924516170250291   T   T   T
  0.5003998694648576  0.0026343760198520  0.0918756988399903   T   T   T
  0.0008897420440920  0.5024776946478846  0.0926316833889422   T   T   T
  0.4995858751577670  0.5019675148340501  0.0901252709975354   T   T   T
  0.2504745573390005  0.0021411860131307  0.0928288326145955   T   T   T
  0.7510935104051931  0.0025710060913838  0.0921468064414412   T   T   T
  0.2494472362125442  0.5011073887516084  0.0920798495588618   T   T   T
  0.7513436251463450  0.5014668144328300  0.0903832496540591   T   T   T
  0.1252887616741965  0.2517031011017015  0.0923097802546157   T   T   T
  0.6252692096829225  0.2507883994657860  0.0895599398116822   T   T   T
  0.1250622491311799  0.7513339954948027  0.0927808095083035   T   T   T
  0.6254826979153232  0.7532900045889402  0.0904105486844595   T   T   T
  0.3753658743816974  0.2509022064948835  0.0922635166617681   T   T   T
  0.8750984041162613  0.2515126430035259  0.0927613760369582   T   T   T
  0.3754145229281232  0.7528355597670934  0.0919421764136173   T   T   T
  0.8758424506628240  0.7529116185039373  0.0925327928034306   T   T   T
  0.1235897633384872  0.0047025970952631  0.1831374759561899   T   T   T
  0.6244780421513604  0.0104833255739527  0.1816973430466708   T   T   T
  0.1244296002987933  0.4971238886786923  0.1836058291379017   T   T   T
  0.6249201106397309  0.4974194621247148  0.1740417729722558   T   T   T
  0.3777116615557485  0.0028011758499968  0.1832568565960051   T   T   T
  0.8773974288169405  0.0035055983722189  0.1840189554902701   T   T   T
  0.3736947454972053  0.5010174125923497  0.1795090854438584   T   T   T
  0.8777517355009662  0.5016550742802292  0.1822422273221079   T   T   T
  0.0027105580619308  0.2485621870119992  0.1837176584312631   T   T   T
  0.5034176653754078  0.2507147921573035  0.1840886529392439   T   T   T
  0.0013780811495669  0.7572275467653312  0.1840946623591687   T   T   T
  0.5013182096706770  0.7549478074827145  0.1827732135058932   T   T   T
  0.2475978904236277  0.2500241132382589  0.1841578319962234   T   T   T
  0.7465054099624272  0.2530162162795079  0.1833261978101796   T   T   T
  0.2493468839242665  0.7522436412908212  0.1829353149036184   T   T   T
  0.7501410270401406  0.7509095206054773  0.1824321942411798   T   T   T
  0.0092108185835417  0.0106497820795737  0.2902341229854831   T   T   T
  0.5018695264395975  0.0023641096038560  0.2873215145183689   T   T   T
  0.0023600557031637  0.5017666247499990  0.2719200906706797   T   T   T
  0.4898895408068601  0.5035408670383719  0.2710180204862106   T   T   T
  0.2481691243473850  0.0013478258527259  0.2719814363242145   T   T   T
  0.7507868794322579  0.0043379585221931  0.2717439124385600   T   T   T
  0.2440016871978430  0.4987745729566094  0.2727599398666742   T   T   T
  0.7630339750035193  0.4999339513275416  0.2719806461600329   T   T   T
  0.1207287839811691  0.2395747785764383  0.2897678091768058   T   T   T
  0.6182369850898839  0.2106643116728464  0.2997082073182793   T   T   T
  0.1252747359335141  0.7529475029005056  0.2721207356595825   T   T   T
  0.6258376613213942  0.7725563758948063  0.2700982434488186   T   T   T
  0.3736286047193038  0.2430084017139467  0.2728889778061470   T   T   T
  0.8796100977809976  0.2502556683875704  0.2724097970149906   T   T   T
  0.3721270415799453  0.7601789256962189  0.2728133494298771   T   T   T
  0.8797089336291115  0.7560853094572746  0.2732093537033781   T   T   T
  0.0002560705632561  0.0020037253045077  0.0006288534508421   T   T   T
  0.5004366145697327  0.0019012959139457  0.0001530817853747   T   T   T
  0.0002318229904203  0.5021227785370334  0.0005310154558199   T   T   T
  0.5000553469398678  0.5023002417157786  0.9992253932255536   T   T   T
  0.2507266284327566  0.0015937854614983  0.0007398592694893   T   T   T
  0.7504833058440112  0.0017468549140682  0.0002626547733170   T   T   T
  0.2505398199675116  0.5019321948432017  0.0004098761171523   T   T   T
  0.7506828536168536  0.5022958219261446  0.9995469873217110   T   T   T
  0.1254317767390877  0.2517504788703568  0.0005477876686784   T   T   T
  0.6253545727837689  0.2515863708130588  0.9991129525451810   T   T   T
  0.1254998629995888  0.7517166873043153  0.0005469868090995   T   T   T
  0.6255112737052695  0.7524998650275354  0.9992784137434374   T   T   T
  0.3753607610635756  0.2517749576996967  0.0001943423344550   T   T   T
  0.8752822339538859  0.2521273769159530  0.0004132807427456   T   T   T
  0.3754712808533013  0.7520014888869422  0.0004830362677430   T   T   T
  0.8752618325204176  0.7519977370510229  0.0006636979680241   T   T   T
  0.1259026193472478  0.0009645931092569  0.0921330303307122   T   T   T
  0.6256931908312379  0.0006753084779185  0.0918375779791250   T   T   T
  0.1256834776124943  0.5019402296532747  0.0919849551618049   T   T   T
  0.6252833172745843  0.5035146071972102  0.0891310650466224   T   T   T
  0.3762740720999730  0.0016254077740324  0.0926982626100377   T   T   T
  0.8744943796658932  0.0019768075117575  0.0925383414873841   T   T   T
  0.3757849676527290  0.5021357726103599  0.0920332327049963   T   T   T
  0.8745133938111084  0.5024780475996116  0.0928892295181861   T   T   T
  0.9992985855858921  0.2529501645874952  0.0923481474708932   T   T   T
  0.5000932111801372  0.2531996333391673  0.0916849098422956   T   T   T
  0.9997754470021420  0.7517674626312740  0.0923282243838623   T   T   T
  0.5007679356383534  0.7513999873057119  0.0921287628053842   T   T   T
  0.2515092687593936  0.2521310187881097  0.0924271873915924   T   T   T
  0.7500846918086093  0.2529523537838701  0.0916799551312863   T   T   T
  0.2513153194709434  0.7510704140459430  0.0927621950648299   T   T   T
  0.7500069966598469  0.7510460535839780  0.0926160061446753   T   T   T
  0.9992012548110528  0.0018980729672397  0.1805697586715251   T   T   T
  0.5012769804869205  0.0015676744717577  0.1824476973422639   T   T   T
  0.0001322469412022  0.5047692839628151  0.1819122941825051   T   T   T
  0.5011809614964808  0.5045979735384779  0.1834610668590785   T   T   T
  0.2534556346365402  0.0014028609533805  0.1821452457040871   T   T   T
  0.7504909189785257  0.0021825172799387  0.1830683840369759   T   T   T
  0.2515302290719575  0.5009020795455548  0.1833779810793549   T   T   T
  0.7476808919044229  0.5013188179445230  0.1844122697217318   T   T   T
  0.1257930135583984  0.2521949214989748  0.1801753268776115   T   T   T
  0.6253154344248436  0.2576015068880502  0.1780027553327094   T   T   T
  0.1256079647788376  0.7485105182363246  0.1818524800242206   T   T   T
  0.6256537237757539  0.7430321790316602  0.1829458289993979   T   T   T
  0.3765706093801550  0.2551276470708181  0.1840989053663365   T   T   T
  0.8713335083131049  0.2532305830077330  0.1835956208331982   T   T   T
  0.3770436055860859  0.7483845334322866  0.1841835120686063   T   T   T
  0.8738654966212610  0.7519425770833946  0.1839733006824721   T   T   T
  0.1290200405642331  0.9946717589810006  0.2684958741633545   T   T   T
  0.6297300228095941  0.9986646719603819  0.2677996866031416   T   T   T
  0.1243777667384257  0.5011666992225426  0.2757148905725705   T   T   T
  0.3787998568308422  0.0008415974829830  0.2755560722037271   T   T   T
  0.8710971906266355  0.0035573041689811  0.2769899223403695   T   T   T
  0.3713954722289518  0.5036515489663607  0.2834977874449428   T   T   T
  0.8784593384586822  0.5031153853259624  0.2745020409534748   T   T   T
  0.5040464043466369  0.2705318330985297  0.2721634645913006   T   T   T
  0.9975151485230989  0.2577333640745944  0.2697070746910687   T   T   T
  0.0007931043053834  0.7547110076359332  0.2759993821795018   T   T   T
  0.5067333241863359  0.7402414200887331  0.2759356287432069   T   T   T
  0.2508870894144935  0.2498782304434166  0.2755764634017897   T   T   T
  0.7391608513455052  0.2654159419856086  0.2806107016187054   T   T   T
  0.2510101939388898  0.7505492150219248  0.2735933209472021   T   T   T
  0.7444116058796281  0.7373568442255781  0.2763460190551305   T   T   T
  0.0687708965495278  0.1173776428439031  0.3589581484091223   T   T   T
  0.5583162894179419  0.0864732506154318  0.3602250144772266   T   T   T
  0.3777249664885299  0.4989762239346855  0.3703860421484089   T   T   T
 
  0.00000000E+00  0.00000000E+00  0.00000000E+00
  0.00000000E+00  0.00000000E+00  0.00000000E+00
  0.00000000E+00  0.00000000E+00  0.00000000E+00
  0.00000000E+00  0.00000000E+00  0.00000000E+00
  0.00000000E+00  0.00000000E+00  0.00000000E+00
  0.00000000E+00  0.00000000E+00  0.00000000E+00
  0.00000000E+00  0.00000000E+00  0.00000000E+00
  0.00000000E+00  0.00000000E+00  0.00000000E+00
  0.00000000E+00  0.00000000E+00  0.00000000E+00
  0.00000000E+00  0.00000000E+00  0.00000000E+00
  0.00000000E+00  0.00000000E+00  0.00000000E+00
  0.00000000E+00  0.00000000E+00  0.00000000E+00
  0.00000000E+00  0.00000000E+00  0.00000000E+00
  0.00000000E+00  0.00000000E+00  0.00000000E+00
  0.00000000E+00  0.00000000E+00  0.00000000E+00
  0.00000000E+00  0.00000000E+00  0.00000000E+00
  0.00000000E+00  0.00000000E+00  0.00000000E+00
  0.00000000E+00  0.00000000E+00  0.00000000E+00
  0.00000000E+00  0.00000000E+00  0.00000000E+00
  0.00000000E+00  0.00000000E+00  0.00000000E+00
  0.00000000E+00  0.00000000E+00  0.00000000E+00
  0.00000000E+00  0.00000000E+00  0.00000000E+00
  0.00000000E+00  0.00000000E+00  0.00000000E+00
  0.00000000E+00  0.00000000E+00  0.00000000E+00
  0.00000000E+00  0.00000000E+00  0.00000000E+00
  0.00000000E+00  0.00000000E+00  0.00000000E+00
  0.00000000E+00  0.00000000E+00  0.00000000E+00
  0.00000000E+00  0.00000000E+00  0.00000000E+00
  0.00000000E+00  0.00000000E+00  0.00000000E+00
  0.00000000E+00  0.00000000E+00  0.00000000E+00
  0.00000000E+00  0.00000000E+00  0.00000000E+00
  0.00000000E+00  0.00000000E+00  0.00000000E+00
  0.00000000E+00  0.00000000E+00  0.00000000E+00
  0.00000000E+00  0.00000000E+00  0.00000000E+00
  0.00000000E+00  0.00000000E+00  0.00000000E+00
  0.00000000E+00  0.00000000E+00  0.00000000E+00
  0.00000000E+00  0.00000000E+00  0.00000000E+00
  0.00000000E+00  0.00000000E+00  0.00000000E+00
  0.00000000E+00  0.00000000E+00  0.00000000E+00
  0.00000000E+00  0.00000000E+00  0.00000000E+00
  0.00000000E+00  0.00000000E+00  0.00000000E+00
  0.00000000E+00  0.00000000E+00  0.00000000E+00
  0.00000000E+00  0.00000000E+00  0.00000000E+00
  0.00000000E+00  0.00000000E+00  0.00000000E+00
  0.00000000E+00  0.00000000E+00  0.00000000E+00
  0.00000000E+00  0.00000000E+00  0.00000000E+00
  0.00000000E+00  0.00000000E+00  0.00000000E+00
  0.00000000E+00  0.00000000E+00  0.00000000E+00
  0.00000000E+00  0.00000000E+00  0.00000000E+00
  0.00000000E+00  0.00000000E+00  0.00000000E+00
  0.00000000E+00  0.00000000E+00  0.00000000E+00
  0.00000000E+00  0.00000000E+00  0.00000000E+00
  0.00000000E+00  0.00000000E+00  0.00000000E+00
  0.00000000E+00  0.00000000E+00  0.00000000E+00
  0.00000000E+00  0.00000000E+00  0.00000000E+00
  0.00000000E+00  0.00000000E+00  0.00000000E+00
  0.00000000E+00  0.00000000E+00  0.00000000E+00
  0.00000000E+00  0.00000000E+00  0.00000000E+00
  0.00000000E+00  0.00000000E+00  0.00000000E+00
  0.00000000E+00  0.00000000E+00  0.00000000E+00
  0.00000000E+00  0.00000000E+00  0.00000000E+00
  0.00000000E+00  0.00000000E+00  0.00000000E+00
  0.00000000E+00  0.00000000E+00  0.00000000E+00
  0.00000000E+00  0.00000000E+00  0.00000000E+00
  0.00000000E+00  0.00000000E+00  0.00000000E+00
  0.00000000E+00  0.00000000E+00  0.00000000E+00
  0.00000000E+00  0.00000000E+00  0.00000000E+00
  0.00000000E+00  0.00000000E+00  0.00000000E+00
  0.00000000E+00  0.00000000E+00  0.00000000E+00
  0.00000000E+00  0.00000000E+00  0.00000000E+00
  0.00000000E+00  0.00000000E+00  0.00000000E+00
  0.00000000E+00  0.00000000E+00  0.00000000E+00
  0.00000000E+00  0.00000000E+00  0.00000000E+00
  0.00000000E+00  0.00000000E+00  0.00000000E+00
  0.00000000E+00  0.00000000E+00  0.00000000E+00
  0.00000000E+00  0.00000000E+00  0.00000000E+00
  0.00000000E+00  0.00000000E+00  0.00000000E+00
  0.00000000E+00  0.00000000E+00  0.00000000E+00
  0.00000000E+00  0.00000000E+00  0.00000000E+00
  0.00000000E+00  0.00000000E+00  0.00000000E+00
  0.00000000E+00  0.00000000E+00  0.00000000E+00
  0.00000000E+00  0.00000000E+00  0.00000000E+00
  0.00000000E+00  0.00000000E+00  0.00000000E+00
  0.00000000E+00  0.00000000E+00  0.00000000E+00
  0.00000000E+00  0.00000000E+00  0.00000000E+00
  0.00000000E+00  0.00000000E+00  0.00000000E+00
  0.00000000E+00  0.00000000E+00  0.00000000E+00
  0.00000000E+00  0.00000000E+00  0.00000000E+00
  0.00000000E+00  0.00000000E+00  0.00000000E+00
  0.00000000E+00  0.00000000E+00  0.00000000E+00
  0.00000000E+00  0.00000000E+00  0.00000000E+00
  0.00000000E+00  0.00000000E+00  0.00000000E+00
  0.00000000E+00  0.00000000E+00  0.00000000E+00
  0.00000000E+00  0.00000000E+00  0.00000000E+00
  0.00000000E+00  0.00000000E+00  0.00000000E+00
  0.00000000E+00  0.00000000E+00  0.00000000E+00
  0.00000000E+00  0.00000000E+00  0.00000000E+00
  0.00000000E+00  0.00000000E+00  0.00000000E+00
  0.00000000E+00  0.00000000E+00  0.00000000E+00
  0.00000000E+00  0.00000000E+00  0.00000000E+00
  0.00000000E+00  0.00000000E+00  0.00000000E+00
  0.00000000E+00  0.00000000E+00  0.00000000E+00
  0.00000000E+00  0.00000000E+00  0.00000000E+00
  0.00000000E+00  0.00000000E+00  0.00000000E+00
  0.00000000E+00  0.00000000E+00  0.00000000E+00
  0.00000000E+00  0.00000000E+00  0.00000000E+00
  0.00000000E+00  0.00000000E+00  0.00000000E+00
  0.00000000E+00  0.00000000E+00  0.00000000E+00
  0.00000000E+00  0.00000000E+00  0.00000000E+00
  0.00000000E+00  0.00000000E+00  0.00000000E+00
  0.00000000E+00  0.00000000E+00  0.00000000E+00
  0.00000000E+00  0.00000000E+00  0.00000000E+00
  0.00000000E+00  0.00000000E+00  0.00000000E+00
  0.00000000E+00  0.00000000E+00  0.00000000E+00
  0.00000000E+00  0.00000000E+00  0.00000000E+00
  0.00000000E+00  0.00000000E+00  0.00000000E+00
  0.00000000E+00  0.00000000E+00  0.00000000E+00
  0.00000000E+00  0.00000000E+00  0.00000000E+00
  0.00000000E+00  0.00000000E+00  0.00000000E+00
  0.00000000E+00  0.00000000E+00  0.00000000E+00
  0.00000000E+00  0.00000000E+00  0.00000000E+00
  0.00000000E+00  0.00000000E+00  0.00000000E+00
  0.00000000E+00  0.00000000E+00  0.00000000E+00
  0.00000000E+00  0.00000000E+00  0.00000000E+00
  0.00000000E+00  0.00000000E+00  0.00000000E+00
  0.00000000E+00  0.00000000E+00  0.00000000E+00
  0.00000000E+00  0.00000000E+00  0.00000000E+00
  0.00000000E+00  0.00000000E+00  0.00000000E+00
  0.00000000E+00  0.00000000E+00  0.00000000E+00
  0.00000000E+00  0.00000000E+00  0.00000000E+00
  0.00000000E+00  0.00000000E+00  0.00000000E+00
  0.00000000E+00  0.00000000E+00  0.00000000E+00
