H Mg O V                                
   1.00000000000000     
    16.8282433949600012    0.0000000000000000    0.0000000000000000
     0.0000000000000000    8.4141216974800006    0.0000000000000000
     0.0000000000000000    0.0000000000000000   23.4141216974799988
   H    Mg   O    V 
     2    64    65     1
Selective dynamics
Direct
  0.0415819365008217  0.1734792810616526  0.3894066041414508   T   T   T
  0.5284340272730513  0.1375416762565162  0.3908662030012345   T   T   T
  0.1253690323740535  0.0015311788381620  0.0030627170958753   T   T   T
  0.6256855959190231  0.0016896273898468  0.0017409659360554   T   T   T
  0.1251207583156247  0.5018431984224986  0.0027837679245666   T   T   T
  0.6256184391747871  0.5023187517215765  0.0008942776490340   T   T   T
  0.3750476513812356  0.0019414253083024  0.0025318796895203   T   T   T
  0.8757499349937744  0.0020831161664066  0.0029146366464129   T   T   T
  0.3747468754505890  0.5018473774992407  0.0019302718222201   T   T   T
  0.8759789836273163  0.5019683655007483  0.0025956399565564   T   T   T
  0.0003162972219072  0.2519477891857524  0.0030616213483253   T   T   T
  0.4999240605660801  0.2516402755504827  0.0018892995250792   T   T   T
  0.0005180424046135  0.7520186778858424  0.0030264820777954   T   T   T
  0.5001824692699062  0.7524798947711051  0.0019752807291809   T   T   T
  0.2500966351117956  0.2514285985441497  0.0028574666617529   T   T   T
  0.7510604192746070  0.2515994004105322  0.0021360853755805   T   T   T
  0.2499901919324415  0.7519837809629302  0.0029392937414887   T   T   T
  0.7510456447840163  0.7523515275279014  0.0023058462219170   T   T   T
  0.0003455763495816  0.0021429187225336  0.0924967494373965   T   T   T
  0.5005338767345584  0.0025588841296078  0.0918751057269812   T   T   T
  0.0006398222906777  0.5023863015432961  0.0926515924619642   T   T   T
  0.5000137682747200  0.5020111937529695  0.0902518812390533   T   T   T
  0.2503771861976508  0.0020811730237207  0.0927531494725360   T   T   T
  0.7510574839339933  0.0025606178638733  0.0923663590329918   T   T   T
  0.2494033599708468  0.5011269859977284  0.0919306054051214   T   T   T
  0.7512344242124451  0.5014058023307947  0.0908390445965265   T   T   T
  0.1251951414348300  0.2515570227920221  0.0923965906744756   T   T   T
  0.6254115540149384  0.2508484243429226  0.0901885123062010   T   T   T
  0.1250230102739781  0.7513786186740096  0.0927989036945885   T   T   T
  0.6255679419143629  0.7530490242788822  0.0908326650608080   T   T   T
  0.3753235100327911  0.2509357395590547  0.0919412281189317   T   T   T
  0.8750857740156162  0.2514632017220528  0.0928642809448886   T   T   T
  0.3754446772809094  0.7528527979963400  0.0916614024313990   T   T   T
  0.8758331026906790  0.7528508175889779  0.0926177605582508   T   T   T
  0.1236409134732673  0.0046593915574363  0.1833191571787759   T   T   T
  0.6246149072133684  0.0088712582172043  0.1822198462708850   T   T   T
  0.1238770922479884  0.4971917822753079  0.1834510686719943   T   T   T
  0.6254279242134608  0.4976463399445140  0.1755718044734547   T   T   T
  0.3775306158889903  0.0028135318432033  0.1828042820022767   T   T   T
  0.8776188518823881  0.0033906635745281  0.1840427918738326   T   T   T
  0.3743501857234457  0.5011466877118576  0.1786873656483541   T   T   T
  0.8771133840887788  0.5016072407436992  0.1824832474515551   T   T   T
  0.0022626846353618  0.2486459939465065  0.1838573099909004   T   T   T
  0.5031937823342815  0.2500324108683201  0.1837460889439434   T   T   T
  0.0011229635058489  0.7570399836130931  0.1841082514018410   T   T   T
  0.5014221280995480  0.7554906484047220  0.1826845270327694   T   T   T
  0.2477689599629250  0.2502617792323045  0.1839679914996248   T   T   T
  0.7469086814966638  0.2523066823589139  0.1838528505223801   T   T   T
  0.2494589883896229  0.7521683919641078  0.1828384515441526   T   T   T
  0.7503727323184144  0.7513436068807006  0.1826724101889084   T   T   T
  0.0079150033752175  0.0106446965434407  0.2897963294740133   T   T   T
  0.5026906193570521  0.0031912573529286  0.2869927794304714   T   T   T
  0.0012756563687260  0.5018238600089554  0.2719180408842544   T   T   T
  0.4949382678972091  0.5028757618772032  0.2701971902664611   T   T   T
  0.2485729271196634  0.0014546934926285  0.2721252540206607   T   T   T
  0.7513879160450857  0.0026312056454248  0.2717907780473192   T   T   T
  0.2427129454232423  0.4992063574357976  0.2717215099367788   T   T   T
  0.7604079808078072  0.5002061833480792  0.2725107683711075   T   T   T
  0.1198104588844161  0.2396248106275419  0.2895536587003056   T   T   T
  0.6192109808239590  0.2139874129294607  0.2980290105874342   T   T   T
  0.1246682635315936  0.7530815513892870  0.2721618996027649   T   T   T
  0.6262826164519105  0.7679030896403395  0.2710568727317802   T   T   T
  0.3749576809528355  0.2413076550095907  0.2717962022560181   T   T   T
  0.8780106230649579  0.2504385188426947  0.2723773286984791   T   T   T
  0.3737221392627411  0.7620728347175785  0.2717798095748977   T   T   T
  0.8787793088548540  0.7556037002001020  0.2730395539438477   T   T   T
  0.0004118258398574  0.0019551488964196  0.0006437227300807   T   T   T
  0.5003568937782262  0.0019234106417808  0.0002231866090630   T   T   T
  0.0003408143596803  0.5020526412219273  0.0005458786694516   T   T   T
  0.5000742469692711  0.5022542283459119  0.9993954211534354   T   T   T
  0.2507247974403685  0.0015788937493819  0.0007842738817186   T   T   T
  0.7503838555435565  0.0017512247058468  0.0003171519951771   T   T   T
  0.2505286339599260  0.5018786020565509  0.0004178261745004   T   T   T
  0.7505445262809224  0.5022482543360600  0.9997331055246090   T   T   T
  0.1255307365857460  0.2516748430666810  0.0006141843684557   T   T   T
  0.6252300247034485  0.2516098455856640  0.9993942485541065   T   T   T
  0.1256070375528567  0.7516977537479735  0.0005990880016473   T   T   T
  0.6253867601127965  0.7523758557170246  0.9995113110650584   T   T   T
  0.3753387089539181  0.2517238194903660  0.0001924307682072   T   T   T
  0.8752973194222126  0.2520825024577197  0.0004507224802789   T   T   T
  0.3754303338936909  0.7520404472265289  0.0004324743901158   T   T   T
  0.8753095348765653  0.7519425517133499  0.0006657790032967   T   T   T
  0.1260726780205021  0.0009714504055580  0.0922754251706474   T   T   T
  0.6255350444070891  0.0008085518935901  0.0920473724834596   T   T   T
  0.1257714707992955  0.5018685593736321  0.0921691691020268   T   T   T
  0.6251792961104997  0.5031770607623738  0.0898477720655730   T   T   T
  0.3760914538843133  0.0016582480079491  0.0926776908901248   T   T   T
  0.8747092326083686  0.0019273110377441  0.0924531738026825   T   T   T
  0.3757256148690155  0.5021508998368239  0.0918176607073712   T   T   T
  0.8746220722331143  0.5024070504922554  0.0928053309756723   T   T   T
  0.9995867958206760  0.2528348509329937  0.0923601655615518   T   T   T
  0.5000116028329691  0.2531220288922746  0.0918590081390001   T   T   T
  0.0000383898353124  0.7517355562714019  0.0923249289865626   T   T   T
  0.5005863574147521  0.7514367181474774  0.0921973458583892   T   T   T
  0.2514278928200901  0.2521896730677272  0.0925242294524535   T   T   T
  0.7499687136112438  0.2527843967387446  0.0918489062410674   T   T   T
  0.2512987761828978  0.7509953211982248  0.0928579769706377   T   T   T
  0.7499889277064967  0.7510964388545566  0.0926489176743578   T   T   T
  0.9997203122987041  0.0018799497941909  0.1807083578244883   T   T   T
  0.5007377960780682  0.0016182123259580  0.1823894950274708   T   T   T
  0.0000639745427072  0.5046593950291927  0.1819926792624452   T   T   T
  0.5005627231614912  0.5044116499453812  0.1832619407724527   T   T   T
  0.2534691569529677  0.0015019744243374  0.1824236097705264   T   T   T
  0.7506410945087272  0.0020094054294329  0.1828542459730101   T   T   T
  0.2519581089701771  0.5009518763748763  0.1835812004801399   T   T   T
  0.7481806886397683  0.5013502945134904  0.1841415565440826   T   T   T
  0.1260086165777455  0.2523553336072140  0.1806287740454962   T   T   T
  0.6250486472134573  0.2567756133673020  0.1790099757677457   T   T   T
  0.1258994531254885  0.7483478033609754  0.1821127581910033   T   T   T
  0.6253000315944810  0.7441909705523145  0.1830116964952587   T   T   T
  0.3761122034504927  0.2555608384451736  0.1838142401161334   T   T   T
  0.8719847142015402  0.2529098493920801  0.1832307890559492   T   T   T
  0.3767912296597383  0.7480483427906510  0.1839585301517175   T   T   T
  0.8743923084508187  0.7520811110830598  0.1835638886358926   T   T   T
  0.1294630663310954  0.9946943611799646  0.2687970496230387   T   T   T
  0.6292279286930719  0.9968735448688864  0.2683244548908210   T   T   T
  0.1238615411427585  0.5011314226365319  0.2757856202346982   T   T   T
  0.3780288199174892  0.0010810266724219  0.2756196318729702   T   T   T
  0.8726998397645201  0.0031088750873160  0.2767113120912970   T   T   T
  0.3736616913895625  0.5042066550286147  0.2847164673575802   T   T   T
  0.8773203199973533  0.5032793408009614  0.2744910063364121   T   T   T
  0.5011179322569923  0.2671067003526297  0.2720959977534993   T   T   T
  0.9970291846732141  0.2580693075703912  0.2700067742154276   T   T   T
  0.0007384481931362  0.7541753842560153  0.2760540182744324   T   T   T
  0.5039341464853914  0.7431535860066102  0.2760472106141326   T   T   T
  0.2520470975433514  0.2519249417777318  0.2762770588886805   T   T   T
  0.7427919413035081  0.2599514840373284  0.2794691628009242   T   T   T
  0.2518656087975502  0.7490567336540261  0.2741770843598678   T   T   T
  0.7469979317605010  0.7422129033849160  0.2756347990501584   T   T   T
  0.0693298288818293  0.1172266171429809  0.3592034937615251   T   T   T
  0.5588349570033002  0.0892200534056068  0.3602405113215102   T   T   T
  0.3714614072484801  0.5008924180539714  0.3668975657320664   T   T   T
 
  0.00000000E+00  0.00000000E+00  0.00000000E+00
  0.00000000E+00  0.00000000E+00  0.00000000E+00
  0.00000000E+00  0.00000000E+00  0.00000000E+00
  0.00000000E+00  0.00000000E+00  0.00000000E+00
  0.00000000E+00  0.00000000E+00  0.00000000E+00
  0.00000000E+00  0.00000000E+00  0.00000000E+00
  0.00000000E+00  0.00000000E+00  0.00000000E+00
  0.00000000E+00  0.00000000E+00  0.00000000E+00
  0.00000000E+00  0.00000000E+00  0.00000000E+00
  0.00000000E+00  0.00000000E+00  0.00000000E+00
  0.00000000E+00  0.00000000E+00  0.00000000E+00
  0.00000000E+00  0.00000000E+00  0.00000000E+00
  0.00000000E+00  0.00000000E+00  0.00000000E+00
  0.00000000E+00  0.00000000E+00  0.00000000E+00
  0.00000000E+00  0.00000000E+00  0.00000000E+00
  0.00000000E+00  0.00000000E+00  0.00000000E+00
  0.00000000E+00  0.00000000E+00  0.00000000E+00
  0.00000000E+00  0.00000000E+00  0.00000000E+00
  0.00000000E+00  0.00000000E+00  0.00000000E+00
  0.00000000E+00  0.00000000E+00  0.00000000E+00
  0.00000000E+00  0.00000000E+00  0.00000000E+00
  0.00000000E+00  0.00000000E+00  0.00000000E+00
  0.00000000E+00  0.00000000E+00  0.00000000E+00
  0.00000000E+00  0.00000000E+00  0.00000000E+00
  0.00000000E+00  0.00000000E+00  0.00000000E+00
  0.00000000E+00  0.00000000E+00  0.00000000E+00
  0.00000000E+00  0.00000000E+00  0.00000000E+00
  0.00000000E+00  0.00000000E+00  0.00000000E+00
  0.00000000E+00  0.00000000E+00  0.00000000E+00
  0.00000000E+00  0.00000000E+00  0.00000000E+00
  0.00000000E+00  0.00000000E+00  0.00000000E+00
  0.00000000E+00  0.00000000E+00  0.00000000E+00
  0.00000000E+00  0.00000000E+00  0.00000000E+00
  0.00000000E+00  0.00000000E+00  0.00000000E+00
  0.00000000E+00  0.00000000E+00  0.00000000E+00
  0.00000000E+00  0.00000000E+00  0.00000000E+00
  0.00000000E+00  0.00000000E+00  0.00000000E+00
  0.00000000E+00  0.00000000E+00  0.00000000E+00
  0.00000000E+00  0.00000000E+00  0.00000000E+00
  0.00000000E+00  0.00000000E+00  0.00000000E+00
  0.00000000E+00  0.00000000E+00  0.00000000E+00
  0.00000000E+00  0.00000000E+00  0.00000000E+00
  0.00000000E+00  0.00000000E+00  0.00000000E+00
  0.00000000E+00  0.00000000E+00  0.00000000E+00
  0.00000000E+00  0.00000000E+00  0.00000000E+00
  0.00000000E+00  0.00000000E+00  0.00000000E+00
  0.00000000E+00  0.00000000E+00  0.00000000E+00
  0.00000000E+00  0.00000000E+00  0.00000000E+00
  0.00000000E+00  0.00000000E+00  0.00000000E+00
  0.00000000E+00  0.00000000E+00  0.00000000E+00
  0.00000000E+00  0.00000000E+00  0.00000000E+00
  0.00000000E+00  0.00000000E+00  0.00000000E+00
  0.00000000E+00  0.00000000E+00  0.00000000E+00
  0.00000000E+00  0.00000000E+00  0.00000000E+00
  0.00000000E+00  0.00000000E+00  0.00000000E+00
  0.00000000E+00  0.00000000E+00  0.00000000E+00
  0.00000000E+00  0.00000000E+00  0.00000000E+00
  0.00000000E+00  0.00000000E+00  0.00000000E+00
  0.00000000E+00  0.00000000E+00  0.00000000E+00
  0.00000000E+00  0.00000000E+00  0.00000000E+00
  0.00000000E+00  0.00000000E+00  0.00000000E+00
  0.00000000E+00  0.00000000E+00  0.00000000E+00
  0.00000000E+00  0.00000000E+00  0.00000000E+00
  0.00000000E+00  0.00000000E+00  0.00000000E+00
  0.00000000E+00  0.00000000E+00  0.00000000E+00
  0.00000000E+00  0.00000000E+00  0.00000000E+00
  0.00000000E+00  0.00000000E+00  0.00000000E+00
  0.00000000E+00  0.00000000E+00  0.00000000E+00
  0.00000000E+00  0.00000000E+00  0.00000000E+00
  0.00000000E+00  0.00000000E+00  0.00000000E+00
  0.00000000E+00  0.00000000E+00  0.00000000E+00
  0.00000000E+00  0.00000000E+00  0.00000000E+00
  0.00000000E+00  0.00000000E+00  0.00000000E+00
  0.00000000E+00  0.00000000E+00  0.00000000E+00
  0.00000000E+00  0.00000000E+00  0.00000000E+00
  0.00000000E+00  0.00000000E+00  0.00000000E+00
  0.00000000E+00  0.00000000E+00  0.00000000E+00
  0.00000000E+00  0.00000000E+00  0.00000000E+00
  0.00000000E+00  0.00000000E+00  0.00000000E+00
  0.00000000E+00  0.00000000E+00  0.00000000E+00
  0.00000000E+00  0.00000000E+00  0.00000000E+00
  0.00000000E+00  0.00000000E+00  0.00000000E+00
  0.00000000E+00  0.00000000E+00  0.00000000E+00
  0.00000000E+00  0.00000000E+00  0.00000000E+00
  0.00000000E+00  0.00000000E+00  0.00000000E+00
  0.00000000E+00  0.00000000E+00  0.00000000E+00
  0.00000000E+00  0.00000000E+00  0.00000000E+00
  0.00000000E+00  0.00000000E+00  0.00000000E+00
  0.00000000E+00  0.00000000E+00  0.00000000E+00
  0.00000000E+00  0.00000000E+00  0.00000000E+00
  0.00000000E+00  0.00000000E+00  0.00000000E+00
  0.00000000E+00  0.00000000E+00  0.00000000E+00
  0.00000000E+00  0.00000000E+00  0.00000000E+00
  0.00000000E+00  0.00000000E+00  0.00000000E+00
  0.00000000E+00  0.00000000E+00  0.00000000E+00
  0.00000000E+00  0.00000000E+00  0.00000000E+00
  0.00000000E+00  0.00000000E+00  0.00000000E+00
  0.00000000E+00  0.00000000E+00  0.00000000E+00
  0.00000000E+00  0.00000000E+00  0.00000000E+00
  0.00000000E+00  0.00000000E+00  0.00000000E+00
  0.00000000E+00  0.00000000E+00  0.00000000E+00
  0.00000000E+00  0.00000000E+00  0.00000000E+00
  0.00000000E+00  0.00000000E+00  0.00000000E+00
  0.00000000E+00  0.00000000E+00  0.00000000E+00
  0.00000000E+00  0.00000000E+00  0.00000000E+00
  0.00000000E+00  0.00000000E+00  0.00000000E+00
  0.00000000E+00  0.00000000E+00  0.00000000E+00
  0.00000000E+00  0.00000000E+00  0.00000000E+00
  0.00000000E+00  0.00000000E+00  0.00000000E+00
  0.00000000E+00  0.00000000E+00  0.00000000E+00
  0.00000000E+00  0.00000000E+00  0.00000000E+00
  0.00000000E+00  0.00000000E+00  0.00000000E+00
  0.00000000E+00  0.00000000E+00  0.00000000E+00
  0.00000000E+00  0.00000000E+00  0.00000000E+00
  0.00000000E+00  0.00000000E+00  0.00000000E+00
  0.00000000E+00  0.00000000E+00  0.00000000E+00
  0.00000000E+00  0.00000000E+00  0.00000000E+00
  0.00000000E+00  0.00000000E+00  0.00000000E+00
  0.00000000E+00  0.00000000E+00  0.00000000E+00
  0.00000000E+00  0.00000000E+00  0.00000000E+00
  0.00000000E+00  0.00000000E+00  0.00000000E+00
  0.00000000E+00  0.00000000E+00  0.00000000E+00
  0.00000000E+00  0.00000000E+00  0.00000000E+00
  0.00000000E+00  0.00000000E+00  0.00000000E+00
  0.00000000E+00  0.00000000E+00  0.00000000E+00
  0.00000000E+00  0.00000000E+00  0.00000000E+00
  0.00000000E+00  0.00000000E+00  0.00000000E+00
  0.00000000E+00  0.00000000E+00  0.00000000E+00
  0.00000000E+00  0.00000000E+00  0.00000000E+00
  0.00000000E+00  0.00000000E+00  0.00000000E+00
  0.00000000E+00  0.00000000E+00  0.00000000E+00
  0.00000000E+00  0.00000000E+00  0.00000000E+00
