H Mg O                                  
   1.00000000000000     
    16.8282433949600012    0.0000000000000000    0.0000000000000000
     0.0000000000000000    8.4141216974800006    0.0000000000000000
     0.0000000000000000    0.0000000000000000   23.4141216974799988
   H    Mg   O 
     2    64    65
Selective dynamics
Direct
  0.0417319789514497  0.1736544219038288  0.3900109934181796   T   T   T
  0.5292907892533263  0.1368868624806418  0.3915684924827915   T   T   T
  0.1254366149533007  0.0014939800615858  0.0031200732035580   T   T   T
  0.6253615657909082  0.0016244514143550  0.0015290148493414   T   T   T
  0.1252559489952345  0.5017445669109563  0.0027878243015025   T   T   T
  0.6252381805444099  0.5023072942894596  0.0005719375740093   T   T   T
  0.3749367916187457  0.0019386423363441  0.0028285025993637   T   T   T
  0.8757558635505283  0.0019290248447219  0.0028874545863790   T   T   T
  0.3744942438451689  0.5018053257993826  0.0023754904696986   T   T   T
  0.8761476871094324  0.5017742120883709  0.0024815820382257   T   T   T
  0.0004042653021774  0.2517477265789002  0.0030734411889862   T   T   T
  0.4994952755018202  0.2517553001384230  0.0020178169168012   T   T   T
  0.0006206784969446  0.7519294695648344  0.0030114200570090   T   T   T
  0.4997656604872830  0.7524906530613291  0.0020441659336779   T   T   T
  0.2501831109942516  0.2514070427376500  0.0030191908556904   T   T   T
  0.7509741113513521  0.2514355483472515  0.0019641559205320   T   T   T
  0.2500501295556760  0.7519836085034822  0.0030235268624729   T   T   T
  0.7509572476333320  0.7522798856202273  0.0020278978261114   T   T   T
  0.0004751378049545  0.0019075981568470  0.0924422252357607   T   T   T
  0.5001362880046661  0.0026683182143604  0.0920594747099236   T   T   T
  0.0011103346367603  0.5022484153778599  0.0925966652415770   T   T   T
  0.4991445966929083  0.5020203688269476  0.0905361410574936   T   T   T
  0.2506634970343362  0.0020525342615912  0.0929502126784493   T   T   T
  0.7509327642123461  0.0022679348030103  0.0921464498792937   T   T   T
  0.2494868395616432  0.5010693707235023  0.0923038389076710   T   T   T
  0.7513577303059842  0.5013423939507420  0.0903152099609931   T   T   T
  0.1254819311384064  0.2514528423391886  0.0923060739766205   T   T   T
  0.6250676114700061  0.2507008653773455  0.0897081533209154   T   T   T
  0.1252416499424851  0.7512540546481679  0.0928166690481672   T   T   T
  0.6253293798157400  0.7532011490299696  0.0903528829975378   T   T   T
  0.3752839637838347  0.2510603421964715  0.0927321956518668   T   T   T
  0.8751479384039079  0.2511917612612235  0.0927233461427814   T   T   T
  0.3752604771386023  0.7527114246199581  0.0923401060140563   T   T   T
  0.8759054141182385  0.7526797066242100  0.0925410083084978   T   T   T
  0.1239981585416918  0.0044372207281620  0.1834218686614264   T   T   T
  0.6244346702265056  0.0103292217227701  0.1818246316755814   T   T   T
  0.1250503251468139  0.4970468455519880  0.1836960914469732   T   T   T
  0.6248757966896350  0.4974267269145230  0.1738108216877855   T   T   T
  0.3777052041761081  0.0028162458253089  0.1837824556405323   T   T   T
  0.8774990668657390  0.0031155229389956  0.1839135383075541   T   T   T
  0.3726017848162442  0.5012046767260537  0.1815056145019576   T   T   T
  0.8782824478973257  0.5013878461341533  0.1821230249673416   T   T   T
  0.0032755171666860  0.2481141070287839  0.1836122823672134   T   T   T
  0.5031756059210967  0.2512316573927454  0.1842905458298753   T   T   T
  0.0019242017260330  0.7570570897666259  0.1841072345782825   T   T   T
  0.5011034420280057  0.7547322986439110  0.1825617138665950   T   T   T
  0.2476064714725837  0.2499094884459626  0.1841504489010039   T   T   T
  0.7465545025903741  0.2528978678622860  0.1831761615126391   T   T   T
  0.2493137248165875  0.7524074858207136  0.1829248117449780   T   T   T
  0.7501466541330245  0.7505360248153626  0.1823848590787030   T   T   T
  0.0103904893602811  0.0107488658452554  0.2904017693142688   T   T   T
  0.5013333682181238  0.0022498855762925  0.2876188061770483   T   T   T
  0.0032931767379773  0.5013682170562725  0.2718830873328120   T   T   T
  0.4855966954970540  0.5043992674651789  0.2696230385640663   T   T   T
  0.2489517589538024  0.0014575218730399  0.2722137782018296   T   T   T
  0.7507918932562058  0.0040235568914834  0.2718706913640074   T   T   T
  0.2471209871080108  0.4991672279520050  0.2726130390177982   T   T   T
  0.7639508019599222  0.4997395015560007  0.2716149371028936   T   T   T
  0.1218932481980703  0.2403487227165787  0.2897358942583205   T   T   T
  0.6185727784614231  0.2107335913517730  0.2986215662562997   T   T   T
  0.1260507255224310  0.7524505809246379  0.2722788178100753   T   T   T
  0.6257627898868352  0.7725477512616300  0.2697813916859628   T   T   T
  0.3728025199036381  0.2506763419784138  0.2725777067849485   T   T   T
  0.8804733741779869  0.2495991503367833  0.2722382434445962   T   T   T
  0.3712476060310782  0.7536068437343276  0.2725464765619104   T   T   T
  0.8805294885000946  0.7561095118129648  0.2731484481527898   T   T   T
  0.0001417589364146  0.0017729890264544  0.0006944360990754   T   T   T
  0.5004233627488271  0.0019787597869545  0.0002560026720663   T   T   T
  0.0000756319601719  0.5019158712437164  0.0004889582551957   T   T   T
  0.4999270370649067  0.5022757257538814 -0.0004420107340639   T   T   T
  0.2506906752002842  0.0015742575848172  0.0007231900584354   T   T   T
  0.7502833289714971  0.0016238312497929  0.0003247231644626   T   T   T
  0.2504903564930163  0.5018578772797092  0.0005196836877400   T   T   T
  0.7506850749147506  0.5021159966434739 -0.0004735648005870   T   T   T
  0.1253406957917579  0.2514746491780952  0.0005737192455195   T   T   T
  0.6252407572031414  0.2514590113535108 -0.0008007307340429   T   T   T
  0.1253839080749451  0.7517503395218977  0.0005023407281299   T   T   T
  0.6254242064444490  0.7524837991448292 -0.0006999596728754   T   T   T
  0.3753569579098892  0.2518429733016141  0.0004050884423846   T   T   T
  0.8751279357538004  0.2519345707211920  0.0005045761255251   T   T   T
  0.3754020364079400  0.7519007985418653  0.0006567404506406   T   T   T
  0.8751949841617599  0.7517511627045309  0.0007124742733892   T   T   T
  0.1258806742648139  0.0007352355425992  0.0921914823187747   T   T   T
  0.6256517256068185  0.0006385939395559  0.0920736340217850   T   T   T
  0.1254743426728401  0.5018580812915957  0.0918744701440050   T   T   T
  0.6254571772763032  0.5033247660879218  0.0890907569173378   T   T   T
  0.3763584013761926  0.0015975302613601  0.0926877771249923   T   T   T
  0.8743878628416790  0.0016510785107351  0.0926375004646325   T   T   T
  0.3756728064440116  0.5021770830851311  0.0926379365545736   T   T   T
  0.8745516118221933  0.5022306690839264  0.0929313921372380   T   T   T
 -0.0007741441476065  0.2526585037100281  0.0924240171390123   T   T   T
  0.5002998765853065  0.2529670010563819  0.0919472450047022   T   T   T
 -0.0002662418699938  0.7515814185749888  0.0923704769732342   T   T   T
  0.5009182846479973  0.7517413449608871  0.0922555706366435   T   T   T
  0.2514059920018285  0.2517199516288713  0.0924401080378152   T   T   T
  0.7499841931093579  0.2527038794337179  0.0918235325586783   T   T   T
  0.2511363912368973  0.7513926639429186  0.0927193758290171   T   T   T
  0.7499667126202942  0.7509001692568076  0.0926593972360398   T   T   T
 -0.0007588319055093  0.0016819271941386  0.1806669022632958   T   T   T
  0.5015690551609402  0.0015306779909915  0.1833629780836854   T   T   T
  0.0005381103293303  0.5046112889207195  0.1820514895338771   T   T   T
  0.5023015679741528  0.5048787461343610  0.1829241923224066   T   T   T
  0.2533269535016812  0.0014081058671846  0.1823980126517734   T   T   T
  0.7503908521914882  0.0018852686784265  0.1833814870820525   T   T   T
  0.2501076925480075  0.5009735769776852  0.1825595575106954   T   T   T
  0.7477676777722316  0.5010947655985083  0.1844058469004646   T   T   T
  0.1258252885414624  0.2517608817712504  0.1802055019310882   T   T   T
  0.6253161171121292  0.2574068830322901  0.1786412935736380   T   T   T
  0.1256507119319358  0.7488444319589551  0.1820163282425696   T   T   T
  0.6255977836733232  0.7430494962533404  0.1832215050447095   T   T   T
  0.3767779345335791  0.2527250811318993  0.1837227324091910   T   T   T
  0.8713151387845429  0.2527794851722206  0.1837602819584348   T   T   T
  0.3771754644192383  0.7512212382536124  0.1837081945035141   T   T   T
  0.8739313300402942  0.7517282538773776  0.1841780201715040   T   T   T
  0.1294197709730021  0.9947084627621482  0.2688465210011352   T   T   T
  0.6295854708551386  0.9981500847373588  0.2681644881254296   T   T   T
  0.1254776981249987  0.5009829937695919  0.2760578545765487   T   T   T
  0.3792299637181900  0.0009529854120105  0.2767346831400410   T   T   T
  0.8708052735186077  0.0033012290397760  0.2771304396601366   T   T   T
  0.3705098378265425  0.5034038992641808  0.2741516458035324   T   T   T
  0.8791825611663373  0.5026854264914319  0.2745111106670194   T   T   T
  0.5049432424766889  0.2742005334119608  0.2735192828872496   T   T   T
  0.9981208578154068  0.2570869685408755  0.2697842813346654   T   T   T
  0.0012564468133660  0.7547666368562437  0.2762920504666325   T   T   T
  0.5076703798830622  0.7371450237213573  0.2777671570929071   T   T   T
  0.2507229644052884  0.2494402098115086  0.2761568194854641   T   T   T
  0.7383349209836900  0.2667592323216033  0.2810136166894607   T   T   T
  0.2509052148613441  0.7514564697237996  0.2741954170448064   T   T   T
  0.7437322359320385  0.7356575665987122  0.2767965369616966   T   T   T
  0.0691984927621123  0.1179250728192602  0.3595285600862662   T   T   T
  0.5592111121253527  0.0884546135203548  0.3607337692196664   T   T   T
 
  0.00000000E+00  0.00000000E+00  0.00000000E+00
  0.00000000E+00  0.00000000E+00  0.00000000E+00
  0.00000000E+00  0.00000000E+00  0.00000000E+00
  0.00000000E+00  0.00000000E+00  0.00000000E+00
  0.00000000E+00  0.00000000E+00  0.00000000E+00
  0.00000000E+00  0.00000000E+00  0.00000000E+00
  0.00000000E+00  0.00000000E+00  0.00000000E+00
  0.00000000E+00  0.00000000E+00  0.00000000E+00
  0.00000000E+00  0.00000000E+00  0.00000000E+00
  0.00000000E+00  0.00000000E+00  0.00000000E+00
  0.00000000E+00  0.00000000E+00  0.00000000E+00
  0.00000000E+00  0.00000000E+00  0.00000000E+00
  0.00000000E+00  0.00000000E+00  0.00000000E+00
  0.00000000E+00  0.00000000E+00  0.00000000E+00
  0.00000000E+00  0.00000000E+00  0.00000000E+00
  0.00000000E+00  0.00000000E+00  0.00000000E+00
  0.00000000E+00  0.00000000E+00  0.00000000E+00
  0.00000000E+00  0.00000000E+00  0.00000000E+00
  0.00000000E+00  0.00000000E+00  0.00000000E+00
  0.00000000E+00  0.00000000E+00  0.00000000E+00
  0.00000000E+00  0.00000000E+00  0.00000000E+00
  0.00000000E+00  0.00000000E+00  0.00000000E+00
  0.00000000E+00  0.00000000E+00  0.00000000E+00
  0.00000000E+00  0.00000000E+00  0.00000000E+00
  0.00000000E+00  0.00000000E+00  0.00000000E+00
  0.00000000E+00  0.00000000E+00  0.00000000E+00
  0.00000000E+00  0.00000000E+00  0.00000000E+00
  0.00000000E+00  0.00000000E+00  0.00000000E+00
  0.00000000E+00  0.00000000E+00  0.00000000E+00
  0.00000000E+00  0.00000000E+00  0.00000000E+00
  0.00000000E+00  0.00000000E+00  0.00000000E+00
  0.00000000E+00  0.00000000E+00  0.00000000E+00
  0.00000000E+00  0.00000000E+00  0.00000000E+00
  0.00000000E+00  0.00000000E+00  0.00000000E+00
  0.00000000E+00  0.00000000E+00  0.00000000E+00
  0.00000000E+00  0.00000000E+00  0.00000000E+00
  0.00000000E+00  0.00000000E+00  0.00000000E+00
  0.00000000E+00  0.00000000E+00  0.00000000E+00
  0.00000000E+00  0.00000000E+00  0.00000000E+00
  0.00000000E+00  0.00000000E+00  0.00000000E+00
  0.00000000E+00  0.00000000E+00  0.00000000E+00
  0.00000000E+00  0.00000000E+00  0.00000000E+00
  0.00000000E+00  0.00000000E+00  0.00000000E+00
  0.00000000E+00  0.00000000E+00  0.00000000E+00
  0.00000000E+00  0.00000000E+00  0.00000000E+00
  0.00000000E+00  0.00000000E+00  0.00000000E+00
  0.00000000E+00  0.00000000E+00  0.00000000E+00
  0.00000000E+00  0.00000000E+00  0.00000000E+00
  0.00000000E+00  0.00000000E+00  0.00000000E+00
  0.00000000E+00  0.00000000E+00  0.00000000E+00
  0.00000000E+00  0.00000000E+00  0.00000000E+00
  0.00000000E+00  0.00000000E+00  0.00000000E+00
  0.00000000E+00  0.00000000E+00  0.00000000E+00
  0.00000000E+00  0.00000000E+00  0.00000000E+00
  0.00000000E+00  0.00000000E+00  0.00000000E+00
  0.00000000E+00  0.00000000E+00  0.00000000E+00
  0.00000000E+00  0.00000000E+00  0.00000000E+00
  0.00000000E+00  0.00000000E+00  0.00000000E+00
  0.00000000E+00  0.00000000E+00  0.00000000E+00
  0.00000000E+00  0.00000000E+00  0.00000000E+00
  0.00000000E+00  0.00000000E+00  0.00000000E+00
  0.00000000E+00  0.00000000E+00  0.00000000E+00
  0.00000000E+00  0.00000000E+00  0.00000000E+00
  0.00000000E+00  0.00000000E+00  0.00000000E+00
  0.00000000E+00  0.00000000E+00  0.00000000E+00
  0.00000000E+00  0.00000000E+00  0.00000000E+00
  0.00000000E+00  0.00000000E+00  0.00000000E+00
  0.00000000E+00  0.00000000E+00  0.00000000E+00
  0.00000000E+00  0.00000000E+00  0.00000000E+00
  0.00000000E+00  0.00000000E+00  0.00000000E+00
  0.00000000E+00  0.00000000E+00  0.00000000E+00
  0.00000000E+00  0.00000000E+00  0.00000000E+00
  0.00000000E+00  0.00000000E+00  0.00000000E+00
  0.00000000E+00  0.00000000E+00  0.00000000E+00
  0.00000000E+00  0.00000000E+00  0.00000000E+00
  0.00000000E+00  0.00000000E+00  0.00000000E+00
  0.00000000E+00  0.00000000E+00  0.00000000E+00
  0.00000000E+00  0.00000000E+00  0.00000000E+00
  0.00000000E+00  0.00000000E+00  0.00000000E+00
  0.00000000E+00  0.00000000E+00  0.00000000E+00
  0.00000000E+00  0.00000000E+00  0.00000000E+00
  0.00000000E+00  0.00000000E+00  0.00000000E+00
  0.00000000E+00  0.00000000E+00  0.00000000E+00
  0.00000000E+00  0.00000000E+00  0.00000000E+00
  0.00000000E+00  0.00000000E+00  0.00000000E+00
  0.00000000E+00  0.00000000E+00  0.00000000E+00
  0.00000000E+00  0.00000000E+00  0.00000000E+00
  0.00000000E+00  0.00000000E+00  0.00000000E+00
  0.00000000E+00  0.00000000E+00  0.00000000E+00
  0.00000000E+00  0.00000000E+00  0.00000000E+00
  0.00000000E+00  0.00000000E+00  0.00000000E+00
  0.00000000E+00  0.00000000E+00  0.00000000E+00
  0.00000000E+00  0.00000000E+00  0.00000000E+00
  0.00000000E+00  0.00000000E+00  0.00000000E+00
  0.00000000E+00  0.00000000E+00  0.00000000E+00
  0.00000000E+00  0.00000000E+00  0.00000000E+00
  0.00000000E+00  0.00000000E+00  0.00000000E+00
  0.00000000E+00  0.00000000E+00  0.00000000E+00
  0.00000000E+00  0.00000000E+00  0.00000000E+00
  0.00000000E+00  0.00000000E+00  0.00000000E+00
  0.00000000E+00  0.00000000E+00  0.00000000E+00
  0.00000000E+00  0.00000000E+00  0.00000000E+00
  0.00000000E+00  0.00000000E+00  0.00000000E+00
  0.00000000E+00  0.00000000E+00  0.00000000E+00
  0.00000000E+00  0.00000000E+00  0.00000000E+00
  0.00000000E+00  0.00000000E+00  0.00000000E+00
  0.00000000E+00  0.00000000E+00  0.00000000E+00
  0.00000000E+00  0.00000000E+00  0.00000000E+00
  0.00000000E+00  0.00000000E+00  0.00000000E+00
  0.00000000E+00  0.00000000E+00  0.00000000E+00
  0.00000000E+00  0.00000000E+00  0.00000000E+00
  0.00000000E+00  0.00000000E+00  0.00000000E+00
  0.00000000E+00  0.00000000E+00  0.00000000E+00
  0.00000000E+00  0.00000000E+00  0.00000000E+00
  0.00000000E+00  0.00000000E+00  0.00000000E+00
  0.00000000E+00  0.00000000E+00  0.00000000E+00
  0.00000000E+00  0.00000000E+00  0.00000000E+00
  0.00000000E+00  0.00000000E+00  0.00000000E+00
  0.00000000E+00  0.00000000E+00  0.00000000E+00
  0.00000000E+00  0.00000000E+00  0.00000000E+00
  0.00000000E+00  0.00000000E+00  0.00000000E+00
  0.00000000E+00  0.00000000E+00  0.00000000E+00
  0.00000000E+00  0.00000000E+00  0.00000000E+00
  0.00000000E+00  0.00000000E+00  0.00000000E+00
  0.00000000E+00  0.00000000E+00  0.00000000E+00
  0.00000000E+00  0.00000000E+00  0.00000000E+00
  0.00000000E+00  0.00000000E+00  0.00000000E+00
  0.00000000E+00  0.00000000E+00  0.00000000E+00
  0.00000000E+00  0.00000000E+00  0.00000000E+00
  0.00000000E+00  0.00000000E+00  0.00000000E+00
  0.00000000E+00  0.00000000E+00  0.00000000E+00
