H Mg O Co                               
   1.00000000000000     
    16.8282433949600012    0.0000000000000000    0.0000000000000000
     0.0000000000000000    8.4141216974800006    0.0000000000000000
     0.0000000000000000    0.0000000000000000   23.4141216974799988
   H    Mg   O    Co
     2    64    65     1
Selective dynamics
Direct
  0.0426408298910911  0.1713894486769955  0.3903004634273792   T   T   T
  0.5272711809378096  0.1334215495961211  0.3904449818422643   T   T   T
  0.1255826889349725  0.0015817067608008  0.0031506966631347   T   T   T
  0.6256120180748488  0.0016506506091354  0.0015792046097375   T   T   T
  0.1253924675214248  0.5019796570392142  0.0028623977814378   T   T   T
  0.6254688762490065  0.5024627255426471  0.0004899750219053   T   T   T
  0.3750092551270961  0.0019873961881384  0.0028009740564692   T   T   T
  0.8758562437601061  0.0021813354238444  0.0028720407477727   T   T   T
  0.3746855378318251  0.5018563930137087  0.0021653791676701   T   T   T
  0.8761497610188876  0.5020607581978146  0.0025062718754235   T   T   T
  0.0004682899521589  0.2521375168790282  0.0030759403577212   T   T   T
  0.4996615803102565  0.2516329377157941  0.0018495731961486   T   T   T
  0.0006773155847812  0.7520738432560289  0.0030668403303508   T   T   T
  0.4999883144336799  0.7525158965488691  0.0019776150986473   T   T   T
  0.2503351534200830  0.2515264852192198  0.0030409050071649   T   T   T
  0.7511706406607950  0.2516075814865662  0.0019591804525493   T   T   T
  0.2502015310209469  0.7519609154913863  0.0031688968186496   T   T   T
  0.7510929169400933  0.7524526462390841  0.0021650469764200   T   T   T
  0.0004038361161393  0.0022943226660460  0.0924102730980880   T   T   T
  0.5002738392385674  0.0027708765349192  0.0920424724396091   T   T   T
  0.0009726863807909  0.5025332333033594  0.0926305481184820   T   T   T
  0.4994311922090335  0.5019972335557944  0.0903409194709896   T   T   T
  0.2506683956981937  0.0022351032523131  0.0930719538783110   T   T   T
  0.7510931262990399  0.0026474244294664  0.0921062565494637   T   T   T
  0.2496934350976832  0.5011239773168114  0.0924158127287445   T   T   T
  0.7512917974713786  0.5015069503204895  0.0903121600343632   T   T   T
  0.1255102355104819  0.2518678329145553  0.0923897106543665   T   T   T
  0.6251359015556075  0.2508416704190181  0.0895547638637707   T   T   T
  0.1252418209332805  0.7512892328775956  0.0928723266458206   T   T   T
  0.6254182954951355  0.7533109974591994  0.0904577917871401   T   T   T
  0.3754327545164369  0.2511768072087631  0.0926676521340633   T   T   T
  0.8751269282222408  0.2515891101152036  0.0927448779351871   T   T   T
  0.3754619949605773  0.7527527720646608  0.0923431803384912   T   T   T
  0.8758715188913225  0.7529882629552449  0.0925021515749314   T   T   T
  0.1235708614098625  0.0048166598941178  0.1830728874403716   T   T   T
  0.6245357794114603  0.0110001207881831  0.1815794027900726   T   T   T
  0.1243947815593901  0.4972252563428400  0.1836555775930555   T   T   T
  0.6249198788778111  0.4973613692168815  0.1738571067664292   T   T   T
  0.3777248631029590  0.0030910520026542  0.1837048682763582   T   T   T
  0.8774187685433692  0.0036767486446621  0.1838732422287611   T   T   T
  0.3735030268478426  0.5010254463283119  0.1805650196486727   T   T   T
  0.8778121987419077  0.5017046130100958  0.1821594985477195   T   T   T
  0.0028057548206449  0.2486754855406690  0.1837232295303692   T   T   T
  0.5034795951951032  0.2512266063985441  0.1844861285166307   T   T   T
  0.0013443156569346  0.7573275550014574  0.1840400080806213   T   T   T
  0.5013711349499600  0.7550176348096218  0.1828768169014020   T   T   T
  0.2476582117460963  0.2503067747549537  0.1845635588907135   T   T   T
  0.7464251642409919  0.2531760417041777  0.1831448994340897   T   T   T
  0.2493573177505675  0.7523579096941467  0.1831884445866096   T   T   T
  0.7501576909722956  0.7509582443360122  0.1822639916471606   T   T   T
  0.0087757406343578  0.0106352184946030  0.2901687690313705   T   T   T
  0.5023441597465395  0.0017240500672303  0.2872641077600183   T   T   T
  0.0021610994749670  0.5019271746948507  0.2719059985487407   T   T   T
  0.4898812552087214  0.5045345189577394  0.2711079334254018   T   T   T
  0.2474544040834904  0.0015760800069045  0.2722380199450721   T   T   T
  0.7510062550729510  0.0048293051532648  0.2715750120160917   T   T   T
  0.2433125396982041  0.4993006844849481  0.2732579012975269   T   T   T
  0.7633200092483006  0.4999900047477239  0.2718170287588021   T   T   T
  0.1203513999432687  0.2394960672366643  0.2899061884588554   T   T   T
  0.6186254836674707  0.2098067423511304  0.3001431078786282   T   T   T
  0.1248377872922001  0.7532479277829847  0.2720995701534153   T   T   T
  0.6263710698221732  0.7732869593099531  0.2697210624805580   T   T   T
  0.3733041308142282  0.2424768864313672  0.2741426664184109   T   T   T
  0.8796039818288054  0.2505024173412981  0.2723863878138734   T   T   T
  0.3715347649280676  0.7606070744252269  0.2734867665939706   T   T   T
  0.8795503644166219  0.7561107430982649  0.2731509726715757   T   T   T
  0.0003386245678625  0.0020610587018627  0.0006522603327489   T   T   T
  0.5004427302846640  0.0018843297939865  0.0003165097916596   T   T   T
  0.0002844358093459  0.5021851573245810  0.0005646186652915   T   T   T
  0.5000149043848738  0.5023153959648659  0.9993018003768628   T   T   T
  0.2508230549790776  0.0015915533635296  0.0009253392849947   T   T   T
  0.7504738017924738  0.0017772434944515  0.0002986129831527   T   T   T
  0.2507143961771012  0.5019452522909982  0.0005643296234569   T   T   T
  0.7506897409284451  0.5023313483215002  0.9995288854008475   T   T   T
  0.1255673022573450  0.2517818036126953  0.0006451253856717   T   T   T
  0.6253356780528664  0.2515282258824392  0.9991607015963928   T   T   T
  0.1256267302627358  0.7517729924782164  0.0006607206470096   T   T   T
  0.6255033800949258  0.7525638147492837  0.9993369814246111   T   T   T
  0.3754140796305811  0.2518841741211818  0.0003066075727399   T   T   T
  0.8753075786651938  0.2521623411022600  0.0004362907333003   T   T   T
  0.3755444996086749  0.7519356462660689  0.0006748745831807   T   T   T
  0.8752805104167211  0.7520595136919952  0.0006985554504853   T   T   T
  0.1260293018837054  0.0010235307988749  0.0922016559727965   T   T   T
  0.6256552197349848  0.0007215081395269  0.0919069461387800   T   T   T
  0.1257359502931352  0.5019975008047478  0.0920055264190415   T   T   T
  0.6252996591152284  0.5035373714003836  0.0890547943901773   T   T   T
  0.3763373812409043  0.0017801314715606  0.0929053923664964   T   T   T
  0.8744759440067281  0.0020636844436507  0.0924871610564791   T   T   T
  0.3758622586065606  0.5021673877056824  0.0925979593365474   T   T   T
  0.8744660429666971  0.5025443601003988  0.0928965223520791   T   T   T
  0.9993278576126137  0.2530501847803013  0.0923578666109790   T   T   T
  0.5000887900609641  0.2532008112679027  0.0918361248182795   T   T   T
  0.9997963613153481  0.7518236012315076  0.0923389766935590   T   T   T
  0.5007882417646985  0.7515724692696772  0.0922853007441220   T   T   T
  0.2516684449342937  0.2521496678742059  0.0926368263546095   T   T   T
  0.7500554561113875  0.2530117019931074  0.0916683673876485   T   T   T
  0.2514413592662154  0.7511821211335945  0.0929561848174683   T   T   T
  0.7499981620022187  0.7510849280258950  0.0926043043856219   T   T   T
  0.9991081254572017  0.0020373464926344  0.1804611454240239   T   T   T
  0.5014225077861989  0.0017852414195924  0.1829375024470077   T   T   T
  0.0000587295502059  0.5048296800983899  0.1818808731160385   T   T   T
  0.5016124118440396  0.5048955012309113  0.1835256502872883   T   T   T
  0.2534010170178328  0.0016206571627934  0.1824411300141703   T   T   T
  0.7505909955702097  0.0023286016331118  0.1830263815484163   T   T   T
  0.2511362351495801  0.5010970666803571  0.1834966707660200   T   T   T
  0.7475905440249578  0.5013498266070950  0.1844201856174941   T   T   T
  0.1257743978276809  0.2523187673323956  0.1802110842950392   T   T   T
  0.6254006733663190  0.2577110845540486  0.1778885161585394   T   T   T
  0.1255212815260047  0.7485969922033099  0.1818780061638207   T   T   T
  0.6258582256197757  0.7431231524734463  0.1828292717832210   T   T   T
  0.3767913183697428  0.2545282978371873  0.1847237953526469   T   T   T
  0.8711391489377207  0.2533823539726701  0.1836303755866945   T   T   T
  0.3771735918045542  0.7493682031263819  0.1845674742390890   T   T   T
  0.8737330420478389  0.7519931363884464  0.1839643757364059   T   T   T
  0.1284187872051471  0.9947778931715602  0.2683978492386188   T   T   T
  0.6301987284297443  0.9991054203440247  0.2676520703483771   T   T   T
  0.1238334176296276  0.5014604073600502  0.2757454598589916   T   T   T
  0.3792447961371177  0.0007333418511843  0.2762222815129149   T   T   T
  0.8710225108476507  0.0037933861950150  0.2769634835914118   T   T   T
  0.3710941532235131  0.5042786494248295  0.2791589668401801   T   T   T
  0.8784442860947879  0.5031580370883308  0.2745240942232422   T   T   T
  0.5056705168853601  0.2725916832861321  0.2726826941356062   T   T   T
  0.9972961866630182  0.2578141443774790  0.2696869820725626   T   T   T
  0.0004428446852460  0.7548483204094683  0.2759300916525693   T   T   T
  0.5080197425204034  0.7397078277424994  0.2761765337716422   T   T   T
  0.2503764685735692  0.2497794674122691  0.2758894823141968   T   T   T
  0.7388425593768126  0.2662296776708264  0.2808646486511043   T   T   T
  0.2505280415216476  0.7511297011764031  0.2737666456170142   T   T   T
  0.7444382466822138  0.7368821550371212  0.2764184189240945   T   T   T
  0.0684160495101040  0.1168230306770368  0.3588934084826002   T   T   T
  0.5585399939025586  0.0848450002374039  0.3602989259120998   T   T   T
  0.3766449045427112  0.4895260761402930  0.3609754304777869   T   T   T
 
  0.00000000E+00  0.00000000E+00  0.00000000E+00
  0.00000000E+00  0.00000000E+00  0.00000000E+00
  0.00000000E+00  0.00000000E+00  0.00000000E+00
  0.00000000E+00  0.00000000E+00  0.00000000E+00
  0.00000000E+00  0.00000000E+00  0.00000000E+00
  0.00000000E+00  0.00000000E+00  0.00000000E+00
  0.00000000E+00  0.00000000E+00  0.00000000E+00
  0.00000000E+00  0.00000000E+00  0.00000000E+00
  0.00000000E+00  0.00000000E+00  0.00000000E+00
  0.00000000E+00  0.00000000E+00  0.00000000E+00
  0.00000000E+00  0.00000000E+00  0.00000000E+00
  0.00000000E+00  0.00000000E+00  0.00000000E+00
  0.00000000E+00  0.00000000E+00  0.00000000E+00
  0.00000000E+00  0.00000000E+00  0.00000000E+00
  0.00000000E+00  0.00000000E+00  0.00000000E+00
  0.00000000E+00  0.00000000E+00  0.00000000E+00
  0.00000000E+00  0.00000000E+00  0.00000000E+00
  0.00000000E+00  0.00000000E+00  0.00000000E+00
  0.00000000E+00  0.00000000E+00  0.00000000E+00
  0.00000000E+00  0.00000000E+00  0.00000000E+00
  0.00000000E+00  0.00000000E+00  0.00000000E+00
  0.00000000E+00  0.00000000E+00  0.00000000E+00
  0.00000000E+00  0.00000000E+00  0.00000000E+00
  0.00000000E+00  0.00000000E+00  0.00000000E+00
  0.00000000E+00  0.00000000E+00  0.00000000E+00
  0.00000000E+00  0.00000000E+00  0.00000000E+00
  0.00000000E+00  0.00000000E+00  0.00000000E+00
  0.00000000E+00  0.00000000E+00  0.00000000E+00
  0.00000000E+00  0.00000000E+00  0.00000000E+00
  0.00000000E+00  0.00000000E+00  0.00000000E+00
  0.00000000E+00  0.00000000E+00  0.00000000E+00
  0.00000000E+00  0.00000000E+00  0.00000000E+00
  0.00000000E+00  0.00000000E+00  0.00000000E+00
  0.00000000E+00  0.00000000E+00  0.00000000E+00
  0.00000000E+00  0.00000000E+00  0.00000000E+00
  0.00000000E+00  0.00000000E+00  0.00000000E+00
  0.00000000E+00  0.00000000E+00  0.00000000E+00
  0.00000000E+00  0.00000000E+00  0.00000000E+00
  0.00000000E+00  0.00000000E+00  0.00000000E+00
  0.00000000E+00  0.00000000E+00  0.00000000E+00
  0.00000000E+00  0.00000000E+00  0.00000000E+00
  0.00000000E+00  0.00000000E+00  0.00000000E+00
  0.00000000E+00  0.00000000E+00  0.00000000E+00
  0.00000000E+00  0.00000000E+00  0.00000000E+00
  0.00000000E+00  0.00000000E+00  0.00000000E+00
  0.00000000E+00  0.00000000E+00  0.00000000E+00
  0.00000000E+00  0.00000000E+00  0.00000000E+00
  0.00000000E+00  0.00000000E+00  0.00000000E+00
  0.00000000E+00  0.00000000E+00  0.00000000E+00
  0.00000000E+00  0.00000000E+00  0.00000000E+00
  0.00000000E+00  0.00000000E+00  0.00000000E+00
  0.00000000E+00  0.00000000E+00  0.00000000E+00
  0.00000000E+00  0.00000000E+00  0.00000000E+00
  0.00000000E+00  0.00000000E+00  0.00000000E+00
  0.00000000E+00  0.00000000E+00  0.00000000E+00
  0.00000000E+00  0.00000000E+00  0.00000000E+00
  0.00000000E+00  0.00000000E+00  0.00000000E+00
  0.00000000E+00  0.00000000E+00  0.00000000E+00
  0.00000000E+00  0.00000000E+00  0.00000000E+00
  0.00000000E+00  0.00000000E+00  0.00000000E+00
  0.00000000E+00  0.00000000E+00  0.00000000E+00
  0.00000000E+00  0.00000000E+00  0.00000000E+00
  0.00000000E+00  0.00000000E+00  0.00000000E+00
  0.00000000E+00  0.00000000E+00  0.00000000E+00
  0.00000000E+00  0.00000000E+00  0.00000000E+00
  0.00000000E+00  0.00000000E+00  0.00000000E+00
  0.00000000E+00  0.00000000E+00  0.00000000E+00
  0.00000000E+00  0.00000000E+00  0.00000000E+00
  0.00000000E+00  0.00000000E+00  0.00000000E+00
  0.00000000E+00  0.00000000E+00  0.00000000E+00
  0.00000000E+00  0.00000000E+00  0.00000000E+00
  0.00000000E+00  0.00000000E+00  0.00000000E+00
  0.00000000E+00  0.00000000E+00  0.00000000E+00
  0.00000000E+00  0.00000000E+00  0.00000000E+00
  0.00000000E+00  0.00000000E+00  0.00000000E+00
  0.00000000E+00  0.00000000E+00  0.00000000E+00
  0.00000000E+00  0.00000000E+00  0.00000000E+00
  0.00000000E+00  0.00000000E+00  0.00000000E+00
  0.00000000E+00  0.00000000E+00  0.00000000E+00
  0.00000000E+00  0.00000000E+00  0.00000000E+00
  0.00000000E+00  0.00000000E+00  0.00000000E+00
  0.00000000E+00  0.00000000E+00  0.00000000E+00
  0.00000000E+00  0.00000000E+00  0.00000000E+00
  0.00000000E+00  0.00000000E+00  0.00000000E+00
  0.00000000E+00  0.00000000E+00  0.00000000E+00
  0.00000000E+00  0.00000000E+00  0.00000000E+00
  0.00000000E+00  0.00000000E+00  0.00000000E+00
  0.00000000E+00  0.00000000E+00  0.00000000E+00
  0.00000000E+00  0.00000000E+00  0.00000000E+00
  0.00000000E+00  0.00000000E+00  0.00000000E+00
  0.00000000E+00  0.00000000E+00  0.00000000E+00
  0.00000000E+00  0.00000000E+00  0.00000000E+00
  0.00000000E+00  0.00000000E+00  0.00000000E+00
  0.00000000E+00  0.00000000E+00  0.00000000E+00
  0.00000000E+00  0.00000000E+00  0.00000000E+00
  0.00000000E+00  0.00000000E+00  0.00000000E+00
  0.00000000E+00  0.00000000E+00  0.00000000E+00
  0.00000000E+00  0.00000000E+00  0.00000000E+00
  0.00000000E+00  0.00000000E+00  0.00000000E+00
  0.00000000E+00  0.00000000E+00  0.00000000E+00
  0.00000000E+00  0.00000000E+00  0.00000000E+00
  0.00000000E+00  0.00000000E+00  0.00000000E+00
  0.00000000E+00  0.00000000E+00  0.00000000E+00
  0.00000000E+00  0.00000000E+00  0.00000000E+00
  0.00000000E+00  0.00000000E+00  0.00000000E+00
  0.00000000E+00  0.00000000E+00  0.00000000E+00
  0.00000000E+00  0.00000000E+00  0.00000000E+00
  0.00000000E+00  0.00000000E+00  0.00000000E+00
  0.00000000E+00  0.00000000E+00  0.00000000E+00
  0.00000000E+00  0.00000000E+00  0.00000000E+00
  0.00000000E+00  0.00000000E+00  0.00000000E+00
  0.00000000E+00  0.00000000E+00  0.00000000E+00
  0.00000000E+00  0.00000000E+00  0.00000000E+00
  0.00000000E+00  0.00000000E+00  0.00000000E+00
  0.00000000E+00  0.00000000E+00  0.00000000E+00
  0.00000000E+00  0.00000000E+00  0.00000000E+00
  0.00000000E+00  0.00000000E+00  0.00000000E+00
  0.00000000E+00  0.00000000E+00  0.00000000E+00
  0.00000000E+00  0.00000000E+00  0.00000000E+00
  0.00000000E+00  0.00000000E+00  0.00000000E+00
  0.00000000E+00  0.00000000E+00  0.00000000E+00
  0.00000000E+00  0.00000000E+00  0.00000000E+00
  0.00000000E+00  0.00000000E+00  0.00000000E+00
  0.00000000E+00  0.00000000E+00  0.00000000E+00
  0.00000000E+00  0.00000000E+00  0.00000000E+00
  0.00000000E+00  0.00000000E+00  0.00000000E+00
  0.00000000E+00  0.00000000E+00  0.00000000E+00
  0.00000000E+00  0.00000000E+00  0.00000000E+00
  0.00000000E+00  0.00000000E+00  0.00000000E+00
  0.00000000E+00  0.00000000E+00  0.00000000E+00
  0.00000000E+00  0.00000000E+00  0.00000000E+00
  0.00000000E+00  0.00000000E+00  0.00000000E+00
