H Mg O Pt                               
   1.00000000000000     
    16.8282433949600012    0.0000000000000000    0.0000000000000000
     0.0000000000000000    8.4141216974800006    0.0000000000000000
     0.0000000000000000    0.0000000000000000   23.4141216974799988
   H    Mg   O    Pt
     2    64    65     1
Selective dynamics
Direct
  0.0420526644660944  0.1732458508703793  0.3897776310880976   T   T   T
  0.5278102495665491  0.1353601449906772  0.3903712882466462   T   T   T
  0.1255702291684443  0.0015015385872633  0.0031849229945978   T   T   T
  0.6254618387216567  0.0016165646304602  0.0016239519408308   T   T   T
  0.1254069666210888  0.5018663078819526  0.0028236455913960   T   T   T
  0.6253228952348974  0.5023885312416406  0.0005297641711033   T   T   T
  0.3749985554737866  0.0019515314159330  0.0028720116309079   T   T   T
  0.8758279966979587  0.0020737792978286  0.0028903588078332   T   T   T
  0.3746408714367823  0.5018216922865548  0.0022231153297400   T   T   T
  0.8761388311789496  0.5019552942184404  0.0025057736648313   T   T   T
  0.0004845735651525  0.2518945316016152  0.0031141241423372   T   T   T
  0.4995702847886602  0.2516149903599588  0.0019886595750543   T   T   T
  0.0007005655654559  0.7520752818833036  0.0030972669448040   T   T   T
  0.4998646749775240  0.7524957013120045  0.0020899041365662   T   T   T
  0.2503259068430054  0.2514400486392379  0.0030781101156459   T   T   T
  0.7510769766802496  0.2514650943733348  0.0019782688709305   T   T   T
  0.2501936297984018  0.7519567333060648  0.0031847534788610   T   T   T
  0.7510137263035044  0.7524215601375021  0.0021538365416609   T   T   T
  0.0004825022861761  0.0021191848193627  0.0924592840347492   T   T   T
  0.5001855504946189  0.0026530988865903  0.0922881071870561   T   T   T
  0.0010721089991392  0.5023868888196215  0.0926595591861237   T   T   T
  0.4994387256321738  0.5019742407710897  0.0904354553452328   T   T   T
  0.2507134076170764  0.0020876120854408  0.0931579134273962   T   T   T
  0.7509808279188327  0.0024846082541364  0.0921267437103707   T   T   T
  0.2495295653663855  0.5010684526579023  0.0923875851560269   T   T   T
  0.7512913258807478  0.5013919769197818  0.0903269712750090   T   T   T
  0.1255886667625722  0.2516690779318581  0.0924301789550660   T   T   T
  0.6250340879016090  0.2507373817857703  0.0896654469275247   T   T   T
  0.1253503723496170  0.7512436878717397  0.0929096940150343   T   T   T
  0.6252846909538214  0.7532575629766307  0.0905196630182335   T   T   T
  0.3753998497385684  0.2507782192808994  0.0927665172292177   T   T   T
  0.8751626591127978  0.2514148693790473  0.0927723027644876   T   T   T
  0.3754249282290033  0.7529577909651448  0.0924324701983760   T   T   T
  0.8759116916572073  0.7528489810976108  0.0925162373277584   T   T   T
  0.1238421192851599  0.0045750165702901  0.1831297413728593   T   T   T
  0.6244326298688984  0.0107325163743186  0.1816701150923281   T   T   T
  0.1246939062360809  0.4971542563469279  0.1836665624608235   T   T   T
  0.6247679278871457  0.4973185506531540  0.1738311074384123   T   T   T
  0.3776553044831333  0.0028123460434232  0.1839804468277526   T   T   T
  0.8774728765452982  0.0034326881488250  0.1839004750004445   T   T   T
  0.3735185519364305  0.5009848577187040  0.1799775685273409   T   T   T
  0.8780890496732370  0.5015272567614626  0.1821495496782800   T   T   T
  0.0031294080772110  0.2483845423407787  0.1837362650352098   T   T   T
  0.5031912735922972  0.2513294449047509  0.1847490488375556   T   T   T
  0.0016503044057420  0.7571945574816217  0.1840780219548616   T   T   T
  0.5010588847918411  0.7545549484506794  0.1832659965900929   T   T   T
  0.2478107728850718  0.2502352679103781  0.1846546896515560   T   T   T
  0.7464412410232095  0.2531093107248084  0.1831417252247854   T   T   T
  0.2496008676763990  0.7519791930306080  0.1834075579696320   T   T   T
  0.7501620794993933  0.7506686994345778  0.1822606354181523   T   T   T
  0.0095227993516184  0.0105258804339719  0.2902348050962192   T   T   T
  0.5022670081707798  0.0015687859097413  0.2872960392405433   T   T   T
  0.0024886675294251  0.5015834113480929  0.2719300562372992   T   T   T
  0.4894575472412160  0.5041175874128379  0.2718465449835197   T   T   T
  0.2474691983474032  0.0012766170326347  0.2722157539928429   T   T   T
  0.7509390580167614  0.0045422725452073  0.2716427075675825   T   T   T
  0.2430245024710119  0.4986910498698243  0.2740607889507407   T   T   T
  0.7637679368280464  0.4997696824443482  0.2716713480315474   T   T   T
  0.1210305699015232  0.2393914985551001  0.2897667989054812   T   T   T
  0.6185690299630116  0.2096593848277109  0.2994445906313978   T   T   T
  0.1252240808122533  0.7530017669865885  0.2721506366748517   T   T   T
  0.6264020527779490  0.7733075575179409  0.2695785946439981   T   T   T
  0.3728286647522783  0.2429763340698830  0.2749172526474170   T   T   T
  0.8801123435961421  0.2500727865801066  0.2723130188298661   T   T   T
  0.3710693900924951  0.7607249571890808  0.2748745776798943   T   T   T
  0.8800028723166561  0.7560664286382089  0.2731613716187217   T   T   T
  0.0002768138864698  0.0019542541899681  0.0007237942507861   T   T   T
  0.5004198837622983  0.0018550638757500  0.0004177330308056   T   T   T
  0.0002307970108448  0.5020494085164200  0.0005657566687091   T   T   T
  0.4999955098305951  0.5022899985007540  0.9994600272471638   T   T   T
  0.2508108528991546  0.0015573296998973  0.0009442439427005   T   T   T
  0.7503761700957566  0.0016993691093334  0.0003397778488870   T   T   T
  0.2506511620008889  0.5018844352630328  0.0005934349702486   T   T   T
  0.7506498888853338  0.5022311780038206  0.9995577224384239   T   T   T
  0.1254888015140692  0.2516317588208559  0.0006601566917823   T   T   T
  0.6252798937766578  0.2514534615577836  0.9992304029470895   T   T   T
  0.1255580588963847  0.7517367192620691  0.0006611131804726   T   T   T
  0.6254328870034876  0.7525286804799635  0.9993918202834087   T   T   T
  0.3754227747193924  0.2518068950382876  0.0004293707367199   T   T   T
  0.8752613781799548  0.2520433297094594  0.0004975443181917   T   T   T
  0.3755333200984673  0.7519331962617423  0.0007407685556376   T   T   T
  0.8752422219408895  0.7519540801960252  0.0007339572761240   T   T   T
  0.1259987169031413  0.0009236170031780  0.0922536968069451   T   T   T
  0.6255828709555933  0.0006828628183773  0.0920457009965177   T   T   T
  0.1256863420492844  0.5018758325367279  0.0919803194841297   T   T   T
  0.6252894852834888  0.5034015136699215  0.0891050451212986   T   T   T
  0.3763943438732135  0.0016425554448142  0.0929615889050470   T   T   T
  0.8744385566199493  0.0019151785180230  0.0925967724320154   T   T   T
  0.3758585433062415  0.5021365226412385  0.0925127807032096   T   T   T
  0.8745207367827786  0.5023837243771577  0.0929437178798812   T   T   T
  0.9993122465808504  0.2528476556425233  0.0924245704810696   T   T   T
  0.5001207158428275  0.2531289849882955  0.0920262130049108   T   T   T
  0.9997882732885888  0.7517067908203821  0.0923992058480205   T   T   T
  0.5007762346923318  0.7514984873416204  0.0924658061121473   T   T   T
  0.2516291214540218  0.2520271117281494  0.0926200067711367   T   T   T
  0.7500394698788601  0.2528331435868132  0.0917491139208273   T   T   T
  0.2514255251932947  0.7511034922485004  0.0929699999573791   T   T   T
  0.7499946770365811  0.7510090113465262  0.0926482707023026   T   T   T
  0.9991243257941429  0.0018539750180942  0.1805698905103632   T   T   T
  0.5014137426331924  0.0015579006349695  0.1833747716906459   T   T   T
  0.0002269467463321  0.5046599908910113  0.1819950189466268   T   T   T
  0.5017544732237283  0.5047421950505502  0.1836837268615189   T   T   T
  0.2534248204914810  0.0013890929797995  0.1824645713270489   T   T   T
  0.7505805670139640  0.0021186851300149  0.1831609202439320   T   T   T
  0.2508602858241532  0.5008739672996676  0.1833183824999343   T   T   T
  0.7476635089638961  0.5012059899228331  0.1844412468390887   T   T   T
  0.1257976720716783  0.2521893791932453  0.1802388104308690   T   T   T
  0.6254151814774872  0.2576388686154104  0.1781677539996331   T   T   T
  0.1255446468441669  0.7484590297131986  0.1819096031605554   T   T   T
  0.6258899946763248  0.7429372046648915  0.1829193657326771   T   T   T
  0.3767652003434364  0.2538278275748239  0.1846675901592394   T   T   T
  0.8712093767910132  0.2530855504098440  0.1837604069664855   T   T   T
  0.3771616031678494  0.7497848593455293  0.1847184571168687   T   T   T
  0.8737975289661138  0.7518842819421512  0.1840977344523629   T   T   T
  0.1285326611727989  0.9945278045945033  0.2685636792937663   T   T   T
  0.6302737974300390  0.9987271862364535  0.2678693442025727   T   T   T
  0.1238642143311371  0.5013082562626964  0.2759577306318891   T   T   T
  0.3792482265827274  0.0010336384002891  0.2768006361123228   T   T   T
  0.8708467719058668  0.0036478370766376  0.2771220283391760   T   T   T
  0.3700205977162718  0.5031362158436151  0.2726673961330665   T   T   T
  0.8788521112001998  0.5028146494983134  0.2746149104929871   T   T   T
  0.5061014039172952  0.2724444679293055  0.2727199560308750   T   T   T
  0.9976954806123335  0.2572950186092282  0.2698387360259447   T   T   T
  0.0007080805341913  0.7549208919867186  0.2761394198261163   T   T   T
  0.5086954654307447  0.7392901767359830  0.2762669293320035   T   T   T
  0.2498115535970115  0.2486793694094507  0.2755657475249639   T   T   T
  0.7383790802068387  0.2668903352796780  0.2809997250987169   T   T   T
  0.2501077908810845  0.7516381358412372  0.2736115498185249   T   T   T
  0.7441274103635952  0.7359313665411100  0.2766409477552806   T   T   T
  0.0689548236891266  0.1170569657212651  0.3592343725314937   T   T   T
  0.5591822883469009  0.0858242479358075  0.3605022431199799   T   T   T
  0.3748552839205622  0.5029562934658527  0.3571074921090011   T   T   T
 
  0.00000000E+00  0.00000000E+00  0.00000000E+00
  0.00000000E+00  0.00000000E+00  0.00000000E+00
  0.00000000E+00  0.00000000E+00  0.00000000E+00
  0.00000000E+00  0.00000000E+00  0.00000000E+00
  0.00000000E+00  0.00000000E+00  0.00000000E+00
  0.00000000E+00  0.00000000E+00  0.00000000E+00
  0.00000000E+00  0.00000000E+00  0.00000000E+00
  0.00000000E+00  0.00000000E+00  0.00000000E+00
  0.00000000E+00  0.00000000E+00  0.00000000E+00
  0.00000000E+00  0.00000000E+00  0.00000000E+00
  0.00000000E+00  0.00000000E+00  0.00000000E+00
  0.00000000E+00  0.00000000E+00  0.00000000E+00
  0.00000000E+00  0.00000000E+00  0.00000000E+00
  0.00000000E+00  0.00000000E+00  0.00000000E+00
  0.00000000E+00  0.00000000E+00  0.00000000E+00
  0.00000000E+00  0.00000000E+00  0.00000000E+00
  0.00000000E+00  0.00000000E+00  0.00000000E+00
  0.00000000E+00  0.00000000E+00  0.00000000E+00
  0.00000000E+00  0.00000000E+00  0.00000000E+00
  0.00000000E+00  0.00000000E+00  0.00000000E+00
  0.00000000E+00  0.00000000E+00  0.00000000E+00
  0.00000000E+00  0.00000000E+00  0.00000000E+00
  0.00000000E+00  0.00000000E+00  0.00000000E+00
  0.00000000E+00  0.00000000E+00  0.00000000E+00
  0.00000000E+00  0.00000000E+00  0.00000000E+00
  0.00000000E+00  0.00000000E+00  0.00000000E+00
  0.00000000E+00  0.00000000E+00  0.00000000E+00
  0.00000000E+00  0.00000000E+00  0.00000000E+00
  0.00000000E+00  0.00000000E+00  0.00000000E+00
  0.00000000E+00  0.00000000E+00  0.00000000E+00
  0.00000000E+00  0.00000000E+00  0.00000000E+00
  0.00000000E+00  0.00000000E+00  0.00000000E+00
  0.00000000E+00  0.00000000E+00  0.00000000E+00
  0.00000000E+00  0.00000000E+00  0.00000000E+00
  0.00000000E+00  0.00000000E+00  0.00000000E+00
  0.00000000E+00  0.00000000E+00  0.00000000E+00
  0.00000000E+00  0.00000000E+00  0.00000000E+00
  0.00000000E+00  0.00000000E+00  0.00000000E+00
  0.00000000E+00  0.00000000E+00  0.00000000E+00
  0.00000000E+00  0.00000000E+00  0.00000000E+00
  0.00000000E+00  0.00000000E+00  0.00000000E+00
  0.00000000E+00  0.00000000E+00  0.00000000E+00
  0.00000000E+00  0.00000000E+00  0.00000000E+00
  0.00000000E+00  0.00000000E+00  0.00000000E+00
  0.00000000E+00  0.00000000E+00  0.00000000E+00
  0.00000000E+00  0.00000000E+00  0.00000000E+00
  0.00000000E+00  0.00000000E+00  0.00000000E+00
  0.00000000E+00  0.00000000E+00  0.00000000E+00
  0.00000000E+00  0.00000000E+00  0.00000000E+00
  0.00000000E+00  0.00000000E+00  0.00000000E+00
  0.00000000E+00  0.00000000E+00  0.00000000E+00
  0.00000000E+00  0.00000000E+00  0.00000000E+00
  0.00000000E+00  0.00000000E+00  0.00000000E+00
  0.00000000E+00  0.00000000E+00  0.00000000E+00
  0.00000000E+00  0.00000000E+00  0.00000000E+00
  0.00000000E+00  0.00000000E+00  0.00000000E+00
  0.00000000E+00  0.00000000E+00  0.00000000E+00
  0.00000000E+00  0.00000000E+00  0.00000000E+00
  0.00000000E+00  0.00000000E+00  0.00000000E+00
  0.00000000E+00  0.00000000E+00  0.00000000E+00
  0.00000000E+00  0.00000000E+00  0.00000000E+00
  0.00000000E+00  0.00000000E+00  0.00000000E+00
  0.00000000E+00  0.00000000E+00  0.00000000E+00
  0.00000000E+00  0.00000000E+00  0.00000000E+00
  0.00000000E+00  0.00000000E+00  0.00000000E+00
  0.00000000E+00  0.00000000E+00  0.00000000E+00
  0.00000000E+00  0.00000000E+00  0.00000000E+00
  0.00000000E+00  0.00000000E+00  0.00000000E+00
  0.00000000E+00  0.00000000E+00  0.00000000E+00
  0.00000000E+00  0.00000000E+00  0.00000000E+00
  0.00000000E+00  0.00000000E+00  0.00000000E+00
  0.00000000E+00  0.00000000E+00  0.00000000E+00
  0.00000000E+00  0.00000000E+00  0.00000000E+00
  0.00000000E+00  0.00000000E+00  0.00000000E+00
  0.00000000E+00  0.00000000E+00  0.00000000E+00
  0.00000000E+00  0.00000000E+00  0.00000000E+00
  0.00000000E+00  0.00000000E+00  0.00000000E+00
  0.00000000E+00  0.00000000E+00  0.00000000E+00
  0.00000000E+00  0.00000000E+00  0.00000000E+00
  0.00000000E+00  0.00000000E+00  0.00000000E+00
  0.00000000E+00  0.00000000E+00  0.00000000E+00
  0.00000000E+00  0.00000000E+00  0.00000000E+00
  0.00000000E+00  0.00000000E+00  0.00000000E+00
  0.00000000E+00  0.00000000E+00  0.00000000E+00
  0.00000000E+00  0.00000000E+00  0.00000000E+00
  0.00000000E+00  0.00000000E+00  0.00000000E+00
  0.00000000E+00  0.00000000E+00  0.00000000E+00
  0.00000000E+00  0.00000000E+00  0.00000000E+00
  0.00000000E+00  0.00000000E+00  0.00000000E+00
  0.00000000E+00  0.00000000E+00  0.00000000E+00
  0.00000000E+00  0.00000000E+00  0.00000000E+00
  0.00000000E+00  0.00000000E+00  0.00000000E+00
  0.00000000E+00  0.00000000E+00  0.00000000E+00
  0.00000000E+00  0.00000000E+00  0.00000000E+00
  0.00000000E+00  0.00000000E+00  0.00000000E+00
  0.00000000E+00  0.00000000E+00  0.00000000E+00
  0.00000000E+00  0.00000000E+00  0.00000000E+00
  0.00000000E+00  0.00000000E+00  0.00000000E+00
  0.00000000E+00  0.00000000E+00  0.00000000E+00
  0.00000000E+00  0.00000000E+00  0.00000000E+00
  0.00000000E+00  0.00000000E+00  0.00000000E+00
  0.00000000E+00  0.00000000E+00  0.00000000E+00
  0.00000000E+00  0.00000000E+00  0.00000000E+00
  0.00000000E+00  0.00000000E+00  0.00000000E+00
  0.00000000E+00  0.00000000E+00  0.00000000E+00
  0.00000000E+00  0.00000000E+00  0.00000000E+00
  0.00000000E+00  0.00000000E+00  0.00000000E+00
  0.00000000E+00  0.00000000E+00  0.00000000E+00
  0.00000000E+00  0.00000000E+00  0.00000000E+00
  0.00000000E+00  0.00000000E+00  0.00000000E+00
  0.00000000E+00  0.00000000E+00  0.00000000E+00
  0.00000000E+00  0.00000000E+00  0.00000000E+00
  0.00000000E+00  0.00000000E+00  0.00000000E+00
  0.00000000E+00  0.00000000E+00  0.00000000E+00
  0.00000000E+00  0.00000000E+00  0.00000000E+00
  0.00000000E+00  0.00000000E+00  0.00000000E+00
  0.00000000E+00  0.00000000E+00  0.00000000E+00
  0.00000000E+00  0.00000000E+00  0.00000000E+00
  0.00000000E+00  0.00000000E+00  0.00000000E+00
  0.00000000E+00  0.00000000E+00  0.00000000E+00
  0.00000000E+00  0.00000000E+00  0.00000000E+00
  0.00000000E+00  0.00000000E+00  0.00000000E+00
  0.00000000E+00  0.00000000E+00  0.00000000E+00
  0.00000000E+00  0.00000000E+00  0.00000000E+00
  0.00000000E+00  0.00000000E+00  0.00000000E+00
  0.00000000E+00  0.00000000E+00  0.00000000E+00
  0.00000000E+00  0.00000000E+00  0.00000000E+00
  0.00000000E+00  0.00000000E+00  0.00000000E+00
  0.00000000E+00  0.00000000E+00  0.00000000E+00
  0.00000000E+00  0.00000000E+00  0.00000000E+00
  0.00000000E+00  0.00000000E+00  0.00000000E+00
  0.00000000E+00  0.00000000E+00  0.00000000E+00
