H Mg O Ni                               
   1.00000000000000     
    16.8282433949600012    0.0000000000000000    0.0000000000000000
     0.0000000000000000    8.4141216974800006    0.0000000000000000
     0.0000000000000000    0.0000000000000000   23.4141216974799988
   H    Mg   O    Ni
     2    64    65     1
Selective dynamics
Direct
  0.0419405491532514  0.1734210327414675  0.3897810587387660   T   T   T
  0.5281837038187028  0.1353966847267502  0.3906206840881395   T   T   T
  0.1255453335296901  0.0014889411690065  0.0031595040335082   T   T   T
  0.6254556845092871  0.0016203529595359  0.0016221511676967   T   T   T
  0.1253922781725176  0.5018527349972326  0.0028386695309756   T   T   T
  0.6253101855592162  0.5023730177276120  0.0005872547556514   T   T   T
  0.3749907096342139  0.0019653991793546  0.0029123266053173   T   T   T
  0.8758112366074441  0.0020522760731696  0.0028963685369016   T   T   T
  0.3746107983351533  0.5018172392425974  0.0023032784783148   T   T   T
  0.8761234832600101  0.5019352548789408  0.0025319058149101   T   T   T
  0.0004634541415428  0.2518833161543402  0.0031087279410302   T   T   T
  0.4995572551466995  0.2516187861612677  0.0020229219107540   T   T   T
  0.0006736694006254  0.7520396072520545  0.0030880761398054   T   T   T
  0.4998401288129919  0.7524823438569510  0.0021171751419556   T   T   T
  0.2503169839935908  0.2514462427856351  0.0030848349453961   T   T   T
  0.7510597353023555  0.2514722700404847  0.0019879017473956   T   T   T
  0.2501746493352192  0.7519503538081524  0.0031843823853142   T   T   T
  0.7510038147802488  0.7523820061554225  0.0021543602715027   T   T   T
  0.0004588639596599  0.0020831984275896  0.0924852036707372   T   T   T
  0.5001830770463572  0.0026282222158786  0.0922754423897957   T   T   T
  0.0010731498309668  0.5023737005096731  0.0926788241457575   T   T   T
  0.4993118062393063  0.5019801168064761  0.0905177544611379   T   T   T
  0.2506812395525417  0.0020888733030751  0.0931150148267715   T   T   T
  0.7509819193396771  0.0024542694058501  0.0921594669004908   T   T   T
  0.2496207138105586  0.5010867716709770  0.0924319848464792   T   T   T
  0.7512750656990420  0.5013785805743707  0.0903782462647838   T   T   T
  0.1255418535544344  0.2516338126523948  0.0924146966272419   T   T   T
  0.6250506976432961  0.2507429059040565  0.0897161764274366   T   T   T
  0.1253089038827483  0.7512606659824338  0.0929009472990153   T   T   T
  0.6252789668063636  0.7532245591572939  0.0905332388387004   T   T   T
  0.3753834529082667  0.2510090327866366  0.0928330018977740   T   T   T
  0.8751532384470038  0.2514026984461138  0.0927911797027349   T   T   T
  0.3754181889288316  0.7527688175454161  0.0924833860809257   T   T   T
  0.8759005741077308  0.7528116680997932  0.0925396523026966   T   T   T
  0.1238224333574365  0.0045535440833205  0.1831623677858641   T   T   T
  0.6244474293029093  0.0106562715888178  0.1816943054841094   T   T   T
  0.1246850830267700  0.4971435102887481  0.1836815820568365   T   T   T
  0.6247667213472182  0.4972862046894586  0.1739081848807347   T   T   T
  0.3776710803857160  0.0028445322259168  0.1839651015950503   T   T   T
  0.8774658159902217  0.0033781992197951  0.1839152307079751   T   T   T
  0.3733985436758449  0.5010340205117930  0.1807277173604938   T   T   T
  0.8780987265148749  0.5015136023105762  0.1821781131195633   T   T   T
  0.0030903581719819  0.2483821054956833  0.1837309373131396   T   T   T
  0.5032133985329148  0.2512862113052951  0.1847064079992234   T   T   T
  0.0016565640584486  0.7571659011681748  0.1840803681779783   T   T   T
  0.5010956750908006  0.7545993979567800  0.1832192838890252   T   T   T
  0.2477473342481848  0.2501207396375676  0.1845594453806850   T   T   T
  0.7464733423853968  0.2530316216149404  0.1831815298709251   T   T   T
  0.2495371149616185  0.7521338303574295  0.1833176765788196   T   T   T
  0.7501639555384320  0.7506519889621555  0.1823110349134554   T   T   T
  0.0096693088644824  0.0105658908900026  0.2902597029315539   T   T   T
  0.5021832329582263  0.0019007789821869  0.2873425402352635   T   T   T
  0.0025961514831186  0.5015617349333688  0.2719335903207094   T   T   T
  0.4890881193690570  0.5040287043631942  0.2717614719785681   T   T   T
  0.2476529135660618  0.0012980074294029  0.2722141006189954   T   T   T
  0.7509572463340924  0.0043979120564410  0.2716668398069941   T   T   T
  0.2435214638550653  0.4988179758028101  0.2737001208785248   T   T   T
  0.7638243324778456  0.4997611421567820  0.2716979915341312   T   T   T
  0.1211185770196506  0.2394879385590022  0.2897455138844894   T   T   T
  0.6186205549351059  0.2098757048503926  0.2993432761294512   T   T   T
  0.1252804272878972  0.7529558524712122  0.2721673564739646   T   T   T
  0.6263354378555996  0.7732235633277134  0.2697091262747017   T   T   T
  0.3728856568928779  0.2438503329424986  0.2745803859868822   T   T   T
  0.8801450490528151  0.2500565910605005  0.2723072071170193   T   T   T
  0.3711941155625630  0.7599977845315831  0.2745343770359980   T   T   T
  0.8801141824298407  0.7560085185908589  0.2731706471746608   T   T   T
  0.0002658008178439  0.0019398128146521  0.0007053840200024   T   T   T
  0.5003922669301908  0.0018611443057240  0.0004171384085639   T   T   T
  0.0002377534229889  0.5020226499912879  0.0005629479401469   T   T   T
  0.4999342650148881  0.5022730742896427  0.9994919390165817   T   T   T
  0.2508066956794907  0.0015571854739493  0.0009359590766024   T   T   T
  0.7503611534253799  0.0016822360037481  0.0003244108957355   T   T   T
  0.2506591344423087  0.5018789684632492  0.0005918790003456   T   T   T
  0.7506194567621105  0.5022199198796854  0.9995722459507138   T   T   T
  0.1254995081129861  0.2516272796146200  0.0006571258490153   T   T   T
  0.6252388506156210  0.2514691272057472  0.9992487557205779   T   T   T
  0.1255662052133827  0.7517103662103415  0.0006432146362632   T   T   T
  0.6253931860132415  0.7524985255571280  0.9993867340259803   T   T   T
  0.3754035180792834  0.2518417270636129  0.0004616295191935   T   T   T
  0.8752518775386369  0.2520411401792186  0.0004793400655763   T   T   T
  0.3755051977697502  0.7519104841065913  0.0007588795789300   T   T   T
  0.8752295564547385  0.7519155409294324  0.0007134588949217   T   T   T
  0.1260084216710637  0.0009234022137958  0.0922439890453289   T   T   T
  0.6255466979142350  0.0006687023746934  0.0920458868915538   T   T   T
  0.1257260162950697  0.5018686816323898  0.0919985381586015   T   T   T
  0.6252346823933744  0.5033866650261771  0.0891587554098078   T   T   T
  0.3763564462646840  0.0016572755343713  0.0929870690347754   T   T   T
  0.8744466122669370  0.0018782087212483  0.0925857179507491   T   T   T
  0.3757969418193861  0.5021569552970259  0.0927529485324313   T   T   T
  0.8745274855424626  0.5023705078471519  0.0929240653318195   T   T   T
  0.9993437362085988  0.2528181523713163  0.0924119134663965   T   T   T
  0.5000860084582975  0.2531172155115277  0.0920569616871534   T   T   T
  0.9998169719079478  0.7516878306006990  0.0923890294671293   T   T   T
  0.5007400296029391  0.7514948990557788  0.0924866272362884   T   T   T
  0.2516010304418695  0.2520214626962616  0.0926435492493687   T   T   T
  0.7500089630145843  0.2528206144081636  0.0917556148976089   T   T   T
  0.2514011174150027  0.7511214146614981  0.0929812995029759   T   T   T
  0.7499615942555230  0.7509735617268849  0.0926509586522695   T   T   T
  0.9991978131860521  0.0018287673966261  0.1806029371448542   T   T   T
  0.5013385897049890  0.0015424983129277  0.1833609213199733   T   T   T
  0.0003636532435507  0.5046553301304096  0.1820046797379797   T   T   T
  0.5016659757409143  0.5047715923169094  0.1837738446971663   T   T   T
  0.2534201700014115  0.0014137432780270  0.1824642842999460   T   T   T
  0.7505430363621270  0.0020582591865933  0.1831671503914402   T   T   T
  0.2508840122510426  0.5009230941702097  0.1833638564462239   T   T   T
  0.7476235226206543  0.5011801237098692  0.1844299855743896   T   T   T
  0.1258922604541354  0.2521454485259444  0.1802670545188358   T   T   T
  0.6253286730390045  0.2576200113236372  0.1782537812003638   T   T   T
  0.1256613121391244  0.7485152832694253  0.1819333542604662   T   T   T
  0.6257544028447340  0.7429161294753156  0.1829871497953724   T   T   T
  0.3766673379020045  0.2538882225861461  0.1846772627430912   T   T   T
  0.8712564017904002  0.2530374239651667  0.1837551623983743   T   T   T
  0.3771055294575910  0.7498283582532160  0.1847157321472970   T   T   T
  0.8738364274892079  0.7518665898605839  0.1841011559052173   T   T   T
  0.1286965770778454  0.9945687824313456  0.2685603194262096   T   T   T
  0.6301883945967204  0.9985512282482188  0.2678713233968215   T   T   T
  0.1241054478290419  0.5012951959612768  0.2759633108643527   T   T   T
  0.3791346119875280  0.0010693667384686  0.2767235044656899   T   T   T
  0.8708982336095553  0.0035732008639635  0.2771204851286191   T   T   T
  0.3703110504629343  0.5032139389467276  0.2753708422327133   T   T   T
  0.8788778860720051  0.5028257196531895  0.2746063829095121   T   T   T
  0.5058645901477992  0.2722949319162354  0.2728051702917917   T   T   T
  0.9978163923632297  0.2572722685362220  0.2698373255372588   T   T   T
  0.0008661607948808  0.7548985095708126  0.2761554506683185   T   T   T
  0.5084804514718485  0.7394190306440558  0.2765237962288239   T   T   T
  0.2498989348580147  0.2487621643829240  0.2757624027665816   T   T   T
  0.7384888582724500  0.2667324984300083  0.2809291511562166   T   T   T
  0.2501705837184293  0.7517012355770538  0.2737708850353406   T   T   T
  0.7440985205244307  0.7359610071183913  0.2766556002295710   T   T   T
  0.0690856171052341  0.1172273026519965  0.3592543777319462   T   T   T
  0.5591739525548900  0.0860787730267589  0.3605212645479249   T   T   T
  0.3741202339117916  0.5027989347562740  0.3523642319483446   T   T   T
 
  0.00000000E+00  0.00000000E+00  0.00000000E+00
  0.00000000E+00  0.00000000E+00  0.00000000E+00
  0.00000000E+00  0.00000000E+00  0.00000000E+00
  0.00000000E+00  0.00000000E+00  0.00000000E+00
  0.00000000E+00  0.00000000E+00  0.00000000E+00
  0.00000000E+00  0.00000000E+00  0.00000000E+00
  0.00000000E+00  0.00000000E+00  0.00000000E+00
  0.00000000E+00  0.00000000E+00  0.00000000E+00
  0.00000000E+00  0.00000000E+00  0.00000000E+00
  0.00000000E+00  0.00000000E+00  0.00000000E+00
  0.00000000E+00  0.00000000E+00  0.00000000E+00
  0.00000000E+00  0.00000000E+00  0.00000000E+00
  0.00000000E+00  0.00000000E+00  0.00000000E+00
  0.00000000E+00  0.00000000E+00  0.00000000E+00
  0.00000000E+00  0.00000000E+00  0.00000000E+00
  0.00000000E+00  0.00000000E+00  0.00000000E+00
  0.00000000E+00  0.00000000E+00  0.00000000E+00
  0.00000000E+00  0.00000000E+00  0.00000000E+00
  0.00000000E+00  0.00000000E+00  0.00000000E+00
  0.00000000E+00  0.00000000E+00  0.00000000E+00
  0.00000000E+00  0.00000000E+00  0.00000000E+00
  0.00000000E+00  0.00000000E+00  0.00000000E+00
  0.00000000E+00  0.00000000E+00  0.00000000E+00
  0.00000000E+00  0.00000000E+00  0.00000000E+00
  0.00000000E+00  0.00000000E+00  0.00000000E+00
  0.00000000E+00  0.00000000E+00  0.00000000E+00
  0.00000000E+00  0.00000000E+00  0.00000000E+00
  0.00000000E+00  0.00000000E+00  0.00000000E+00
  0.00000000E+00  0.00000000E+00  0.00000000E+00
  0.00000000E+00  0.00000000E+00  0.00000000E+00
  0.00000000E+00  0.00000000E+00  0.00000000E+00
  0.00000000E+00  0.00000000E+00  0.00000000E+00
  0.00000000E+00  0.00000000E+00  0.00000000E+00
  0.00000000E+00  0.00000000E+00  0.00000000E+00
  0.00000000E+00  0.00000000E+00  0.00000000E+00
  0.00000000E+00  0.00000000E+00  0.00000000E+00
  0.00000000E+00  0.00000000E+00  0.00000000E+00
  0.00000000E+00  0.00000000E+00  0.00000000E+00
  0.00000000E+00  0.00000000E+00  0.00000000E+00
  0.00000000E+00  0.00000000E+00  0.00000000E+00
  0.00000000E+00  0.00000000E+00  0.00000000E+00
  0.00000000E+00  0.00000000E+00  0.00000000E+00
  0.00000000E+00  0.00000000E+00  0.00000000E+00
  0.00000000E+00  0.00000000E+00  0.00000000E+00
  0.00000000E+00  0.00000000E+00  0.00000000E+00
  0.00000000E+00  0.00000000E+00  0.00000000E+00
  0.00000000E+00  0.00000000E+00  0.00000000E+00
  0.00000000E+00  0.00000000E+00  0.00000000E+00
  0.00000000E+00  0.00000000E+00  0.00000000E+00
  0.00000000E+00  0.00000000E+00  0.00000000E+00
  0.00000000E+00  0.00000000E+00  0.00000000E+00
  0.00000000E+00  0.00000000E+00  0.00000000E+00
  0.00000000E+00  0.00000000E+00  0.00000000E+00
  0.00000000E+00  0.00000000E+00  0.00000000E+00
  0.00000000E+00  0.00000000E+00  0.00000000E+00
  0.00000000E+00  0.00000000E+00  0.00000000E+00
  0.00000000E+00  0.00000000E+00  0.00000000E+00
  0.00000000E+00  0.00000000E+00  0.00000000E+00
  0.00000000E+00  0.00000000E+00  0.00000000E+00
  0.00000000E+00  0.00000000E+00  0.00000000E+00
  0.00000000E+00  0.00000000E+00  0.00000000E+00
  0.00000000E+00  0.00000000E+00  0.00000000E+00
  0.00000000E+00  0.00000000E+00  0.00000000E+00
  0.00000000E+00  0.00000000E+00  0.00000000E+00
  0.00000000E+00  0.00000000E+00  0.00000000E+00
  0.00000000E+00  0.00000000E+00  0.00000000E+00
  0.00000000E+00  0.00000000E+00  0.00000000E+00
  0.00000000E+00  0.00000000E+00  0.00000000E+00
  0.00000000E+00  0.00000000E+00  0.00000000E+00
  0.00000000E+00  0.00000000E+00  0.00000000E+00
  0.00000000E+00  0.00000000E+00  0.00000000E+00
  0.00000000E+00  0.00000000E+00  0.00000000E+00
  0.00000000E+00  0.00000000E+00  0.00000000E+00
  0.00000000E+00  0.00000000E+00  0.00000000E+00
  0.00000000E+00  0.00000000E+00  0.00000000E+00
  0.00000000E+00  0.00000000E+00  0.00000000E+00
  0.00000000E+00  0.00000000E+00  0.00000000E+00
  0.00000000E+00  0.00000000E+00  0.00000000E+00
  0.00000000E+00  0.00000000E+00  0.00000000E+00
  0.00000000E+00  0.00000000E+00  0.00000000E+00
  0.00000000E+00  0.00000000E+00  0.00000000E+00
  0.00000000E+00  0.00000000E+00  0.00000000E+00
  0.00000000E+00  0.00000000E+00  0.00000000E+00
  0.00000000E+00  0.00000000E+00  0.00000000E+00
  0.00000000E+00  0.00000000E+00  0.00000000E+00
  0.00000000E+00  0.00000000E+00  0.00000000E+00
  0.00000000E+00  0.00000000E+00  0.00000000E+00
  0.00000000E+00  0.00000000E+00  0.00000000E+00
  0.00000000E+00  0.00000000E+00  0.00000000E+00
  0.00000000E+00  0.00000000E+00  0.00000000E+00
  0.00000000E+00  0.00000000E+00  0.00000000E+00
  0.00000000E+00  0.00000000E+00  0.00000000E+00
  0.00000000E+00  0.00000000E+00  0.00000000E+00
  0.00000000E+00  0.00000000E+00  0.00000000E+00
  0.00000000E+00  0.00000000E+00  0.00000000E+00
  0.00000000E+00  0.00000000E+00  0.00000000E+00
  0.00000000E+00  0.00000000E+00  0.00000000E+00
  0.00000000E+00  0.00000000E+00  0.00000000E+00
  0.00000000E+00  0.00000000E+00  0.00000000E+00
  0.00000000E+00  0.00000000E+00  0.00000000E+00
  0.00000000E+00  0.00000000E+00  0.00000000E+00
  0.00000000E+00  0.00000000E+00  0.00000000E+00
  0.00000000E+00  0.00000000E+00  0.00000000E+00
  0.00000000E+00  0.00000000E+00  0.00000000E+00
  0.00000000E+00  0.00000000E+00  0.00000000E+00
  0.00000000E+00  0.00000000E+00  0.00000000E+00
  0.00000000E+00  0.00000000E+00  0.00000000E+00
  0.00000000E+00  0.00000000E+00  0.00000000E+00
  0.00000000E+00  0.00000000E+00  0.00000000E+00
  0.00000000E+00  0.00000000E+00  0.00000000E+00
  0.00000000E+00  0.00000000E+00  0.00000000E+00
  0.00000000E+00  0.00000000E+00  0.00000000E+00
  0.00000000E+00  0.00000000E+00  0.00000000E+00
  0.00000000E+00  0.00000000E+00  0.00000000E+00
  0.00000000E+00  0.00000000E+00  0.00000000E+00
  0.00000000E+00  0.00000000E+00  0.00000000E+00
  0.00000000E+00  0.00000000E+00  0.00000000E+00
  0.00000000E+00  0.00000000E+00  0.00000000E+00
  0.00000000E+00  0.00000000E+00  0.00000000E+00
  0.00000000E+00  0.00000000E+00  0.00000000E+00
  0.00000000E+00  0.00000000E+00  0.00000000E+00
  0.00000000E+00  0.00000000E+00  0.00000000E+00
  0.00000000E+00  0.00000000E+00  0.00000000E+00
  0.00000000E+00  0.00000000E+00  0.00000000E+00
  0.00000000E+00  0.00000000E+00  0.00000000E+00
  0.00000000E+00  0.00000000E+00  0.00000000E+00
  0.00000000E+00  0.00000000E+00  0.00000000E+00
  0.00000000E+00  0.00000000E+00  0.00000000E+00
  0.00000000E+00  0.00000000E+00  0.00000000E+00
  0.00000000E+00  0.00000000E+00  0.00000000E+00
  0.00000000E+00  0.00000000E+00  0.00000000E+00
  0.00000000E+00  0.00000000E+00  0.00000000E+00
