H Mg O Au                               
   1.00000000000000     
    16.8282433949600012    0.0000000000000000    0.0000000000000000
     0.0000000000000000    8.4141216974800006    0.0000000000000000
     0.0000000000000000    0.0000000000000000   23.4141216974799988
   H    Mg   O    Au
     2    64    65     1
Selective dynamics
Direct
  0.0423712254631722  0.1726294995104317  0.3900568799241509   T   T   T
  0.5280218111346634  0.1339041738725518  0.3910548818535219   T   T   T
  0.1254608735380103  0.0015044907972120  0.0030773831958647   T   T   T
  0.6255801934912218  0.0016437329919166  0.0015031975708195   T   T   T
  0.1252744165367862  0.5018766522349174  0.0027221389628922   T   T   T
  0.6254385735794113  0.5023601408559396  0.0004536926019275   T   T   T
  0.3750110704247759  0.0019602387666872  0.0026587509983734   T   T   T
  0.8758377394773146  0.0020864883288478  0.0029145973675783   T   T   T
  0.3746299277204597  0.5018227721846145  0.0020066487833041   T   T   T
  0.8761484456655605  0.5019699371187341  0.0024535677629499   T   T   T
  0.0003915295420419  0.2518844618169115  0.0030582741256018   T   T   T
  0.4996795584668940  0.2516651534749750  0.0017975830158361   T   T   T
  0.0006033528750734  0.7521085386190429  0.0030385319869996   T   T   T
  0.4999787125763664  0.7524699027473247  0.0018840798683757   T   T   T
  0.2502239875119991  0.2514626938354496  0.0028757530571787   T   T   T
  0.7511641732938370  0.2514481642286165  0.0019341198794426   T   T   T
  0.2500734733411174  0.7519569019305119  0.0029657629382909   T   T   T
  0.7511146363348626  0.7524519576068824  0.0020963905627882   T   T   T
  0.0004490203254742  0.0021189149142648  0.0924953581007482   T   T   T
  0.5002608161719365  0.0027207216186550  0.0919768385122693   T   T   T
  0.0010186333419455  0.5024168109812255  0.0926335943979962   T   T   T
  0.4994300815473701  0.5019475030588970  0.0902298469529692   T   T   T
  0.2506148309434595  0.0021299901011754  0.0928789483393365   T   T   T
  0.7510447998553209  0.0024855172184405  0.0921524752488810   T   T   T
  0.2494385982304496  0.5010655826702353  0.0921175589581337   T   T   T
  0.7513590115060539  0.5014104189813559  0.0903009785565463   T   T   T
  0.1254060466904513  0.2516252165628108  0.0922920847825938   T   T   T
  0.6252032095821268  0.2507451723573450  0.0895809922914956   T   T   T
  0.1251516788644410  0.7512945137216083  0.0927821183055545   T   T   T
  0.6254640460351655  0.7532385947381753  0.0903392591542002   T   T   T
  0.3753691847601981  0.2509634721002648  0.0924566302487720   T   T   T
  0.8751555071526491  0.2513807237994600  0.0927727390973093   T   T   T
  0.3753681452878957  0.7528422766370200  0.0920939715703036   T   T   T
  0.8758957811097068  0.7529129891066468  0.0925429137602674   T   T   T
  0.1238480127866637  0.0046170428922528  0.1832404703924866   T   T   T
  0.6244183742550419  0.0106433340139162  0.1816826430312337   T   T   T
  0.1248074563215273  0.4971100852944111  0.1836232231917155   T   T   T
  0.6248288830143472  0.4973763048767350  0.1737595580146163   T   T   T
  0.3776773795870772  0.0029017160024792  0.1836205015169977   T   T   T
  0.8774400140899584  0.0034198744185630  0.1840122172822227   T   T   T
  0.3731369467344297  0.5010931502046668  0.1801124774729481   T   T   T
  0.8780596026550139  0.5015753085649864  0.1822055041400739   T   T   T
  0.0030897505533637  0.2484843412485478  0.1837289700692817   T   T   T
  0.5032133316985512  0.2512606049136842  0.1842940262623530   T   T   T
  0.0016658760122536  0.7571841797254109  0.1841387720457571   T   T   T
  0.5011043084788093  0.7547212513196961  0.1826382859494285   T   T   T
  0.2476365007345800  0.2501029454859794  0.1841998354333964   T   T   T
  0.7464722801013138  0.2531459497770286  0.1832396499794402   T   T   T
  0.2493849325912030  0.7522696123701136  0.1829063130370677   T   T   T
  0.7501320289946507  0.7506548825889597  0.1823895370792881   T   T   T
  0.0100186081037636  0.0107112205734302  0.2903589390803429   T   T   T
  0.5014430932621897  0.0014924733254502  0.2875329658264747   T   T   T
  0.0029003640789092  0.5016700410460425  0.2719155324098517   T   T   T
  0.4876743318364089  0.5042696078711383  0.2705047079319727   T   T   T
  0.2483984992774379  0.0014082421764973  0.2720998818020798   T   T   T
  0.7507123364005862  0.0045029845874259  0.2718072988486791   T   T   T
  0.2447549268549060  0.4989530687409336  0.2730726341336560   T   T   T
  0.7636992551346035  0.4997675825938303  0.2717744479882487   T   T   T
  0.1214232687790016  0.2399273764178710  0.2898804000669952   T   T   T
  0.6180772064297132  0.2098788105019270  0.2993718160953957   T   T   T
  0.1256924693942679  0.7527330059254705  0.2721785846438249   T   T   T
  0.6258549674795604  0.7730424629781741  0.2697152204261407   T   T   T
  0.3729678246767127  0.2458741838749116  0.2734536946391043   T   T   T
  0.8802871314845973  0.2500208344781517  0.2724056283444495   T   T   T
  0.3712200177521492  0.7580329331818935  0.2732225192425957   T   T   T
  0.8801899030584903  0.7561798022808285  0.2732584015400630   T   T   T
  0.0002131180575893  0.0019658642079366  0.0007008019360902   T   T   T
  0.5005375685438136  0.0018996683745145  0.0001664623521252   T   T   T
  0.0001645324090905  0.5020640442745784  0.0004972720884027   T   T   T
  0.5001169641860569  0.5022808921306923  0.9993040322395325   T   T   T
  0.2507305531067482  0.0015697981913400  0.0007086742280375   T   T   T
  0.7504490189703109  0.0017139967834425  0.0003359706069787   T   T   T
  0.2505308281754321  0.5018844105050995  0.0003986980604530   T   T   T
  0.7507194985129417  0.5022344397993710  0.9995046003056954   T   T   T
  0.1253618831786878  0.2516067638848138  0.0005375324254740   T   T   T
  0.6254254282841660  0.2514421430564852  0.9991264086264664   T   T   T
  0.1254233459635226  0.7517682125291363  0.0005236890765348   T   T   T
  0.6255879984258975  0.7525452662912987  0.9992566116187115   T   T   T
  0.3754358752485105  0.2517747256474812  0.0002022477598232   T   T   T
  0.8752486298338719  0.2519985016720823  0.0004912571899646   T   T   T
  0.3755309069653078  0.7519850245257188  0.0004992312990517   T   T   T
  0.8752351544928769  0.7520226464641775  0.0007342816422119   T   T   T
  0.1258744729305543  0.0009064519163766  0.0921518925263892   T   T   T
  0.6257344763240287  0.0006606847968543  0.0919651700216270   T   T   T
  0.1255578127068404  0.5019084479036716  0.0918669009922168   T   T   T
  0.6254107220417021  0.5034315894966801  0.0890271142684978   T   T   T
  0.3763894927673401  0.0016532194293322  0.0927065388990977   T   T   T
  0.8744358121231046  0.0019168016952570  0.0926370939640141   T   T   T
  0.3757788114125315  0.5021528255047897  0.0923037648362929   T   T   T
  0.8745316248381169  0.5024119672844805  0.0929428237789677   T   T   T
  0.9992219793585334  0.2528604067153464  0.0923874347408319   T   T   T
  0.5002347873824230  0.2531340862064675  0.0917723361879614   T   T   T
  0.9997054061417557  0.7517339655873261  0.0923729336658591   T   T   T
  0.5008907615432601  0.7515248847104976  0.0921594016835238   T   T   T
  0.2515269009096131  0.2520149717622269  0.0923812207524659   T   T   T
  0.7500975793744561  0.2528499410618651  0.0917550868532304   T   T   T
  0.2512911912715005  0.7511607202005733  0.0927184889425420   T   T   T
  0.7500344042053877  0.7510133370837415  0.0926667360208733   T   T   T
  0.9991833475392732  0.0018596771686298  0.1806666053503744   T   T   T
  0.5014280299471693  0.0015751818091008  0.1830000352642100   T   T   T
  0.0002735395401357  0.5047175393510770  0.1819650311582961   T   T   T
  0.5018109577641556  0.5047725946988779  0.1831170398246362   T   T   T
  0.2534393978590934  0.0014510262903868  0.1822041714713961   T   T   T
  0.7504438683263478  0.0020983561408981  0.1832350015928892   T   T   T
  0.2506749657059149  0.5009824850813062  0.1828070559899789   T   T   T
  0.7477077123556829  0.5012400793998389  0.1844146409058436   T   T   T
  0.1258160135646049  0.2520517315429436  0.1800998214455391   T   T   T
  0.6252904158682058  0.2576963840005040  0.1782190147958043   T   T   T
  0.1255844946779434  0.7486365287087006  0.1818520676160431   T   T   T
  0.6256482307344958  0.7428003361429047  0.1829962024574408   T   T   T
  0.3768004499708192  0.2538240931493737  0.1840234288215402   T   T   T
  0.8712442627262899  0.2531092531954551  0.1837707882290781   T   T   T
  0.3771797707066097  0.7499522046976114  0.1839915709194183   T   T   T
  0.8738124449867631  0.7519112837678664  0.1841341436255944   T   T   T
  0.1292195275958642  0.9945931830848325  0.2686372337578306   T   T   T
  0.6296994803360512  0.9983846127268022  0.2678331226088494   T   T   T
  0.1247843451852300  0.5011675772823777  0.2757616066315159   T   T   T
  0.3790695720143171  0.0009359778877044  0.2761711510725617   T   T   T
  0.8707429284331007  0.0036281994520490  0.2770835696983492   T   T   T
  0.3701935100153655  0.5036500282207684  0.2738482906326563   T   T   T
  0.8788649449263960  0.5029022078992998  0.2745824570481661   T   T   T
  0.5050718483162464  0.2737172662014389  0.2729277841065953   T   T   T
  0.9978967047858275  0.2575706078602881  0.2697397922655333   T   T   T
  0.0010103708884849  0.7547828231554021  0.2761272216432101   T   T   T
  0.5076689879547169  0.7380842254539921  0.2766684654107685   T   T   T
  0.2505853175407658  0.2495173406705393  0.2755933827146819   T   T   T
  0.7380659562872479  0.2668553798286938  0.2809449941821764   T   T   T
  0.2507445613873799  0.7511223820205943  0.2736017843190435   T   T   T
  0.7437716173032385  0.7359160275664791  0.2766413691536421   T   T   T
  0.0690257114106857  0.1175492035171376  0.3591023111805683   T   T   T
  0.5583647216613381  0.0862721318360994  0.3602740702116880   T   T   T
  0.3749699861409762  0.5005974015007703  0.3730263023247192   T   T   T
 
  0.00000000E+00  0.00000000E+00  0.00000000E+00
  0.00000000E+00  0.00000000E+00  0.00000000E+00
  0.00000000E+00  0.00000000E+00  0.00000000E+00
  0.00000000E+00  0.00000000E+00  0.00000000E+00
  0.00000000E+00  0.00000000E+00  0.00000000E+00
  0.00000000E+00  0.00000000E+00  0.00000000E+00
  0.00000000E+00  0.00000000E+00  0.00000000E+00
  0.00000000E+00  0.00000000E+00  0.00000000E+00
  0.00000000E+00  0.00000000E+00  0.00000000E+00
  0.00000000E+00  0.00000000E+00  0.00000000E+00
  0.00000000E+00  0.00000000E+00  0.00000000E+00
  0.00000000E+00  0.00000000E+00  0.00000000E+00
  0.00000000E+00  0.00000000E+00  0.00000000E+00
  0.00000000E+00  0.00000000E+00  0.00000000E+00
  0.00000000E+00  0.00000000E+00  0.00000000E+00
  0.00000000E+00  0.00000000E+00  0.00000000E+00
  0.00000000E+00  0.00000000E+00  0.00000000E+00
  0.00000000E+00  0.00000000E+00  0.00000000E+00
  0.00000000E+00  0.00000000E+00  0.00000000E+00
  0.00000000E+00  0.00000000E+00  0.00000000E+00
  0.00000000E+00  0.00000000E+00  0.00000000E+00
  0.00000000E+00  0.00000000E+00  0.00000000E+00
  0.00000000E+00  0.00000000E+00  0.00000000E+00
  0.00000000E+00  0.00000000E+00  0.00000000E+00
  0.00000000E+00  0.00000000E+00  0.00000000E+00
  0.00000000E+00  0.00000000E+00  0.00000000E+00
  0.00000000E+00  0.00000000E+00  0.00000000E+00
  0.00000000E+00  0.00000000E+00  0.00000000E+00
  0.00000000E+00  0.00000000E+00  0.00000000E+00
  0.00000000E+00  0.00000000E+00  0.00000000E+00
  0.00000000E+00  0.00000000E+00  0.00000000E+00
  0.00000000E+00  0.00000000E+00  0.00000000E+00
  0.00000000E+00  0.00000000E+00  0.00000000E+00
  0.00000000E+00  0.00000000E+00  0.00000000E+00
  0.00000000E+00  0.00000000E+00  0.00000000E+00
  0.00000000E+00  0.00000000E+00  0.00000000E+00
  0.00000000E+00  0.00000000E+00  0.00000000E+00
  0.00000000E+00  0.00000000E+00  0.00000000E+00
  0.00000000E+00  0.00000000E+00  0.00000000E+00
  0.00000000E+00  0.00000000E+00  0.00000000E+00
  0.00000000E+00  0.00000000E+00  0.00000000E+00
  0.00000000E+00  0.00000000E+00  0.00000000E+00
  0.00000000E+00  0.00000000E+00  0.00000000E+00
  0.00000000E+00  0.00000000E+00  0.00000000E+00
  0.00000000E+00  0.00000000E+00  0.00000000E+00
  0.00000000E+00  0.00000000E+00  0.00000000E+00
  0.00000000E+00  0.00000000E+00  0.00000000E+00
  0.00000000E+00  0.00000000E+00  0.00000000E+00
  0.00000000E+00  0.00000000E+00  0.00000000E+00
  0.00000000E+00  0.00000000E+00  0.00000000E+00
  0.00000000E+00  0.00000000E+00  0.00000000E+00
  0.00000000E+00  0.00000000E+00  0.00000000E+00
  0.00000000E+00  0.00000000E+00  0.00000000E+00
  0.00000000E+00  0.00000000E+00  0.00000000E+00
  0.00000000E+00  0.00000000E+00  0.00000000E+00
  0.00000000E+00  0.00000000E+00  0.00000000E+00
  0.00000000E+00  0.00000000E+00  0.00000000E+00
  0.00000000E+00  0.00000000E+00  0.00000000E+00
  0.00000000E+00  0.00000000E+00  0.00000000E+00
  0.00000000E+00  0.00000000E+00  0.00000000E+00
  0.00000000E+00  0.00000000E+00  0.00000000E+00
  0.00000000E+00  0.00000000E+00  0.00000000E+00
  0.00000000E+00  0.00000000E+00  0.00000000E+00
  0.00000000E+00  0.00000000E+00  0.00000000E+00
  0.00000000E+00  0.00000000E+00  0.00000000E+00
  0.00000000E+00  0.00000000E+00  0.00000000E+00
  0.00000000E+00  0.00000000E+00  0.00000000E+00
  0.00000000E+00  0.00000000E+00  0.00000000E+00
  0.00000000E+00  0.00000000E+00  0.00000000E+00
  0.00000000E+00  0.00000000E+00  0.00000000E+00
  0.00000000E+00  0.00000000E+00  0.00000000E+00
  0.00000000E+00  0.00000000E+00  0.00000000E+00
  0.00000000E+00  0.00000000E+00  0.00000000E+00
  0.00000000E+00  0.00000000E+00  0.00000000E+00
  0.00000000E+00  0.00000000E+00  0.00000000E+00
  0.00000000E+00  0.00000000E+00  0.00000000E+00
  0.00000000E+00  0.00000000E+00  0.00000000E+00
  0.00000000E+00  0.00000000E+00  0.00000000E+00
  0.00000000E+00  0.00000000E+00  0.00000000E+00
  0.00000000E+00  0.00000000E+00  0.00000000E+00
  0.00000000E+00  0.00000000E+00  0.00000000E+00
  0.00000000E+00  0.00000000E+00  0.00000000E+00
  0.00000000E+00  0.00000000E+00  0.00000000E+00
  0.00000000E+00  0.00000000E+00  0.00000000E+00
  0.00000000E+00  0.00000000E+00  0.00000000E+00
  0.00000000E+00  0.00000000E+00  0.00000000E+00
  0.00000000E+00  0.00000000E+00  0.00000000E+00
  0.00000000E+00  0.00000000E+00  0.00000000E+00
  0.00000000E+00  0.00000000E+00  0.00000000E+00
  0.00000000E+00  0.00000000E+00  0.00000000E+00
  0.00000000E+00  0.00000000E+00  0.00000000E+00
  0.00000000E+00  0.00000000E+00  0.00000000E+00
  0.00000000E+00  0.00000000E+00  0.00000000E+00
  0.00000000E+00  0.00000000E+00  0.00000000E+00
  0.00000000E+00  0.00000000E+00  0.00000000E+00
  0.00000000E+00  0.00000000E+00  0.00000000E+00
  0.00000000E+00  0.00000000E+00  0.00000000E+00
  0.00000000E+00  0.00000000E+00  0.00000000E+00
  0.00000000E+00  0.00000000E+00  0.00000000E+00
  0.00000000E+00  0.00000000E+00  0.00000000E+00
  0.00000000E+00  0.00000000E+00  0.00000000E+00
  0.00000000E+00  0.00000000E+00  0.00000000E+00
  0.00000000E+00  0.00000000E+00  0.00000000E+00
  0.00000000E+00  0.00000000E+00  0.00000000E+00
  0.00000000E+00  0.00000000E+00  0.00000000E+00
  0.00000000E+00  0.00000000E+00  0.00000000E+00
  0.00000000E+00  0.00000000E+00  0.00000000E+00
  0.00000000E+00  0.00000000E+00  0.00000000E+00
  0.00000000E+00  0.00000000E+00  0.00000000E+00
  0.00000000E+00  0.00000000E+00  0.00000000E+00
  0.00000000E+00  0.00000000E+00  0.00000000E+00
  0.00000000E+00  0.00000000E+00  0.00000000E+00
  0.00000000E+00  0.00000000E+00  0.00000000E+00
  0.00000000E+00  0.00000000E+00  0.00000000E+00
  0.00000000E+00  0.00000000E+00  0.00000000E+00
  0.00000000E+00  0.00000000E+00  0.00000000E+00
  0.00000000E+00  0.00000000E+00  0.00000000E+00
  0.00000000E+00  0.00000000E+00  0.00000000E+00
  0.00000000E+00  0.00000000E+00  0.00000000E+00
  0.00000000E+00  0.00000000E+00  0.00000000E+00
  0.00000000E+00  0.00000000E+00  0.00000000E+00
  0.00000000E+00  0.00000000E+00  0.00000000E+00
  0.00000000E+00  0.00000000E+00  0.00000000E+00
  0.00000000E+00  0.00000000E+00  0.00000000E+00
  0.00000000E+00  0.00000000E+00  0.00000000E+00
  0.00000000E+00  0.00000000E+00  0.00000000E+00
  0.00000000E+00  0.00000000E+00  0.00000000E+00
  0.00000000E+00  0.00000000E+00  0.00000000E+00
  0.00000000E+00  0.00000000E+00  0.00000000E+00
  0.00000000E+00  0.00000000E+00  0.00000000E+00
  0.00000000E+00  0.00000000E+00  0.00000000E+00
  0.00000000E+00  0.00000000E+00  0.00000000E+00
