H Mg O Fe                               
   1.00000000000000     
    16.8282433949600012    0.0000000000000000    0.0000000000000000
     0.0000000000000000    8.4141216974800006    0.0000000000000000
     0.0000000000000000    0.0000000000000000   23.4141216974799988
   H    Mg   O    Fe
     2    64    65     1
Selective dynamics
Direct
  0.0424546310478343  0.1721099059977870  0.3901315794145152   T   T   T
  0.5278466618480863  0.1347944250114700  0.3907741065669354   T   T   T
  0.1255004651816520  0.0015117247186430  0.0030751727482175   T   T   T
  0.6255617511610644  0.0016277113698262  0.0015822703323033   T   T   T
  0.1253160334455756  0.5019129485660919  0.0027928815448529   T   T   T
  0.6254256942493955  0.5024174594599349  0.0005257944701419   T   T   T
  0.3749893182164378  0.0019491569608834  0.0027616268992720   T   T   T
  0.8757909085582880  0.0021011356580269  0.0028799619786610   T   T   T
  0.3746422934589103  0.5018388105637573  0.0021249179552954   T   T   T
  0.8760990965052161  0.5019968075228305  0.0024957107411968   T   T   T
  0.0003858215713046  0.2519920572143171  0.0030405201807268   T   T   T
  0.4996495927300134  0.2516291711475501  0.0018933058657818   T   T   T
  0.0005979250442049  0.7520480055452187  0.0030283599123977   T   T   T
  0.4999540132238124  0.7524827679491823  0.0020054118035561   T   T   T
  0.2502670657982802  0.2514750859186821  0.0029836427061907   T   T   T
  0.7511034016275652  0.2515212195713132  0.0019758474941218   T   T   T
  0.2501341636190492  0.7519490634108748  0.0030999174376824   T   T   T
  0.7510371682470205  0.7524245706386739  0.0021710499089303   T   T   T
  0.0003728213843224  0.0021647212821030  0.0924294626124589   T   T   T
  0.5002795356551627  0.0026044564233370  0.0920311387576485   T   T   T
  0.0009493643757588  0.5024417886478217  0.0926205369577722   T   T   T
  0.4994487322887817  0.5019876508988007  0.0902892974925577   T   T   T
  0.2505248421366229  0.0021177041004992  0.0929971336187525   T   T   T
  0.7510176762845110  0.0025472236240066  0.0921829346579486   T   T   T
  0.2495902184414695  0.5010802575822707  0.0923161074411846   T   T   T
  0.7512952485866663  0.5014340597080875  0.0903532243472161   T   T   T
  0.1254201752534506  0.2516937064343954  0.0923310222448652   T   T   T
  0.6251642904944928  0.2507644516324273  0.0896272046555513   T   T   T
  0.1251884762120558  0.7512904992806430  0.0928350516785575   T   T   T
  0.6253850047443976  0.7532901759457254  0.0905017524214089   T   T   T
  0.3753340425555297  0.2511085247923836  0.0925414918152049   T   T   T
  0.8750840106059981  0.2514553620745530  0.0927657775292078   T   T   T
  0.3753961564693081  0.7526654803017877  0.0922302144047742   T   T   T
  0.8758285584989575  0.7529131286578025  0.0925304286863570   T   T   T
  0.1236338230194363  0.0047105284004290  0.1830953247102417   T   T   T
  0.6244036680411138  0.0107952104976458  0.1816943268889273   T   T   T
  0.1244298202077742  0.4971100724930264  0.1836208161428538   T   T   T
  0.6249623894137988  0.4973742343193345  0.1738690686050362   T   T   T
  0.3776148584956488  0.0028480300768456  0.1834972455524142   T   T   T
  0.8774159257975975  0.0034954152395939  0.1839340699825352   T   T   T
  0.3736097539270327  0.5010423245274329  0.1803137418805641   T   T   T
  0.8778282966804234  0.5016030965240829  0.1821738229283842   T   T   T
  0.0028391648759648  0.2485007354048129  0.1836909888041846   T   T   T
  0.5033048411714698  0.2507186888739201  0.1842572531689468   T   T   T
  0.0014123547111672  0.7572186398314251  0.1840487348430598   T   T   T
  0.5012518025293999  0.7550671889195913  0.1829456279911562   T   T   T
  0.2476688983923963  0.2502662588306032  0.1844459536917159   T   T   T
  0.7464304109103124  0.2530428962095818  0.1832781926870029   T   T   T
  0.2494422847959298  0.7519903119981728  0.1831878970011044   T   T   T
  0.7501177313263251  0.7508643166224792  0.1823761780388161   T   T   T
  0.0091244551992409  0.0105420281853200  0.2902927484605249   T   T   T
  0.5021333566130337  0.0019733104859106  0.2875461708471915   T   T   T
  0.0022412740430231  0.5017144784378617  0.2718862608761669   T   T   T
  0.4907301203447267  0.5037033143285558  0.2709707909963069   T   T   T
  0.2476686453683459  0.0013383473558925  0.2720870925911367   T   T   T
  0.7509219309482047  0.0046581185371810  0.2716861502780368   T   T   T
  0.2431498181691102  0.4987185183349636  0.2732942110329588   T   T   T
  0.7633650484064555  0.4999244564795404  0.2718612129047924   T   T   T
  0.1205100710836125  0.2394724984322418  0.2898761241460376   T   T   T
  0.6184486874187725  0.2100243466706802  0.2998810079520683   T   T   T
  0.1249959187906749  0.7529947015323255  0.2720932551400637   T   T   T
  0.6262189100598561  0.7732423609140179  0.2698946300044474   T   T   T
  0.3734618788793802  0.2420664826256050  0.2738295089742429   T   T   T
  0.8797663366352593  0.2502446180215085  0.2723755555461679   T   T   T
  0.3718020128113094  0.7612415677686627  0.2736425022685715   T   T   T
  0.8797662987669645  0.7560830131098389  0.2731999088857539   T   T   T
  0.0002618863079687  0.0019812287740876  0.0006360242441967   T   T   T
  0.5004214739836740  0.0018627163470337  0.0003268276528669   T   T   T
  0.0002395733685348  0.5020967288457142  0.0005264650952558   T   T   T
  0.4999998370920940  0.5022874455984897  0.9993358754110407   T   T   T
  0.2507708802669981  0.0015625402687612  0.0008567457372017   T   T   T
  0.7504089044125100  0.0017228001691345  0.0003076184258188   T   T   T
  0.2506234880939441  0.5019059389007214  0.0004796071967600   T   T   T
  0.7506376679297568  0.5022715064133987  0.9995446451536327   T   T   T
  0.1254830610186856  0.2516921302838536  0.0005841136379658   T   T   T
  0.6252938773360877  0.2514833962968185  0.9991920670476266   T   T   T
  0.1255474550844348  0.7517253925064670  0.0005826722813750   T   T   T
  0.6254473234139210  0.7525437154858562  0.9993495662997193   T   T   T
  0.3753846881121226  0.2517999193465200  0.0003139838429151   T   T   T
  0.8752376997688683  0.2520757299706074  0.0004319952494262   T   T   T
  0.3755029060055127  0.7519636514590555  0.0006262150221318   T   T   T
  0.8752164146906589  0.7519915938594008  0.0006893761193924   T   T   T
  0.1259450616285797  0.0009271944508873  0.0921483366173151   T   T   T
  0.6256493755329841  0.0006728650941274  0.0919468140171351   T   T   T
  0.1257122645500368  0.5019299781270218  0.0919909294782380   T   T   T
  0.6252764700544401  0.5034941132955273  0.0891092685789304   T   T   T
  0.3762446299339162  0.0016432570830184  0.0928383725316031   T   T   T
  0.8744414292275786  0.0019486882495223  0.0925316590672510   T   T   T
  0.3758076251897184  0.5021494185265176  0.0924727060418371   T   T   T
  0.8744813239619433  0.5024533449830610  0.0928870788307590   T   T   T
  0.9992851712199597  0.2529221694581503  0.0923319044801671   T   T   T
  0.5000702429565128  0.2532002084330807  0.0918368638801826   T   T   T
  0.9997589457672656  0.7517350491240218  0.0923186714081744   T   T   T
  0.5007487752378741  0.7513881947948783  0.0923052170125305   T   T   T
  0.2515664315028824  0.2521580080396266  0.0925607939021769   T   T   T
  0.7500333186301460  0.2529119806264198  0.0917108123550643   T   T   T
  0.2513648075605848  0.7510043236117772  0.0929187447150830   T   T   T
  0.7499672207943671  0.7510213456889359  0.0926424458753874   T   T   T
  0.9991667966961180  0.0018908692475586  0.1805051070475776   T   T   T
  0.5012890842158227  0.0016113308236910  0.1826483002812265   T   T   T
  0.0001044017828918  0.5047425328800268  0.1818726365568505   T   T   T
  0.5015370052666075  0.5046284738870186  0.1835608872277880   T   T   T
  0.2533441247482362  0.0014160313065962  0.1823216026785750   T   T   T
  0.7504931991388279  0.0021824437167058  0.1831081829341798   T   T   T
  0.2512805779071966  0.5009088120793812  0.1835906264195728   T   T   T
  0.7476651942128082  0.5012618254232228  0.1844059825591217   T   T   T
  0.1257953243999231  0.2522173157124319  0.1801453957069637   T   T   T
  0.6253253374043719  0.2577145584565226  0.1780245620041581   T   T   T
  0.1255748067759478  0.7484719908401265  0.1818729597814810   T   T   T
  0.6257634812406438  0.7429540981914166  0.1829439633620321   T   T   T
  0.3766446938023289  0.2547320016822467  0.1845343899633755   T   T   T
  0.8712159076616730  0.2531762392870296  0.1836483299619107   T   T   T
  0.3770954337496159  0.7489177657387367  0.1845613913505789   T   T   T
  0.8737870330283565  0.7519332162833378  0.1840091701585079   T   T   T
  0.1286536056746431  0.9946235096381082  0.2684674263639008   T   T   T
  0.6300383576934989  0.9988528773063363  0.2677848572840258   T   T   T
  0.1238814347440436  0.5012244261303580  0.2757553912653335   T   T   T
  0.3790256431974782  0.0008949005576360  0.2759689236162012   T   T   T
  0.8709840802380993  0.0036278706627891  0.2770059802255179   T   T   T
  0.3714879640226703  0.5037763158365088  0.2799820635153598   T   T   T
  0.8785328891090903  0.5030419607323833  0.2745193274609993   T   T   T
  0.5050466082592699  0.2711740848990251  0.2723584903004754   T   T   T
  0.9974373505050309  0.2575219767026921  0.2696720615061697   T   T   T
  0.0006272274272009  0.7548687150827385  0.2760020442855263   T   T   T
  0.5077002886607569  0.7400068422026296  0.2759397631672772   T   T   T
  0.2505202898066384  0.2497418302424264  0.2756959598471996   T   T   T
  0.7387992405116256  0.2661436962745901  0.2807392500305942   T   T   T
  0.2506763184478198  0.7506444645285139  0.2737164216300590   T   T   T
  0.7443174816251699  0.7367348922083813  0.2764645250121592   T   T   T
  0.0686594186475989  0.1172361516067983  0.3589670024789848   T   T   T
  0.5585794997620527  0.0859808949436870  0.3603967059457197   T   T   T
  0.3777922307794312  0.5002327469200191  0.3621121084298171   T   T   T
 
  0.00000000E+00  0.00000000E+00  0.00000000E+00
  0.00000000E+00  0.00000000E+00  0.00000000E+00
  0.00000000E+00  0.00000000E+00  0.00000000E+00
  0.00000000E+00  0.00000000E+00  0.00000000E+00
  0.00000000E+00  0.00000000E+00  0.00000000E+00
  0.00000000E+00  0.00000000E+00  0.00000000E+00
  0.00000000E+00  0.00000000E+00  0.00000000E+00
  0.00000000E+00  0.00000000E+00  0.00000000E+00
  0.00000000E+00  0.00000000E+00  0.00000000E+00
  0.00000000E+00  0.00000000E+00  0.00000000E+00
  0.00000000E+00  0.00000000E+00  0.00000000E+00
  0.00000000E+00  0.00000000E+00  0.00000000E+00
  0.00000000E+00  0.00000000E+00  0.00000000E+00
  0.00000000E+00  0.00000000E+00  0.00000000E+00
  0.00000000E+00  0.00000000E+00  0.00000000E+00
  0.00000000E+00  0.00000000E+00  0.00000000E+00
  0.00000000E+00  0.00000000E+00  0.00000000E+00
  0.00000000E+00  0.00000000E+00  0.00000000E+00
  0.00000000E+00  0.00000000E+00  0.00000000E+00
  0.00000000E+00  0.00000000E+00  0.00000000E+00
  0.00000000E+00  0.00000000E+00  0.00000000E+00
  0.00000000E+00  0.00000000E+00  0.00000000E+00
  0.00000000E+00  0.00000000E+00  0.00000000E+00
  0.00000000E+00  0.00000000E+00  0.00000000E+00
  0.00000000E+00  0.00000000E+00  0.00000000E+00
  0.00000000E+00  0.00000000E+00  0.00000000E+00
  0.00000000E+00  0.00000000E+00  0.00000000E+00
  0.00000000E+00  0.00000000E+00  0.00000000E+00
  0.00000000E+00  0.00000000E+00  0.00000000E+00
  0.00000000E+00  0.00000000E+00  0.00000000E+00
  0.00000000E+00  0.00000000E+00  0.00000000E+00
  0.00000000E+00  0.00000000E+00  0.00000000E+00
  0.00000000E+00  0.00000000E+00  0.00000000E+00
  0.00000000E+00  0.00000000E+00  0.00000000E+00
  0.00000000E+00  0.00000000E+00  0.00000000E+00
  0.00000000E+00  0.00000000E+00  0.00000000E+00
  0.00000000E+00  0.00000000E+00  0.00000000E+00
  0.00000000E+00  0.00000000E+00  0.00000000E+00
  0.00000000E+00  0.00000000E+00  0.00000000E+00
  0.00000000E+00  0.00000000E+00  0.00000000E+00
  0.00000000E+00  0.00000000E+00  0.00000000E+00
  0.00000000E+00  0.00000000E+00  0.00000000E+00
  0.00000000E+00  0.00000000E+00  0.00000000E+00
  0.00000000E+00  0.00000000E+00  0.00000000E+00
  0.00000000E+00  0.00000000E+00  0.00000000E+00
  0.00000000E+00  0.00000000E+00  0.00000000E+00
  0.00000000E+00  0.00000000E+00  0.00000000E+00
  0.00000000E+00  0.00000000E+00  0.00000000E+00
  0.00000000E+00  0.00000000E+00  0.00000000E+00
  0.00000000E+00  0.00000000E+00  0.00000000E+00
  0.00000000E+00  0.00000000E+00  0.00000000E+00
  0.00000000E+00  0.00000000E+00  0.00000000E+00
  0.00000000E+00  0.00000000E+00  0.00000000E+00
  0.00000000E+00  0.00000000E+00  0.00000000E+00
  0.00000000E+00  0.00000000E+00  0.00000000E+00
  0.00000000E+00  0.00000000E+00  0.00000000E+00
  0.00000000E+00  0.00000000E+00  0.00000000E+00
  0.00000000E+00  0.00000000E+00  0.00000000E+00
  0.00000000E+00  0.00000000E+00  0.00000000E+00
  0.00000000E+00  0.00000000E+00  0.00000000E+00
  0.00000000E+00  0.00000000E+00  0.00000000E+00
  0.00000000E+00  0.00000000E+00  0.00000000E+00
  0.00000000E+00  0.00000000E+00  0.00000000E+00
  0.00000000E+00  0.00000000E+00  0.00000000E+00
  0.00000000E+00  0.00000000E+00  0.00000000E+00
  0.00000000E+00  0.00000000E+00  0.00000000E+00
  0.00000000E+00  0.00000000E+00  0.00000000E+00
  0.00000000E+00  0.00000000E+00  0.00000000E+00
  0.00000000E+00  0.00000000E+00  0.00000000E+00
  0.00000000E+00  0.00000000E+00  0.00000000E+00
  0.00000000E+00  0.00000000E+00  0.00000000E+00
  0.00000000E+00  0.00000000E+00  0.00000000E+00
  0.00000000E+00  0.00000000E+00  0.00000000E+00
  0.00000000E+00  0.00000000E+00  0.00000000E+00
  0.00000000E+00  0.00000000E+00  0.00000000E+00
  0.00000000E+00  0.00000000E+00  0.00000000E+00
  0.00000000E+00  0.00000000E+00  0.00000000E+00
  0.00000000E+00  0.00000000E+00  0.00000000E+00
  0.00000000E+00  0.00000000E+00  0.00000000E+00
  0.00000000E+00  0.00000000E+00  0.00000000E+00
  0.00000000E+00  0.00000000E+00  0.00000000E+00
  0.00000000E+00  0.00000000E+00  0.00000000E+00
  0.00000000E+00  0.00000000E+00  0.00000000E+00
  0.00000000E+00  0.00000000E+00  0.00000000E+00
  0.00000000E+00  0.00000000E+00  0.00000000E+00
  0.00000000E+00  0.00000000E+00  0.00000000E+00
  0.00000000E+00  0.00000000E+00  0.00000000E+00
  0.00000000E+00  0.00000000E+00  0.00000000E+00
  0.00000000E+00  0.00000000E+00  0.00000000E+00
  0.00000000E+00  0.00000000E+00  0.00000000E+00
  0.00000000E+00  0.00000000E+00  0.00000000E+00
  0.00000000E+00  0.00000000E+00  0.00000000E+00
  0.00000000E+00  0.00000000E+00  0.00000000E+00
  0.00000000E+00  0.00000000E+00  0.00000000E+00
  0.00000000E+00  0.00000000E+00  0.00000000E+00
  0.00000000E+00  0.00000000E+00  0.00000000E+00
  0.00000000E+00  0.00000000E+00  0.00000000E+00
  0.00000000E+00  0.00000000E+00  0.00000000E+00
  0.00000000E+00  0.00000000E+00  0.00000000E+00
  0.00000000E+00  0.00000000E+00  0.00000000E+00
  0.00000000E+00  0.00000000E+00  0.00000000E+00
  0.00000000E+00  0.00000000E+00  0.00000000E+00
  0.00000000E+00  0.00000000E+00  0.00000000E+00
  0.00000000E+00  0.00000000E+00  0.00000000E+00
  0.00000000E+00  0.00000000E+00  0.00000000E+00
  0.00000000E+00  0.00000000E+00  0.00000000E+00
  0.00000000E+00  0.00000000E+00  0.00000000E+00
  0.00000000E+00  0.00000000E+00  0.00000000E+00
  0.00000000E+00  0.00000000E+00  0.00000000E+00
  0.00000000E+00  0.00000000E+00  0.00000000E+00
  0.00000000E+00  0.00000000E+00  0.00000000E+00
  0.00000000E+00  0.00000000E+00  0.00000000E+00
  0.00000000E+00  0.00000000E+00  0.00000000E+00
  0.00000000E+00  0.00000000E+00  0.00000000E+00
  0.00000000E+00  0.00000000E+00  0.00000000E+00
  0.00000000E+00  0.00000000E+00  0.00000000E+00
  0.00000000E+00  0.00000000E+00  0.00000000E+00
  0.00000000E+00  0.00000000E+00  0.00000000E+00
  0.00000000E+00  0.00000000E+00  0.00000000E+00
  0.00000000E+00  0.00000000E+00  0.00000000E+00
  0.00000000E+00  0.00000000E+00  0.00000000E+00
  0.00000000E+00  0.00000000E+00  0.00000000E+00
  0.00000000E+00  0.00000000E+00  0.00000000E+00
  0.00000000E+00  0.00000000E+00  0.00000000E+00
  0.00000000E+00  0.00000000E+00  0.00000000E+00
  0.00000000E+00  0.00000000E+00  0.00000000E+00
  0.00000000E+00  0.00000000E+00  0.00000000E+00
  0.00000000E+00  0.00000000E+00  0.00000000E+00
  0.00000000E+00  0.00000000E+00  0.00000000E+00
  0.00000000E+00  0.00000000E+00  0.00000000E+00
  0.00000000E+00  0.00000000E+00  0.00000000E+00
  0.00000000E+00  0.00000000E+00  0.00000000E+00
