H Mg O Cu                               
   1.00000000000000     
    16.8282433949600012    0.0000000000000000    0.0000000000000000
     0.0000000000000000    8.4141216974800006    0.0000000000000000
     0.0000000000000000    0.0000000000000000   23.4141216974799988
   H    Mg   O    Cu
     2    64    65     1
Selective dynamics
Direct
  0.0425197849005447  0.1718174224883474  0.3901372157202139   T   T   T
  0.5276391220689880  0.1328494708631825  0.3909079400846353   T   T   T
  0.1255910873075007  0.0015634124652208  0.0031619285135551   T   T   T
  0.6255044153129529  0.0016634168804858  0.0015884138832297   T   T   T
  0.1253513520744910  0.5019281402279621  0.0028450129928621   T   T   T
  0.6254289132002353  0.5024171970567735  0.0005543617895383   T   T   T
  0.3750472560067422  0.0019601181185740  0.0028407981787725   T   T   T
  0.8758637013933726  0.0021532725389620  0.0029094286085218   T   T   T
  0.3746686036326574  0.5018378361738345  0.0023017161034911   T   T   T
  0.8761661048597881  0.5020451448925800  0.0025407540754019   T   T   T
  0.0004800545692936  0.2520742016611388  0.0031049415302518   T   T   T
  0.4996324682599421  0.2515644774696857  0.0019341953261946   T   T   T
  0.0006866678037541  0.7520780162185802  0.0030864315792847   T   T   T
  0.4999315561933049  0.7525817031783518  0.0020528484484555   T   T   T
  0.2503330906312730  0.2514209572725615  0.0030538660636172   T   T   T
  0.7511100677896171  0.2516035440933180  0.0019780187618189   T   T   T
  0.2501888572913151  0.7520529393934273  0.0031575558073561   T   T   T
  0.7510641087418126  0.7524258299024570  0.0021565900787550   T   T   T
  0.0004367538672766  0.0022253465168855  0.0924803435094635   T   T   T
  0.5002705163110678  0.0027474431328657  0.0920852161056424   T   T   T
  0.0010118355562189  0.5024749064788435  0.0926251750011727   T   T   T
  0.4994112003764326  0.5019357643724132  0.0904636037023978   T   T   T
  0.2506360308946181  0.0021744990506614  0.0929773164142345   T   T   T
  0.7510132597031948  0.0025956106707758  0.0921582394229125   T   T   T
  0.2495361393353483  0.5010967704620420  0.0923563415969100   T   T   T
  0.7513365445016498  0.5014808164633120  0.0903398719770215   T   T   T
  0.1254589465997801  0.2516906315952164  0.0923826206778694   T   T   T
  0.6251281702300742  0.2507756658050385  0.0896351384930154   T   T   T
  0.1252065522225314  0.7513410871068863  0.0928418747572067   T   T   T
  0.6253914304873974  0.7533035613809165  0.0904178067854863   T   T   T
  0.3754073268630965  0.2509949194145588  0.0926715500292754   T   T   T
  0.8751437123150776  0.2515547143778063  0.0927837584586120   T   T   T
  0.3754056135707460  0.7528071541114212  0.0923110687092473   T   T   T
  0.8758946394474624  0.7529369946982069  0.0925649177187486   T   T   T
  0.1236916656089537  0.0046305858769102  0.1832802162352223   T   T   T
  0.6245031448937451  0.0106874425491753  0.1817523366714174   T   T   T
  0.1246225660999808  0.4971651135244572  0.1836350776002103   T   T   T
  0.6248675840502174  0.4974069481576834  0.1738500600169866   T   T   T
  0.3776223197515605  0.0028658805450839  0.1836850969367310   T   T   T
  0.8774178559999677  0.0035323019396080  0.1839399699808023   T   T   T
  0.3731393784760993  0.5010622837937582  0.1805933998307919   T   T   T
  0.8779426732482022  0.5016821372684233  0.1821888181206469   T   T   T
  0.0029565592188774  0.2484761797935122  0.1837093807048905   T   T   T
  0.5033516567986501  0.2511001288363812  0.1844922166190535   T   T   T
  0.0015389133380055  0.7573308191883900  0.1841065144626816   T   T   T
  0.5012253682359952  0.7547587851054305  0.1828512901733677   T   T   T
  0.2475710312038690  0.2500411155242082  0.1843686651235356   T   T   T
  0.7464615918219147  0.2530965331796750  0.1832257529467667   T   T   T
  0.2492875999380179  0.7523494753352008  0.1831017156516874   T   T   T
  0.7501286427752635  0.7508327379210423  0.1823724924500811   T   T   T
  0.0094447537931271  0.0106809222070490  0.2902077535861818   T   T   T
  0.5017010112233833  0.0013808931766135  0.2874877436954009   T   T   T
  0.0025779082019600  0.5017503573065371  0.2719555939380670   T   T   T
  0.4885146212622626  0.5041965172471085  0.2705629665763318   T   T   T
  0.2480386350163013  0.0014137891147028  0.2723665850959733   T   T   T
  0.7508488585321785  0.0045759390369714  0.2716953571869483   T   T   T
  0.2443201301868135  0.4989067259034661  0.2728663971614818   T   T   T
  0.7635345442166711  0.4998789682708183  0.2718089692033895   T   T   T
  0.1209356027258987  0.2397544201635020  0.2898513315404351   T   T   T
  0.6182613423712615  0.2096896383897044  0.2998156201613623   T   T   T
  0.1252906844117762  0.7529100714024879  0.2722409169482561   T   T   T
  0.6260448222334225  0.7730804017805891  0.2699376232964206   T   T   T
  0.3731313047129021  0.2448974421164269  0.2734114495170806   T   T   T
  0.8799785998036140  0.2502345775339146  0.2723827177732448   T   T   T
  0.3713598945775453  0.7587690778187213  0.2731651613586501   T   T   T
  0.8799543748067802  0.7561339655998910  0.2731896073013761   T   T   T
  0.0003233578186379  0.0020330277406570  0.0006954758165695   T   T   T
  0.5004325580981412  0.0019118888880164  0.0003169235480645   T   T   T
  0.0002555324971494  0.5021397280595878  0.0005523931911620   T   T   T
  0.4999947790569818  0.5022864798473159  0.9994699989781767   T   T   T
  0.2508490250887151  0.0015996675592040  0.0008745546488430   T   T   T
  0.7504097734769362  0.0017750393958436  0.0003264449827372   T   T   T
  0.2506882456497742  0.5019177587132255  0.0006003345813439   T   T   T
  0.7506909358903260  0.5023039385251372  0.9995534422773759   T   T   T
  0.1255609037409570  0.2517286053783208  0.0006363649181459   T   T   T
  0.6252798222626358  0.2515320411986170  0.9991858638625181   T   T   T
  0.1256178709220527  0.7517513988844543  0.0006332005079566   T   T   T
  0.6254548985184939  0.7525406876064493  0.9993416924001954   T   T   T
  0.3754391467572510  0.2519199654375673  0.0004103560723796   T   T   T
  0.8752759854243374  0.2521634150043382  0.0004701875898477   T   T   T
  0.3755390768134716  0.7518602688055586  0.0007303441699635   T   T   T
  0.8752646795309948  0.7520135363799997  0.0007233948622237   T   T   T
  0.1260025771245374  0.0009793868070351  0.0922247670000036   T   T   T
  0.6255820196589332  0.0006911807445546  0.0920376552688402   T   T   T
  0.1256875305945905  0.5019338310860257  0.0919770858803906   T   T   T
  0.6252998731459598  0.5034928287098348  0.0891411473179764   T   T   T
  0.3763786935539690  0.0016767875230966  0.0928990060606258   T   T   T
  0.8744653002445236  0.0020033371258899  0.0925791482646955   T   T   T
  0.3757887401991040  0.5021577581950358  0.0925337394709115   T   T   T
  0.8744964999273857  0.5025067183245348  0.0929127088121340   T   T   T
  0.9993313233711322  0.2529420579842118  0.0924023449934225   T   T   T
  0.5001588478581714  0.2530413777596841  0.0919433023320642   T   T   T
  0.9998047823754291  0.7518049394447553  0.0923849348410635   T   T   T
  0.5008265935138912  0.7516311105917566  0.0923519774231861   T   T   T
  0.2515764828450556  0.2519670288808654  0.0925745804555641   T   T   T
  0.7499940129228228  0.2529587018829432  0.0917358864853741   T   T   T
  0.2513461635251963  0.7512708127794332  0.0929113563433409   T   T   T
  0.7499402198822108  0.7510650575397965  0.0926670816702442   T   T   T
  0.9991764900265802  0.0019288301440094  0.1806313723325622   T   T   T
  0.5013771630261604  0.0015742150545830  0.1831674595205863   T   T   T
  0.0002593118109975  0.5047682840462550  0.1819650410023435   T   T   T
  0.5017317681561049  0.5047561307967343  0.1833607279830577   T   T   T
  0.2533330564905460  0.0014585529790325  0.1824098905651107   T   T   T
  0.7504237073937906  0.0022202485292968  0.1831571082654649   T   T   T
  0.2507708621891038  0.5009619111487289  0.1830952695352455   T   T   T
  0.7475840605311910  0.5012801176656929  0.1844376164942860   T   T   T
  0.1258038801964555  0.2520735849776563  0.1802464862107505   T   T   T
  0.6252661878011611  0.2576496144874259  0.1781975209283325   T   T   T
  0.1255774629501902  0.7487575186824287  0.1819283130001824   T   T   T
  0.6256330118819999  0.7430070487735305  0.1830419552098768   T   T   T
  0.3767016476901083  0.2539258918414097  0.1842510659015167   T   T   T
  0.8712063003845473  0.2532455567093882  0.1837210278422098   T   T   T
  0.3771137453460403  0.7498343703721464  0.1842003563589153   T   T   T
  0.8737900712939762  0.7519605169012787  0.1840729497162943   T   T   T
  0.1289180447000053  0.9946157655999217  0.2685081334597061   T   T   T
  0.6299240483839291  0.9987056701909010  0.2678101377604403   T   T   T
  0.1244227516312651  0.5012650103283373  0.2758045559871436   T   T   T
  0.3789656282344310  0.0008751738357054  0.2762373945251529   T   T   T
  0.8708636792421819  0.0036826165004864  0.2769955856227554   T   T   T
  0.3704609095106936  0.5038587532718012  0.2764267463967751   T   T   T
  0.8786512861615522  0.5030417102710323  0.2745317768065292   T   T   T
  0.5050331102101038  0.2728440459527731  0.2729390068485985   T   T   T
  0.9976590318558912  0.2576810261879401  0.2697234012779715   T   T   T
  0.0007894717041644  0.7548306844193866  0.2760521421507879   T   T   T
  0.5076713027087218  0.7387175067609987  0.2766367826236502   T   T   T
  0.2505273908952369  0.2496737319130207  0.2758826223878662   T   T   T
  0.7383605510913608  0.2665303477725183  0.2809368214424502   T   T   T
  0.2506349554966810  0.7510131162360977  0.2738724557057011   T   T   T
  0.7440241350356426  0.7363832345005724  0.2765465099176432   T   T   T
  0.0688589411919051  0.1170700266193638  0.3589560516411446   T   T   T
  0.5583713396482325  0.0850860463445981  0.3603518506475987   T   T   T
  0.3775754281175085  0.4992231799854179  0.3610079488054019   T   T   T
 
  0.00000000E+00  0.00000000E+00  0.00000000E+00
  0.00000000E+00  0.00000000E+00  0.00000000E+00
  0.00000000E+00  0.00000000E+00  0.00000000E+00
  0.00000000E+00  0.00000000E+00  0.00000000E+00
  0.00000000E+00  0.00000000E+00  0.00000000E+00
  0.00000000E+00  0.00000000E+00  0.00000000E+00
  0.00000000E+00  0.00000000E+00  0.00000000E+00
  0.00000000E+00  0.00000000E+00  0.00000000E+00
  0.00000000E+00  0.00000000E+00  0.00000000E+00
  0.00000000E+00  0.00000000E+00  0.00000000E+00
  0.00000000E+00  0.00000000E+00  0.00000000E+00
  0.00000000E+00  0.00000000E+00  0.00000000E+00
  0.00000000E+00  0.00000000E+00  0.00000000E+00
  0.00000000E+00  0.00000000E+00  0.00000000E+00
  0.00000000E+00  0.00000000E+00  0.00000000E+00
  0.00000000E+00  0.00000000E+00  0.00000000E+00
  0.00000000E+00  0.00000000E+00  0.00000000E+00
  0.00000000E+00  0.00000000E+00  0.00000000E+00
  0.00000000E+00  0.00000000E+00  0.00000000E+00
  0.00000000E+00  0.00000000E+00  0.00000000E+00
  0.00000000E+00  0.00000000E+00  0.00000000E+00
  0.00000000E+00  0.00000000E+00  0.00000000E+00
  0.00000000E+00  0.00000000E+00  0.00000000E+00
  0.00000000E+00  0.00000000E+00  0.00000000E+00
  0.00000000E+00  0.00000000E+00  0.00000000E+00
  0.00000000E+00  0.00000000E+00  0.00000000E+00
  0.00000000E+00  0.00000000E+00  0.00000000E+00
  0.00000000E+00  0.00000000E+00  0.00000000E+00
  0.00000000E+00  0.00000000E+00  0.00000000E+00
  0.00000000E+00  0.00000000E+00  0.00000000E+00
  0.00000000E+00  0.00000000E+00  0.00000000E+00
  0.00000000E+00  0.00000000E+00  0.00000000E+00
  0.00000000E+00  0.00000000E+00  0.00000000E+00
  0.00000000E+00  0.00000000E+00  0.00000000E+00
  0.00000000E+00  0.00000000E+00  0.00000000E+00
  0.00000000E+00  0.00000000E+00  0.00000000E+00
  0.00000000E+00  0.00000000E+00  0.00000000E+00
  0.00000000E+00  0.00000000E+00  0.00000000E+00
  0.00000000E+00  0.00000000E+00  0.00000000E+00
  0.00000000E+00  0.00000000E+00  0.00000000E+00
  0.00000000E+00  0.00000000E+00  0.00000000E+00
  0.00000000E+00  0.00000000E+00  0.00000000E+00
  0.00000000E+00  0.00000000E+00  0.00000000E+00
  0.00000000E+00  0.00000000E+00  0.00000000E+00
  0.00000000E+00  0.00000000E+00  0.00000000E+00
  0.00000000E+00  0.00000000E+00  0.00000000E+00
  0.00000000E+00  0.00000000E+00  0.00000000E+00
  0.00000000E+00  0.00000000E+00  0.00000000E+00
  0.00000000E+00  0.00000000E+00  0.00000000E+00
  0.00000000E+00  0.00000000E+00  0.00000000E+00
  0.00000000E+00  0.00000000E+00  0.00000000E+00
  0.00000000E+00  0.00000000E+00  0.00000000E+00
  0.00000000E+00  0.00000000E+00  0.00000000E+00
  0.00000000E+00  0.00000000E+00  0.00000000E+00
  0.00000000E+00  0.00000000E+00  0.00000000E+00
  0.00000000E+00  0.00000000E+00  0.00000000E+00
  0.00000000E+00  0.00000000E+00  0.00000000E+00
  0.00000000E+00  0.00000000E+00  0.00000000E+00
  0.00000000E+00  0.00000000E+00  0.00000000E+00
  0.00000000E+00  0.00000000E+00  0.00000000E+00
  0.00000000E+00  0.00000000E+00  0.00000000E+00
  0.00000000E+00  0.00000000E+00  0.00000000E+00
  0.00000000E+00  0.00000000E+00  0.00000000E+00
  0.00000000E+00  0.00000000E+00  0.00000000E+00
  0.00000000E+00  0.00000000E+00  0.00000000E+00
  0.00000000E+00  0.00000000E+00  0.00000000E+00
  0.00000000E+00  0.00000000E+00  0.00000000E+00
  0.00000000E+00  0.00000000E+00  0.00000000E+00
  0.00000000E+00  0.00000000E+00  0.00000000E+00
  0.00000000E+00  0.00000000E+00  0.00000000E+00
  0.00000000E+00  0.00000000E+00  0.00000000E+00
  0.00000000E+00  0.00000000E+00  0.00000000E+00
  0.00000000E+00  0.00000000E+00  0.00000000E+00
  0.00000000E+00  0.00000000E+00  0.00000000E+00
  0.00000000E+00  0.00000000E+00  0.00000000E+00
  0.00000000E+00  0.00000000E+00  0.00000000E+00
  0.00000000E+00  0.00000000E+00  0.00000000E+00
  0.00000000E+00  0.00000000E+00  0.00000000E+00
  0.00000000E+00  0.00000000E+00  0.00000000E+00
  0.00000000E+00  0.00000000E+00  0.00000000E+00
  0.00000000E+00  0.00000000E+00  0.00000000E+00
  0.00000000E+00  0.00000000E+00  0.00000000E+00
  0.00000000E+00  0.00000000E+00  0.00000000E+00
  0.00000000E+00  0.00000000E+00  0.00000000E+00
  0.00000000E+00  0.00000000E+00  0.00000000E+00
  0.00000000E+00  0.00000000E+00  0.00000000E+00
  0.00000000E+00  0.00000000E+00  0.00000000E+00
  0.00000000E+00  0.00000000E+00  0.00000000E+00
  0.00000000E+00  0.00000000E+00  0.00000000E+00
  0.00000000E+00  0.00000000E+00  0.00000000E+00
  0.00000000E+00  0.00000000E+00  0.00000000E+00
  0.00000000E+00  0.00000000E+00  0.00000000E+00
  0.00000000E+00  0.00000000E+00  0.00000000E+00
  0.00000000E+00  0.00000000E+00  0.00000000E+00
  0.00000000E+00  0.00000000E+00  0.00000000E+00
  0.00000000E+00  0.00000000E+00  0.00000000E+00
  0.00000000E+00  0.00000000E+00  0.00000000E+00
  0.00000000E+00  0.00000000E+00  0.00000000E+00
  0.00000000E+00  0.00000000E+00  0.00000000E+00
  0.00000000E+00  0.00000000E+00  0.00000000E+00
  0.00000000E+00  0.00000000E+00  0.00000000E+00
  0.00000000E+00  0.00000000E+00  0.00000000E+00
  0.00000000E+00  0.00000000E+00  0.00000000E+00
  0.00000000E+00  0.00000000E+00  0.00000000E+00
  0.00000000E+00  0.00000000E+00  0.00000000E+00
  0.00000000E+00  0.00000000E+00  0.00000000E+00
  0.00000000E+00  0.00000000E+00  0.00000000E+00
  0.00000000E+00  0.00000000E+00  0.00000000E+00
  0.00000000E+00  0.00000000E+00  0.00000000E+00
  0.00000000E+00  0.00000000E+00  0.00000000E+00
  0.00000000E+00  0.00000000E+00  0.00000000E+00
  0.00000000E+00  0.00000000E+00  0.00000000E+00
  0.00000000E+00  0.00000000E+00  0.00000000E+00
  0.00000000E+00  0.00000000E+00  0.00000000E+00
  0.00000000E+00  0.00000000E+00  0.00000000E+00
  0.00000000E+00  0.00000000E+00  0.00000000E+00
  0.00000000E+00  0.00000000E+00  0.00000000E+00
  0.00000000E+00  0.00000000E+00  0.00000000E+00
  0.00000000E+00  0.00000000E+00  0.00000000E+00
  0.00000000E+00  0.00000000E+00  0.00000000E+00
  0.00000000E+00  0.00000000E+00  0.00000000E+00
  0.00000000E+00  0.00000000E+00  0.00000000E+00
  0.00000000E+00  0.00000000E+00  0.00000000E+00
  0.00000000E+00  0.00000000E+00  0.00000000E+00
  0.00000000E+00  0.00000000E+00  0.00000000E+00
  0.00000000E+00  0.00000000E+00  0.00000000E+00
  0.00000000E+00  0.00000000E+00  0.00000000E+00
  0.00000000E+00  0.00000000E+00  0.00000000E+00
  0.00000000E+00  0.00000000E+00  0.00000000E+00
  0.00000000E+00  0.00000000E+00  0.00000000E+00
  0.00000000E+00  0.00000000E+00  0.00000000E+00
  0.00000000E+00  0.00000000E+00  0.00000000E+00
