H Mg O Rh                               
   1.00000000000000     
    16.8282433949600012    0.0000000000000000    0.0000000000000000
     0.0000000000000000    8.4141216974800006    0.0000000000000000
     0.0000000000000000    0.0000000000000000   23.4141216974799988
   H    Mg   O    Rh
     2    64    65     1
Selective dynamics
Direct
  0.0418454589227011  0.1736164020314113  0.3897948850317383   T   T   T
  0.5285891696335008  0.1362892957266888  0.3909900931639870   T   T   T
  0.1255195963484863  0.0014536006463324  0.0030849812624503   T   T   T
  0.6254071156627877  0.0016292733039308  0.0015502073468083   T   T   T
  0.1252839809578290  0.5017937198989653  0.0027535593841973   T   T   T
  0.6253312321686969  0.5023216330291717  0.0005550102313830   T   T   T
  0.3749907708989447  0.0019811916741307  0.0028165808657437   T   T   T
  0.8757948416937134  0.0020156018999764  0.0028944518825674   T   T   T
  0.3745734425071854  0.5018142919081713  0.0022762459017180   T   T   T
  0.8761181180142200  0.5018873688703130  0.0024856068585716   T   T   T
  0.0004315329301524  0.2518303284811274  0.0030723298646111   T   T   T
  0.4995601034204640  0.2515977734629098  0.0019880606467836   T   T   T
  0.0006338429796023  0.7519896328612040  0.0030375812709823   T   T   T
  0.4998248094185558  0.7525146147015621  0.0020680626905493   T   T   T
  0.2502766790726482  0.2513787924458879  0.0030180850622187   T   T   T
  0.7510324442666053  0.2514473087017965  0.0019507267607558   T   T   T
  0.2501182379938150  0.7519979293782429  0.0031068468976999   T   T   T
  0.7509911002783400  0.7523293160124017  0.0021033722567835   T   T   T
  0.0004866643766615  0.0020084289550568  0.0925272542449598   T   T   T
  0.5002495641999379  0.0025688940156236  0.0921502422856983   T   T   T
  0.0010518269329528  0.5023164043398590  0.0925837008683892   T   T   T
  0.4993455321186687  0.5020191618388821  0.0904192539884603   T   T   T
  0.2505479435188803  0.0021606779549596  0.0929873510353338   T   T   T
  0.7509560065533805  0.0023961705052453  0.0921807315147436   T   T   T
  0.2494735546636813  0.5010531117091572  0.0922930616745792   T   T   T
  0.7513091970034244  0.5013341899556742  0.0903330130280485   T   T   T
  0.1255005574376834  0.2514194978529557  0.0923734417710169   T   T   T
  0.6251383427179485  0.2506546082662056  0.0897086449424118   T   T   T
  0.1252450419212335  0.7513823354483065  0.0928454529590652   T   T   T
  0.6253049122566737  0.7532522435212333  0.0904425063412404   T   T   T
  0.3752903502888640  0.2510158780887173  0.0926426331949495   T   T   T
  0.8751716885393200  0.2512779679536634  0.0927668926408541   T   T   T
  0.3753520049232349  0.7528224641638714  0.0922841985358733   T   T   T
  0.8759001693481298  0.7528309344225204  0.0925335838456586   T   T   T
  0.1240289130482293  0.0045974177247894  0.1833211655401222   T   T   T
  0.6242867966855429  0.0105475709346833  0.1817789507500493   T   T   T
  0.1247816828652893  0.4971198246752034  0.1835543103136013   T   T   T
  0.6247013469317528  0.4973790108931264  0.1738747153225859   T   T   T
  0.3776599023681793  0.0028221535186374  0.1836622089171626   T   T   T
  0.8774945872805997  0.0032379794825836  0.1839798197378839   T   T   T
  0.3733566824705234  0.5011605821431731  0.1807777632526443   T   T   T
  0.8780864944958051  0.5015174131359936  0.1821354540267566   T   T   T
  0.0032110607512467  0.2482136356951138  0.1837388815248274   T   T   T
  0.5030880708711805  0.2512054979274013  0.1843008727093426   T   T   T
  0.0018028172904696  0.7572179240137414  0.1840928040621617   T   T   T
  0.5009218397729842  0.7544726814046526  0.1830613185792497   T   T   T
  0.2479432448423077  0.2504857391239521  0.1843709868111195   T   T   T
  0.7464888164753865  0.2529528393181572  0.1832395779904235   T   T   T
  0.2496785908190691  0.7520172254730944  0.1830977721149734   T   T   T
  0.7500977079863842  0.7505617983424914  0.1823920552365789   T   T   T
  0.0101209624125693  0.0106800271038287  0.2903023963130398   T   T   T
  0.5018584941037276  0.0019998021558309  0.2874585003196068   T   T   T
  0.0027923123456864  0.5015002758620898  0.2719044261177878   T   T   T
  0.4883943176175217  0.5033652304080514  0.2713737612528619   T   T   T
  0.2482903617732857  0.0012582113085894  0.2720148146958953   T   T   T
  0.7508842459446171  0.0043103793964163  0.2717661964599111   T   T   T
  0.2441921417275000  0.4995749744212253  0.2731408471802488   T   T   T
  0.7638165287569161  0.4997444993235898  0.2716929652077785   T   T   T
  0.1213935825468022  0.2398961506528905  0.2898163016475865   T   T   T
  0.6184855155015091  0.2101764868011742  0.2989581768499662   T   T   T
  0.1255230301137716  0.7528780412947133  0.2721002832542059   T   T   T
  0.6260630202256948  0.7729462686091234  0.2697304492245169   T   T   T
  0.3734217268252276  0.2447587648071963  0.2739170602121747   T   T   T
  0.8803849779724756  0.2497011689889121  0.2723260530742371   T   T   T
  0.3712147429828735  0.7589747875145556  0.2738484974807632   T   T   T
  0.8804201569864977  0.7562371282654561  0.2732070212662445   T   T   T
  0.0002137342906046  0.0018802695373162  0.0007069041747138   T   T   T
  0.5004299237874038  0.0019220268519922  0.0003087456881845   T   T   T
  0.0001616562537024  0.5019675289873305  0.0005379519929142   T   T   T
  0.5000036491802289  0.5022369866972154  0.9994767852701690   T   T   T
  0.2507393782296791  0.0015688080193767  0.0008110054313225   T   T   T
  0.7503528762570876  0.0016590965763060  0.0003262686584047   T   T   T
  0.2505143601341697  0.5018546424552137  0.0004886935822143   T   T   T
  0.7506574828641699  0.5021657340018144  0.9995679031971954   T   T   T
  0.1254154149358222  0.2515332511707996  0.0005906322033906   T   T   T
  0.6252680109301580  0.2514274095572031  0.9992281438473761   T   T   T
  0.1254768763718999  0.7517063508252216  0.0005643510640358   T   T   T
  0.6254259380793245  0.7525128636940064  0.9993226471276561   T   T   T
  0.3753964411248745  0.2517624444916491  0.0003992689079686   T   T   T
  0.8752182219813079  0.2519779500796874  0.0004907438943590   T   T   T
  0.3754731886591435  0.7520125210929047  0.0006595165623536   T   T   T
  0.8752023428910521  0.7518888916402190  0.0007192259898494   T   T   T
  0.1258831759560090  0.0008759420676372  0.0922023564684057   T   T   T
  0.6256584590153309  0.0006250727803365  0.0920542768006405   T   T   T
  0.1255259044133533  0.5018448119515961  0.0919289539976742   T   T   T
  0.6253650279489201  0.5034023195309457  0.0891500272027114   T   T   T
  0.3763310062038328  0.0016747412484211  0.0928161474654595   T   T   T
  0.8744497468573190  0.0018017304210535  0.0926746139012095   T   T   T
  0.3757579985712672  0.5021784218359874  0.0925065743119895   T   T   T
  0.8745447799375065  0.5023277734363740  0.0929498679918101   T   T   T
  0.9992834345634182  0.2527181559851020  0.0924392498923611   T   T   T
  0.5001903555634772  0.2530911161844018  0.0919653257687917   T   T   T
  0.9997409378144370  0.7516766422071748  0.0924077786068919   T   T   T
  0.5008343189933285  0.7514956681502964  0.0923467916322428   T   T   T
  0.2514778132210138  0.2519689197000252  0.0925062451127472   T   T   T
  0.7500796729708402  0.2527539335052856  0.0918027313989110   T   T   T
  0.2512568251511467  0.7512298701578823  0.0928542594104153   T   T   T
  0.7499887293605271  0.7509386379529889  0.0927115937288020   T   T   T
  0.9992853239845603  0.0017543075170500  0.1807690696549259   T   T   T
  0.5014202373306202  0.0014234119055541  0.1829673048599934   T   T   T
  0.0002970667087379  0.5046132294396376  0.1819960875623163   T   T   T
  0.5018945425740998  0.5047055576648001  0.1835657403683019   T   T   T
  0.2533518890610971  0.0016790968445808  0.1823170330348939   T   T   T
  0.7504273485753719  0.0019521043978739  0.1832804152764824   T   T   T
  0.2506267574702875  0.5008800761668563  0.1830170992246505   T   T   T
  0.7477785819027642  0.5011342904815096  0.1844247474468652   T   T   T
  0.1259252606666875  0.2519438749111414  0.1802661614983943   T   T   T
  0.6253954661332208  0.2575243385243648  0.1783148156336443   T   T   T
  0.1255887676428942  0.7488184708013611  0.1819067590192746   T   T   T
  0.6256911234053485  0.7428776920181170  0.1830942946511848   T   T   T
  0.3766452177117714  0.2536743955875079  0.1842253776108803   T   T   T
  0.8713553354539511  0.2529830687220060  0.1838063597905615   T   T   T
  0.3770965811928903  0.7501738807665657  0.1842139127595510   T   T   T
  0.8739069240249316  0.7517900382654034  0.1841829120267920   T   T   T
  0.1290582641841870  0.9948695236183648  0.2687347992553235   T   T   T
  0.6300226033987102  0.9984640387567740  0.2679668333563266   T   T   T
  0.1243178800574244  0.5012881915784021  0.2758910310767923   T   T   T
  0.3791258975658405  0.0010994002549358  0.2765043289090522   T   T   T
  0.8707820487858814  0.0034418318399949  0.2771301934072851   T   T   T
  0.3703632422584920  0.5034429462648727  0.2736325580043571   T   T   T
  0.8789925008998123  0.5028807583278287  0.2746258714884945   T   T   T
  0.5056172924443260  0.2717280232204184  0.2725151501774193   T   T   T
  0.9979425848171195  0.2571522730376833  0.2698450870874058   T   T   T
  0.0010473134335077  0.7551284390017157  0.2762350617097686   T   T   T
  0.5078672325292143  0.7391633842035059  0.2766522790177978   T   T   T
  0.2503455425565846  0.2494793660325665  0.2759475520474337   T   T   T
  0.7383136800403239  0.2667840952721573  0.2808994018577234   T   T   T
  0.2503672634421418  0.7518363580284035  0.2734566592785981   T   T   T
  0.7438506045962610  0.7356860295123687  0.2767588566735253   T   T   T
  0.0693005817327115  0.1176837464478356  0.3594289197232551   T   T   T
  0.5590352867480530  0.0868259629977247  0.3606266662172173   T   T   T
  0.3724940765302728  0.5020702947947140  0.3621374599852391   T   T   T
 
  0.00000000E+00  0.00000000E+00  0.00000000E+00
  0.00000000E+00  0.00000000E+00  0.00000000E+00
  0.00000000E+00  0.00000000E+00  0.00000000E+00
  0.00000000E+00  0.00000000E+00  0.00000000E+00
  0.00000000E+00  0.00000000E+00  0.00000000E+00
  0.00000000E+00  0.00000000E+00  0.00000000E+00
  0.00000000E+00  0.00000000E+00  0.00000000E+00
  0.00000000E+00  0.00000000E+00  0.00000000E+00
  0.00000000E+00  0.00000000E+00  0.00000000E+00
  0.00000000E+00  0.00000000E+00  0.00000000E+00
  0.00000000E+00  0.00000000E+00  0.00000000E+00
  0.00000000E+00  0.00000000E+00  0.00000000E+00
  0.00000000E+00  0.00000000E+00  0.00000000E+00
  0.00000000E+00  0.00000000E+00  0.00000000E+00
  0.00000000E+00  0.00000000E+00  0.00000000E+00
  0.00000000E+00  0.00000000E+00  0.00000000E+00
  0.00000000E+00  0.00000000E+00  0.00000000E+00
  0.00000000E+00  0.00000000E+00  0.00000000E+00
  0.00000000E+00  0.00000000E+00  0.00000000E+00
  0.00000000E+00  0.00000000E+00  0.00000000E+00
  0.00000000E+00  0.00000000E+00  0.00000000E+00
  0.00000000E+00  0.00000000E+00  0.00000000E+00
  0.00000000E+00  0.00000000E+00  0.00000000E+00
  0.00000000E+00  0.00000000E+00  0.00000000E+00
  0.00000000E+00  0.00000000E+00  0.00000000E+00
  0.00000000E+00  0.00000000E+00  0.00000000E+00
  0.00000000E+00  0.00000000E+00  0.00000000E+00
  0.00000000E+00  0.00000000E+00  0.00000000E+00
  0.00000000E+00  0.00000000E+00  0.00000000E+00
  0.00000000E+00  0.00000000E+00  0.00000000E+00
  0.00000000E+00  0.00000000E+00  0.00000000E+00
  0.00000000E+00  0.00000000E+00  0.00000000E+00
  0.00000000E+00  0.00000000E+00  0.00000000E+00
  0.00000000E+00  0.00000000E+00  0.00000000E+00
  0.00000000E+00  0.00000000E+00  0.00000000E+00
  0.00000000E+00  0.00000000E+00  0.00000000E+00
  0.00000000E+00  0.00000000E+00  0.00000000E+00
  0.00000000E+00  0.00000000E+00  0.00000000E+00
  0.00000000E+00  0.00000000E+00  0.00000000E+00
  0.00000000E+00  0.00000000E+00  0.00000000E+00
  0.00000000E+00  0.00000000E+00  0.00000000E+00
  0.00000000E+00  0.00000000E+00  0.00000000E+00
  0.00000000E+00  0.00000000E+00  0.00000000E+00
  0.00000000E+00  0.00000000E+00  0.00000000E+00
  0.00000000E+00  0.00000000E+00  0.00000000E+00
  0.00000000E+00  0.00000000E+00  0.00000000E+00
  0.00000000E+00  0.00000000E+00  0.00000000E+00
  0.00000000E+00  0.00000000E+00  0.00000000E+00
  0.00000000E+00  0.00000000E+00  0.00000000E+00
  0.00000000E+00  0.00000000E+00  0.00000000E+00
  0.00000000E+00  0.00000000E+00  0.00000000E+00
  0.00000000E+00  0.00000000E+00  0.00000000E+00
  0.00000000E+00  0.00000000E+00  0.00000000E+00
  0.00000000E+00  0.00000000E+00  0.00000000E+00
  0.00000000E+00  0.00000000E+00  0.00000000E+00
  0.00000000E+00  0.00000000E+00  0.00000000E+00
  0.00000000E+00  0.00000000E+00  0.00000000E+00
  0.00000000E+00  0.00000000E+00  0.00000000E+00
  0.00000000E+00  0.00000000E+00  0.00000000E+00
  0.00000000E+00  0.00000000E+00  0.00000000E+00
  0.00000000E+00  0.00000000E+00  0.00000000E+00
  0.00000000E+00  0.00000000E+00  0.00000000E+00
  0.00000000E+00  0.00000000E+00  0.00000000E+00
  0.00000000E+00  0.00000000E+00  0.00000000E+00
  0.00000000E+00  0.00000000E+00  0.00000000E+00
  0.00000000E+00  0.00000000E+00  0.00000000E+00
  0.00000000E+00  0.00000000E+00  0.00000000E+00
  0.00000000E+00  0.00000000E+00  0.00000000E+00
  0.00000000E+00  0.00000000E+00  0.00000000E+00
  0.00000000E+00  0.00000000E+00  0.00000000E+00
  0.00000000E+00  0.00000000E+00  0.00000000E+00
  0.00000000E+00  0.00000000E+00  0.00000000E+00
  0.00000000E+00  0.00000000E+00  0.00000000E+00
  0.00000000E+00  0.00000000E+00  0.00000000E+00
  0.00000000E+00  0.00000000E+00  0.00000000E+00
  0.00000000E+00  0.00000000E+00  0.00000000E+00
  0.00000000E+00  0.00000000E+00  0.00000000E+00
  0.00000000E+00  0.00000000E+00  0.00000000E+00
  0.00000000E+00  0.00000000E+00  0.00000000E+00
  0.00000000E+00  0.00000000E+00  0.00000000E+00
  0.00000000E+00  0.00000000E+00  0.00000000E+00
  0.00000000E+00  0.00000000E+00  0.00000000E+00
  0.00000000E+00  0.00000000E+00  0.00000000E+00
  0.00000000E+00  0.00000000E+00  0.00000000E+00
  0.00000000E+00  0.00000000E+00  0.00000000E+00
  0.00000000E+00  0.00000000E+00  0.00000000E+00
  0.00000000E+00  0.00000000E+00  0.00000000E+00
  0.00000000E+00  0.00000000E+00  0.00000000E+00
  0.00000000E+00  0.00000000E+00  0.00000000E+00
  0.00000000E+00  0.00000000E+00  0.00000000E+00
  0.00000000E+00  0.00000000E+00  0.00000000E+00
  0.00000000E+00  0.00000000E+00  0.00000000E+00
  0.00000000E+00  0.00000000E+00  0.00000000E+00
  0.00000000E+00  0.00000000E+00  0.00000000E+00
  0.00000000E+00  0.00000000E+00  0.00000000E+00
  0.00000000E+00  0.00000000E+00  0.00000000E+00
  0.00000000E+00  0.00000000E+00  0.00000000E+00
  0.00000000E+00  0.00000000E+00  0.00000000E+00
  0.00000000E+00  0.00000000E+00  0.00000000E+00
  0.00000000E+00  0.00000000E+00  0.00000000E+00
  0.00000000E+00  0.00000000E+00  0.00000000E+00
  0.00000000E+00  0.00000000E+00  0.00000000E+00
  0.00000000E+00  0.00000000E+00  0.00000000E+00
  0.00000000E+00  0.00000000E+00  0.00000000E+00
  0.00000000E+00  0.00000000E+00  0.00000000E+00
  0.00000000E+00  0.00000000E+00  0.00000000E+00
  0.00000000E+00  0.00000000E+00  0.00000000E+00
  0.00000000E+00  0.00000000E+00  0.00000000E+00
  0.00000000E+00  0.00000000E+00  0.00000000E+00
  0.00000000E+00  0.00000000E+00  0.00000000E+00
  0.00000000E+00  0.00000000E+00  0.00000000E+00
  0.00000000E+00  0.00000000E+00  0.00000000E+00
  0.00000000E+00  0.00000000E+00  0.00000000E+00
  0.00000000E+00  0.00000000E+00  0.00000000E+00
  0.00000000E+00  0.00000000E+00  0.00000000E+00
  0.00000000E+00  0.00000000E+00  0.00000000E+00
  0.00000000E+00  0.00000000E+00  0.00000000E+00
  0.00000000E+00  0.00000000E+00  0.00000000E+00
  0.00000000E+00  0.00000000E+00  0.00000000E+00
  0.00000000E+00  0.00000000E+00  0.00000000E+00
  0.00000000E+00  0.00000000E+00  0.00000000E+00
  0.00000000E+00  0.00000000E+00  0.00000000E+00
  0.00000000E+00  0.00000000E+00  0.00000000E+00
  0.00000000E+00  0.00000000E+00  0.00000000E+00
  0.00000000E+00  0.00000000E+00  0.00000000E+00
  0.00000000E+00  0.00000000E+00  0.00000000E+00
  0.00000000E+00  0.00000000E+00  0.00000000E+00
  0.00000000E+00  0.00000000E+00  0.00000000E+00
  0.00000000E+00  0.00000000E+00  0.00000000E+00
  0.00000000E+00  0.00000000E+00  0.00000000E+00
  0.00000000E+00  0.00000000E+00  0.00000000E+00
  0.00000000E+00  0.00000000E+00  0.00000000E+00
