H Mg O Ag                               
   1.00000000000000     
    16.8282433949600012    0.0000000000000000    0.0000000000000000
     0.0000000000000000    8.4141216974800006    0.0000000000000000
     0.0000000000000000    0.0000000000000000   23.4141216974799988
   H    Mg   O    Ag
     2    64    65     1
Selective dynamics
Direct
  0.0421166975704257  0.1731510996229564  0.3899157138877055   T   T   T
  0.5285698443522131  0.1349947260925750  0.3912957546797753   T   T   T
  0.1254908865435181  0.0014714771014284  0.0030677387589142   T   T   T
  0.6254807233688823  0.0016333073818613  0.0015284919842724   T   T   T
  0.1252035124566534  0.5018247177987527  0.0027114559807291   T   T   T
  0.6254218652013588  0.5023240049170935  0.0004935728539328   T   T   T
  0.3749917222595179  0.0019770822012524  0.0027027070440140   T   T   T
  0.8758204293002800  0.0020469499481632  0.0029222776117511   T   T   T
  0.3746161484666790  0.5018185877823468  0.0022339410657916   T   T   T
  0.8761158488925949  0.5019230649327794  0.0024711093691115   T   T   T
  0.0004306129933419  0.2517980631747444  0.0030847679802475   T   T   T
  0.4996594571930544  0.2515624625531453  0.0019117727146650   T   T   T
  0.0006364468181764  0.7520894506985389  0.0030578837852234   T   T   T
  0.4999319638840251  0.7525604117786213  0.0019872814944784   T   T   T
  0.2502011963096178  0.2512899328656560  0.0029396001621176   T   T   T
  0.7510718966470624  0.2514182116594920  0.0019669167782258   T   T   T
  0.2500528223886130  0.7520912822460620  0.0030313589282650   T   T   T
  0.7510300866808726  0.7524067239783478  0.0021185891489084   T   T   T
  0.0004799788576020  0.0020567906205886  0.0925235760337740   T   T   T
  0.5002912376146395  0.0026611917081751  0.0918776450782206   T   T   T
  0.0009154101877636  0.5023581624239452  0.0925275314690645   T   T   T
  0.4994276225680306  0.5019683044458614  0.0903515856116604   T   T   T
  0.2505208450264450  0.0020935602435351  0.0927784719934122   T   T   T
  0.7509892266578757  0.0024272169554753  0.0921951095384908   T   T   T
  0.2493315109655340  0.5010720952509328  0.0920881905340896   T   T   T
  0.7514204773988180  0.5013585352709271  0.0902653813566669   T   T   T
  0.1253449125290454  0.2514599471482373  0.0922750655081773   T   T   T
  0.6252600451683293  0.2506224598115623  0.0896146411018654   T   T   T
  0.1251115403112498  0.7513777059121731  0.0927545513307848   T   T   T
  0.6254781407989277  0.7532908008689617  0.0903177141442473   T   T   T
  0.3753152602403078  0.2511030143969639  0.0923538935988716   T   T   T
  0.8751741464052126  0.2512958590060574  0.0928041095931463   T   T   T
  0.3753430329879676  0.7527737363391498  0.0920043382085225   T   T   T
  0.8758995610701449  0.7528979931403942  0.0925708291087895   T   T   T
  0.1238642052648851  0.0045240035420257  0.1834157841683746   T   T   T
  0.6245635739482115  0.0105033918231851  0.1817716745830410   T   T   T
  0.1246870173612559  0.4970961317554074  0.1834482751162138   T   T   T
  0.6249856212406011  0.4973684625951786  0.1736944831259812   T   T   T
  0.3776036610516930  0.0029079554377248  0.1832746433800073   T   T   T
  0.8774859339174836  0.0033079116982155  0.1839704352639223   T   T   T
  0.3728658107835096  0.5011715218909309  0.1804221458806397   T   T   T
  0.8780373892878672  0.5015432204682352  0.1821755179580652   T   T   T
  0.0031025345548656  0.2481828905713733  0.1837018677380030   T   T   T
  0.5033196509655080  0.2510201364075915  0.1839288269218834   T   T   T
  0.0017057136507527  0.7573177128081666  0.1841042497139531   T   T   T
  0.5012517504187159  0.7548347282398522  0.1823531945876054   T   T   T
  0.2474891900898707  0.2499333104203449  0.1838933966413418   T   T   T
  0.7465758887125584  0.2529070201306990  0.1832718026826774   T   T   T
  0.2492098059912171  0.7524182239789021  0.1826614433845752   T   T   T
  0.7501855729419190  0.7506984587146051  0.1824152080082636   T   T   T
  0.0101230477197229  0.0106766726077875  0.2903324170071676   T   T   T
  0.5012136700787784  0.0018543151123212  0.2876464557286764   T   T   T
  0.0029215224777541  0.5015892923948245  0.2719149004916716   T   T   T
  0.4869551374331560  0.5042109509221785  0.2694656889201704   T   T   T
  0.2488001964044291  0.0013701456639258  0.2722310135166629   T   T   T
  0.7508248914702049  0.0043026058650582  0.2718024841170212   T   T   T
  0.2458502749461723  0.4990628278162912  0.2720037138215867   T   T   T
  0.7638329307432726  0.4997932816097937  0.2717707984449169   T   T   T
  0.1215597595635130  0.2404129626030546  0.2898844236367348   T   T   T
  0.6181506277795111  0.2102887800045922  0.2991466654758832   T   T   T
  0.1258515170258889  0.7523719796351245  0.2722396575932468   T   T   T
  0.6257685866887003  0.7728208034476139  0.2698546423018667   T   T   T
  0.3731625886467971  0.2479421886998764  0.2723674029925474   T   T   T
  0.8802634317025141  0.2499338936523068  0.2723686570715780   T   T   T
  0.3715264070647971  0.7561105025637258  0.2721695333165539   T   T   T
  0.8802874134486189  0.7561324978730641  0.2732484495330796   T   T   T
  0.0002340851127568  0.0019167554967872  0.0007053810755270   T   T   T
  0.5004821560709048  0.0019245115479571  0.0001995969106767   T   T   T
  0.0001038154907253  0.5020025659368675  0.0004662019235003   T   T   T
  0.5000472304198250  0.5022440211015008  0.9994272561873404   T   T   T
  0.2507239152042696  0.0015707935602704  0.0007111017523413   T   T   T
  0.7503728458879331  0.0016851066769514  0.0003397302425163   T   T   T
  0.2505337152809147  0.5018566122363679  0.0004570901772366   T   T   T
  0.7507236647278406  0.5021870340918624  0.9995054367983407   T   T   T
  0.1253995715529010  0.2515358671727776  0.0005381471049228   T   T   T
  0.6253270620677346  0.2514044578012115  0.9991753363624655   T   T   T
  0.1254641138746772  0.7517498090399884  0.0005202792677965   T   T   T
  0.6254865635294881  0.7525401726264120  0.9992718083500169   T   T   T
  0.3754112951377225  0.2519031157287653  0.0002873508589241   T   T   T
  0.8752292173314605  0.2520011793051343  0.0004923071413755   T   T   T
  0.3754965854406516  0.7518763930276298  0.0005503870714485   T   T   T
  0.8752118200167025  0.7519328115474732  0.0007321406146119   T   T   T
  0.1258524728969809  0.0008857441196357  0.0921746154708803   T   T   T
  0.6257192906997429  0.0006483062592151  0.0920348968437993   T   T   T
  0.1253655049027514  0.5018751158323134  0.0917922041497560   T   T   T
  0.6255589916598521  0.5033847800261142  0.0890426568686081   T   T   T
  0.3763430524803888  0.0017066088143440  0.0924885069159891   T   T   T
  0.8744518372883102  0.0018441822591497  0.0926735873240924   T   T   T
  0.3757644324856613  0.5021765456877565  0.0921621446096447   T   T   T
  0.8745182515107444  0.5023690731461306  0.0928974591284646   T   T   T
  0.9992534893260815  0.2526849049460115  0.0924107186874114   T   T   T
  0.5003832170806818  0.2528897172104299  0.0917343596492252   T   T   T
  0.9997278219601852  0.7517922940960609  0.0923862333493615   T   T   T
  0.5010471957083338  0.7517503547800430  0.0920803899837744   T   T   T
  0.2513156847839454  0.2517257101926616  0.0922774754790730   T   T   T
  0.7500683335739985  0.2527502233467064  0.0918035846057320   T   T   T
  0.2510850735128742  0.7514280131799974  0.0926008404199943   T   T   T
  0.7499981316629519  0.7509917177269568  0.0927112384139876   T   T   T
  0.9992356213824251  0.0018094904787399  0.1807619159834055   T   T   T
  0.5015425208712604  0.0015724385496885  0.1828701949653566   T   T   T
  0.0002701292229256  0.5046959044979955  0.1820128688672714   T   T   T
  0.5020888824333166  0.5048431594821046  0.1826962923284385   T   T   T
  0.2532314096073778  0.0014573787510860  0.1822108930701528   T   T   T
  0.7504402899814201  0.0019940099477858  0.1832965464311497   T   T   T
  0.2503743437654323  0.5009539221949862  0.1822911002422434   T   T   T
  0.7477671782976264  0.5011715104909901  0.1844297460151786   T   T   T
  0.1257252233417153  0.2519159130144937  0.1801486946077679   T   T   T
  0.6254176682574953  0.2575340776268250  0.1783486943728403   T   T   T
  0.1255170290628420  0.7488402910722759  0.1818963587410543   T   T   T
  0.6257267324288511  0.7430169387849491  0.1830866625295225   T   T   T
  0.3767198978822527  0.2533375058420781  0.1834540009281561   T   T   T
  0.8712967589430111  0.2529205247325797  0.1838213074217266   T   T   T
  0.3771696193550858  0.7505789658152638  0.1833662508339934   T   T   T
  0.8738578961679829  0.7519486930924288  0.1841861296728503   T   T   T
  0.1294581779451120  0.9944845176826306  0.2687637111745809   T   T   T
  0.6297511211831268  0.9982862315287108  0.2679655513026054   T   T   T
  0.1250342597673698  0.5011559220391796  0.2756158042880418   T   T   T
  0.3790952154491997  0.0008894820836885  0.2758933103420857   T   T   T
  0.8708163457128127  0.0035242220806062  0.2770998988699647   T   T   T
  0.3705344682532968  0.5036148681729741  0.2738167901387669   T   T   T
  0.8789291286452534  0.5029042434454880  0.2746202698199646   T   T   T
  0.5049103016511094  0.2735039816020782  0.2727870661531460   T   T   T
  0.9979806097962464  0.2574626202814203  0.2698323216854107   T   T   T
  0.0010844944572536  0.7548761624571874  0.2762044980364864   T   T   T
  0.5074443329010946  0.7379212660705705  0.2766285497225718   T   T   T
  0.2508612247685348  0.2497158909774695  0.2755854793459210   T   T   T
  0.7382490303306189  0.2668006037204306  0.2808813448267797   T   T   T
  0.2509702810360998  0.7510365758215966  0.2735309542628096   T   T   T
  0.7437880829887616  0.7358241571748090  0.2767151042586778   T   T   T
  0.0691962969889271  0.1177349517214048  0.3592409736829030   T   T   T
  0.5586138107486618  0.0870032683063394  0.3604014201750225   T   T   T
  0.3724092533389876  0.5011736654518792  0.3796028482745314   T   T   T
 
  0.00000000E+00  0.00000000E+00  0.00000000E+00
  0.00000000E+00  0.00000000E+00  0.00000000E+00
  0.00000000E+00  0.00000000E+00  0.00000000E+00
  0.00000000E+00  0.00000000E+00  0.00000000E+00
  0.00000000E+00  0.00000000E+00  0.00000000E+00
  0.00000000E+00  0.00000000E+00  0.00000000E+00
  0.00000000E+00  0.00000000E+00  0.00000000E+00
  0.00000000E+00  0.00000000E+00  0.00000000E+00
  0.00000000E+00  0.00000000E+00  0.00000000E+00
  0.00000000E+00  0.00000000E+00  0.00000000E+00
  0.00000000E+00  0.00000000E+00  0.00000000E+00
  0.00000000E+00  0.00000000E+00  0.00000000E+00
  0.00000000E+00  0.00000000E+00  0.00000000E+00
  0.00000000E+00  0.00000000E+00  0.00000000E+00
  0.00000000E+00  0.00000000E+00  0.00000000E+00
  0.00000000E+00  0.00000000E+00  0.00000000E+00
  0.00000000E+00  0.00000000E+00  0.00000000E+00
  0.00000000E+00  0.00000000E+00  0.00000000E+00
  0.00000000E+00  0.00000000E+00  0.00000000E+00
  0.00000000E+00  0.00000000E+00  0.00000000E+00
  0.00000000E+00  0.00000000E+00  0.00000000E+00
  0.00000000E+00  0.00000000E+00  0.00000000E+00
  0.00000000E+00  0.00000000E+00  0.00000000E+00
  0.00000000E+00  0.00000000E+00  0.00000000E+00
  0.00000000E+00  0.00000000E+00  0.00000000E+00
  0.00000000E+00  0.00000000E+00  0.00000000E+00
  0.00000000E+00  0.00000000E+00  0.00000000E+00
  0.00000000E+00  0.00000000E+00  0.00000000E+00
  0.00000000E+00  0.00000000E+00  0.00000000E+00
  0.00000000E+00  0.00000000E+00  0.00000000E+00
  0.00000000E+00  0.00000000E+00  0.00000000E+00
  0.00000000E+00  0.00000000E+00  0.00000000E+00
  0.00000000E+00  0.00000000E+00  0.00000000E+00
  0.00000000E+00  0.00000000E+00  0.00000000E+00
  0.00000000E+00  0.00000000E+00  0.00000000E+00
  0.00000000E+00  0.00000000E+00  0.00000000E+00
  0.00000000E+00  0.00000000E+00  0.00000000E+00
  0.00000000E+00  0.00000000E+00  0.00000000E+00
  0.00000000E+00  0.00000000E+00  0.00000000E+00
  0.00000000E+00  0.00000000E+00  0.00000000E+00
  0.00000000E+00  0.00000000E+00  0.00000000E+00
  0.00000000E+00  0.00000000E+00  0.00000000E+00
  0.00000000E+00  0.00000000E+00  0.00000000E+00
  0.00000000E+00  0.00000000E+00  0.00000000E+00
  0.00000000E+00  0.00000000E+00  0.00000000E+00
  0.00000000E+00  0.00000000E+00  0.00000000E+00
  0.00000000E+00  0.00000000E+00  0.00000000E+00
  0.00000000E+00  0.00000000E+00  0.00000000E+00
  0.00000000E+00  0.00000000E+00  0.00000000E+00
  0.00000000E+00  0.00000000E+00  0.00000000E+00
  0.00000000E+00  0.00000000E+00  0.00000000E+00
  0.00000000E+00  0.00000000E+00  0.00000000E+00
  0.00000000E+00  0.00000000E+00  0.00000000E+00
  0.00000000E+00  0.00000000E+00  0.00000000E+00
  0.00000000E+00  0.00000000E+00  0.00000000E+00
  0.00000000E+00  0.00000000E+00  0.00000000E+00
  0.00000000E+00  0.00000000E+00  0.00000000E+00
  0.00000000E+00  0.00000000E+00  0.00000000E+00
  0.00000000E+00  0.00000000E+00  0.00000000E+00
  0.00000000E+00  0.00000000E+00  0.00000000E+00
  0.00000000E+00  0.00000000E+00  0.00000000E+00
  0.00000000E+00  0.00000000E+00  0.00000000E+00
  0.00000000E+00  0.00000000E+00  0.00000000E+00
  0.00000000E+00  0.00000000E+00  0.00000000E+00
  0.00000000E+00  0.00000000E+00  0.00000000E+00
  0.00000000E+00  0.00000000E+00  0.00000000E+00
  0.00000000E+00  0.00000000E+00  0.00000000E+00
  0.00000000E+00  0.00000000E+00  0.00000000E+00
  0.00000000E+00  0.00000000E+00  0.00000000E+00
  0.00000000E+00  0.00000000E+00  0.00000000E+00
  0.00000000E+00  0.00000000E+00  0.00000000E+00
  0.00000000E+00  0.00000000E+00  0.00000000E+00
  0.00000000E+00  0.00000000E+00  0.00000000E+00
  0.00000000E+00  0.00000000E+00  0.00000000E+00
  0.00000000E+00  0.00000000E+00  0.00000000E+00
  0.00000000E+00  0.00000000E+00  0.00000000E+00
  0.00000000E+00  0.00000000E+00  0.00000000E+00
  0.00000000E+00  0.00000000E+00  0.00000000E+00
  0.00000000E+00  0.00000000E+00  0.00000000E+00
  0.00000000E+00  0.00000000E+00  0.00000000E+00
  0.00000000E+00  0.00000000E+00  0.00000000E+00
  0.00000000E+00  0.00000000E+00  0.00000000E+00
  0.00000000E+00  0.00000000E+00  0.00000000E+00
  0.00000000E+00  0.00000000E+00  0.00000000E+00
  0.00000000E+00  0.00000000E+00  0.00000000E+00
  0.00000000E+00  0.00000000E+00  0.00000000E+00
  0.00000000E+00  0.00000000E+00  0.00000000E+00
  0.00000000E+00  0.00000000E+00  0.00000000E+00
  0.00000000E+00  0.00000000E+00  0.00000000E+00
  0.00000000E+00  0.00000000E+00  0.00000000E+00
  0.00000000E+00  0.00000000E+00  0.00000000E+00
  0.00000000E+00  0.00000000E+00  0.00000000E+00
  0.00000000E+00  0.00000000E+00  0.00000000E+00
  0.00000000E+00  0.00000000E+00  0.00000000E+00
  0.00000000E+00  0.00000000E+00  0.00000000E+00
  0.00000000E+00  0.00000000E+00  0.00000000E+00
  0.00000000E+00  0.00000000E+00  0.00000000E+00
  0.00000000E+00  0.00000000E+00  0.00000000E+00
  0.00000000E+00  0.00000000E+00  0.00000000E+00
  0.00000000E+00  0.00000000E+00  0.00000000E+00
  0.00000000E+00  0.00000000E+00  0.00000000E+00
  0.00000000E+00  0.00000000E+00  0.00000000E+00
  0.00000000E+00  0.00000000E+00  0.00000000E+00
  0.00000000E+00  0.00000000E+00  0.00000000E+00
  0.00000000E+00  0.00000000E+00  0.00000000E+00
  0.00000000E+00  0.00000000E+00  0.00000000E+00
  0.00000000E+00  0.00000000E+00  0.00000000E+00
  0.00000000E+00  0.00000000E+00  0.00000000E+00
  0.00000000E+00  0.00000000E+00  0.00000000E+00
  0.00000000E+00  0.00000000E+00  0.00000000E+00
  0.00000000E+00  0.00000000E+00  0.00000000E+00
  0.00000000E+00  0.00000000E+00  0.00000000E+00
  0.00000000E+00  0.00000000E+00  0.00000000E+00
  0.00000000E+00  0.00000000E+00  0.00000000E+00
  0.00000000E+00  0.00000000E+00  0.00000000E+00
  0.00000000E+00  0.00000000E+00  0.00000000E+00
  0.00000000E+00  0.00000000E+00  0.00000000E+00
  0.00000000E+00  0.00000000E+00  0.00000000E+00
  0.00000000E+00  0.00000000E+00  0.00000000E+00
  0.00000000E+00  0.00000000E+00  0.00000000E+00
  0.00000000E+00  0.00000000E+00  0.00000000E+00
  0.00000000E+00  0.00000000E+00  0.00000000E+00
  0.00000000E+00  0.00000000E+00  0.00000000E+00
  0.00000000E+00  0.00000000E+00  0.00000000E+00
  0.00000000E+00  0.00000000E+00  0.00000000E+00
  0.00000000E+00  0.00000000E+00  0.00000000E+00
  0.00000000E+00  0.00000000E+00  0.00000000E+00
  0.00000000E+00  0.00000000E+00  0.00000000E+00
  0.00000000E+00  0.00000000E+00  0.00000000E+00
  0.00000000E+00  0.00000000E+00  0.00000000E+00
  0.00000000E+00  0.00000000E+00  0.00000000E+00
  0.00000000E+00  0.00000000E+00  0.00000000E+00
