H Mg O Pt                               
   1.00000000000000     
    16.8282433949600012    0.0000000000000000    0.0000000000000000
     0.0000000000000000    8.4141216974800006    0.0000000000000000
     0.0000000000000000    0.0000000000000000   23.4141216974799988
   H    Mg   O    Pt
     2    64    64     1
Selective dynamics
Direct
  0.1255540784317340  0.0000000000000000  0.3357855307322314   T   T   T
  0.6244458711342693  0.0000000000000000  0.3357855307322314   T   T   T
  0.1250479446592570  0.0000000000000000  0.0025498291836621   T   T   T
  0.6249520553407424  0.0000000000000000  0.0025498291836621   T   T   T
  0.1248450878336300  0.5000000000000000  0.0030643712643942   T   T   T
  0.6251549121663701  0.5000000000000000  0.0030643712643942   T   T   T
  0.3750000000000000  0.0000000000000000  0.0027303238754992   T   T   T
  0.8750000000000000  0.0000000000000000  0.0032279512333794   T   T   T
  0.3750000000000000  0.5000000000000000  0.0030280534430596   T   T   T
  0.8750000000000000  0.5000000000000000  0.0037719705236001   T   T   T
 -0.0001490244205104  0.2503143027437933  0.0034732307338077   T   T   T
  0.4998897867546442  0.2501764597632329  0.0031713135526813   T   T   T
 -0.0001490244205104  0.7496856972562059  0.0034732307338077   T   T   T
  0.4998897867546442  0.7498235402367670  0.0031713135526813   T   T   T
  0.2501102132453558  0.2501764597632329  0.0031713135526813   T   T   T
  0.7501490244205109  0.2503143027437933  0.0034732307338077   T   T   T
  0.2501102132453558  0.7498235402367670  0.0031713135526813   T   T   T
  0.7501490244205109  0.7496856972562059  0.0034732307338077   T   T   T
  0.9998096186433743  0.0000000000000000  0.0921731031470438   T   T   T
  0.4988846104807236  0.0000000000000000  0.0924722530194944   T   T   T
  0.0002015897278273  0.5000000000000000  0.0933105982668793   T   T   T
  0.5002030257012713  0.5000000000000000  0.0930240120421365   T   T   T
  0.2511153895192764  0.0000000000000000  0.0924722530194944   T   T   T
  0.7501903813566257  0.0000000000000000  0.0921731031470438   T   T   T
  0.2497969742987287  0.5000000000000000  0.0930240120421365   T   T   T
  0.7497984102721726  0.5000000000000000  0.0933105982668793   T   T   T
  0.1255439558857356  0.2512394933172034  0.0923658440558596   T   T   T
  0.6244560441142644  0.2512394933172034  0.0923658440558596   T   T   T
  0.1255439558857356  0.7487605066827965  0.0923658440558596   T   T   T
  0.6244560441142644  0.7487605066827965  0.0923658440558596   T   T   T
  0.3750000000000000  0.2487378544559780  0.0929637919193711   T   T   T
  0.8750000000000000  0.2502697560080251  0.0932574991066391   T   T   T
  0.3750000000000000  0.7512621455440222  0.0929637919193711   T   T   T
  0.8750000000000000  0.7497302439919752  0.0932574991066391   T   T   T
  0.1261989766090953  0.0000000000000000  0.1772430045000454   T   T   T
  0.6238010233909047  0.0000000000000000  0.1772430045000454   T   T   T
  0.1271192330305287  0.5000000000000000  0.1839653286263602   T   T   T
  0.6228807669694711  0.5000000000000000  0.1839653286263602   T   T   T
  0.3750000000000000  0.0000000000000000  0.1845011136505658   T   T   T
  0.8750000000000000  0.0000000000000000  0.1832858765863407   T   T   T
  0.3750000000000000  0.5000000000000000  0.1805152235185179   T   T   T
  0.8750000000000000  0.5000000000000000  0.1836054958311750   T   T   T
  0.0005518201697332  0.2502193455952807  0.1839355971186065   T   T   T
  0.4974344521946389  0.2533210816787588  0.1855546249440098   T   T   T
  0.0005518201697332  0.7497806544047192  0.1839355971186065   T   T   T
  0.4974344521946389  0.7466789183212411  0.1855546249440098   T   T   T
  0.2525655478053611  0.2533210816787588  0.1855546249440098   T   T   T
  0.7494481798302667  0.2502193455952807  0.1839355971186065   T   T   T
  0.2525655478053611  0.7466789183212411  0.1855546249440098   T   T   T
  0.7494481798302667  0.7497806544047192  0.1839355971186065   T   T   T
  0.9950476818132727  0.0000000000000000  0.2737235788325652   T   T   T
  0.4926294972692375  0.0000000000000000  0.2733456194917379   T   T   T
  0.9996961021981751  0.5000000000000000  0.2736145977689163   T   T   T
  0.4931080216772583  0.5000000000000000  0.2850127821981277   T   T   T
  0.2573705027307625  0.0000000000000000  0.2733454063877359   T   T   T
  0.7549523181867273  0.0000000000000000  0.2737233657285632   T   T   T
  0.2568919783227417  0.5000000000000000  0.2850127821981277   T   T   T
  0.7503038978018249  0.5000000000000000  0.2736145977689163   T   T   T
  0.1262150603245789  0.2621293392016774  0.2735753903591616   T   T   T
  0.6237849396754210  0.2621293392016774  0.2735753903591616   T   T   T
  0.1262150603245789  0.7378706607983228  0.2735753903591616   T   T   T
  0.6237849396754210  0.7378706607983228  0.2735753903591616   T   T   T
  0.3750000000000000  0.2611120074688647  0.2853450751996627   T   T   T
  0.8750000000000000  0.2520733169649874  0.2734663671119593   T   T   T
  0.3750000000000000  0.7388879925311352  0.2853450751996627   T   T   T
  0.8750000000000000  0.7479266830350124  0.2734663671119593   T   T   T
  0.9993468176445389  0.0000000000000000  0.0012319254474704   T   T   T
  0.5004330120592364  0.0000000000000000  0.0004898811224800   T   T   T
 -0.0006426406780945  0.5000000000000000  0.0017464534073002   T   T   T
  0.5006791093918941  0.5000000000000000  0.0010688430307348   T   T   T
  0.2495669879407633  0.0000000000000000  0.0004898811224800   T   T   T
  0.7506531823554611  0.0000000000000000  0.0012319254474704   T   T   T
  0.2493208906081057  0.5000000000000000  0.0010688430307348   T   T   T
  0.7506426406780945  0.5000000000000000  0.0017464534073002   T   T   T
  0.1242098934350816  0.2502520175529604  0.0008967538406441   T   T   T
  0.6257901065649185  0.2502520175529604  0.0008967538406441   T   T   T
  0.1242098934350816  0.7497479824470394  0.0008967538406441   T   T   T
  0.6257901065649185  0.7497479824470394  0.0008967538406441   T   T   T
  0.3750000000000000  0.2500687304031701  0.0007087626627333   T   T   T
  0.8750000000000000  0.2499716258737111  0.0019507014492937   T   T   T
  0.3750000000000000  0.7499312695968299  0.0007087626627333   T   T   T
  0.8750000000000000  0.7500283741262892  0.0019507014492937   T   T   T
  0.1243783399358792  0.0000000000000000  0.0916586698559488   T   T   T
  0.6256216600641208  0.0000000000000000  0.0916586698559488   T   T   T
  0.1239301722548580  0.5000000000000000  0.0933659664780489   T   T   T
  0.6260698277451415  0.5000000000000000  0.0933659664780489   T   T   T
  0.3750000000000000  0.0000000000000000  0.0922787712856265   T   T   T
  0.8750000000000000  0.0000000000000000  0.0941476162606176   T   T   T
  0.3750000000000000  0.5000000000000000  0.0918473046740822   T   T   T
  0.8750000000000000  0.5000000000000000  0.0939399883816487   T   T   T
 -0.0000973299104178  0.2491981039649791  0.0938303039264466   T   T   T
  0.5009227775102980  0.2490539853771633  0.0927546602479375   T   T   T
 -0.0000973299104178  0.7508018960350209  0.0938303039264466   T   T   T
  0.5009227775102980  0.7509460146228367  0.0927546602479375   T   T   T
  0.2490772224897017  0.2490539853771633  0.0927546602479375   T   T   T
  0.7500973299104176  0.2491981039649791  0.0938303039264466   T   T   T
  0.2490772224897017  0.7509460146228367  0.0927546602479375   T   T   T
  0.7500973299104176  0.7508018960350209  0.0938303039264466   T   T   T
  0.0021672448419568  0.0000000000000000  0.1850439992501836   T   T   T
  0.5026697143638199  0.0000000000000000  0.1842612779024838   T   T   T
  0.0002531401055025  0.5000000000000000  0.1839834741199174   T   T   T
  0.5020828342638440  0.5000000000000000  0.1813873960858436   T   T   T
  0.2473302856361801  0.0000000000000000  0.1842612779024838   T   T   T
  0.7478327551580431  0.0000000000000000  0.1850439992501836   T   T   T
  0.2479171657361486  0.5000000000000000  0.1813873960858436   T   T   T
  0.7497468598945045  0.5000000000000000  0.1839834741199174   T   T   T
  0.1242232416087124  0.2449833294043101  0.1847186164818655   T   T   T
  0.6257767583912874  0.2449833294043101  0.1847186164818655   T   T   T
  0.1242232416087124  0.7550166705956901  0.1847186164818655   T   T   T
  0.6257767583912874  0.7550166705956901  0.1847186164818655   T   T   T
  0.3750000000000000  0.2454497553179958  0.1811578445712222   T   T   T
  0.8750000000000000  0.2488968608301972  0.1839840838116413   T   T   T
  0.3750000000000000  0.7545502446820039  0.1811578445712222   T   T   T
  0.8750000000000000  0.7511031391698026  0.1839840838116413   T   T   T
  0.1216602623223308  0.0000000000000000  0.2940911603829924   T   T   T
  0.6283396872436730  0.0000000000000000  0.2940911603829924   T   T   T
  0.1237821337645087  0.5000000000000000  0.2758635833044598   T   T   T
  0.6262178662354915  0.5000000000000000  0.2758635833044598   T   T   T
  0.3750000000000000  0.0000000000000000  0.2763711062451626   T   T   T
  0.8750000000000000  0.0000000000000000  0.2754374247294735   T   T   T
  0.3749999243470015  0.4999998991290013  0.2618445037193060   T   T   T
  0.8750000000000000  0.5000000000000000  0.2755647202182443   T   T   T
  0.0004345073696595  0.2480108796551727  0.2758134679107612   T   T   T
  0.5031381031446815  0.2440924545281631  0.2752956176358130   T   T   T
  0.0004345073696595  0.7519891203448272  0.2758134679107612   T   T   T
  0.5031381031446815  0.7559075454718369  0.2752956176358130   T   T   T
  0.2468618968553188  0.2440924545281631  0.2752956176358130   T   T   T
  0.7495654926303403  0.2480108796551727  0.2758134679107612   T   T   T
  0.2468618968553188  0.7559075454718369  0.2752956176358130   T   T   T
  0.7495654926303403  0.7519891203448272  0.2758134679107612   T   T   T
  0.3749999243470015  0.4999998991290013  0.3731340168253655   T   T   T
 
  0.00000000E+00  0.00000000E+00  0.00000000E+00
  0.00000000E+00  0.00000000E+00  0.00000000E+00
  0.00000000E+00  0.00000000E+00  0.00000000E+00
  0.00000000E+00  0.00000000E+00  0.00000000E+00
  0.00000000E+00  0.00000000E+00  0.00000000E+00
  0.00000000E+00  0.00000000E+00  0.00000000E+00
  0.00000000E+00  0.00000000E+00  0.00000000E+00
  0.00000000E+00  0.00000000E+00  0.00000000E+00
  0.00000000E+00  0.00000000E+00  0.00000000E+00
  0.00000000E+00  0.00000000E+00  0.00000000E+00
  0.00000000E+00  0.00000000E+00  0.00000000E+00
  0.00000000E+00  0.00000000E+00  0.00000000E+00
  0.00000000E+00  0.00000000E+00  0.00000000E+00
  0.00000000E+00  0.00000000E+00  0.00000000E+00
  0.00000000E+00  0.00000000E+00  0.00000000E+00
  0.00000000E+00  0.00000000E+00  0.00000000E+00
  0.00000000E+00  0.00000000E+00  0.00000000E+00
  0.00000000E+00  0.00000000E+00  0.00000000E+00
  0.00000000E+00  0.00000000E+00  0.00000000E+00
  0.00000000E+00  0.00000000E+00  0.00000000E+00
  0.00000000E+00  0.00000000E+00  0.00000000E+00
  0.00000000E+00  0.00000000E+00  0.00000000E+00
  0.00000000E+00  0.00000000E+00  0.00000000E+00
  0.00000000E+00  0.00000000E+00  0.00000000E+00
  0.00000000E+00  0.00000000E+00  0.00000000E+00
  0.00000000E+00  0.00000000E+00  0.00000000E+00
  0.00000000E+00  0.00000000E+00  0.00000000E+00
  0.00000000E+00  0.00000000E+00  0.00000000E+00
  0.00000000E+00  0.00000000E+00  0.00000000E+00
  0.00000000E+00  0.00000000E+00  0.00000000E+00
  0.00000000E+00  0.00000000E+00  0.00000000E+00
  0.00000000E+00  0.00000000E+00  0.00000000E+00
  0.00000000E+00  0.00000000E+00  0.00000000E+00
  0.00000000E+00  0.00000000E+00  0.00000000E+00
  0.00000000E+00  0.00000000E+00  0.00000000E+00
  0.00000000E+00  0.00000000E+00  0.00000000E+00
  0.00000000E+00  0.00000000E+00  0.00000000E+00
  0.00000000E+00  0.00000000E+00  0.00000000E+00
  0.00000000E+00  0.00000000E+00  0.00000000E+00
  0.00000000E+00  0.00000000E+00  0.00000000E+00
  0.00000000E+00  0.00000000E+00  0.00000000E+00
  0.00000000E+00  0.00000000E+00  0.00000000E+00
  0.00000000E+00  0.00000000E+00  0.00000000E+00
  0.00000000E+00  0.00000000E+00  0.00000000E+00
  0.00000000E+00  0.00000000E+00  0.00000000E+00
  0.00000000E+00  0.00000000E+00  0.00000000E+00
  0.00000000E+00  0.00000000E+00  0.00000000E+00
  0.00000000E+00  0.00000000E+00  0.00000000E+00
  0.00000000E+00  0.00000000E+00  0.00000000E+00
  0.00000000E+00  0.00000000E+00  0.00000000E+00
  0.00000000E+00  0.00000000E+00  0.00000000E+00
  0.00000000E+00  0.00000000E+00  0.00000000E+00
  0.00000000E+00  0.00000000E+00  0.00000000E+00
  0.00000000E+00  0.00000000E+00  0.00000000E+00
  0.00000000E+00  0.00000000E+00  0.00000000E+00
  0.00000000E+00  0.00000000E+00  0.00000000E+00
  0.00000000E+00  0.00000000E+00  0.00000000E+00
  0.00000000E+00  0.00000000E+00  0.00000000E+00
  0.00000000E+00  0.00000000E+00  0.00000000E+00
  0.00000000E+00  0.00000000E+00  0.00000000E+00
  0.00000000E+00  0.00000000E+00  0.00000000E+00
  0.00000000E+00  0.00000000E+00  0.00000000E+00
  0.00000000E+00  0.00000000E+00  0.00000000E+00
  0.00000000E+00  0.00000000E+00  0.00000000E+00
  0.00000000E+00  0.00000000E+00  0.00000000E+00
  0.00000000E+00  0.00000000E+00  0.00000000E+00
  0.00000000E+00  0.00000000E+00  0.00000000E+00
  0.00000000E+00  0.00000000E+00  0.00000000E+00
  0.00000000E+00  0.00000000E+00  0.00000000E+00
  0.00000000E+00  0.00000000E+00  0.00000000E+00
  0.00000000E+00  0.00000000E+00  0.00000000E+00
  0.00000000E+00  0.00000000E+00  0.00000000E+00
  0.00000000E+00  0.00000000E+00  0.00000000E+00
  0.00000000E+00  0.00000000E+00  0.00000000E+00
  0.00000000E+00  0.00000000E+00  0.00000000E+00
  0.00000000E+00  0.00000000E+00  0.00000000E+00
  0.00000000E+00  0.00000000E+00  0.00000000E+00
  0.00000000E+00  0.00000000E+00  0.00000000E+00
  0.00000000E+00  0.00000000E+00  0.00000000E+00
  0.00000000E+00  0.00000000E+00  0.00000000E+00
  0.00000000E+00  0.00000000E+00  0.00000000E+00
  0.00000000E+00  0.00000000E+00  0.00000000E+00
  0.00000000E+00  0.00000000E+00  0.00000000E+00
  0.00000000E+00  0.00000000E+00  0.00000000E+00
  0.00000000E+00  0.00000000E+00  0.00000000E+00
  0.00000000E+00  0.00000000E+00  0.00000000E+00
  0.00000000E+00  0.00000000E+00  0.00000000E+00
  0.00000000E+00  0.00000000E+00  0.00000000E+00
  0.00000000E+00  0.00000000E+00  0.00000000E+00
  0.00000000E+00  0.00000000E+00  0.00000000E+00
  0.00000000E+00  0.00000000E+00  0.00000000E+00
  0.00000000E+00  0.00000000E+00  0.00000000E+00
  0.00000000E+00  0.00000000E+00  0.00000000E+00
  0.00000000E+00  0.00000000E+00  0.00000000E+00
  0.00000000E+00  0.00000000E+00  0.00000000E+00
  0.00000000E+00  0.00000000E+00  0.00000000E+00
  0.00000000E+00  0.00000000E+00  0.00000000E+00
  0.00000000E+00  0.00000000E+00  0.00000000E+00
  0.00000000E+00  0.00000000E+00  0.00000000E+00
  0.00000000E+00  0.00000000E+00  0.00000000E+00
  0.00000000E+00  0.00000000E+00  0.00000000E+00
  0.00000000E+00  0.00000000E+00  0.00000000E+00
  0.00000000E+00  0.00000000E+00  0.00000000E+00
  0.00000000E+00  0.00000000E+00  0.00000000E+00
  0.00000000E+00  0.00000000E+00  0.00000000E+00
  0.00000000E+00  0.00000000E+00  0.00000000E+00
  0.00000000E+00  0.00000000E+00  0.00000000E+00
  0.00000000E+00  0.00000000E+00  0.00000000E+00
  0.00000000E+00  0.00000000E+00  0.00000000E+00
  0.00000000E+00  0.00000000E+00  0.00000000E+00
  0.00000000E+00  0.00000000E+00  0.00000000E+00
  0.00000000E+00  0.00000000E+00  0.00000000E+00
  0.00000000E+00  0.00000000E+00  0.00000000E+00
  0.00000000E+00  0.00000000E+00  0.00000000E+00
  0.00000000E+00  0.00000000E+00  0.00000000E+00
  0.00000000E+00  0.00000000E+00  0.00000000E+00
  0.00000000E+00  0.00000000E+00  0.00000000E+00
  0.00000000E+00  0.00000000E+00  0.00000000E+00
  0.00000000E+00  0.00000000E+00  0.00000000E+00
  0.00000000E+00  0.00000000E+00  0.00000000E+00
  0.00000000E+00  0.00000000E+00  0.00000000E+00
  0.00000000E+00  0.00000000E+00  0.00000000E+00
  0.00000000E+00  0.00000000E+00  0.00000000E+00
  0.00000000E+00  0.00000000E+00  0.00000000E+00
  0.00000000E+00  0.00000000E+00  0.00000000E+00
  0.00000000E+00  0.00000000E+00  0.00000000E+00
  0.00000000E+00  0.00000000E+00  0.00000000E+00
  0.00000000E+00  0.00000000E+00  0.00000000E+00
  0.00000000E+00  0.00000000E+00  0.00000000E+00
  0.00000000E+00  0.00000000E+00  0.00000000E+00
  0.00000000E+00  0.00000000E+00  0.00000000E+00
