H Mg O Pd                               
   1.00000000000000     
    16.8282433949600012    0.0000000000000000    0.0000000000000000
     0.0000000000000000    8.4141216974800006    0.0000000000000000
     0.0000000000000000    0.0000000000000000   23.4141216974799988
   H    Mg   O    Pd
     2    64    64     1
Selective dynamics
Direct
  0.1251326955021734 -0.0000000000000000  0.3344703639288939   T   T   T
  0.6248672540638300 -0.0000000000000000  0.3344703639288939   T   T   T
  0.1250381308079550 -0.0000000000000000  0.0026383562672822   T   T   T
  0.6249618691920450 -0.0000000000000000  0.0026383562672822   T   T   T
  0.1249816826294237  0.5000000000000000  0.0032491167309546   T   T   T
  0.6250183173705766  0.5000000000000000  0.0032491167309546   T   T   T
  0.3750000000000000 -0.0000000000000000  0.0032565979591665   T   T   T
  0.8750000000000000 -0.0000000000000000  0.0031681698095879   T   T   T
  0.3750000000000000  0.5000000000000000  0.0037290420678034   T   T   T
  0.8750000000000000  0.5000000000000000  0.0037336501517251   T   T   T
 -0.0001311445641364  0.2503296788726860  0.0034558574537012   T   T   T
  0.4998217297407990  0.2502868868412751  0.0035430110355962   T   T   T
 -0.0001311445641364  0.7496703211273137  0.0034558574537012   T   T   T
  0.4998217297407990  0.7497131131587247  0.0035430110355962   T   T   T
  0.2501782702592010  0.2502868868412751  0.0035430110355962   T   T   T
  0.7501311445641365  0.2503296788726860  0.0034558574537012   T   T   T
  0.2501782702592010  0.7497131131587247  0.0035430110355962   T   T   T
  0.7501311445641365  0.7496703211273137  0.0034558574537012   T   T   T
  0.9995946132046541 -0.0000000000000000  0.0922710608158814   T   T   T
  0.4992224354254433 -0.0000000000000000  0.0926183711423348   T   T   T
 -0.0000194170840653  0.5000000000000000  0.0933355884172110   T   T   T
  0.4999226936956799  0.5000000000000000  0.0935512854014059   T   T   T
  0.2507775645745567 -0.0000000000000000  0.0926183711423348   T   T   T
  0.7504053867953459 -0.0000000000000000  0.0922710608158814   T   T   T
  0.2500773063043201  0.5000000000000000  0.0935512854014059   T   T   T
  0.7500194170840653  0.5000000000000000  0.0933355884172110   T   T   T
  0.1252596803243062  0.2511785667788302  0.0924767099307314   T   T   T
  0.6247403196756937  0.2511785667788302  0.0924767099307314   T   T   T
  0.1252596803243062  0.7488214332211696  0.0924767099307314   T   T   T
  0.6247403196756937  0.7488214332211696  0.0924767099307314   T   T   T
  0.3750000000000000  0.2498039615540467  0.0935829143041261   T   T   T
  0.8750000000000000  0.2503763369090419  0.0932782962830843   T   T   T
  0.3750000000000000  0.7501960384459530  0.0935829143041261   T   T   T
  0.8750000000000000  0.7496236630909581  0.0932782962830843   T   T   T
  0.1255666019994316 -0.0000000000000000  0.1776270672290611   T   T   T
  0.6244333980005685 -0.0000000000000000  0.1776270672290611   T   T   T
  0.1260406953185893  0.5000000000000000  0.1838468548520059   T   T   T
  0.6239593046814109  0.5000000000000000  0.1838468548520059   T   T   T
  0.3750000000000000 -0.0000000000000000  0.1841789204402033   T   T   T
  0.8750000000000000 -0.0000000000000000  0.1834257599039354   T   T   T
  0.3750000000000000  0.5000000000000000  0.1831750832955294   T   T   T
  0.8750000000000000  0.5000000000000000  0.1837570737786578   T   T   T
  0.0002516516429763  0.2500629138701064  0.1840414574653454   T   T   T
  0.4988875084213039  0.2515081271101431  0.1850483765649079   T   T   T
  0.0002516516429763  0.7499370861298934  0.1840414574653454   T   T   T
  0.4988875084213039  0.7484918728898570  0.1850483765649079   T   T   T
  0.2511124915786960  0.2515081271101431  0.1850483765649079   T   T   T
  0.7497483483570239  0.2500629138701064  0.1840414574653454   T   T   T
  0.2511124915786960  0.7484918728898570  0.1850483765649079   T   T   T
  0.7497483483570239  0.7499370861298934  0.1840414574653454   T   T   T
  0.9947334786830916 -0.0000000000000000  0.2740476013320377   T   T   T
  0.4939095782586788 -0.0000000000000000  0.2737835000474539   T   T   T
  0.9993120800136497  0.5000000000000000  0.2739353172622229   T   T   T
  0.4979008161466692  0.5000000000000000  0.2798172490922031   T   T   T
  0.2560904217413212 -0.0000000000000000  0.2737832869434519   T   T   T
  0.7552665213169084 -0.0000000000000000  0.2740473882280357   T   T   T
  0.2520991838533308  0.5000000000000000  0.2798172490922031   T   T   T
  0.7506879199863503  0.5000000000000000  0.2739353172622229   T   T   T
  0.1254151564487657  0.2612459910027956  0.2739441210605466   T   T   T
  0.6245848435512343  0.2612459910027956  0.2739441210605466   T   T   T
  0.1254151564487657  0.7387540089972042  0.2739441210605466   T   T   T
  0.6245848435512343  0.7387540089972042  0.2739441210605466   T   T   T
  0.3750000000000000  0.2532554088744091  0.2798704502247877   T   T   T
  0.8750000000000000  0.2520277087889647  0.2738936479946248   T   T   T
  0.3750000000000000  0.7467445911255909  0.2798704502247877   T   T   T
  0.8750000000000000  0.7479722912110355  0.2738936479946248   T   T   T
  0.9995986025836466 -0.0000000000000000  0.0013933141157977   T   T   T
  0.5000437022973824 -0.0000000000000000  0.0012001471967009   T   T   T
 -0.0002722877423506  0.5000000000000000  0.0019684654691882   T   T   T
  0.5002314786588187  0.5000000000000000  0.0017692936329834   T   T   T
  0.2499562977026175 -0.0000000000000000  0.0012001471967009   T   T   T
  0.7504013974163534 -0.0000000000000000  0.0013933141157977   T   T   T
  0.2497685213411815  0.5000000000000000  0.0017692936329834   T   T   T
  0.7502722877423503  0.5000000000000000  0.0019684654691882   T   T   T
  0.1246842596666719  0.2503764347038349  0.0013031672800198   T   T   T
  0.6253157403333279  0.2503764347038349  0.0013031672800198   T   T   T
  0.1246842596666719  0.7496235652961649  0.0013031672800198   T   T   T
  0.6253157403333279  0.7496235652961649  0.0013031672800198   T   T   T
  0.3750000000000000  0.2500703921685182  0.0016916882565688   T   T   T
  0.8750000000000000  0.2500333812445385  0.0020044961164394   T   T   T
  0.3750000000000000  0.7499296078314815  0.0016916882565688   T   T   T
  0.8750000000000000  0.7499666187554613  0.0020044961164394   T   T   T
  0.1246632285630318 -0.0000000000000000  0.0918767932773260   T   T   T
  0.6253367714369684 -0.0000000000000000  0.0918767932773260   T   T   T
  0.1245082908711056  0.5000000000000000  0.0937966293860055   T   T   T
  0.6254917091288945  0.5000000000000000  0.0937966293860055   T   T   T
  0.3750000000000000 -0.0000000000000000  0.0934200854360061   T   T   T
  0.8750000000000000 -0.0000000000000000  0.0940794504441658   T   T   T
  0.3750000000000000  0.5000000000000000  0.0933234330212012   T   T   T
  0.8750000000000000  0.5000000000000000  0.0939096169002938   T   T   T
  0.0000637876812959  0.2493590930823673  0.0938232833654114   T   T   T
  0.5005592461659752  0.2493905087661732  0.0935196963603685   T   T   T
  0.0000637876812959  0.7506409069176329  0.0938232833654114   T   T   T
  0.5005592461659752  0.7506094912338268  0.0935196963603685   T   T   T
  0.2494407538340249  0.2493905087661732  0.0935196963603685   T   T   T
  0.7499362123187040  0.2493590930823673  0.0938232833654114   T   T   T
  0.2494407538340249  0.7506094912338268  0.0935196963603685   T   T   T
  0.7499362123187040  0.7506409069176329  0.0938232833654114   T   T   T
  0.0021003857652291 -0.0000000000000000  0.1848928806236204   T   T   T
  0.5025359787155331 -0.0000000000000000  0.1842224475638166   T   T   T
  0.0001983509019581  0.5000000000000000  0.1838434258077203   T   T   T
  0.5013196785629683  0.5000000000000000  0.1833193931515865   T   T   T
  0.2474640212844668 -0.0000000000000000  0.1842224475638166   T   T   T
  0.7478996142347711 -0.0000000000000000  0.1848928806236204   T   T   T
  0.2486803214370249  0.5000000000000000  0.1833193931515865   T   T   T
  0.7498016490980491  0.5000000000000000  0.1838434258077203   T   T   T
  0.1243419827723347  0.2453024780972605  0.1845892118192412   T   T   T
  0.6256580172276653  0.2453024780972605  0.1845892118192412   T   T   T
  0.1243419827723347  0.7546975219027395  0.1845892118192412   T   T   T
  0.6256580172276653  0.7546975219027395  0.1845892118192412   T   T   T
  0.3750000000000000  0.2476138771102859  0.1832101249406646   T   T   T
  0.8750000000000000  0.2490725557906578  0.1838814944415222   T   T   T
  0.3750000000000000  0.7523861228897146  0.1832101249406646   T   T   T
  0.8750000000000000  0.7509274442093421  0.1838814944415222   T   T   T
  0.1228449681007473 -0.0000000000000000  0.2924423940942991   T   T   T
  0.6271549814652562 -0.0000000000000000  0.2924423940942991   T   T   T
  0.1239397759936308  0.5000000000000000  0.2751343698512042   T   T   T
  0.6260602240063691  0.5000000000000000  0.2751343698512042   T   T   T
  0.3750000000000000 -0.0000000000000000  0.2751364214019895   T   T   T
  0.8750000000000000 -0.0000000000000000  0.2751102210696144   T   T   T
  0.3749999243470015  0.4999998991290013  0.2680297992174470   T   T   T
  0.8750000000000000  0.5000000000000000  0.2754265340294154   T   T   T
  0.0004740261565109  0.2482712598832220  0.2755244807721681   T   T   T
  0.5027869082885075  0.2449413479191652  0.2746299557650209   T   T   T
  0.0004740261565109  0.7517287401167783  0.2755244807721681   T   T   T
  0.5027869082885075  0.7550586520808351  0.2746299557650209   T   T   T
  0.2472130917114927  0.2449413479191652  0.2746299557650209   T   T   T
  0.7495259738434896  0.2482712598832220  0.2755244807721681   T   T   T
  0.2472130917114927  0.7550586520808351  0.2746299557650209   T   T   T
  0.7495259738434896  0.7517287401167783  0.2755244807721681   T   T   T
  0.3749999243470015  0.4999998991290013  0.3680099018989957   T   T   T
 
  0.00000000E+00  0.00000000E+00  0.00000000E+00
  0.00000000E+00  0.00000000E+00  0.00000000E+00
  0.00000000E+00  0.00000000E+00  0.00000000E+00
  0.00000000E+00  0.00000000E+00  0.00000000E+00
  0.00000000E+00  0.00000000E+00  0.00000000E+00
  0.00000000E+00  0.00000000E+00  0.00000000E+00
  0.00000000E+00  0.00000000E+00  0.00000000E+00
  0.00000000E+00  0.00000000E+00  0.00000000E+00
  0.00000000E+00  0.00000000E+00  0.00000000E+00
  0.00000000E+00  0.00000000E+00  0.00000000E+00
  0.00000000E+00  0.00000000E+00  0.00000000E+00
  0.00000000E+00  0.00000000E+00  0.00000000E+00
  0.00000000E+00  0.00000000E+00  0.00000000E+00
  0.00000000E+00  0.00000000E+00  0.00000000E+00
  0.00000000E+00  0.00000000E+00  0.00000000E+00
  0.00000000E+00  0.00000000E+00  0.00000000E+00
  0.00000000E+00  0.00000000E+00  0.00000000E+00
  0.00000000E+00  0.00000000E+00  0.00000000E+00
  0.00000000E+00  0.00000000E+00  0.00000000E+00
  0.00000000E+00  0.00000000E+00  0.00000000E+00
  0.00000000E+00  0.00000000E+00  0.00000000E+00
  0.00000000E+00  0.00000000E+00  0.00000000E+00
  0.00000000E+00  0.00000000E+00  0.00000000E+00
  0.00000000E+00  0.00000000E+00  0.00000000E+00
  0.00000000E+00  0.00000000E+00  0.00000000E+00
  0.00000000E+00  0.00000000E+00  0.00000000E+00
  0.00000000E+00  0.00000000E+00  0.00000000E+00
  0.00000000E+00  0.00000000E+00  0.00000000E+00
  0.00000000E+00  0.00000000E+00  0.00000000E+00
  0.00000000E+00  0.00000000E+00  0.00000000E+00
  0.00000000E+00  0.00000000E+00  0.00000000E+00
  0.00000000E+00  0.00000000E+00  0.00000000E+00
  0.00000000E+00  0.00000000E+00  0.00000000E+00
  0.00000000E+00  0.00000000E+00  0.00000000E+00
  0.00000000E+00  0.00000000E+00  0.00000000E+00
  0.00000000E+00  0.00000000E+00  0.00000000E+00
  0.00000000E+00  0.00000000E+00  0.00000000E+00
  0.00000000E+00  0.00000000E+00  0.00000000E+00
  0.00000000E+00  0.00000000E+00  0.00000000E+00
  0.00000000E+00  0.00000000E+00  0.00000000E+00
  0.00000000E+00  0.00000000E+00  0.00000000E+00
  0.00000000E+00  0.00000000E+00  0.00000000E+00
  0.00000000E+00  0.00000000E+00  0.00000000E+00
  0.00000000E+00  0.00000000E+00  0.00000000E+00
  0.00000000E+00  0.00000000E+00  0.00000000E+00
  0.00000000E+00  0.00000000E+00  0.00000000E+00
  0.00000000E+00  0.00000000E+00  0.00000000E+00
  0.00000000E+00  0.00000000E+00  0.00000000E+00
  0.00000000E+00  0.00000000E+00  0.00000000E+00
  0.00000000E+00  0.00000000E+00  0.00000000E+00
  0.00000000E+00  0.00000000E+00  0.00000000E+00
  0.00000000E+00  0.00000000E+00  0.00000000E+00
  0.00000000E+00  0.00000000E+00  0.00000000E+00
  0.00000000E+00  0.00000000E+00  0.00000000E+00
  0.00000000E+00  0.00000000E+00  0.00000000E+00
  0.00000000E+00  0.00000000E+00  0.00000000E+00
  0.00000000E+00  0.00000000E+00  0.00000000E+00
  0.00000000E+00  0.00000000E+00  0.00000000E+00
  0.00000000E+00  0.00000000E+00  0.00000000E+00
  0.00000000E+00  0.00000000E+00  0.00000000E+00
  0.00000000E+00  0.00000000E+00  0.00000000E+00
  0.00000000E+00  0.00000000E+00  0.00000000E+00
  0.00000000E+00  0.00000000E+00  0.00000000E+00
  0.00000000E+00  0.00000000E+00  0.00000000E+00
  0.00000000E+00  0.00000000E+00  0.00000000E+00
  0.00000000E+00  0.00000000E+00  0.00000000E+00
  0.00000000E+00  0.00000000E+00  0.00000000E+00
  0.00000000E+00  0.00000000E+00  0.00000000E+00
  0.00000000E+00  0.00000000E+00  0.00000000E+00
  0.00000000E+00  0.00000000E+00  0.00000000E+00
  0.00000000E+00  0.00000000E+00  0.00000000E+00
  0.00000000E+00  0.00000000E+00  0.00000000E+00
  0.00000000E+00  0.00000000E+00  0.00000000E+00
  0.00000000E+00  0.00000000E+00  0.00000000E+00
  0.00000000E+00  0.00000000E+00  0.00000000E+00
  0.00000000E+00  0.00000000E+00  0.00000000E+00
  0.00000000E+00  0.00000000E+00  0.00000000E+00
  0.00000000E+00  0.00000000E+00  0.00000000E+00
  0.00000000E+00  0.00000000E+00  0.00000000E+00
  0.00000000E+00  0.00000000E+00  0.00000000E+00
  0.00000000E+00  0.00000000E+00  0.00000000E+00
  0.00000000E+00  0.00000000E+00  0.00000000E+00
  0.00000000E+00  0.00000000E+00  0.00000000E+00
  0.00000000E+00  0.00000000E+00  0.00000000E+00
  0.00000000E+00  0.00000000E+00  0.00000000E+00
  0.00000000E+00  0.00000000E+00  0.00000000E+00
  0.00000000E+00  0.00000000E+00  0.00000000E+00
  0.00000000E+00  0.00000000E+00  0.00000000E+00
  0.00000000E+00  0.00000000E+00  0.00000000E+00
  0.00000000E+00  0.00000000E+00  0.00000000E+00
  0.00000000E+00  0.00000000E+00  0.00000000E+00
  0.00000000E+00  0.00000000E+00  0.00000000E+00
  0.00000000E+00  0.00000000E+00  0.00000000E+00
  0.00000000E+00  0.00000000E+00  0.00000000E+00
  0.00000000E+00  0.00000000E+00  0.00000000E+00
  0.00000000E+00  0.00000000E+00  0.00000000E+00
  0.00000000E+00  0.00000000E+00  0.00000000E+00
  0.00000000E+00  0.00000000E+00  0.00000000E+00
  0.00000000E+00  0.00000000E+00  0.00000000E+00
  0.00000000E+00  0.00000000E+00  0.00000000E+00
  0.00000000E+00  0.00000000E+00  0.00000000E+00
  0.00000000E+00  0.00000000E+00  0.00000000E+00
  0.00000000E+00  0.00000000E+00  0.00000000E+00
  0.00000000E+00  0.00000000E+00  0.00000000E+00
  0.00000000E+00  0.00000000E+00  0.00000000E+00
  0.00000000E+00  0.00000000E+00  0.00000000E+00
  0.00000000E+00  0.00000000E+00  0.00000000E+00
  0.00000000E+00  0.00000000E+00  0.00000000E+00
  0.00000000E+00  0.00000000E+00  0.00000000E+00
  0.00000000E+00  0.00000000E+00  0.00000000E+00
  0.00000000E+00  0.00000000E+00  0.00000000E+00
  0.00000000E+00  0.00000000E+00  0.00000000E+00
  0.00000000E+00  0.00000000E+00  0.00000000E+00
  0.00000000E+00  0.00000000E+00  0.00000000E+00
  0.00000000E+00  0.00000000E+00  0.00000000E+00
  0.00000000E+00  0.00000000E+00  0.00000000E+00
  0.00000000E+00  0.00000000E+00  0.00000000E+00
  0.00000000E+00  0.00000000E+00  0.00000000E+00
  0.00000000E+00  0.00000000E+00  0.00000000E+00
  0.00000000E+00  0.00000000E+00  0.00000000E+00
  0.00000000E+00  0.00000000E+00  0.00000000E+00
  0.00000000E+00  0.00000000E+00  0.00000000E+00
  0.00000000E+00  0.00000000E+00  0.00000000E+00
  0.00000000E+00  0.00000000E+00  0.00000000E+00
  0.00000000E+00  0.00000000E+00  0.00000000E+00
  0.00000000E+00  0.00000000E+00  0.00000000E+00
  0.00000000E+00  0.00000000E+00  0.00000000E+00
  0.00000000E+00  0.00000000E+00  0.00000000E+00
  0.00000000E+00  0.00000000E+00  0.00000000E+00
  0.00000000E+00  0.00000000E+00  0.00000000E+00
  0.00000000E+00  0.00000000E+00  0.00000000E+00
