H Mg O Mn                               
   1.00000000000000     
    16.8282433949600012    0.0000000000000000    0.0000000000000000
     0.0000000000000000    8.4141216974800006    0.0000000000000000
     0.0000000000000000    0.0000000000000000   23.4141216974799988
   H    Mg   O    Mn
     2    64    64     1
Selective dynamics
Direct
  0.1238202489716945 -0.0000000000000000  0.3302322333322396   T   T   T
  0.6261797005943088 -0.0000000000000000  0.3302322333322396   T   T   T
  0.1250221743184176 -0.0000000000000000  0.0032308564319584   T   T   T
  0.6249778256815824 -0.0000000000000000  0.0032308564319584   T   T   T
  0.1249718793770767  0.5000000000000000  0.0035947897125628   T   T   T
  0.6250281206229232  0.5000000000000000  0.0035947897125628   T   T   T
  0.3750000000000000 -0.0000000000000000  0.0036110801308567   T   T   T
  0.8750000000000000 -0.0000000000000000  0.0035975863791540   T   T   T
  0.3750000000000000  0.5000000000000000  0.0039200777676644   T   T   T
  0.8750000000000000  0.5000000000000000  0.0038569246376185   T   T   T
  0.9999247691633616  0.2501671309839307  0.0037716271415515   T   T   T
  0.4999158366003210  0.2501269875180939  0.0038284849920118   T   T   T
  0.9999247691633616  0.7498328690160694  0.0037716271415515   T   T   T
  0.4999158366003210  0.7498730124819060  0.0038284849920118   T   T   T
  0.2500841633996790  0.2501269875180939  0.0038284849920118   T   T   T
  0.7500752308366384  0.2501671309839307  0.0037716271415515   T   T   T
  0.2500841633996790  0.7498730124819060  0.0038284849920118   T   T   T
  0.7500752308366384  0.7498328690160694  0.0037716271415515   T   T   T
  0.9995866894371511 -0.0000000000000000  0.0929004629124167   T   T   T
  0.4996733804195342 -0.0000000000000000  0.0928681518047284   T   T   T
  0.9998232530615246  0.5000000000000000  0.0934345084919371   T   T   T
  0.4998468712385214  0.5000000000000000  0.0935519011536588   T   T   T
  0.2503266195804658 -0.0000000000000000  0.0928681518047284   T   T   T
  0.7504133105628489 -0.0000000000000000  0.0929004629124167   T   T   T
  0.2501531287614785  0.5000000000000000  0.0935519011536588   T   T   T
  0.7501767469384754  0.5000000000000000  0.0934345084919371   T   T   T
  0.1249848245344716  0.2507574250435387  0.0928913035533541   T   T   T
  0.6250151754655283  0.2507574250435387  0.0928913035533541   T   T   T
  0.1249848245344716  0.7492425749564615  0.0928913035533541   T   T   T
  0.6250151754655283  0.7492425749564615  0.0928913035533541   T   T   T
  0.3750000000000000  0.2504662365914999  0.0934933991834545   T   T   T
  0.8750000000000000  0.2501823701611470  0.0935130170528772   T   T   T
  0.3750000000000000  0.7495337634085000  0.0934933991834545   T   T   T
  0.8750000000000000  0.7498176298388530  0.0935130170528772   T   T   T
  0.1249738846287093 -0.0000000000000000  0.1791454509665075   T   T   T
  0.6250261153712907 -0.0000000000000000  0.1791454509665075   T   T   T
  0.1248193655050367  0.5000000000000000  0.1835655746378623   T   T   T
  0.6251806344949633  0.5000000000000000  0.1835655746378623   T   T   T
  0.3750000000000000 -0.0000000000000000  0.1833883154427434   T   T   T
  0.8750000000000000 -0.0000000000000000  0.1837818066327022   T   T   T
  0.3750000000000000  0.5000000000000000  0.1839899834191402   T   T   T
  0.8750000000000000  0.5000000000000000  0.1838950097875175   T   T   T
 -0.0001014494655543  0.2498099871523626  0.1843709379933463   T   T   T
  0.4999507116437025  0.2504314192769493  0.1843584790181431   T   T   T
 -0.0001014494655543  0.7501900128476375  0.1843709379933463   T   T   T
  0.4999507116437025  0.7495685807230504  0.1843584790181431   T   T   T
  0.2500492883562975  0.2504314192769493  0.1843584790181431   T   T   T
  0.7501014494655542  0.2498099871523626  0.1843709379933463   T   T   T
  0.2500492883562975  0.7495685807230504  0.1843584790181431   T   T   T
  0.7501014494655542  0.7501900128476375  0.1843709379933463   T   T   T
  0.9944063053850698 -0.0000000000000000  0.2749530529641204   T   T   T
  0.4953113000882016 -0.0000000000000000  0.2738452426232580   T   T   T
  0.9988373054702223  0.5000000000000000  0.2741985686503249   T   T   T
  0.5023601456137143  0.5000000000000000  0.2757919634241721   T   T   T
  0.2546886999117984 -0.0000000000000000  0.2738450295192560   T   T   T
  0.7555936946149302 -0.0000000000000000  0.2749528398601184   T   T   T
  0.2476398543862856  0.5000000000000000  0.2757919634241721   T   T   T
  0.7511626945297777  0.5000000000000000  0.2741985686503249   T   T   T
  0.1244163828462373  0.2602425728673595  0.2743458347739839   T   T   T
  0.6255836171537626  0.2602425728673595  0.2743458347739839   T   T   T
  0.1244163828462373  0.7397574271326404  0.2743458347739839   T   T   T
  0.6255836171537626  0.7397574271326404  0.2743458347739839   T   T   T
  0.3750000000000000  0.2461788359685819  0.2755996107826336   T   T   T
  0.8750000000000000  0.2516901688478839  0.2743944488238441   T   T   T
  0.3750000000000000  0.7538211640314180  0.2755996107826336   T   T   T
  0.8750000000000000  0.7483098311521161  0.2743944488238441   T   T   T
  0.9998984391729495 -0.0000000000000000  0.0019201554849458   T   T   T
  0.4999150612407554 -0.0000000000000000  0.0019411537751978   T   T   T
  0.0000157234092435  0.5000000000000000  0.0022144927148242   T   T   T
  0.5000045155827290  0.5000000000000000  0.0021613067496465   T   T   T
  0.2500849387592446 -0.0000000000000000  0.0019411537751978   T   T   T
  0.7501015608270505 -0.0000000000000000  0.0019201554849458   T   T   T
  0.2499954844172711  0.5000000000000000  0.0021613067496465   T   T   T
  0.7499842765907563  0.5000000000000000  0.0022144927148242   T   T   T
  0.1250184381193856  0.2501989966750711  0.0019373426581755   T   T   T
  0.6249815618806144  0.2501989966750711  0.0019373426581755   T   T   T
  0.1250184381193856  0.7498010033249290  0.0019373426581755   T   T   T
  0.6249815618806144  0.7498010033249290  0.0019373426581755   T   T   T
  0.3750000000000000  0.2499789193271610  0.0021920291226102   T   T   T
  0.8750000000000000  0.2499662565500935  0.0022205856668816   T   T   T
  0.3750000000000000  0.7500210806728389  0.0021920291226102   T   T   T
  0.8750000000000000  0.7500337434499066  0.0022205856668816   T   T   T
  0.1249147071684180 -0.0000000000000000  0.0927373435038782   T   T   T
  0.6250852928315819 -0.0000000000000000  0.0927373435038782   T   T   T
  0.1249325355123054  0.5000000000000000  0.0941271209201349   T   T   T
  0.6250674644876945  0.5000000000000000  0.0941271209201349   T   T   T
  0.3750000000000000 -0.0000000000000000  0.0940346027950547   T   T   T
  0.8750000000000000 -0.0000000000000000  0.0942288660203328   T   T   T
  0.3750000000000000  0.5000000000000000  0.0940200589365808   T   T   T
  0.8750000000000000  0.5000000000000000  0.0939432939041325   T   T   T
  0.0001621995651566  0.2494811151005989  0.0940431728160342   T   T   T
  0.5002489972486176  0.2497002568516476  0.0940165907255617   T   T   T
  0.0001621995651566  0.7505188848994010  0.0940431728160342   T   T   T
  0.5002489972486176  0.7502997431483525  0.0940165907255617   T   T   T
  0.2497510027513824  0.2497002568516476  0.0940165907255617   T   T   T
  0.7498378004348434  0.2494811151005989  0.0940431728160342   T   T   T
  0.2497510027513824  0.7502997431483525  0.0940165907255617   T   T   T
  0.7498378004348434  0.7505188848994010  0.0940431728160342   T   T   T
  0.0018899376817935 -0.0000000000000000  0.1848975495269958   T   T   T
  0.5019212405356572 -0.0000000000000000  0.1841123903692771   T   T   T
  0.0000418898214878  0.5000000000000000  0.1836927492894046   T   T   T
  0.5001780945215574  0.5000000000000000  0.1842855331544536   T   T   T
  0.2480787594643427 -0.0000000000000000  0.1841123903692771   T   T   T
  0.7481100623182064 -0.0000000000000000  0.1848975495269958   T   T   T
  0.2498219054784356  0.5000000000000000  0.1842855331544536   T   T   T
  0.7499581101785192  0.5000000000000000  0.1836927492894046   T   T   T
  0.1245902476427888  0.2461967441261423  0.1844968721987311   T   T   T
  0.6254097523572112  0.2461967441261423  0.1844968721987311   T   T   T
  0.1245902476427888  0.7538032558738577  0.1844968721987311   T   T   T
  0.6254097523572112  0.7538032558738577  0.1844968721987311   T   T   T
  0.3750000000000000  0.2501590758702446  0.1841306540430912   T   T   T
  0.8750000000000000  0.2493564751348486  0.1838609993976927   T   T   T
  0.3750000000000000  0.7498409241297556  0.1841306540430912   T   T   T
  0.8750000000000000  0.7506435248651513  0.1838609993976927   T   T   T
  0.1248293581058023 -0.0000000000000000  0.2874990150435335   T   T   T
  0.6251705914602013 -0.0000000000000000  0.2874990150435335   T   T   T
  0.1238137034955430  0.5000000000000000  0.2744150399217297   T   T   T
  0.6261862965044571  0.5000000000000000  0.2744150399217297   T   T   T
  0.3750000000000000 -0.0000000000000000  0.2740645584703026   T   T   T
  0.8750000000000000 -0.0000000000000000  0.2747292097014938   T   T   T
  0.3749999243470015  0.4999998991290013  0.2771262866920693   T   T   T
  0.8750000000000000  0.5000000000000000  0.2751735970567110   T   T   T
  0.0003058920132679  0.2488923822801348  0.2752950296349058   T   T   T
  0.5016586784364099  0.2473025620385749  0.2739911876345599   T   T   T
  0.0003058920132679  0.7511076177198652  0.2752950296349058   T   T   T
  0.5016586784364099  0.7526974379614253  0.2739911876345599   T   T   T
  0.2483413215635903  0.2473025620385749  0.2739911876345599   T   T   T
  0.7496941079867322  0.2488923822801348  0.2752950296349058   T   T   T
  0.2483413215635903  0.7526974379614253  0.2739911876345599   T   T   T
  0.7496941079867322  0.7511076177198652  0.2752950296349058   T   T   T
  0.3749999243470015  0.4999998991290013  0.3672044612187848   T   T   T
 
  0.00000000E+00  0.00000000E+00  0.00000000E+00
  0.00000000E+00  0.00000000E+00  0.00000000E+00
  0.00000000E+00  0.00000000E+00  0.00000000E+00
  0.00000000E+00  0.00000000E+00  0.00000000E+00
  0.00000000E+00  0.00000000E+00  0.00000000E+00
  0.00000000E+00  0.00000000E+00  0.00000000E+00
  0.00000000E+00  0.00000000E+00  0.00000000E+00
  0.00000000E+00  0.00000000E+00  0.00000000E+00
  0.00000000E+00  0.00000000E+00  0.00000000E+00
  0.00000000E+00  0.00000000E+00  0.00000000E+00
  0.00000000E+00  0.00000000E+00  0.00000000E+00
  0.00000000E+00  0.00000000E+00  0.00000000E+00
  0.00000000E+00  0.00000000E+00  0.00000000E+00
  0.00000000E+00  0.00000000E+00  0.00000000E+00
  0.00000000E+00  0.00000000E+00  0.00000000E+00
  0.00000000E+00  0.00000000E+00  0.00000000E+00
  0.00000000E+00  0.00000000E+00  0.00000000E+00
  0.00000000E+00  0.00000000E+00  0.00000000E+00
  0.00000000E+00  0.00000000E+00  0.00000000E+00
  0.00000000E+00  0.00000000E+00  0.00000000E+00
  0.00000000E+00  0.00000000E+00  0.00000000E+00
  0.00000000E+00  0.00000000E+00  0.00000000E+00
  0.00000000E+00  0.00000000E+00  0.00000000E+00
  0.00000000E+00  0.00000000E+00  0.00000000E+00
  0.00000000E+00  0.00000000E+00  0.00000000E+00
  0.00000000E+00  0.00000000E+00  0.00000000E+00
  0.00000000E+00  0.00000000E+00  0.00000000E+00
  0.00000000E+00  0.00000000E+00  0.00000000E+00
  0.00000000E+00  0.00000000E+00  0.00000000E+00
  0.00000000E+00  0.00000000E+00  0.00000000E+00
  0.00000000E+00  0.00000000E+00  0.00000000E+00
  0.00000000E+00  0.00000000E+00  0.00000000E+00
  0.00000000E+00  0.00000000E+00  0.00000000E+00
  0.00000000E+00  0.00000000E+00  0.00000000E+00
  0.00000000E+00  0.00000000E+00  0.00000000E+00
  0.00000000E+00  0.00000000E+00  0.00000000E+00
  0.00000000E+00  0.00000000E+00  0.00000000E+00
  0.00000000E+00  0.00000000E+00  0.00000000E+00
  0.00000000E+00  0.00000000E+00  0.00000000E+00
  0.00000000E+00  0.00000000E+00  0.00000000E+00
  0.00000000E+00  0.00000000E+00  0.00000000E+00
  0.00000000E+00  0.00000000E+00  0.00000000E+00
  0.00000000E+00  0.00000000E+00  0.00000000E+00
  0.00000000E+00  0.00000000E+00  0.00000000E+00
  0.00000000E+00  0.00000000E+00  0.00000000E+00
  0.00000000E+00  0.00000000E+00  0.00000000E+00
  0.00000000E+00  0.00000000E+00  0.00000000E+00
  0.00000000E+00  0.00000000E+00  0.00000000E+00
  0.00000000E+00  0.00000000E+00  0.00000000E+00
  0.00000000E+00  0.00000000E+00  0.00000000E+00
  0.00000000E+00  0.00000000E+00  0.00000000E+00
  0.00000000E+00  0.00000000E+00  0.00000000E+00
  0.00000000E+00  0.00000000E+00  0.00000000E+00
  0.00000000E+00  0.00000000E+00  0.00000000E+00
  0.00000000E+00  0.00000000E+00  0.00000000E+00
  0.00000000E+00  0.00000000E+00  0.00000000E+00
  0.00000000E+00  0.00000000E+00  0.00000000E+00
  0.00000000E+00  0.00000000E+00  0.00000000E+00
  0.00000000E+00  0.00000000E+00  0.00000000E+00
  0.00000000E+00  0.00000000E+00  0.00000000E+00
  0.00000000E+00  0.00000000E+00  0.00000000E+00
  0.00000000E+00  0.00000000E+00  0.00000000E+00
  0.00000000E+00  0.00000000E+00  0.00000000E+00
  0.00000000E+00  0.00000000E+00  0.00000000E+00
  0.00000000E+00  0.00000000E+00  0.00000000E+00
  0.00000000E+00  0.00000000E+00  0.00000000E+00
  0.00000000E+00  0.00000000E+00  0.00000000E+00
  0.00000000E+00  0.00000000E+00  0.00000000E+00
  0.00000000E+00  0.00000000E+00  0.00000000E+00
  0.00000000E+00  0.00000000E+00  0.00000000E+00
  0.00000000E+00  0.00000000E+00  0.00000000E+00
  0.00000000E+00  0.00000000E+00  0.00000000E+00
  0.00000000E+00  0.00000000E+00  0.00000000E+00
  0.00000000E+00  0.00000000E+00  0.00000000E+00
  0.00000000E+00  0.00000000E+00  0.00000000E+00
  0.00000000E+00  0.00000000E+00  0.00000000E+00
  0.00000000E+00  0.00000000E+00  0.00000000E+00
  0.00000000E+00  0.00000000E+00  0.00000000E+00
  0.00000000E+00  0.00000000E+00  0.00000000E+00
  0.00000000E+00  0.00000000E+00  0.00000000E+00
  0.00000000E+00  0.00000000E+00  0.00000000E+00
  0.00000000E+00  0.00000000E+00  0.00000000E+00
  0.00000000E+00  0.00000000E+00  0.00000000E+00
  0.00000000E+00  0.00000000E+00  0.00000000E+00
  0.00000000E+00  0.00000000E+00  0.00000000E+00
  0.00000000E+00  0.00000000E+00  0.00000000E+00
  0.00000000E+00  0.00000000E+00  0.00000000E+00
  0.00000000E+00  0.00000000E+00  0.00000000E+00
  0.00000000E+00  0.00000000E+00  0.00000000E+00
  0.00000000E+00  0.00000000E+00  0.00000000E+00
  0.00000000E+00  0.00000000E+00  0.00000000E+00
  0.00000000E+00  0.00000000E+00  0.00000000E+00
  0.00000000E+00  0.00000000E+00  0.00000000E+00
  0.00000000E+00  0.00000000E+00  0.00000000E+00
  0.00000000E+00  0.00000000E+00  0.00000000E+00
  0.00000000E+00  0.00000000E+00  0.00000000E+00
  0.00000000E+00  0.00000000E+00  0.00000000E+00
  0.00000000E+00  0.00000000E+00  0.00000000E+00
  0.00000000E+00  0.00000000E+00  0.00000000E+00
  0.00000000E+00  0.00000000E+00  0.00000000E+00
  0.00000000E+00  0.00000000E+00  0.00000000E+00
  0.00000000E+00  0.00000000E+00  0.00000000E+00
  0.00000000E+00  0.00000000E+00  0.00000000E+00
  0.00000000E+00  0.00000000E+00  0.00000000E+00
  0.00000000E+00  0.00000000E+00  0.00000000E+00
  0.00000000E+00  0.00000000E+00  0.00000000E+00
  0.00000000E+00  0.00000000E+00  0.00000000E+00
  0.00000000E+00  0.00000000E+00  0.00000000E+00
  0.00000000E+00  0.00000000E+00  0.00000000E+00
  0.00000000E+00  0.00000000E+00  0.00000000E+00
  0.00000000E+00  0.00000000E+00  0.00000000E+00
  0.00000000E+00  0.00000000E+00  0.00000000E+00
  0.00000000E+00  0.00000000E+00  0.00000000E+00
  0.00000000E+00  0.00000000E+00  0.00000000E+00
  0.00000000E+00  0.00000000E+00  0.00000000E+00
  0.00000000E+00  0.00000000E+00  0.00000000E+00
  0.00000000E+00  0.00000000E+00  0.00000000E+00
  0.00000000E+00  0.00000000E+00  0.00000000E+00
  0.00000000E+00  0.00000000E+00  0.00000000E+00
  0.00000000E+00  0.00000000E+00  0.00000000E+00
  0.00000000E+00  0.00000000E+00  0.00000000E+00
  0.00000000E+00  0.00000000E+00  0.00000000E+00
  0.00000000E+00  0.00000000E+00  0.00000000E+00
  0.00000000E+00  0.00000000E+00  0.00000000E+00
  0.00000000E+00  0.00000000E+00  0.00000000E+00
  0.00000000E+00  0.00000000E+00  0.00000000E+00
  0.00000000E+00  0.00000000E+00  0.00000000E+00
  0.00000000E+00  0.00000000E+00  0.00000000E+00
  0.00000000E+00  0.00000000E+00  0.00000000E+00
  0.00000000E+00  0.00000000E+00  0.00000000E+00
  0.00000000E+00  0.00000000E+00  0.00000000E+00
