H Mg O Cu                               
   1.00000000000000     
    16.8282433949600012    0.0000000000000000    0.0000000000000000
     0.0000000000000000    8.4141216974800006    0.0000000000000000
     0.0000000000000000    0.0000000000000000   23.4141216974799988
   H    Mg   O    Cu
     2    64    64     1
Selective dynamics
Direct
  0.1240315216429816 -0.0000000000000000  0.3329143553197982   T   T   T
  0.6259684279230217 -0.0000000000000000  0.3329143553197982   T   T   T
  0.1250180658660156 -0.0000000000000000  0.0028347296553015   T   T   T
  0.6249819341339844 -0.0000000000000000  0.0028347296553015   T   T   T
  0.1248318634046240  0.5000000000000000  0.0033270919097065   T   T   T
  0.6251681365953762  0.5000000000000000  0.0033270919097065   T   T   T
  0.3750000000000000 -0.0000000000000000  0.0032186012411316   T   T   T
  0.8750000000000000 -0.0000000000000000  0.0033952751303142   T   T   T
  0.3750000000000000  0.5000000000000000  0.0037607391676878   T   T   T
  0.8750000000000000  0.5000000000000000  0.0038291577031149   T   T   T
 -0.0001356925333676  0.2501886330321294  0.0036369115178811   T   T   T
  0.4999640442819565  0.2501515554804726  0.0036409694906154   T   T   T
 -0.0001356925333676  0.7498113669678709  0.0036369115178811   T   T   T
  0.4999640442819565  0.7498484445195274  0.0036409694906154   T   T   T
  0.2500359557180435  0.2501515554804726  0.0036409694906154   T   T   T
  0.7501356925333674  0.2501886330321294  0.0036369115178811   T   T   T
  0.2500359557180435  0.7498484445195274  0.0036409694906154   T   T   T
  0.7501356925333674  0.7498113669678709  0.0036369115178811   T   T   T
  0.9994212718921871 -0.0000000000000000  0.0924593356882800   T   T   T
  0.4994035743492100 -0.0000000000000000  0.0927263024701500   T   T   T
 -0.0002110462697790  0.5000000000000000  0.0934786712521810   T   T   T
  0.5000362766514918  0.5000000000000000  0.0932392866141046   T   T   T
  0.2505964256507900 -0.0000000000000000  0.0927263024701500   T   T   T
  0.7505787281078129 -0.0000000000000000  0.0924593356882800   T   T   T
  0.2499637233485083  0.5000000000000000  0.0932392866141046   T   T   T
  0.7502110462697789  0.5000000000000000  0.0934786712521810   T   T   T
  0.1249912084470431  0.2511731191882830  0.0926119885796722   T   T   T
  0.6250087915529569  0.2511731191882830  0.0926119885796722   T   T   T
  0.1249912084470431  0.7488268808117167  0.0926119885796722   T   T   T
  0.6250087915529569  0.7488268808117167  0.0926119885796722   T   T   T
  0.3750000000000000  0.2497977102311368  0.0933578099518876   T   T   T
  0.8750000000000000  0.2504711248915841  0.0933745625828420   T   T   T
  0.3750000000000000  0.7502022897688635  0.0933578099518876   T   T   T
  0.8750000000000000  0.7495288751084160  0.0933745625828420   T   T   T
  0.1253074022972103 -0.0000000000000000  0.1779539385971751   T   T   T
  0.6246925977027896 -0.0000000000000000  0.1779539385971751   T   T   T
  0.1256254118974592  0.5000000000000000  0.1836528076111521   T   T   T
  0.6243745881025409  0.5000000000000000  0.1836528076111521   T   T   T
  0.3750000000000000 -0.0000000000000000  0.1836907806794843   T   T   T
  0.8750000000000000 -0.0000000000000000  0.1836289426235745   T   T   T
  0.3750000000000000  0.5000000000000000  0.1824094978992690   T   T   T
  0.8750000000000000  0.5000000000000000  0.1841215570024547   T   T   T
  0.0000578815421123  0.2502715220392370  0.1842364420480398   T   T   T
  0.4990480710091732  0.2513522067349940  0.1845126133874529   T   T   T
  0.0000578815421123  0.7497284779607630  0.1842364420480398   T   T   T
  0.4990480710091732  0.7486477932650059  0.1845126133874529   T   T   T
  0.2509519289908268  0.2513522067349940  0.1845126133874529   T   T   T
  0.7499421184578877  0.2502715220392370  0.1842364420480398   T   T   T
  0.2509519289908268  0.7486477932650059  0.1845126133874529   T   T   T
  0.7499421184578877  0.7497284779607630  0.1842364420480398   T   T   T
  0.9946646831007132 -0.0000000000000000  0.2742012070485339   T   T   T
  0.4939387411061904 -0.0000000000000000  0.2735238339309664   T   T   T
  0.9993391529715204  0.5000000000000000  0.2742368475863645   T   T   T
  0.4969677260281467  0.5000000000000000  0.2779990465808171   T   T   T
  0.2560612588938096 -0.0000000000000000  0.2735236208269644   T   T   T
  0.7553353168992868 -0.0000000000000000  0.2742009939445319   T   T   T
  0.2530322739718533  0.5000000000000000  0.2779990465808171   T   T   T
  0.7506608470284796  0.5000000000000000  0.2742368475863645   T   T   T
  0.1257595543903983  0.2614210142266167  0.2737637877914020   T   T   T
  0.6242404456096015  0.2614210142266167  0.2737637877914020   T   T   T
  0.1257595543903983  0.7385789857733833  0.2737637877914020   T   T   T
  0.6242404456096015  0.7385789857733833  0.2737637877914020   T   T   T
  0.3750000000000000  0.2550710877386580  0.2778771423892735   T   T   T
  0.8750000000000000  0.2520180967339073  0.2744018548708854   T   T   T
  0.3750000000000000  0.7449289122613418  0.2778771423892735   T   T   T
  0.8750000000000000  0.7479819032660929  0.2744018548708854   T   T   T
  0.9996651855131664 -0.0000000000000000  0.0016584134591448   T   T   T
  0.4999450271626356 -0.0000000000000000  0.0014728300525117   T   T   T
 -0.0002001302955499  0.5000000000000000  0.0020277181702507   T   T   T
  0.5003019517249978  0.5000000000000000  0.0018939962264435   T   T   T
  0.2500549728373644 -0.0000000000000000  0.0014728300525117   T   T   T
  0.7503348144868336 -0.0000000000000000  0.0016584134591448   T   T   T
  0.2496980482750023  0.5000000000000000  0.0018939962264435   T   T   T
  0.7502001302955501  0.5000000000000000  0.0020277181702507   T   T   T
  0.1247504732466253  0.2503965785414828  0.0015806431677272   T   T   T
  0.6252495267533750  0.2503965785414828  0.0015806431677272   T   T   T
  0.1247504732466253  0.7496034214585173  0.0015806431677272   T   T   T
  0.6252495267533750  0.7496034214585173  0.0015806431677272   T   T   T
  0.3750000000000000  0.2499041516108354  0.0017614573233510   T   T   T
  0.8750000000000000  0.2499461962535835  0.0021589706001897   T   T   T
  0.3750000000000000  0.7500958483891644  0.0017614573233510   T   T   T
  0.8750000000000000  0.7500538037464165  0.0021589706001897   T   T   T
  0.1246578852981621 -0.0000000000000000  0.0920760676607800   T   T   T
  0.6253421147018379 -0.0000000000000000  0.0920760676607800   T   T   T
  0.1244777564499567  0.5000000000000000  0.0938610933174058   T   T   T
  0.6255222435500434  0.5000000000000000  0.0938610933174058   T   T   T
  0.3750000000000000 -0.0000000000000000  0.0934843128021514   T   T   T
  0.8750000000000000 -0.0000000000000000  0.0941924549306668   T   T   T
  0.3750000000000000  0.5000000000000000  0.0931729635981850   T   T   T
  0.8750000000000000  0.5000000000000000  0.0940797618810058   T   T   T
  0.0000335198682631  0.2494172656834988  0.0939433517156651   T   T   T
  0.5005722543649238  0.2493491981415288  0.0935419962213770   T   T   T
  0.0000335198682631  0.7505827343165012  0.0939433517156651   T   T   T
  0.5005722543649238  0.7506508018584710  0.0935419962213770   T   T   T
  0.2494277456350762  0.2493491981415288  0.0935419962213770   T   T   T
  0.7499664801317369  0.2494172656834988  0.0939433517156651   T   T   T
  0.2494277456350762  0.7506508018584710  0.0935419962213770   T   T   T
  0.7499664801317369  0.7505827343165012  0.0939433517156651   T   T   T
  0.0019472534458169 -0.0000000000000000  0.1848141321013890   T   T   T
  0.5024668056529161 -0.0000000000000000  0.1844352540630934   T   T   T
  0.0002387011931633  0.5000000000000000  0.1839390217784422   T   T   T
  0.5013721286674359  0.5000000000000000  0.1828322140640325   T   T   T
  0.2475331943470839 -0.0000000000000000  0.1844352540630934   T   T   T
  0.7480527465541832 -0.0000000000000000  0.1848141321013890   T   T   T
  0.2486278713325573  0.5000000000000000  0.1828322140640325   T   T   T
  0.7497612988068438  0.5000000000000000  0.1839390217784422   T   T   T
  0.1246408722469625  0.2456243510449518  0.1846013084421452   T   T   T
  0.6253591277530373  0.2456243510449518  0.1846013084421452   T   T   T
  0.1246408722469625  0.7543756489550482  0.1846013084421452   T   T   T
  0.6253591277530373  0.7543756489550482  0.1846013084421452   T   T   T
  0.3750000000000000  0.2474139379143337  0.1828472132506802   T   T   T
  0.8750000000000000  0.2493184068726705  0.1839287698975490   T   T   T
  0.3750000000000000  0.7525860620856663  0.1828472132506802   T   T   T
  0.8750000000000000  0.7506815931273293  0.1839287698975490   T   T   T
  0.1242006876834528 -0.0000000000000000  0.2907146005606097   T   T   T
  0.6257992618825505 -0.0000000000000000  0.2907146005606097   T   T   T
  0.1247258906534955  0.5000000000000000  0.2749201551783116   T   T   T
  0.6252741093465045  0.5000000000000000  0.2749201551783116   T   T   T
  0.3750000000000000 -0.0000000000000000  0.2748576295840800   T   T   T
  0.8750000000000000 -0.0000000000000000  0.2748745390185357   T   T   T
  0.3749999243470015  0.4999998991290013  0.2675335432746810   T   T   T
  0.8750000000000000  0.5000000000000000  0.2755842722466027   T   T   T
  0.0007604660536291  0.2486128739433275  0.2754809513493011   T   T   T
  0.5017414833574487  0.2464373113381816  0.2746326652247963   T   T   T
  0.0007604660536291  0.7513871260566723  0.2754809513493011   T   T   T
  0.5017414833574487  0.7535626886618183  0.2746326652247963   T   T   T
  0.2482585166425513  0.2464373113381816  0.2746326652247963   T   T   T
  0.7492395339463708  0.2486128739433275  0.2754809513493011   T   T   T
  0.2482585166425513  0.7535626886618183  0.2746326652247963   T   T   T
  0.7492395339463708  0.7513871260566723  0.2754809513493011   T   T   T
  0.3749999243470015  0.4999998991290013  0.3790258667655537   T   T   T
 
  0.00000000E+00  0.00000000E+00  0.00000000E+00
  0.00000000E+00  0.00000000E+00  0.00000000E+00
  0.00000000E+00  0.00000000E+00  0.00000000E+00
  0.00000000E+00  0.00000000E+00  0.00000000E+00
  0.00000000E+00  0.00000000E+00  0.00000000E+00
  0.00000000E+00  0.00000000E+00  0.00000000E+00
  0.00000000E+00  0.00000000E+00  0.00000000E+00
  0.00000000E+00  0.00000000E+00  0.00000000E+00
  0.00000000E+00  0.00000000E+00  0.00000000E+00
  0.00000000E+00  0.00000000E+00  0.00000000E+00
  0.00000000E+00  0.00000000E+00  0.00000000E+00
  0.00000000E+00  0.00000000E+00  0.00000000E+00
  0.00000000E+00  0.00000000E+00  0.00000000E+00
  0.00000000E+00  0.00000000E+00  0.00000000E+00
  0.00000000E+00  0.00000000E+00  0.00000000E+00
  0.00000000E+00  0.00000000E+00  0.00000000E+00
  0.00000000E+00  0.00000000E+00  0.00000000E+00
  0.00000000E+00  0.00000000E+00  0.00000000E+00
  0.00000000E+00  0.00000000E+00  0.00000000E+00
  0.00000000E+00  0.00000000E+00  0.00000000E+00
  0.00000000E+00  0.00000000E+00  0.00000000E+00
  0.00000000E+00  0.00000000E+00  0.00000000E+00
  0.00000000E+00  0.00000000E+00  0.00000000E+00
  0.00000000E+00  0.00000000E+00  0.00000000E+00
  0.00000000E+00  0.00000000E+00  0.00000000E+00
  0.00000000E+00  0.00000000E+00  0.00000000E+00
  0.00000000E+00  0.00000000E+00  0.00000000E+00
  0.00000000E+00  0.00000000E+00  0.00000000E+00
  0.00000000E+00  0.00000000E+00  0.00000000E+00
  0.00000000E+00  0.00000000E+00  0.00000000E+00
  0.00000000E+00  0.00000000E+00  0.00000000E+00
  0.00000000E+00  0.00000000E+00  0.00000000E+00
  0.00000000E+00  0.00000000E+00  0.00000000E+00
  0.00000000E+00  0.00000000E+00  0.00000000E+00
  0.00000000E+00  0.00000000E+00  0.00000000E+00
  0.00000000E+00  0.00000000E+00  0.00000000E+00
  0.00000000E+00  0.00000000E+00  0.00000000E+00
  0.00000000E+00  0.00000000E+00  0.00000000E+00
  0.00000000E+00  0.00000000E+00  0.00000000E+00
  0.00000000E+00  0.00000000E+00  0.00000000E+00
  0.00000000E+00  0.00000000E+00  0.00000000E+00
  0.00000000E+00  0.00000000E+00  0.00000000E+00
  0.00000000E+00  0.00000000E+00  0.00000000E+00
  0.00000000E+00  0.00000000E+00  0.00000000E+00
  0.00000000E+00  0.00000000E+00  0.00000000E+00
  0.00000000E+00  0.00000000E+00  0.00000000E+00
  0.00000000E+00  0.00000000E+00  0.00000000E+00
  0.00000000E+00  0.00000000E+00  0.00000000E+00
  0.00000000E+00  0.00000000E+00  0.00000000E+00
  0.00000000E+00  0.00000000E+00  0.00000000E+00
  0.00000000E+00  0.00000000E+00  0.00000000E+00
  0.00000000E+00  0.00000000E+00  0.00000000E+00
  0.00000000E+00  0.00000000E+00  0.00000000E+00
  0.00000000E+00  0.00000000E+00  0.00000000E+00
  0.00000000E+00  0.00000000E+00  0.00000000E+00
  0.00000000E+00  0.00000000E+00  0.00000000E+00
  0.00000000E+00  0.00000000E+00  0.00000000E+00
  0.00000000E+00  0.00000000E+00  0.00000000E+00
  0.00000000E+00  0.00000000E+00  0.00000000E+00
  0.00000000E+00  0.00000000E+00  0.00000000E+00
  0.00000000E+00  0.00000000E+00  0.00000000E+00
  0.00000000E+00  0.00000000E+00  0.00000000E+00
  0.00000000E+00  0.00000000E+00  0.00000000E+00
  0.00000000E+00  0.00000000E+00  0.00000000E+00
  0.00000000E+00  0.00000000E+00  0.00000000E+00
  0.00000000E+00  0.00000000E+00  0.00000000E+00
  0.00000000E+00  0.00000000E+00  0.00000000E+00
  0.00000000E+00  0.00000000E+00  0.00000000E+00
  0.00000000E+00  0.00000000E+00  0.00000000E+00
  0.00000000E+00  0.00000000E+00  0.00000000E+00
  0.00000000E+00  0.00000000E+00  0.00000000E+00
  0.00000000E+00  0.00000000E+00  0.00000000E+00
  0.00000000E+00  0.00000000E+00  0.00000000E+00
  0.00000000E+00  0.00000000E+00  0.00000000E+00
  0.00000000E+00  0.00000000E+00  0.00000000E+00
  0.00000000E+00  0.00000000E+00  0.00000000E+00
  0.00000000E+00  0.00000000E+00  0.00000000E+00
  0.00000000E+00  0.00000000E+00  0.00000000E+00
  0.00000000E+00  0.00000000E+00  0.00000000E+00
  0.00000000E+00  0.00000000E+00  0.00000000E+00
  0.00000000E+00  0.00000000E+00  0.00000000E+00
  0.00000000E+00  0.00000000E+00  0.00000000E+00
  0.00000000E+00  0.00000000E+00  0.00000000E+00
  0.00000000E+00  0.00000000E+00  0.00000000E+00
  0.00000000E+00  0.00000000E+00  0.00000000E+00
  0.00000000E+00  0.00000000E+00  0.00000000E+00
  0.00000000E+00  0.00000000E+00  0.00000000E+00
  0.00000000E+00  0.00000000E+00  0.00000000E+00
  0.00000000E+00  0.00000000E+00  0.00000000E+00
  0.00000000E+00  0.00000000E+00  0.00000000E+00
  0.00000000E+00  0.00000000E+00  0.00000000E+00
  0.00000000E+00  0.00000000E+00  0.00000000E+00
  0.00000000E+00  0.00000000E+00  0.00000000E+00
  0.00000000E+00  0.00000000E+00  0.00000000E+00
  0.00000000E+00  0.00000000E+00  0.00000000E+00
  0.00000000E+00  0.00000000E+00  0.00000000E+00
  0.00000000E+00  0.00000000E+00  0.00000000E+00
  0.00000000E+00  0.00000000E+00  0.00000000E+00
  0.00000000E+00  0.00000000E+00  0.00000000E+00
  0.00000000E+00  0.00000000E+00  0.00000000E+00
  0.00000000E+00  0.00000000E+00  0.00000000E+00
  0.00000000E+00  0.00000000E+00  0.00000000E+00
  0.00000000E+00  0.00000000E+00  0.00000000E+00
  0.00000000E+00  0.00000000E+00  0.00000000E+00
  0.00000000E+00  0.00000000E+00  0.00000000E+00
  0.00000000E+00  0.00000000E+00  0.00000000E+00
  0.00000000E+00  0.00000000E+00  0.00000000E+00
  0.00000000E+00  0.00000000E+00  0.00000000E+00
  0.00000000E+00  0.00000000E+00  0.00000000E+00
  0.00000000E+00  0.00000000E+00  0.00000000E+00
  0.00000000E+00  0.00000000E+00  0.00000000E+00
  0.00000000E+00  0.00000000E+00  0.00000000E+00
  0.00000000E+00  0.00000000E+00  0.00000000E+00
  0.00000000E+00  0.00000000E+00  0.00000000E+00
  0.00000000E+00  0.00000000E+00  0.00000000E+00
  0.00000000E+00  0.00000000E+00  0.00000000E+00
  0.00000000E+00  0.00000000E+00  0.00000000E+00
  0.00000000E+00  0.00000000E+00  0.00000000E+00
  0.00000000E+00  0.00000000E+00  0.00000000E+00
  0.00000000E+00  0.00000000E+00  0.00000000E+00
  0.00000000E+00  0.00000000E+00  0.00000000E+00
  0.00000000E+00  0.00000000E+00  0.00000000E+00
  0.00000000E+00  0.00000000E+00  0.00000000E+00
  0.00000000E+00  0.00000000E+00  0.00000000E+00
  0.00000000E+00  0.00000000E+00  0.00000000E+00
  0.00000000E+00  0.00000000E+00  0.00000000E+00
  0.00000000E+00  0.00000000E+00  0.00000000E+00
  0.00000000E+00  0.00000000E+00  0.00000000E+00
  0.00000000E+00  0.00000000E+00  0.00000000E+00
  0.00000000E+00  0.00000000E+00  0.00000000E+00
  0.00000000E+00  0.00000000E+00  0.00000000E+00
