H Mg O Au                               
   1.00000000000000     
    16.8282433949600012    0.0000000000000000    0.0000000000000000
     0.0000000000000000    8.4141216974800006    0.0000000000000000
     0.0000000000000000    0.0000000000000000   23.4141216974799988
   H    Mg   O    Au
     2    64    64     1
Selective dynamics
Direct
  0.1241318680597538  0.0000000000000000  0.3329776902256960   T   T   T
  0.6258680815062496  0.0000000000000000  0.3329776902256960   T   T   T
  0.1248706489868412  0.0000000000000000  0.0027596320385847   T   T   T
  0.6251293510131588  0.0000000000000000  0.0027596320385847   T   T   T
  0.1247737373352805  0.5000000000000000  0.0032442343364065   T   T   T
  0.6252262626647195  0.5000000000000000  0.0032442343364065   T   T   T
  0.3750000000000000  0.0000000000000000  0.0030759921974802   T   T   T
  0.8750000000000000  0.0000000000000000  0.0033714185684165   T   T   T
  0.3750000000000000  0.5000000000000000  0.0033747610367142   T   T   T
  0.8750000000000000  0.5000000000000000  0.0038188577624314   T   T   T
 -0.0002351601964802  0.2502476958659013  0.0035730922892208   T   T   T
  0.5000124526161889  0.2501896064213581  0.0033756775312329   T   T   T
 -0.0002351601964802  0.7497523041340988  0.0035730922892208   T   T   T
  0.5000124526161889  0.7498103935786419  0.0033756775312329   T   T   T
  0.2499875473838112  0.2501896064213581  0.0033756775312329   T   T   T
  0.7502351601964802  0.2502476958659013  0.0035730922892208   T   T   T
  0.2499875473838112  0.7498103935786419  0.0033756775312329   T   T   T
  0.7502351601964802  0.7497523041340988  0.0035730922892208   T   T   T
  0.9994752751698430  0.0000000000000000  0.0925269787589026   T   T   T
  0.4993711101889823  0.0000000000000000  0.0924837008557186   T   T   T
 -0.0001848355548773  0.5000000000000000  0.0934068191376104   T   T   T
  0.5001091378509794  0.5000000000000000  0.0931390603350446   T   T   T
  0.2506288898110177  0.0000000000000000  0.0924837008557186   T   T   T
  0.7505247248301570  0.0000000000000000  0.0925269787589026   T   T   T
  0.2498908621490203  0.5000000000000000  0.0931390603350446   T   T   T
  0.7501848355548772  0.5000000000000000  0.0934068191376104   T   T   T
  0.1251007972719472  0.2511575286631837  0.0925179638706280   T   T   T
  0.6248992027280532  0.2511575286631837  0.0925179638706280   T   T   T
  0.1251007972719472  0.7488424713368163  0.0925179638706280   T   T   T
  0.6248992027280532  0.7488424713368163  0.0925179638706280   T   T   T
  0.3750000000000000  0.2496341250628878  0.0931116521619772   T   T   T
  0.8750000000000000  0.2504711283564308  0.0934452255754458   T   T   T
  0.3750000000000000  0.7503658749371125  0.0931116521619772   T   T   T
  0.8750000000000000  0.7495288716435692  0.0934452255754458   T   T   T
  0.1254072642912967  0.0000000000000000  0.1779792205887943   T   T   T
  0.6245927357087034  0.0000000000000000  0.1779792205887943   T   T   T
  0.1259489095351202  0.5000000000000000  0.1836473853500767   T   T   T
  0.6240510904648798  0.5000000000000000  0.1836473853500767   T   T   T
  0.3750000000000000  0.0000000000000000  0.1837499423406085   T   T   T
  0.8750000000000000  0.0000000000000000  0.1836023979607111   T   T   T
  0.3750000000000000  0.5000000000000000  0.1819314801457841   T   T   T
  0.8750000000000000  0.5000000000000000  0.1840235651710025   T   T   T
  0.0002394187701017  0.2500938717367590  0.1842676360524739   T   T   T
  0.4989402287368384  0.2514246742084298  0.1844993985705725   T   T   T
  0.0002394187701017  0.7499061282632409  0.1842676360524739   T   T   T
  0.4989402287368384  0.7485753257915702  0.1844993985705725   T   T   T
  0.2510597712631616  0.2514246742084298  0.1844993985705725   T   T   T
  0.7497605812298983  0.2500938717367590  0.1842676360524739   T   T   T
  0.2510597712631616  0.7485753257915702  0.1844993985705725   T   T   T
  0.7497605812298983  0.7499061282632409  0.1842676360524739   T   T   T
  0.9947238086053226  0.0000000000000000  0.2742370212724987   T   T   T
  0.4936603073563506  0.0000000000000000  0.2735820816317365   T   T   T
  0.9996269077923232  0.5000000000000000  0.2742028325065134   T   T   T
  0.4962549374460990  0.5000000000000000  0.2779187671663078   T   T   T
  0.2563396926436494  0.0000000000000000  0.2735818685277345   T   T   T
  0.7552761913946774  0.0000000000000000  0.2742368081684967   T   T   T
  0.2537450625539010  0.5000000000000000  0.2779187671663078   T   T   T
  0.7503730922076768  0.5000000000000000  0.2742028325065134   T   T   T
  0.1259580065568770  0.2615968141200411  0.2738124328226066   T   T   T
  0.6240419934431231  0.2615968141200411  0.2738124328226066   T   T   T
  0.1259580065568770  0.7384031858799590  0.2738124328226066   T   T   T
  0.6240419934431231  0.7384031858799590  0.2738124328226066   T   T   T
  0.3750000000000000  0.2559628349568214  0.2778441767430239   T   T   T
  0.8750000000000000  0.2520223429679413  0.2743562175328653   T   T   T
  0.3750000000000000  0.7440371650431786  0.2778441767430239   T   T   T
  0.8750000000000000  0.7479776570320590  0.2743562175328653   T   T   T
  0.9995732357398583  0.0000000000000000  0.0016150953570070   T   T   T
  0.5001014877576456  0.0000000000000000  0.0012197588771780   T   T   T
 -0.0002912553526963  0.5000000000000000  0.0020075227408938   T   T   T
  0.5002823626945571  0.5000000000000000  0.0016459777180502   T   T   T
  0.2498985122423547  0.0000000000000000  0.0012197588771780   T   T   T
  0.7504267642601417  0.0000000000000000  0.0016150953570070   T   T   T
  0.2497176373054428  0.5000000000000000  0.0016459777180502   T   T   T
  0.7502912553526964  0.5000000000000000  0.0020075227408938   T   T   T
  0.1245783122755540  0.2503169723582689  0.0014251787332770   T   T   T
  0.6254216877244458  0.2503169723582689  0.0014251787332770   T   T   T
  0.1245783122755540  0.7496830276417311  0.0014251787332770   T   T   T
  0.6254216877244458  0.7496830276417311  0.0014251787332770   T   T   T
  0.3750000000000000  0.2501163434491214  0.0015192425439652   T   T   T
  0.8750000000000000  0.2499258210428216  0.0021212484291584   T   T   T
  0.3750000000000000  0.7498836565508785  0.0015192425439652   T   T   T
  0.8750000000000000  0.7500741789571788  0.0021212484291584   T   T   T
  0.1247331878010771  0.0000000000000000  0.0921319053094962   T   T   T
  0.6252668121989229  0.0000000000000000  0.0921319053094962   T   T   T
  0.1244548707264995  0.5000000000000000  0.0937249765279944   T   T   T
  0.6255451292735006  0.5000000000000000  0.0937249765279944   T   T   T
  0.3750000000000000  0.0000000000000000  0.0932295900604837   T   T   T
  0.8750000000000000  0.0000000000000000  0.0941994459677685   T   T   T
  0.3750000000000000  0.5000000000000000  0.0929120845331223   T   T   T
  0.8750000000000000  0.5000000000000000  0.0940489577034804   T   T   T
  0.0000999240333953  0.2494738143317923  0.0939824489508140   T   T   T
  0.5005180678244560  0.2492786117717483  0.0933761420171466   T   T   T
  0.0000999240333953  0.7505261856682078  0.0939824489508140   T   T   T
  0.5005180678244560  0.7507213882282516  0.0933761420171466   T   T   T
  0.2494819321755438  0.2492786117717483  0.0933761420171466   T   T   T
  0.7499000759666047  0.2494738143317923  0.0939824489508140   T   T   T
  0.2494819321755438  0.7507213882282516  0.0933761420171466   T   T   T
  0.7499000759666047  0.7505261856682078  0.0939824489508140   T   T   T
  0.0021444953910035  0.0000000000000000  0.1849393880210043   T   T   T
  0.5024237692547152  0.0000000000000000  0.1843049554611293   T   T   T
  0.0004195836747167  0.5000000000000000  0.1839826180962126   T   T   T
  0.5014889430982513  0.5000000000000000  0.1827011295304933   T   T   T
  0.2475762307452851  0.0000000000000000  0.1843049554611293   T   T   T
  0.7478555046089962  0.0000000000000000  0.1849393880210043   T   T   T
  0.2485110569017415  0.5000000000000000  0.1827011295304933   T   T   T
  0.7495804163252904  0.5000000000000000  0.1839826180962126   T   T   T
  0.1247771293837529  0.2454497049522073  0.1846129559783541   T   T   T
  0.6252228706162472  0.2454497049522073  0.1846129559783541   T   T   T
  0.1247771293837529  0.7545502950477927  0.1846129559783541   T   T   T
  0.6252228706162472  0.7545502950477927  0.1846129559783541   T   T   T
  0.3750000000000000  0.2468044662807030  0.1826298391594182   T   T   T
  0.8750000000000000  0.2493219530237304  0.1840732442863883   T   T   T
  0.3750000000000000  0.7531955337192974  0.1826298391594182   T   T   T
  0.8750000000000000  0.7506780469762694  0.1840732442863883   T   T   T
  0.1248795503808331  0.0000000000000000  0.2908126618075506   T   T   T
  0.6251203991851704  0.0000000000000000  0.2908126618075506   T   T   T
  0.1251019316442190  0.5000000000000000  0.2750542064647545   T   T   T
  0.6248980683557811  0.5000000000000000  0.2750542064647545   T   T   T
  0.3750000000000000  0.0000000000000000  0.2750219392622337   T   T   T
  0.8750000000000000  0.0000000000000000  0.2749683350463282   T   T   T
  0.3749999243470015  0.4999998991290013  0.2658400194236071   T   T   T
  0.8750000000000000  0.5000000000000000  0.2755409028276098   T   T   T
  0.0010416336404603  0.2483738781939583  0.2755846912256015   T   T   T
  0.5014569176661000  0.2467135356067985  0.2748105607276463   T   T   T
  0.0010416336404603  0.7516261218060416  0.2755846912256015   T   T   T
  0.5014569176661000  0.7532864643932017  0.2748105607276463   T   T   T
  0.2485430823338998  0.2467135356067985  0.2748105607276463   T   T   T
  0.7489583663595399  0.2483738781939583  0.2755846912256015   T   T   T
  0.2485430823338998  0.7532864643932017  0.2748105607276463   T   T   T
  0.7489583663595399  0.7516261218060416  0.2755846912256015   T   T   T
  0.3749999243470015  0.4999998991290013  0.3866405366381286   T   T   T
 
  0.00000000E+00  0.00000000E+00  0.00000000E+00
  0.00000000E+00  0.00000000E+00  0.00000000E+00
  0.00000000E+00  0.00000000E+00  0.00000000E+00
  0.00000000E+00  0.00000000E+00  0.00000000E+00
  0.00000000E+00  0.00000000E+00  0.00000000E+00
  0.00000000E+00  0.00000000E+00  0.00000000E+00
  0.00000000E+00  0.00000000E+00  0.00000000E+00
  0.00000000E+00  0.00000000E+00  0.00000000E+00
  0.00000000E+00  0.00000000E+00  0.00000000E+00
  0.00000000E+00  0.00000000E+00  0.00000000E+00
  0.00000000E+00  0.00000000E+00  0.00000000E+00
  0.00000000E+00  0.00000000E+00  0.00000000E+00
  0.00000000E+00  0.00000000E+00  0.00000000E+00
  0.00000000E+00  0.00000000E+00  0.00000000E+00
  0.00000000E+00  0.00000000E+00  0.00000000E+00
  0.00000000E+00  0.00000000E+00  0.00000000E+00
  0.00000000E+00  0.00000000E+00  0.00000000E+00
  0.00000000E+00  0.00000000E+00  0.00000000E+00
  0.00000000E+00  0.00000000E+00  0.00000000E+00
  0.00000000E+00  0.00000000E+00  0.00000000E+00
  0.00000000E+00  0.00000000E+00  0.00000000E+00
  0.00000000E+00  0.00000000E+00  0.00000000E+00
  0.00000000E+00  0.00000000E+00  0.00000000E+00
  0.00000000E+00  0.00000000E+00  0.00000000E+00
  0.00000000E+00  0.00000000E+00  0.00000000E+00
  0.00000000E+00  0.00000000E+00  0.00000000E+00
  0.00000000E+00  0.00000000E+00  0.00000000E+00
  0.00000000E+00  0.00000000E+00  0.00000000E+00
  0.00000000E+00  0.00000000E+00  0.00000000E+00
  0.00000000E+00  0.00000000E+00  0.00000000E+00
  0.00000000E+00  0.00000000E+00  0.00000000E+00
  0.00000000E+00  0.00000000E+00  0.00000000E+00
  0.00000000E+00  0.00000000E+00  0.00000000E+00
  0.00000000E+00  0.00000000E+00  0.00000000E+00
  0.00000000E+00  0.00000000E+00  0.00000000E+00
  0.00000000E+00  0.00000000E+00  0.00000000E+00
  0.00000000E+00  0.00000000E+00  0.00000000E+00
  0.00000000E+00  0.00000000E+00  0.00000000E+00
  0.00000000E+00  0.00000000E+00  0.00000000E+00
  0.00000000E+00  0.00000000E+00  0.00000000E+00
  0.00000000E+00  0.00000000E+00  0.00000000E+00
  0.00000000E+00  0.00000000E+00  0.00000000E+00
  0.00000000E+00  0.00000000E+00  0.00000000E+00
  0.00000000E+00  0.00000000E+00  0.00000000E+00
  0.00000000E+00  0.00000000E+00  0.00000000E+00
  0.00000000E+00  0.00000000E+00  0.00000000E+00
  0.00000000E+00  0.00000000E+00  0.00000000E+00
  0.00000000E+00  0.00000000E+00  0.00000000E+00
  0.00000000E+00  0.00000000E+00  0.00000000E+00
  0.00000000E+00  0.00000000E+00  0.00000000E+00
  0.00000000E+00  0.00000000E+00  0.00000000E+00
  0.00000000E+00  0.00000000E+00  0.00000000E+00
  0.00000000E+00  0.00000000E+00  0.00000000E+00
  0.00000000E+00  0.00000000E+00  0.00000000E+00
  0.00000000E+00  0.00000000E+00  0.00000000E+00
  0.00000000E+00  0.00000000E+00  0.00000000E+00
  0.00000000E+00  0.00000000E+00  0.00000000E+00
  0.00000000E+00  0.00000000E+00  0.00000000E+00
  0.00000000E+00  0.00000000E+00  0.00000000E+00
  0.00000000E+00  0.00000000E+00  0.00000000E+00
  0.00000000E+00  0.00000000E+00  0.00000000E+00
  0.00000000E+00  0.00000000E+00  0.00000000E+00
  0.00000000E+00  0.00000000E+00  0.00000000E+00
  0.00000000E+00  0.00000000E+00  0.00000000E+00
  0.00000000E+00  0.00000000E+00  0.00000000E+00
  0.00000000E+00  0.00000000E+00  0.00000000E+00
  0.00000000E+00  0.00000000E+00  0.00000000E+00
  0.00000000E+00  0.00000000E+00  0.00000000E+00
  0.00000000E+00  0.00000000E+00  0.00000000E+00
  0.00000000E+00  0.00000000E+00  0.00000000E+00
  0.00000000E+00  0.00000000E+00  0.00000000E+00
  0.00000000E+00  0.00000000E+00  0.00000000E+00
  0.00000000E+00  0.00000000E+00  0.00000000E+00
  0.00000000E+00  0.00000000E+00  0.00000000E+00
  0.00000000E+00  0.00000000E+00  0.00000000E+00
  0.00000000E+00  0.00000000E+00  0.00000000E+00
  0.00000000E+00  0.00000000E+00  0.00000000E+00
  0.00000000E+00  0.00000000E+00  0.00000000E+00
  0.00000000E+00  0.00000000E+00  0.00000000E+00
  0.00000000E+00  0.00000000E+00  0.00000000E+00
  0.00000000E+00  0.00000000E+00  0.00000000E+00
  0.00000000E+00  0.00000000E+00  0.00000000E+00
  0.00000000E+00  0.00000000E+00  0.00000000E+00
  0.00000000E+00  0.00000000E+00  0.00000000E+00
  0.00000000E+00  0.00000000E+00  0.00000000E+00
  0.00000000E+00  0.00000000E+00  0.00000000E+00
  0.00000000E+00  0.00000000E+00  0.00000000E+00
  0.00000000E+00  0.00000000E+00  0.00000000E+00
  0.00000000E+00  0.00000000E+00  0.00000000E+00
  0.00000000E+00  0.00000000E+00  0.00000000E+00
  0.00000000E+00  0.00000000E+00  0.00000000E+00
  0.00000000E+00  0.00000000E+00  0.00000000E+00
  0.00000000E+00  0.00000000E+00  0.00000000E+00
  0.00000000E+00  0.00000000E+00  0.00000000E+00
  0.00000000E+00  0.00000000E+00  0.00000000E+00
  0.00000000E+00  0.00000000E+00  0.00000000E+00
  0.00000000E+00  0.00000000E+00  0.00000000E+00
  0.00000000E+00  0.00000000E+00  0.00000000E+00
  0.00000000E+00  0.00000000E+00  0.00000000E+00
  0.00000000E+00  0.00000000E+00  0.00000000E+00
  0.00000000E+00  0.00000000E+00  0.00000000E+00
  0.00000000E+00  0.00000000E+00  0.00000000E+00
  0.00000000E+00  0.00000000E+00  0.00000000E+00
  0.00000000E+00  0.00000000E+00  0.00000000E+00
  0.00000000E+00  0.00000000E+00  0.00000000E+00
  0.00000000E+00  0.00000000E+00  0.00000000E+00
  0.00000000E+00  0.00000000E+00  0.00000000E+00
  0.00000000E+00  0.00000000E+00  0.00000000E+00
  0.00000000E+00  0.00000000E+00  0.00000000E+00
  0.00000000E+00  0.00000000E+00  0.00000000E+00
  0.00000000E+00  0.00000000E+00  0.00000000E+00
  0.00000000E+00  0.00000000E+00  0.00000000E+00
  0.00000000E+00  0.00000000E+00  0.00000000E+00
  0.00000000E+00  0.00000000E+00  0.00000000E+00
  0.00000000E+00  0.00000000E+00  0.00000000E+00
  0.00000000E+00  0.00000000E+00  0.00000000E+00
  0.00000000E+00  0.00000000E+00  0.00000000E+00
  0.00000000E+00  0.00000000E+00  0.00000000E+00
  0.00000000E+00  0.00000000E+00  0.00000000E+00
  0.00000000E+00  0.00000000E+00  0.00000000E+00
  0.00000000E+00  0.00000000E+00  0.00000000E+00
  0.00000000E+00  0.00000000E+00  0.00000000E+00
  0.00000000E+00  0.00000000E+00  0.00000000E+00
  0.00000000E+00  0.00000000E+00  0.00000000E+00
  0.00000000E+00  0.00000000E+00  0.00000000E+00
  0.00000000E+00  0.00000000E+00  0.00000000E+00
  0.00000000E+00  0.00000000E+00  0.00000000E+00
  0.00000000E+00  0.00000000E+00  0.00000000E+00
  0.00000000E+00  0.00000000E+00  0.00000000E+00
  0.00000000E+00  0.00000000E+00  0.00000000E+00
  0.00000000E+00  0.00000000E+00  0.00000000E+00
