H Mg O Co                               
   1.00000000000000     
    16.8282433949600012    0.0000000000000000    0.0000000000000000
     0.0000000000000000    8.4141216974800006    0.0000000000000000
     0.0000000000000000    0.0000000000000000   23.4141216974799988
   H    Mg   O    Co
     2    64    64     1
Selective dynamics
Direct
  0.1239679886985502  0.0000000000000000  0.3333786498068442   T   T   T
  0.6260319608674531  0.0000000000000000  0.3333786498068442   T   T   T
  0.1250543819401307  0.0000000000000000  0.0027595026084162   T   T   T
  0.6249456180598693  0.0000000000000000  0.0027595026084162   T   T   T
  0.1249635222169592  0.5000000000000000  0.0033704447987695   T   T   T
  0.6250364777830408  0.5000000000000000  0.0033704447987695   T   T   T
  0.3750000000000000  0.0000000000000000  0.0033882680803487   T   T   T
  0.8750000000000000  0.0000000000000000  0.0033016708240131   T   T   T
  0.3750000000000000  0.5000000000000000  0.0038843139400422   T   T   T
  0.8750000000000000  0.5000000000000000  0.0038142163410751   T   T   T
 -0.0001254941239297  0.2502921736250421  0.0035739728562157   T   T   T
  0.4998557857362977  0.2502348562455662  0.0036777990375987   T   T   T
 -0.0001254941239297  0.7497078263749576  0.0035739728562157   T   T   T
  0.4998557857362977  0.7497651437544341  0.0036777990375987   T   T   T
  0.2501442142637023  0.2502348562455662  0.0036777990375987   T   T   T
  0.7501254941239298  0.2502921736250421  0.0035739728562157   T   T   T
  0.2501442142637023  0.7497651437544341  0.0036777990375987   T   T   T
  0.7501254941239298  0.7497078263749576  0.0035739728562157   T   T   T
  0.9994401401376622  0.0000000000000000  0.0923928040302981   T   T   T
  0.4993364718572803  0.0000000000000000  0.0926948770046929   T   T   T
 -0.0001526480054058  0.5000000000000000  0.0934311200693048   T   T   T
  0.4998240936865427  0.5000000000000000  0.0936016796674817   T   T   T
  0.2506635281427197  0.0000000000000000  0.0926948770046929   T   T   T
  0.7505598598623378  0.0000000000000000  0.0923928040302981   T   T   T
  0.2501759063134573  0.5000000000000000  0.0936016796674817   T   T   T
  0.7501526480054058  0.5000000000000000  0.0934311200693048   T   T   T
  0.1250998500369755  0.2512331102431983  0.0925640904701141   T   T   T
  0.6249001499630246  0.2512331102431983  0.0925640904701141   T   T   T
  0.1250998500369755  0.7487668897568018  0.0925640904701141   T   T   T
  0.6249001499630246  0.7487668897568018  0.0925640904701141   T   T   T
  0.3750000000000000  0.2501883981937135  0.0937005351774909   T   T   T
  0.8750000000000000  0.2504581147883940  0.0933483279602977   T   T   T
  0.3750000000000000  0.7498116018062864  0.0937005351774909   T   T   T
  0.8750000000000000  0.7495418852116059  0.0933483279602977   T   T   T
  0.1253240128143101  0.0000000000000000  0.1777960393845011   T   T   T
  0.6246759871856901  0.0000000000000000  0.1777960393845011   T   T   T
  0.1257084168837274  0.5000000000000000  0.1837400534316689   T   T   T
  0.6242915831162726  0.5000000000000000  0.1837400534316689   T   T   T
  0.3750000000000000  0.0000000000000000  0.1839320144820255   T   T   T
  0.8750000000000000  0.0000000000000000  0.1835542920159523   T   T   T
  0.3750000000000000  0.5000000000000000  0.1837519223410627   T   T   T
  0.8750000000000000  0.5000000000000000  0.1840000844300723   T   T   T
  0.0000967859376088  0.2501502006770743  0.1841707555268571   T   T   T
  0.4991489007526598  0.2511889281087443  0.1847740534174388   T   T   T
  0.0000967859376088  0.7498497993229257  0.1841707555268571   T   T   T
  0.4991489007526598  0.7488110718912557  0.1847740534174388   T   T   T
  0.2508510992473401  0.2511889281087443  0.1847740534174388   T   T   T
  0.7499032140623910  0.2501502006770743  0.1841707555268571   T   T   T
  0.2508510992473401  0.7488110718912557  0.1847740534174388   T   T   T
  0.7499032140623910  0.7498497993229257  0.1841707555268571   T   T   T
  0.9946060310997173  0.0000000000000000  0.2741795085145511   T   T   T
  0.4942960271331650  0.0000000000000000  0.2735260168565354   T   T   T
  0.9992563094261115  0.5000000000000000  0.2741395723986714   T   T   T
  0.4985727239994403  0.5000000000000000  0.2786739849063651   T   T   T
  0.2557039728668350  0.0000000000000000  0.2735258037525334   T   T   T
  0.7553939689002827  0.0000000000000000  0.2741792954105491   T   T   T
  0.2514272760005597  0.5000000000000000  0.2786739849063651   T   T   T
  0.7507436905738885  0.5000000000000000  0.2741395723986714   T   T   T
  0.1252445332845717  0.2610429628308806  0.2737843456563537   T   T   T
  0.6247554667154283  0.2610429628308806  0.2737843456563537   T   T   T
  0.1252445332845717  0.7389570371691194  0.2737843456563537   T   T   T
  0.6247554667154283  0.7389570371691194  0.2737843456563537   T   T   T
  0.3750000000000000  0.2522129929545076  0.2786308596612066   T   T   T
  0.8750000000000000  0.2519007694570612  0.2743015881494155   T   T   T
  0.3750000000000000  0.7477870070454923  0.2786308596612066   T   T   T
  0.8750000000000000  0.7480992305429390  0.2743015881494155   T   T   T
  0.9996483901258031  0.0000000000000000  0.0015486721988654   T   T   T
  0.4999166882416184  0.0000000000000000  0.0014719709009910   T   T   T
 -0.0001652339290388  0.5000000000000000  0.0020592801643131   T   T   T
  0.5001527933065169  0.5000000000000000  0.0019878194702155   T   T   T
  0.2500833117583816  0.0000000000000000  0.0014719709009910   T   T   T
  0.7503516098741969  0.0000000000000000  0.0015486721988654   T   T   T
  0.2498472066934831  0.5000000000000000  0.0019878194702155   T   T   T
  0.7501652339290389  0.5000000000000000  0.0020592801643131   T   T   T
  0.1247848845467977  0.2504459264406187  0.0015244757175008   T   T   T
  0.6252151154532024  0.2504459264406187  0.0015244757175008   T   T   T
  0.1247848845467977  0.7495540735593811  0.0015244757175008   T   T   T
  0.6252151154532024  0.7495540735593811  0.0015244757175008   T   T   T
  0.3750000000000000  0.2500383278467228  0.0019328902905133   T   T   T
  0.8750000000000000  0.2500117806608738  0.0021019819352842   T   T   T
  0.3750000000000000  0.7499616721532771  0.0019328902905133   T   T   T
  0.8750000000000000  0.7499882193391262  0.0021019819352842   T   T   T
  0.1247248216778379  0.0000000000000000  0.0920376125320889   T   T   T
  0.6252751783221622  0.0000000000000000  0.0920376125320889   T   T   T
  0.1246540691182535  0.5000000000000000  0.0939573437153257   T   T   T
  0.6253459308817465  0.5000000000000000  0.0939573437153257   T   T   T
  0.3750000000000000  0.0000000000000000  0.0937662488691437   T   T   T
  0.8750000000000000  0.0000000000000000  0.0940994538522802   T   T   T
  0.3750000000000000  0.5000000000000000  0.0936672499180614   T   T   T
  0.8750000000000000  0.5000000000000000  0.0940250494167968   T   T   T
  0.0000750937562248  0.2494957337849122  0.0938853149479945   T   T   T
  0.5004506994489231  0.2494450298245402  0.0937238986525112   T   T   T
  0.0000750937562248  0.7505042662150876  0.0938853149479945   T   T   T
  0.5004506994489231  0.7505549701754595  0.0937238986525112   T   T   T
  0.2495493005510772  0.2494450298245402  0.0937238986525112   T   T   T
  0.7499249062437752  0.2494957337849122  0.0938853149479945   T   T   T
  0.2495493005510772  0.7505549701754595  0.0937238986525112   T   T   T
  0.7499249062437752  0.7505042662150876  0.0938853149479945   T   T   T
  0.0020518947438505  0.0000000000000000  0.1847799583006309   T   T   T
  0.5024896147529526  0.0000000000000000  0.1842124156526992   T   T   T
  0.0001383268607750  0.5000000000000000  0.1838331861666293   T   T   T
  0.5010695113878716  0.5000000000000000  0.1835721940921371   T   T   T
  0.2475103852470475  0.0000000000000000  0.1842124156526992   T   T   T
  0.7479481052561495  0.0000000000000000  0.1847799583006309   T   T   T
  0.2489304886121211  0.5000000000000000  0.1835721940921371   T   T   T
  0.7498616731392320  0.5000000000000000  0.1838331861666293   T   T   T
  0.1244915588827359  0.2454773853109756  0.1844918257847340   T   T   T
  0.6255084411172640  0.2454773853109756  0.1844918257847340   T   T   T
  0.1244915588827359  0.7545226146890245  0.1844918257847340   T   T   T
  0.6255084411172640  0.7545226146890245  0.1844918257847340   T   T   T
  0.3750000000000000  0.2481695691923065  0.1835176761011334   T   T   T
  0.8750000000000000  0.2493570247082400  0.1838934645045195   T   T   T
  0.3750000000000000  0.7518304308076936  0.1835176761011334   T   T   T
  0.8750000000000000  0.7506429752917597  0.1838934645045195   T   T   T
  0.1235478616398991  0.0000000000000000  0.2911791501809554   T   T   T
  0.6264520879261044  0.0000000000000000  0.2911791501809554   T   T   T
  0.1241790630927468  0.5000000000000000  0.2749085625373336   T   T   T
  0.6258209369072533  0.5000000000000000  0.2749085625373336   T   T   T
  0.3750000000000000  0.0000000000000000  0.2748346603597942   T   T   T
  0.8750000000000000  0.0000000000000000  0.2748903756379404   T   T   T
  0.3749999243470015  0.4999998991290013  0.2701933566412065   T   T   T
  0.8750000000000000  0.5000000000000000  0.2755585893804839   T   T   T
  0.0005949981428985  0.2485521224321499  0.2754029747222613   T   T   T
  0.5024931351233343  0.2453061437711382  0.2745239682797008   T   T   T
  0.0005949981428985  0.7514478775678501  0.2754029747222613   T   T   T
  0.5024931351233343  0.7546938562288620  0.2745239682797008   T   T   T
  0.2475068648766657  0.2453061437711382  0.2745239682797008   T   T   T
  0.7494050018571016  0.2485521224321499  0.2754029747222613   T   T   T
  0.2475068648766657  0.7546938562288620  0.2745239682797008   T   T   T
  0.7494050018571016  0.7514478775678501  0.2754029747222613   T   T   T
  0.3749999243470015  0.4999998991290013  0.3670247216722874   T   T   T
 
  0.00000000E+00  0.00000000E+00  0.00000000E+00
  0.00000000E+00  0.00000000E+00  0.00000000E+00
  0.00000000E+00  0.00000000E+00  0.00000000E+00
  0.00000000E+00  0.00000000E+00  0.00000000E+00
  0.00000000E+00  0.00000000E+00  0.00000000E+00
  0.00000000E+00  0.00000000E+00  0.00000000E+00
  0.00000000E+00  0.00000000E+00  0.00000000E+00
  0.00000000E+00  0.00000000E+00  0.00000000E+00
  0.00000000E+00  0.00000000E+00  0.00000000E+00
  0.00000000E+00  0.00000000E+00  0.00000000E+00
  0.00000000E+00  0.00000000E+00  0.00000000E+00
  0.00000000E+00  0.00000000E+00  0.00000000E+00
  0.00000000E+00  0.00000000E+00  0.00000000E+00
  0.00000000E+00  0.00000000E+00  0.00000000E+00
  0.00000000E+00  0.00000000E+00  0.00000000E+00
  0.00000000E+00  0.00000000E+00  0.00000000E+00
  0.00000000E+00  0.00000000E+00  0.00000000E+00
  0.00000000E+00  0.00000000E+00  0.00000000E+00
  0.00000000E+00  0.00000000E+00  0.00000000E+00
  0.00000000E+00  0.00000000E+00  0.00000000E+00
  0.00000000E+00  0.00000000E+00  0.00000000E+00
  0.00000000E+00  0.00000000E+00  0.00000000E+00
  0.00000000E+00  0.00000000E+00  0.00000000E+00
  0.00000000E+00  0.00000000E+00  0.00000000E+00
  0.00000000E+00  0.00000000E+00  0.00000000E+00
  0.00000000E+00  0.00000000E+00  0.00000000E+00
  0.00000000E+00  0.00000000E+00  0.00000000E+00
  0.00000000E+00  0.00000000E+00  0.00000000E+00
  0.00000000E+00  0.00000000E+00  0.00000000E+00
  0.00000000E+00  0.00000000E+00  0.00000000E+00
  0.00000000E+00  0.00000000E+00  0.00000000E+00
  0.00000000E+00  0.00000000E+00  0.00000000E+00
  0.00000000E+00  0.00000000E+00  0.00000000E+00
  0.00000000E+00  0.00000000E+00  0.00000000E+00
  0.00000000E+00  0.00000000E+00  0.00000000E+00
  0.00000000E+00  0.00000000E+00  0.00000000E+00
  0.00000000E+00  0.00000000E+00  0.00000000E+00
  0.00000000E+00  0.00000000E+00  0.00000000E+00
  0.00000000E+00  0.00000000E+00  0.00000000E+00
  0.00000000E+00  0.00000000E+00  0.00000000E+00
  0.00000000E+00  0.00000000E+00  0.00000000E+00
  0.00000000E+00  0.00000000E+00  0.00000000E+00
  0.00000000E+00  0.00000000E+00  0.00000000E+00
  0.00000000E+00  0.00000000E+00  0.00000000E+00
  0.00000000E+00  0.00000000E+00  0.00000000E+00
  0.00000000E+00  0.00000000E+00  0.00000000E+00
  0.00000000E+00  0.00000000E+00  0.00000000E+00
  0.00000000E+00  0.00000000E+00  0.00000000E+00
  0.00000000E+00  0.00000000E+00  0.00000000E+00
  0.00000000E+00  0.00000000E+00  0.00000000E+00
  0.00000000E+00  0.00000000E+00  0.00000000E+00
  0.00000000E+00  0.00000000E+00  0.00000000E+00
  0.00000000E+00  0.00000000E+00  0.00000000E+00
  0.00000000E+00  0.00000000E+00  0.00000000E+00
  0.00000000E+00  0.00000000E+00  0.00000000E+00
  0.00000000E+00  0.00000000E+00  0.00000000E+00
  0.00000000E+00  0.00000000E+00  0.00000000E+00
  0.00000000E+00  0.00000000E+00  0.00000000E+00
  0.00000000E+00  0.00000000E+00  0.00000000E+00
  0.00000000E+00  0.00000000E+00  0.00000000E+00
  0.00000000E+00  0.00000000E+00  0.00000000E+00
  0.00000000E+00  0.00000000E+00  0.00000000E+00
  0.00000000E+00  0.00000000E+00  0.00000000E+00
  0.00000000E+00  0.00000000E+00  0.00000000E+00
  0.00000000E+00  0.00000000E+00  0.00000000E+00
  0.00000000E+00  0.00000000E+00  0.00000000E+00
  0.00000000E+00  0.00000000E+00  0.00000000E+00
  0.00000000E+00  0.00000000E+00  0.00000000E+00
  0.00000000E+00  0.00000000E+00  0.00000000E+00
  0.00000000E+00  0.00000000E+00  0.00000000E+00
  0.00000000E+00  0.00000000E+00  0.00000000E+00
  0.00000000E+00  0.00000000E+00  0.00000000E+00
  0.00000000E+00  0.00000000E+00  0.00000000E+00
  0.00000000E+00  0.00000000E+00  0.00000000E+00
  0.00000000E+00  0.00000000E+00  0.00000000E+00
  0.00000000E+00  0.00000000E+00  0.00000000E+00
  0.00000000E+00  0.00000000E+00  0.00000000E+00
  0.00000000E+00  0.00000000E+00  0.00000000E+00
  0.00000000E+00  0.00000000E+00  0.00000000E+00
  0.00000000E+00  0.00000000E+00  0.00000000E+00
  0.00000000E+00  0.00000000E+00  0.00000000E+00
  0.00000000E+00  0.00000000E+00  0.00000000E+00
  0.00000000E+00  0.00000000E+00  0.00000000E+00
  0.00000000E+00  0.00000000E+00  0.00000000E+00
  0.00000000E+00  0.00000000E+00  0.00000000E+00
  0.00000000E+00  0.00000000E+00  0.00000000E+00
  0.00000000E+00  0.00000000E+00  0.00000000E+00
  0.00000000E+00  0.00000000E+00  0.00000000E+00
  0.00000000E+00  0.00000000E+00  0.00000000E+00
  0.00000000E+00  0.00000000E+00  0.00000000E+00
  0.00000000E+00  0.00000000E+00  0.00000000E+00
  0.00000000E+00  0.00000000E+00  0.00000000E+00
  0.00000000E+00  0.00000000E+00  0.00000000E+00
  0.00000000E+00  0.00000000E+00  0.00000000E+00
  0.00000000E+00  0.00000000E+00  0.00000000E+00
  0.00000000E+00  0.00000000E+00  0.00000000E+00
  0.00000000E+00  0.00000000E+00  0.00000000E+00
  0.00000000E+00  0.00000000E+00  0.00000000E+00
  0.00000000E+00  0.00000000E+00  0.00000000E+00
  0.00000000E+00  0.00000000E+00  0.00000000E+00
  0.00000000E+00  0.00000000E+00  0.00000000E+00
  0.00000000E+00  0.00000000E+00  0.00000000E+00
  0.00000000E+00  0.00000000E+00  0.00000000E+00
  0.00000000E+00  0.00000000E+00  0.00000000E+00
  0.00000000E+00  0.00000000E+00  0.00000000E+00
  0.00000000E+00  0.00000000E+00  0.00000000E+00
  0.00000000E+00  0.00000000E+00  0.00000000E+00
  0.00000000E+00  0.00000000E+00  0.00000000E+00
  0.00000000E+00  0.00000000E+00  0.00000000E+00
  0.00000000E+00  0.00000000E+00  0.00000000E+00
  0.00000000E+00  0.00000000E+00  0.00000000E+00
  0.00000000E+00  0.00000000E+00  0.00000000E+00
  0.00000000E+00  0.00000000E+00  0.00000000E+00
  0.00000000E+00  0.00000000E+00  0.00000000E+00
  0.00000000E+00  0.00000000E+00  0.00000000E+00
  0.00000000E+00  0.00000000E+00  0.00000000E+00
  0.00000000E+00  0.00000000E+00  0.00000000E+00
  0.00000000E+00  0.00000000E+00  0.00000000E+00
  0.00000000E+00  0.00000000E+00  0.00000000E+00
  0.00000000E+00  0.00000000E+00  0.00000000E+00
  0.00000000E+00  0.00000000E+00  0.00000000E+00
  0.00000000E+00  0.00000000E+00  0.00000000E+00
  0.00000000E+00  0.00000000E+00  0.00000000E+00
  0.00000000E+00  0.00000000E+00  0.00000000E+00
  0.00000000E+00  0.00000000E+00  0.00000000E+00
  0.00000000E+00  0.00000000E+00  0.00000000E+00
  0.00000000E+00  0.00000000E+00  0.00000000E+00
  0.00000000E+00  0.00000000E+00  0.00000000E+00
  0.00000000E+00  0.00000000E+00  0.00000000E+00
  0.00000000E+00  0.00000000E+00  0.00000000E+00
  0.00000000E+00  0.00000000E+00  0.00000000E+00
