H Mg O Rh                               
   1.00000000000000     
    16.8282433949600012    0.0000000000000000    0.0000000000000000
     0.0000000000000000    8.4141216974800006    0.0000000000000000
     0.0000000000000000    0.0000000000000000   23.4141216974799988
   H    Mg   O    Rh
     2    64    64     1
Selective dynamics
Direct
  0.1242668833529185 -0.0000000000000000  0.3336918596350782   T   T   T
  0.6257330662130851 -0.0000000000000000  0.3336918596350782   T   T   T
  0.1251610590582919 -0.0000000000000000  0.0028162637641120   T   T   T
  0.6248389409417081 -0.0000000000000000  0.0028162637641120   T   T   T
  0.1250921733182004  0.5000000000000000  0.0034370176460536   T   T   T
  0.6249078266817996  0.5000000000000000  0.0034370176460536   T   T   T
  0.3750000000000000 -0.0000000000000000  0.0035016689004285   T   T   T
  0.8750000000000000 -0.0000000000000000  0.0032951827485881   T   T   T
  0.3750000000000000  0.5000000000000000  0.0040304396197407   T   T   T
  0.8750000000000000  0.5000000000000000  0.0038560243277682   T   T   T
 -0.0000549650591289  0.2503418600419409  0.0036110076960902   T   T   T
  0.4997315922513761  0.2502957297579356  0.0038029843786582   T   T   T
 -0.0000549650591289  0.7496581399580589  0.0036110076960902   T   T   T
  0.4997315922513761  0.7497042702420644  0.0038029843786582   T   T   T
  0.2502684077486239  0.2502957297579356  0.0038029843786582   T   T   T
  0.7500549650591288  0.2503418600419409  0.0036110076960902   T   T   T
  0.2502684077486239  0.7497042702420644  0.0038029843786582   T   T   T
  0.7500549650591288  0.7496581399580589  0.0036110076960902   T   T   T
  0.9995558303612522 -0.0000000000000000  0.0923449537833519   T   T   T
  0.4992166514583415 -0.0000000000000000  0.0928296460266532   T   T   T
 -0.0000478165868067  0.5000000000000000  0.0934246649750985   T   T   T
  0.4998389102071721  0.5000000000000000  0.0938512883319204   T   T   T
  0.2507833485416585 -0.0000000000000000  0.0928296460266532   T   T   T
  0.7504441696387478 -0.0000000000000000  0.0923449537833519   T   T   T
  0.2501610897928279  0.5000000000000000  0.0938512883319204   T   T   T
  0.7500478165868066  0.5000000000000000  0.0934246649750985   T   T   T
  0.1252518155895017  0.2512274042489708  0.0926179498271549   T   T   T
  0.6247481844104981  0.2512274042489708  0.0926179498271549   T   T   T
  0.1252518155895017  0.7487725957510292  0.0926179498271549   T   T   T
  0.6247481844104981  0.7487725957510292  0.0926179498271549   T   T   T
  0.3750000000000000  0.2499948071558668  0.0939524541471906   T   T   T
  0.8750000000000000  0.2504395394732688  0.0933082916403808   T   T   T
  0.3750000000000000  0.7500051928441333  0.0939524541471906   T   T   T
  0.8750000000000000  0.7495604605267315  0.0933082916403808   T   T   T
  0.1254201209528660 -0.0000000000000000  0.1777197480775349   T   T   T
  0.6245798790471341 -0.0000000000000000  0.1777197480775349   T   T   T
  0.1258928690053135  0.5000000000000000  0.1838917343940817   T   T   T
  0.6241071309946864  0.5000000000000000  0.1838917343940817   T   T   T
  0.3750000000000000 -0.0000000000000000  0.1843538783798950   T   T   T
  0.8750000000000000 -0.0000000000000000  0.1834189787584341   T   T   T
  0.3750000000000000  0.5000000000000000  0.1837554799001162   T   T   T
  0.8750000000000000  0.5000000000000000  0.1838422803833045   T   T   T
  0.0000694884208761  0.2501154093198893  0.1840051069060782   T   T   T
  0.4990337049610023  0.2514846679135179  0.1852568856420809   T   T   T
  0.0000694884208761  0.7498845906801104  0.1840051069060782   T   T   T
  0.4990337049610023  0.7485153320864818  0.1852568856420809   T   T   T
  0.2509662950389977  0.2514846679135179  0.1852568856420809   T   T   T
  0.7499305115791238  0.2501154093198893  0.1840051069060782   T   T   T
  0.2509662950389977  0.7485153320864818  0.1852568856420809   T   T   T
  0.7499305115791238  0.7498845906801104  0.1840051069060782   T   T   T
  0.9944952755615943 -0.0000000000000000  0.2740558702913246   T   T   T
  0.4945288779121326 -0.0000000000000000  0.2734755901488355   T   T   T
  0.9990295106650466  0.5000000000000000  0.2740093495655904   T   T   T
  0.4996783531322247  0.5000000000000000  0.2804131709099733   T   T   T
  0.2554711220878674 -0.0000000000000000  0.2734753770448335   T   T   T
  0.7555047244384057 -0.0000000000000000  0.2740556571873226   T   T   T
  0.2503216468677753  0.5000000000000000  0.2804131709099733   T   T   T
  0.7509704893349534  0.5000000000000000  0.2740093495655904   T   T   T
  0.1247542670316893  0.2607470063232534  0.2737286756460783   T   T   T
  0.6252457329683109  0.2607470063232534  0.2737286756460783   T   T   T
  0.1247542670316893  0.7392529936767468  0.2737286756460783   T   T   T
  0.6252457329683109  0.7392529936767468  0.2737286756460783   T   T   T
  0.3750000000000000  0.2506056726669393  0.2806117926932456   T   T   T
  0.8750000000000000  0.2519580136856868  0.2739927326725800   T   T   T
  0.3750000000000000  0.7493943273330607  0.2806117926932456   T   T   T
  0.8750000000000000  0.7480419863143133  0.2739927326725800   T   T   T
  0.9996776192934529 -0.0000000000000000  0.0014472357104587   T   T   T
  0.4999265596597982 -0.0000000000000000  0.0014699238332208   T   T   T
 -0.0001618355583235  0.5000000000000000  0.0020305947114601   T   T   T
  0.5001228605867541  0.5000000000000000  0.0020428195847154   T   T   T
  0.2500734403402018 -0.0000000000000000  0.0014699238332208   T   T   T
  0.7503223807065471 -0.0000000000000000  0.0014472357104587   T   T   T
  0.2498771394132459  0.5000000000000000  0.0020428195847154   T   T   T
  0.7501618355583235  0.5000000000000000  0.0020305947114601   T   T   T
  0.1248252117488398  0.2504412196155721  0.0014760337854496   T   T   T
  0.6251747882511599  0.2504412196155721  0.0014760337854496   T   T   T
  0.1248252117488398  0.7495587803844279  0.0014760337854496   T   T   T
  0.6251747882511599  0.7495587803844279  0.0014760337854496   T   T   T
  0.3750000000000000  0.2500554550880806  0.0020059067591993   T   T   T
  0.8750000000000000  0.2500435111382977  0.0020280073354569   T   T   T
  0.3750000000000000  0.7499445449119196  0.0020059067591993   T   T   T
  0.8750000000000000  0.7499564888617019  0.0020280073354569   T   T   T
  0.1247423498737687 -0.0000000000000000  0.0919743709503331   T   T   T
  0.6252576501262314 -0.0000000000000000  0.0919743709503331   T   T   T
  0.1246868159332456  0.5000000000000000  0.0939666379765003   T   T   T
  0.6253131840667545  0.5000000000000000  0.0939666379765003   T   T   T
  0.3750000000000000 -0.0000000000000000  0.0938453702532945   T   T   T
  0.8750000000000000 -0.0000000000000000  0.0940337883203268   T   T   T
  0.3750000000000000  0.5000000000000000  0.0937522339359929   T   T   T
  0.8750000000000000  0.5000000000000000  0.0939354769911648   T   T   T
  0.0000760284964482  0.2494403289393063  0.0938000287034834   T   T   T
  0.5004232736509466  0.2495328211503023  0.0938146959119547   T   T   T
  0.0000760284964482  0.7505596710606937  0.0938000287034834   T   T   T
  0.5004232736509466  0.7504671788496979  0.0938146959119547   T   T   T
  0.2495767263490534  0.2495328211503023  0.0938146959119547   T   T   T
  0.7499239715035519  0.2494403289393063  0.0938000287034834   T   T   T
  0.2495767263490534  0.7504671788496979  0.0938146959119547   T   T   T
  0.7499239715035519  0.7505596710606937  0.0938000287034834   T   T   T
  0.0020175140441086 -0.0000000000000000  0.1847623580887296   T   T   T
  0.5024541258606091 -0.0000000000000000  0.1840920550402823   T   T   T
  0.0000912797939824  0.5000000000000000  0.1838132785626791   T   T   T
  0.5010659047611300  0.5000000000000000  0.1838712676763371   T   T   T
  0.2475458741393911 -0.0000000000000000  0.1840920550402823   T   T   T
  0.7479824859558916 -0.0000000000000000  0.1847623580887296   T   T   T
  0.2489340952388627  0.5000000000000000  0.1838712676763371   T   T   T
  0.7499087202060249  0.5000000000000000  0.1838132785626791   T   T   T
  0.1241688201344494  0.2455209680330621  0.1844200082737789   T   T   T
  0.6258311798655507  0.2455209680330621  0.1844200082737789   T   T   T
  0.1241688201344494  0.7544790319669380  0.1844200082737789   T   T   T
  0.6258311798655507  0.7544790319669380  0.1844200082737789   T   T   T
  0.3750000000000000  0.2483643074091984  0.1838314772461244   T   T   T
  0.8750000000000000  0.2491948515581074  0.1837967061943965   T   T   T
  0.3750000000000000  0.7516356925908014  0.1838314772461244   T   T   T
  0.8750000000000000  0.7508051484418931  0.1837967061943965   T   T   T
  0.1220787859927011 -0.0000000000000000  0.2915960912943921   T   T   T
  0.6279211635733025 -0.0000000000000000  0.2915960912943921   T   T   T
  0.1235201021289679  0.5000000000000000  0.2752198459793145   T   T   T
  0.6264798978710320  0.5000000000000000  0.2752198459793145   T   T   T
  0.3750000000000000 -0.0000000000000000  0.2754242041130563   T   T   T
  0.8750000000000000 -0.0000000000000000  0.2749386041309040   T   T   T
  0.3749999243470015  0.4999998991290013  0.2690548435349584   T   T   T
  0.8750000000000000  0.5000000000000000  0.2755136654657825   T   T   T
  0.0002176893115014  0.2485238681057210  0.2753753710721022   T   T   T
  0.5036998876073758  0.2436494739423003  0.2743580141759733   T   T   T
  0.0002176893115014  0.7514761318942791  0.2753753710721022   T   T   T
  0.5036998876073758  0.7563505260576998  0.2743580141759733   T   T   T
  0.2463001123926241  0.2436494739423003  0.2743580141759733   T   T   T
  0.7497823106884987  0.2485238681057210  0.2753753710721022   T   T   T
  0.2463001123926241  0.7563505260576998  0.2743580141759733   T   T   T
  0.7497823106884987  0.7514761318942791  0.2753753710721022   T   T   T
  0.3749999243470015  0.4999998991290013  0.3562266956875048   T   T   T
 
  0.00000000E+00  0.00000000E+00  0.00000000E+00
  0.00000000E+00  0.00000000E+00  0.00000000E+00
  0.00000000E+00  0.00000000E+00  0.00000000E+00
  0.00000000E+00  0.00000000E+00  0.00000000E+00
  0.00000000E+00  0.00000000E+00  0.00000000E+00
  0.00000000E+00  0.00000000E+00  0.00000000E+00
  0.00000000E+00  0.00000000E+00  0.00000000E+00
  0.00000000E+00  0.00000000E+00  0.00000000E+00
  0.00000000E+00  0.00000000E+00  0.00000000E+00
  0.00000000E+00  0.00000000E+00  0.00000000E+00
  0.00000000E+00  0.00000000E+00  0.00000000E+00
  0.00000000E+00  0.00000000E+00  0.00000000E+00
  0.00000000E+00  0.00000000E+00  0.00000000E+00
  0.00000000E+00  0.00000000E+00  0.00000000E+00
  0.00000000E+00  0.00000000E+00  0.00000000E+00
  0.00000000E+00  0.00000000E+00  0.00000000E+00
  0.00000000E+00  0.00000000E+00  0.00000000E+00
  0.00000000E+00  0.00000000E+00  0.00000000E+00
  0.00000000E+00  0.00000000E+00  0.00000000E+00
  0.00000000E+00  0.00000000E+00  0.00000000E+00
  0.00000000E+00  0.00000000E+00  0.00000000E+00
  0.00000000E+00  0.00000000E+00  0.00000000E+00
  0.00000000E+00  0.00000000E+00  0.00000000E+00
  0.00000000E+00  0.00000000E+00  0.00000000E+00
  0.00000000E+00  0.00000000E+00  0.00000000E+00
  0.00000000E+00  0.00000000E+00  0.00000000E+00
  0.00000000E+00  0.00000000E+00  0.00000000E+00
  0.00000000E+00  0.00000000E+00  0.00000000E+00
  0.00000000E+00  0.00000000E+00  0.00000000E+00
  0.00000000E+00  0.00000000E+00  0.00000000E+00
  0.00000000E+00  0.00000000E+00  0.00000000E+00
  0.00000000E+00  0.00000000E+00  0.00000000E+00
  0.00000000E+00  0.00000000E+00  0.00000000E+00
  0.00000000E+00  0.00000000E+00  0.00000000E+00
  0.00000000E+00  0.00000000E+00  0.00000000E+00
  0.00000000E+00  0.00000000E+00  0.00000000E+00
  0.00000000E+00  0.00000000E+00  0.00000000E+00
  0.00000000E+00  0.00000000E+00  0.00000000E+00
  0.00000000E+00  0.00000000E+00  0.00000000E+00
  0.00000000E+00  0.00000000E+00  0.00000000E+00
  0.00000000E+00  0.00000000E+00  0.00000000E+00
  0.00000000E+00  0.00000000E+00  0.00000000E+00
  0.00000000E+00  0.00000000E+00  0.00000000E+00
  0.00000000E+00  0.00000000E+00  0.00000000E+00
  0.00000000E+00  0.00000000E+00  0.00000000E+00
  0.00000000E+00  0.00000000E+00  0.00000000E+00
  0.00000000E+00  0.00000000E+00  0.00000000E+00
  0.00000000E+00  0.00000000E+00  0.00000000E+00
  0.00000000E+00  0.00000000E+00  0.00000000E+00
  0.00000000E+00  0.00000000E+00  0.00000000E+00
  0.00000000E+00  0.00000000E+00  0.00000000E+00
  0.00000000E+00  0.00000000E+00  0.00000000E+00
  0.00000000E+00  0.00000000E+00  0.00000000E+00
  0.00000000E+00  0.00000000E+00  0.00000000E+00
  0.00000000E+00  0.00000000E+00  0.00000000E+00
  0.00000000E+00  0.00000000E+00  0.00000000E+00
  0.00000000E+00  0.00000000E+00  0.00000000E+00
  0.00000000E+00  0.00000000E+00  0.00000000E+00
  0.00000000E+00  0.00000000E+00  0.00000000E+00
  0.00000000E+00  0.00000000E+00  0.00000000E+00
  0.00000000E+00  0.00000000E+00  0.00000000E+00
  0.00000000E+00  0.00000000E+00  0.00000000E+00
  0.00000000E+00  0.00000000E+00  0.00000000E+00
  0.00000000E+00  0.00000000E+00  0.00000000E+00
  0.00000000E+00  0.00000000E+00  0.00000000E+00
  0.00000000E+00  0.00000000E+00  0.00000000E+00
  0.00000000E+00  0.00000000E+00  0.00000000E+00
  0.00000000E+00  0.00000000E+00  0.00000000E+00
  0.00000000E+00  0.00000000E+00  0.00000000E+00
  0.00000000E+00  0.00000000E+00  0.00000000E+00
  0.00000000E+00  0.00000000E+00  0.00000000E+00
  0.00000000E+00  0.00000000E+00  0.00000000E+00
  0.00000000E+00  0.00000000E+00  0.00000000E+00
  0.00000000E+00  0.00000000E+00  0.00000000E+00
  0.00000000E+00  0.00000000E+00  0.00000000E+00
  0.00000000E+00  0.00000000E+00  0.00000000E+00
  0.00000000E+00  0.00000000E+00  0.00000000E+00
  0.00000000E+00  0.00000000E+00  0.00000000E+00
  0.00000000E+00  0.00000000E+00  0.00000000E+00
  0.00000000E+00  0.00000000E+00  0.00000000E+00
  0.00000000E+00  0.00000000E+00  0.00000000E+00
  0.00000000E+00  0.00000000E+00  0.00000000E+00
  0.00000000E+00  0.00000000E+00  0.00000000E+00
  0.00000000E+00  0.00000000E+00  0.00000000E+00
  0.00000000E+00  0.00000000E+00  0.00000000E+00
  0.00000000E+00  0.00000000E+00  0.00000000E+00
  0.00000000E+00  0.00000000E+00  0.00000000E+00
  0.00000000E+00  0.00000000E+00  0.00000000E+00
  0.00000000E+00  0.00000000E+00  0.00000000E+00
  0.00000000E+00  0.00000000E+00  0.00000000E+00
  0.00000000E+00  0.00000000E+00  0.00000000E+00
  0.00000000E+00  0.00000000E+00  0.00000000E+00
  0.00000000E+00  0.00000000E+00  0.00000000E+00
  0.00000000E+00  0.00000000E+00  0.00000000E+00
  0.00000000E+00  0.00000000E+00  0.00000000E+00
  0.00000000E+00  0.00000000E+00  0.00000000E+00
  0.00000000E+00  0.00000000E+00  0.00000000E+00
  0.00000000E+00  0.00000000E+00  0.00000000E+00
  0.00000000E+00  0.00000000E+00  0.00000000E+00
  0.00000000E+00  0.00000000E+00  0.00000000E+00
  0.00000000E+00  0.00000000E+00  0.00000000E+00
  0.00000000E+00  0.00000000E+00  0.00000000E+00
  0.00000000E+00  0.00000000E+00  0.00000000E+00
  0.00000000E+00  0.00000000E+00  0.00000000E+00
  0.00000000E+00  0.00000000E+00  0.00000000E+00
  0.00000000E+00  0.00000000E+00  0.00000000E+00
  0.00000000E+00  0.00000000E+00  0.00000000E+00
  0.00000000E+00  0.00000000E+00  0.00000000E+00
  0.00000000E+00  0.00000000E+00  0.00000000E+00
  0.00000000E+00  0.00000000E+00  0.00000000E+00
  0.00000000E+00  0.00000000E+00  0.00000000E+00
  0.00000000E+00  0.00000000E+00  0.00000000E+00
  0.00000000E+00  0.00000000E+00  0.00000000E+00
  0.00000000E+00  0.00000000E+00  0.00000000E+00
  0.00000000E+00  0.00000000E+00  0.00000000E+00
  0.00000000E+00  0.00000000E+00  0.00000000E+00
  0.00000000E+00  0.00000000E+00  0.00000000E+00
  0.00000000E+00  0.00000000E+00  0.00000000E+00
  0.00000000E+00  0.00000000E+00  0.00000000E+00
  0.00000000E+00  0.00000000E+00  0.00000000E+00
  0.00000000E+00  0.00000000E+00  0.00000000E+00
  0.00000000E+00  0.00000000E+00  0.00000000E+00
  0.00000000E+00  0.00000000E+00  0.00000000E+00
  0.00000000E+00  0.00000000E+00  0.00000000E+00
  0.00000000E+00  0.00000000E+00  0.00000000E+00
  0.00000000E+00  0.00000000E+00  0.00000000E+00
  0.00000000E+00  0.00000000E+00  0.00000000E+00
  0.00000000E+00  0.00000000E+00  0.00000000E+00
  0.00000000E+00  0.00000000E+00  0.00000000E+00
  0.00000000E+00  0.00000000E+00  0.00000000E+00
  0.00000000E+00  0.00000000E+00  0.00000000E+00
