H Mg O Ag                               
   1.00000000000000     
    16.8282433949600012    0.0000000000000000    0.0000000000000000
     0.0000000000000000    8.4141216974800006    0.0000000000000000
     0.0000000000000000    0.0000000000000000   23.4141216974799988
   H    Mg   O    Ag
     2    64    64     1
Selective dynamics
Direct
  0.1242015496585332  0.0000000000000000  0.3332965530522687   T   T   T
  0.6257983999074700  0.0000000000000000  0.3332965530522687   T   T   T
  0.1248711456033946  0.0000000000000000  0.0026251309741650   T   T   T
  0.6251288543966056  0.0000000000000000  0.0026251309741650   T   T   T
  0.1248582473054218  0.5000000000000000  0.0031614570408110   T   T   T
  0.6251417526945781  0.5000000000000000  0.0031614570408110   T   T   T
  0.3750000000000000  0.0000000000000000  0.0030846653051074   T   T   T
  0.8750000000000000  0.0000000000000000  0.0032216055647972   T   T   T
  0.3750000000000000  0.5000000000000000  0.0034880486758196   T   T   T
  0.8750000000000000  0.5000000000000000  0.0037056980988230   T   T   T
 -0.0002154608846944  0.2502876364018420  0.0034440141152168   T   T   T
  0.4999290509599555  0.2502704626692776  0.0033228243826616   T   T   T
 -0.0002154608846944  0.7497123635981583  0.0034440141152168   T   T   T
  0.4999290509599555  0.7497295373307222  0.0033228243826616   T   T   T
  0.2500709490400445  0.2502704626692776  0.0033228243826616   T   T   T
  0.7502154608846944  0.2502876364018420  0.0034440141152168   T   T   T
  0.2500709490400445  0.7497295373307222  0.0033228243826616   T   T   T
  0.7502154608846944  0.7497123635981583  0.0034440141152168   T   T   T
  0.9995455119735750  0.0000000000000000  0.0923945973043405   T   T   T
  0.4993548772798689  0.0000000000000000  0.0923670702741838   T   T   T
 -0.0000733478187588  0.5000000000000000  0.0933359288381395   T   T   T
  0.4999742571636272  0.5000000000000000  0.0932186755678225   T   T   T
  0.2506451227201311  0.0000000000000000  0.0923670702741838   T   T   T
  0.7504544880264250  0.0000000000000000  0.0923945973043405   T   T   T
  0.2500257428363722  0.5000000000000000  0.0932186755678225   T   T   T
  0.7500733478187586  0.5000000000000000  0.0933359288381395   T   T   T
  0.1251455818512053  0.2510972783970307  0.0923900845849614   T   T   T
  0.6248544181487948  0.2510972783970307  0.0923900845849614   T   T   T
  0.1251455818512053  0.7489027216029693  0.0923900845849614   T   T   T
  0.6248544181487948  0.7489027216029693  0.0923900845849614   T   T   T
  0.3750000000000000  0.2497991135126919  0.0931904479698510   T   T   T
  0.8750000000000000  0.2503917943998260  0.0933836641261334   T   T   T
  0.3750000000000000  0.7502008864873082  0.0931904479698510   T   T   T
  0.8750000000000000  0.7496082056001739  0.0933836641261334   T   T   T
  0.1254017654406664  0.0000000000000000  0.1778194385054789   T   T   T
  0.6245982345593338  0.0000000000000000  0.1778194385054789   T   T   T
  0.1258285873288024  0.5000000000000000  0.1836119411011879   T   T   T
  0.6241714126711974  0.5000000000000000  0.1836119411011879   T   T   T
  0.3750000000000000  0.0000000000000000  0.1836511872974543   T   T   T
  0.8750000000000000  0.0000000000000000  0.1835969254767626   T   T   T
  0.3750000000000000  0.5000000000000000  0.1826680294657348   T   T   T
  0.8750000000000000  0.5000000000000000  0.1839498541036569   T   T   T
  0.0002393086850291  0.2500526279707730  0.1841836073306543   T   T   T
  0.4991222419498440  0.2511157553827073  0.1844422611693162   T   T   T
  0.0002393086850291  0.7499473720292270  0.1841836073306543   T   T   T
  0.4991222419498440  0.7488842446172929  0.1844422611693162   T   T   T
  0.2508777580501560  0.2511157553827073  0.1844422611693162   T   T   T
  0.7497606913149711  0.2500526279707730  0.1841836073306543   T   T   T
  0.2508777580501560  0.7488842446172929  0.1844422611693162   T   T   T
  0.7497606913149711  0.7499473720292270  0.1841836073306543   T   T   T
  0.9947055859849008  0.0000000000000000  0.2742892507460086   T   T   T
  0.4938267099711928  0.0000000000000000  0.2736194550057113   T   T   T
  0.9994708498452590  0.5000000000000000  0.2741125225910858   T   T   T
  0.4969906057175699  0.5000000000000000  0.2775681470799250   T   T   T
  0.2561732900288072  0.0000000000000000  0.2736192419017093   T   T   T
  0.7552944140150992  0.0000000000000000  0.2742890376420066   T   T   T
  0.2530093942824300  0.5000000000000000  0.2775681470799250   T   T   T
  0.7505291501547410  0.5000000000000000  0.2741125225910858   T   T   T
  0.1257816815329560  0.2614577330963266  0.2738717550710236   T   T   T
  0.6242183184670440  0.2614577330963266  0.2738717550710236   T   T   T
  0.1257816815329560  0.7385422669036733  0.2738717550710236   T   T   T
  0.6242183184670440  0.7385422669036733  0.2738717550710236   T   T   T
  0.3750000000000000  0.2547344650754352  0.2774073056345552   T   T   T
  0.8750000000000000  0.2520429860091153  0.2743133485247505   T   T   T
  0.3750000000000000  0.7452655349245645  0.2774073056345552   T   T   T
  0.8750000000000000  0.7479570139908847  0.2743133485247505   T   T   T
  0.9995405671206321  0.0000000000000000  0.0015420270865258   T   T   T
  0.5000984927976548  0.0000000000000000  0.0011699641969486   T   T   T
 -0.0003246433967583  0.5000000000000000  0.0020142421688487   T   T   T
  0.5002806635265102  0.5000000000000000  0.0016767743103582   T   T   T
  0.2499015072023451  0.0000000000000000  0.0011699641969486   T   T   T
  0.7504594328793679  0.0000000000000000  0.0015420270865258   T   T   T
  0.2497193364734898  0.5000000000000000  0.0016767743103582   T   T   T
  0.7503246433967584  0.5000000000000000  0.0020142421688487   T   T   T
  0.1246199180010812  0.2503613160957543  0.0013469170213394   T   T   T
  0.6253800819989187  0.2503613160957543  0.0013469170213394   T   T   T
  0.1246199180010812  0.7496386839042457  0.0013469170213394   T   T   T
  0.6253800819989187  0.7496386839042457  0.0013469170213394   T   T   T
  0.3750000000000000  0.2500581167787275  0.0015963669967415   T   T   T
  0.8750000000000000  0.2500392059630925  0.0020903053099349   T   T   T
  0.3750000000000000  0.7499418832212723  0.0015963669967415   T   T   T
  0.8750000000000000  0.7499607940369073  0.0020903053099349   T   T   T
  0.1246836269757998  0.0000000000000000  0.0919630088354549   T   T   T
  0.6253163730242005  0.0000000000000000  0.0919630088354549   T   T   T
  0.1245393865135697  0.5000000000000000  0.0937438812180591   T   T   T
  0.6254606134864305  0.5000000000000000  0.0937438812180591   T   T   T
  0.3750000000000000  0.0000000000000000  0.0932849272704747   T   T   T
  0.8750000000000000  0.0000000000000000  0.0941871466660362   T   T   T
  0.3750000000000000  0.5000000000000000  0.0931655610733486   T   T   T
  0.8750000000000000  0.5000000000000000  0.0939719740077795   T   T   T
  0.0000570928268979  0.2494113136551677  0.0939143591406525   T   T   T
  0.5005476506419076  0.2493938031828596  0.0934050518761778   T   T   T
  0.0000570928268979  0.7505886863448324  0.0939143591406525   T   T   T
  0.5005476506419076  0.7506061968171402  0.0934050518761778   T   T   T
  0.2494523493580921  0.2493938031828596  0.0934050518761778   T   T   T
  0.7499429071731022  0.2494113136551677  0.0939143591406525   T   T   T
  0.2494523493580921  0.7506061968171402  0.0934050518761778   T   T   T
  0.7499429071731022  0.7505886863448324  0.0939143591406525   T   T   T
  0.0021064934674247  0.0000000000000000  0.1848985150763101   T   T   T
  0.5024725427868338  0.0000000000000000  0.1842513819265988   T   T   T
  0.0003719097204860  0.5000000000000000  0.1838835339707490   T   T   T
  0.5013556556557226  0.5000000000000000  0.1830185826724761   T   T   T
  0.2475274572131659  0.0000000000000000  0.1842513819265988   T   T   T
  0.7478935065325750  0.0000000000000000  0.1848985150763101   T   T   T
  0.2486443443442707  0.5000000000000000  0.1830185826724761   T   T   T
  0.7496280902795212  0.5000000000000000  0.1838835339707490   T   T   T
  0.1246640454764300  0.2454426089385675  0.1845735295435604   T   T   T
  0.6253359545235704  0.2454426089385675  0.1845735295435604   T   T   T
  0.1246640454764300  0.7545573910614326  0.1845735295435604   T   T   T
  0.6253359545235704  0.7545573910614326  0.1845735295435604   T   T   T
  0.3750000000000000  0.2473036533334208  0.1829170651099909   T   T   T
  0.8750000000000000  0.2491865550224693  0.1839790094772608   T   T   T
  0.3750000000000000  0.7526963466665794  0.1829170651099909   T   T   T
  0.8750000000000000  0.7508134449775310  0.1839790094772608   T   T   T
  0.1245808727341361  0.0000000000000000  0.2911134820896832   T   T   T
  0.6254190768318675  0.0000000000000000  0.2911134820896832   T   T   T
  0.1247822504162161  0.5000000000000000  0.2748945403202591   T   T   T
  0.6252177495837842  0.5000000000000000  0.2748945403202591   T   T   T
  0.3750000000000000  0.0000000000000000  0.2747391614519695   T   T   T
  0.8750000000000000  0.0000000000000000  0.2749416454663499   T   T   T
  0.3749999243470015  0.4999998991290013  0.2678583075536990   T   T   T
  0.8750000000000000  0.5000000000000000  0.2753920805793162   T   T   T
  0.0009457044272728  0.2483579384739092  0.2755072189521502   T   T   T
  0.5016679577136504  0.2464798222944449  0.2746506163408656   T   T   T
  0.0009457044272728  0.7516420615260906  0.2755072189521502   T   T   T
  0.5016679577136504  0.7535201777055551  0.2746506163408656   T   T   T
  0.2483320422863494  0.2464798222944449  0.2746506163408656   T   T   T
  0.7490542955727273  0.2483579384739092  0.2755072189521502   T   T   T
  0.2483320422863494  0.7535201777055551  0.2746506163408656   T   T   T
  0.7490542955727273  0.7516420615260906  0.2755072189521502   T   T   T
  0.3749999243470015  0.4999998991290013  0.3893448684433182   T   T   T
 
  0.00000000E+00  0.00000000E+00  0.00000000E+00
  0.00000000E+00  0.00000000E+00  0.00000000E+00
  0.00000000E+00  0.00000000E+00  0.00000000E+00
  0.00000000E+00  0.00000000E+00  0.00000000E+00
  0.00000000E+00  0.00000000E+00  0.00000000E+00
  0.00000000E+00  0.00000000E+00  0.00000000E+00
  0.00000000E+00  0.00000000E+00  0.00000000E+00
  0.00000000E+00  0.00000000E+00  0.00000000E+00
  0.00000000E+00  0.00000000E+00  0.00000000E+00
  0.00000000E+00  0.00000000E+00  0.00000000E+00
  0.00000000E+00  0.00000000E+00  0.00000000E+00
  0.00000000E+00  0.00000000E+00  0.00000000E+00
  0.00000000E+00  0.00000000E+00  0.00000000E+00
  0.00000000E+00  0.00000000E+00  0.00000000E+00
  0.00000000E+00  0.00000000E+00  0.00000000E+00
  0.00000000E+00  0.00000000E+00  0.00000000E+00
  0.00000000E+00  0.00000000E+00  0.00000000E+00
  0.00000000E+00  0.00000000E+00  0.00000000E+00
  0.00000000E+00  0.00000000E+00  0.00000000E+00
  0.00000000E+00  0.00000000E+00  0.00000000E+00
  0.00000000E+00  0.00000000E+00  0.00000000E+00
  0.00000000E+00  0.00000000E+00  0.00000000E+00
  0.00000000E+00  0.00000000E+00  0.00000000E+00
  0.00000000E+00  0.00000000E+00  0.00000000E+00
  0.00000000E+00  0.00000000E+00  0.00000000E+00
  0.00000000E+00  0.00000000E+00  0.00000000E+00
  0.00000000E+00  0.00000000E+00  0.00000000E+00
  0.00000000E+00  0.00000000E+00  0.00000000E+00
  0.00000000E+00  0.00000000E+00  0.00000000E+00
  0.00000000E+00  0.00000000E+00  0.00000000E+00
  0.00000000E+00  0.00000000E+00  0.00000000E+00
  0.00000000E+00  0.00000000E+00  0.00000000E+00
  0.00000000E+00  0.00000000E+00  0.00000000E+00
  0.00000000E+00  0.00000000E+00  0.00000000E+00
  0.00000000E+00  0.00000000E+00  0.00000000E+00
  0.00000000E+00  0.00000000E+00  0.00000000E+00
  0.00000000E+00  0.00000000E+00  0.00000000E+00
  0.00000000E+00  0.00000000E+00  0.00000000E+00
  0.00000000E+00  0.00000000E+00  0.00000000E+00
  0.00000000E+00  0.00000000E+00  0.00000000E+00
  0.00000000E+00  0.00000000E+00  0.00000000E+00
  0.00000000E+00  0.00000000E+00  0.00000000E+00
  0.00000000E+00  0.00000000E+00  0.00000000E+00
  0.00000000E+00  0.00000000E+00  0.00000000E+00
  0.00000000E+00  0.00000000E+00  0.00000000E+00
  0.00000000E+00  0.00000000E+00  0.00000000E+00
  0.00000000E+00  0.00000000E+00  0.00000000E+00
  0.00000000E+00  0.00000000E+00  0.00000000E+00
  0.00000000E+00  0.00000000E+00  0.00000000E+00
  0.00000000E+00  0.00000000E+00  0.00000000E+00
  0.00000000E+00  0.00000000E+00  0.00000000E+00
  0.00000000E+00  0.00000000E+00  0.00000000E+00
  0.00000000E+00  0.00000000E+00  0.00000000E+00
  0.00000000E+00  0.00000000E+00  0.00000000E+00
  0.00000000E+00  0.00000000E+00  0.00000000E+00
  0.00000000E+00  0.00000000E+00  0.00000000E+00
  0.00000000E+00  0.00000000E+00  0.00000000E+00
  0.00000000E+00  0.00000000E+00  0.00000000E+00
  0.00000000E+00  0.00000000E+00  0.00000000E+00
  0.00000000E+00  0.00000000E+00  0.00000000E+00
  0.00000000E+00  0.00000000E+00  0.00000000E+00
  0.00000000E+00  0.00000000E+00  0.00000000E+00
  0.00000000E+00  0.00000000E+00  0.00000000E+00
  0.00000000E+00  0.00000000E+00  0.00000000E+00
  0.00000000E+00  0.00000000E+00  0.00000000E+00
  0.00000000E+00  0.00000000E+00  0.00000000E+00
  0.00000000E+00  0.00000000E+00  0.00000000E+00
  0.00000000E+00  0.00000000E+00  0.00000000E+00
  0.00000000E+00  0.00000000E+00  0.00000000E+00
  0.00000000E+00  0.00000000E+00  0.00000000E+00
  0.00000000E+00  0.00000000E+00  0.00000000E+00
  0.00000000E+00  0.00000000E+00  0.00000000E+00
  0.00000000E+00  0.00000000E+00  0.00000000E+00
  0.00000000E+00  0.00000000E+00  0.00000000E+00
  0.00000000E+00  0.00000000E+00  0.00000000E+00
  0.00000000E+00  0.00000000E+00  0.00000000E+00
  0.00000000E+00  0.00000000E+00  0.00000000E+00
  0.00000000E+00  0.00000000E+00  0.00000000E+00
  0.00000000E+00  0.00000000E+00  0.00000000E+00
  0.00000000E+00  0.00000000E+00  0.00000000E+00
  0.00000000E+00  0.00000000E+00  0.00000000E+00
  0.00000000E+00  0.00000000E+00  0.00000000E+00
  0.00000000E+00  0.00000000E+00  0.00000000E+00
  0.00000000E+00  0.00000000E+00  0.00000000E+00
  0.00000000E+00  0.00000000E+00  0.00000000E+00
  0.00000000E+00  0.00000000E+00  0.00000000E+00
  0.00000000E+00  0.00000000E+00  0.00000000E+00
  0.00000000E+00  0.00000000E+00  0.00000000E+00
  0.00000000E+00  0.00000000E+00  0.00000000E+00
  0.00000000E+00  0.00000000E+00  0.00000000E+00
  0.00000000E+00  0.00000000E+00  0.00000000E+00
  0.00000000E+00  0.00000000E+00  0.00000000E+00
  0.00000000E+00  0.00000000E+00  0.00000000E+00
  0.00000000E+00  0.00000000E+00  0.00000000E+00
  0.00000000E+00  0.00000000E+00  0.00000000E+00
  0.00000000E+00  0.00000000E+00  0.00000000E+00
  0.00000000E+00  0.00000000E+00  0.00000000E+00
  0.00000000E+00  0.00000000E+00  0.00000000E+00
  0.00000000E+00  0.00000000E+00  0.00000000E+00
  0.00000000E+00  0.00000000E+00  0.00000000E+00
  0.00000000E+00  0.00000000E+00  0.00000000E+00
  0.00000000E+00  0.00000000E+00  0.00000000E+00
  0.00000000E+00  0.00000000E+00  0.00000000E+00
  0.00000000E+00  0.00000000E+00  0.00000000E+00
  0.00000000E+00  0.00000000E+00  0.00000000E+00
  0.00000000E+00  0.00000000E+00  0.00000000E+00
  0.00000000E+00  0.00000000E+00  0.00000000E+00
  0.00000000E+00  0.00000000E+00  0.00000000E+00
  0.00000000E+00  0.00000000E+00  0.00000000E+00
  0.00000000E+00  0.00000000E+00  0.00000000E+00
  0.00000000E+00  0.00000000E+00  0.00000000E+00
  0.00000000E+00  0.00000000E+00  0.00000000E+00
  0.00000000E+00  0.00000000E+00  0.00000000E+00
  0.00000000E+00  0.00000000E+00  0.00000000E+00
  0.00000000E+00  0.00000000E+00  0.00000000E+00
  0.00000000E+00  0.00000000E+00  0.00000000E+00
  0.00000000E+00  0.00000000E+00  0.00000000E+00
  0.00000000E+00  0.00000000E+00  0.00000000E+00
  0.00000000E+00  0.00000000E+00  0.00000000E+00
  0.00000000E+00  0.00000000E+00  0.00000000E+00
  0.00000000E+00  0.00000000E+00  0.00000000E+00
  0.00000000E+00  0.00000000E+00  0.00000000E+00
  0.00000000E+00  0.00000000E+00  0.00000000E+00
  0.00000000E+00  0.00000000E+00  0.00000000E+00
  0.00000000E+00  0.00000000E+00  0.00000000E+00
  0.00000000E+00  0.00000000E+00  0.00000000E+00
  0.00000000E+00  0.00000000E+00  0.00000000E+00
  0.00000000E+00  0.00000000E+00  0.00000000E+00
  0.00000000E+00  0.00000000E+00  0.00000000E+00
  0.00000000E+00  0.00000000E+00  0.00000000E+00
  0.00000000E+00  0.00000000E+00  0.00000000E+00
