H Mg O                                  
   1.00000000000000     
    16.8282433949600012    0.0000000000000000    0.0000000000000000
     0.0000000000000000    8.4141216974800006    0.0000000000000000
     0.0000000000000000    0.0000000000000000   23.4141216974799988
   H    Mg   O 
     2    64    64
Selective dynamics
Direct
  0.1249999747830017  0.0000000000000000  0.3286613346764529   T   T   T
  0.6249999747830017  0.0000000000000000  0.3286613346764529   T   T   T
  0.1250000000000000  0.0000000000000000  0.0034555327542755   T   T   T
  0.6250000000000000  0.0000000000000000  0.0034555327542755   T   T   T
  0.1250000000000000  0.5000000000000000  0.0037624358545663   T   T   T
  0.6250000000000000  0.5000000000000000  0.0037624358545663   T   T   T
  0.3750000000000000  0.0000000000000000  0.0037632202244947   T   T   T
  0.8750000000000000  0.0000000000000000  0.0037632202244947   T   T   T
  0.3750000000000000  0.5000000000000000  0.0039984509865303   T   T   T
  0.8750000000000000  0.5000000000000000  0.0039984509865303   T   T   T
  0.9999339692528026  0.2501237189986380  0.0039147065041880   T   T   T
  0.4999339692528027  0.2501237189986380  0.0039147065041880   T   T   T
  0.9999339692528026  0.7498762810013621  0.0039147065041880   T   T   T
  0.4999339692528027  0.7498762810013621  0.0039147065041880   T   T   T
  0.2500660307471973  0.2501237189986380  0.0039147065041880   T   T   T
  0.7500660307471974  0.2501237189986380  0.0039147065041880   T   T   T
  0.2500660307471973  0.7498762810013621  0.0039147065041880   T   T   T
  0.7500660307471974  0.7498762810013621  0.0039147065041880   T   T   T
  0.9996586175429277  0.0000000000000000  0.0931146484994691   T   T   T
  0.4996586175429278  0.0000000000000000  0.0931146484994691   T   T   T
  0.9998897997242627  0.5000000000000000  0.0936083800708010   T   T   T
  0.4998897997242627  0.5000000000000000  0.0936083800708010   T   T   T
  0.2503413824570722  0.0000000000000000  0.0931146484994691   T   T   T
  0.7503413824570723  0.0000000000000000  0.0931146484994691   T   T   T
  0.2501102002757373  0.5000000000000000  0.0936083800708010   T   T   T
  0.7501102002757373  0.5000000000000000  0.0936083800708010   T   T   T
  0.1250000000000000  0.2506947175729917  0.0931217292262133   T   T   T
  0.6250000000000000  0.2506947175729917  0.0931217292262133   T   T   T
  0.1250000000000000  0.7493052824270082  0.0931217292262133   T   T   T
  0.6250000000000000  0.7493052824270082  0.0931217292262133   T   T   T
  0.3750000000000000  0.2502209363852201  0.0936128426503846   T   T   T
  0.8750000000000000  0.2502209363852201  0.0936128426503846   T   T   T
  0.3750000000000000  0.7497790636147801  0.0936128426503846   T   T   T
  0.8750000000000000  0.7497790636147801  0.0936128426503846   T   T   T
  0.1250000000000000  0.0000000000000000  0.1801531771165835   T   T   T
  0.6250000000000000  0.0000000000000000  0.1801531771165835   T   T   T
  0.1250000000000000  0.5000000000000000  0.1839147840645449   T   T   T
  0.6250000000000000  0.5000000000000000  0.1839147840645449   T   T   T
  0.3750000000000000  0.0000000000000000  0.1839161178875840   T   T   T
  0.8750000000000000  0.0000000000000000  0.1839161178875840   T   T   T
  0.3750000000000000  0.5000000000000000  0.1839560717210970   T   T   T
  0.8750000000000000  0.5000000000000000  0.1839560717210970   T   T   T
  0.0000834692031023  0.2498345167264231  0.1845227012687358   T   T   T
  0.5000834692031023  0.2498345167264231  0.1845227012687358   T   T   T
  0.0000834692031023  0.7501654832735769  0.1845227012687358   T   T   T
  0.5000834692031023  0.7501654832735769  0.1845227012687358   T   T   T
  0.2499165307968977  0.2498345167264231  0.1845227012687358   T   T   T
  0.7499165307968977  0.2498345167264231  0.1845227012687358   T   T   T
  0.2499165307968977  0.7501654832735769  0.1845227012687358   T   T   T
  0.7499165307968977  0.7501654832735769  0.1845227012687358   T   T   T
  0.9947306533062773  0.0000000000000000  0.2753406139772898   T   T   T
  0.4947306533062772  0.0000000000000000  0.2753406139772898   T   T   T
  0.9990148275527723  0.5000000000000000  0.2741157936187187   T   T   T
  0.4990148275527722  0.5000000000000000  0.2741157936187187   T   T   T
  0.2552693466937228  0.0000000000000000  0.2753404008732949   T   T   T
  0.7552693466937227  0.0000000000000000  0.2753404008732949   T   T   T
  0.2509851724472278  0.5000000000000000  0.2741157936187187   T   T   T
  0.7509851724472277  0.5000000000000000  0.2741157936187187   T   T   T
  0.1250000000000000  0.2605613668489188  0.2753368601121229   T   T   T
  0.6250000000000000  0.2605613668489188  0.2753368601121229   T   T   T
  0.1250000000000000  0.7394386331510813  0.2753368601121229   T   T   T
  0.6250000000000000  0.7394386331510813  0.2753368601121229   T   T   T
  0.3750000000000000  0.2519545818436297  0.2741208363884421   T   T   T
  0.8750000000000000  0.2519545818436297  0.2741208363884421   T   T   T
  0.3750000000000000  0.7480454181563703  0.2741208363884421   T   T   T
  0.8750000000000000  0.7480454181563703  0.2741208363884421   T   T   T
  0.9999056760313406  0.0000000000000000  0.0018705977414331   T   T   T
  0.4999056760313405  0.0000000000000000  0.0018705977414331   T   T   T
  0.0000181485384924  0.5000000000000000  0.0021166707970048   T   T   T
  0.5000181485384925  0.5000000000000000  0.0021166707970048   T   T   T
  0.2500943239686595  0.0000000000000000  0.0018705977414331   T   T   T
  0.7500943239686594  0.0000000000000000  0.0018705977414331   T   T   T
  0.2499818514615076  0.5000000000000000  0.0021166707970048   T   T   T
  0.7499818514615075  0.5000000000000000  0.0021166707970048   T   T   T
  0.1250000000000000  0.2501836436006649  0.0018728017587362   T   T   T
  0.6250000000000000  0.2501836436006649  0.0018728017587362   T   T   T
  0.1250000000000000  0.7498163563993351  0.0018728017587362   T   T   T
  0.6250000000000000  0.7498163563993351  0.0018728017587362   T   T   T
  0.3750000000000000  0.2499552578037292  0.0021177555238820   T   T   T
  0.8750000000000000  0.2499552578037292  0.0021177555238820   T   T   T
  0.3750000000000000  0.7500447421962708  0.0021177555238820   T   T   T
  0.8750000000000000  0.7500447421962708  0.0021177555238820   T   T   T
  0.1250000000000000  0.0000000000000000  0.0930443679915893   T   T   T
  0.6250000000000000  0.0000000000000000  0.0930443679915893   T   T   T
  0.1250000000000000  0.5000000000000000  0.0941207323046640   T   T   T
  0.6250000000000000  0.5000000000000000  0.0941207323046640   T   T   T
  0.3750000000000000  0.0000000000000000  0.0941196811297034   T   T   T
  0.8750000000000000  0.0000000000000000  0.0941196811297034   T   T   T
  0.3750000000000000  0.5000000000000000  0.0938750449101917   T   T   T
  0.8750000000000000  0.5000000000000000  0.0938750449101917   T   T   T
  0.0002344467562825  0.2495274146969725  0.0939952688406772   T   T   T
  0.5002344467562825  0.2495274146969725  0.0939952688406772   T   T   T
  0.0002344467562825  0.7504725853030275  0.0939952688406772   T   T   T
  0.5002344467562825  0.7504725853030275  0.0939952688406772   T   T   T
  0.2497655532437175  0.2495274146969725  0.0939952688406772   T   T   T
  0.7497655532437175  0.2495274146969725  0.0939952688406772   T   T   T
  0.2497655532437175  0.7504725853030275  0.0939952688406772   T   T   T
  0.7497655532437175  0.7504725853030275  0.0939952688406772   T   T   T
  0.0016479396565427  0.0000000000000000  0.1848463703951278   T   T   T
  0.5016479396565426  0.0000000000000000  0.1848463703951278   T   T   T
  0.0002758244293135  0.5000000000000000  0.1837074366107283   T   T   T
  0.5002758244293135  0.5000000000000000  0.1837074366107283   T   T   T
  0.2483520603434573  0.0000000000000000  0.1848463703951278   T   T   T
  0.7483520603434574  0.0000000000000000  0.1848463703951278   T   T   T
  0.2497241755706865  0.5000000000000000  0.1837074366107283   T   T   T
  0.7497241755706865  0.5000000000000000  0.1837074366107283   T   T   T
  0.1250000000000000  0.2467035575342023  0.1848455205966608   T   T   T
  0.6250000000000000  0.2467035575342023  0.1848455205966608   T   T   T
  0.1250000000000000  0.7532964424657977  0.1848455205966608   T   T   T
  0.6250000000000000  0.7532964424657977  0.1848455205966608   T   T   T
  0.3750000000000000  0.2494466379819647  0.1836955306259815   T   T   T
  0.8750000000000000  0.2494466379819647  0.1836955306259815   T   T   T
  0.3750000000000000  0.7505533620180352  0.1836955306259815   T   T   T
  0.8750000000000000  0.7505533620180352  0.1836955306259815   T   T   T
  0.1249999747830017  0.0000000000000000  0.2854762955041750   T   T   T
  0.6249999747830017  0.0000000000000000  0.2854762955041750   T   T   T
  0.1250000000000000  0.5000000000000000  0.2749041658847222   T   T   T
  0.6250000000000000  0.5000000000000000  0.2749041658847222   T   T   T
  0.3750000000000000  0.0000000000000000  0.2748986672822999   T   T   T
  0.8750000000000000  0.0000000000000000  0.2748986672822999   T   T   T
  0.3750000000000000  0.5000000000000000  0.2751537693705804   T   T   T
  0.8750000000000000  0.5000000000000000  0.2751537693705804   T   T   T
  0.0001810607430711  0.2496392611958698  0.2751546538566351   T   T   T
  0.5001810607430712  0.2496392611958698  0.2751546538566351   T   T   T
  0.0001810607430711  0.7503607388041302  0.2751546538566351   T   T   T
  0.5001810607430712  0.7503607388041302  0.2751546538566351   T   T   T
  0.2498189392569289  0.2496392611958698  0.2751546538566351   T   T   T
  0.7498189392569288  0.2496392611958698  0.2751546538566351   T   T   T
  0.2498189392569289  0.7503607388041302  0.2751546538566351   T   T   T
  0.7498189392569288  0.7503607388041302  0.2751546538566351   T   T   T
 
  0.00000000E+00  0.00000000E+00  0.00000000E+00
  0.00000000E+00  0.00000000E+00  0.00000000E+00
  0.00000000E+00  0.00000000E+00  0.00000000E+00
  0.00000000E+00  0.00000000E+00  0.00000000E+00
  0.00000000E+00  0.00000000E+00  0.00000000E+00
  0.00000000E+00  0.00000000E+00  0.00000000E+00
  0.00000000E+00  0.00000000E+00  0.00000000E+00
  0.00000000E+00  0.00000000E+00  0.00000000E+00
  0.00000000E+00  0.00000000E+00  0.00000000E+00
  0.00000000E+00  0.00000000E+00  0.00000000E+00
  0.00000000E+00  0.00000000E+00  0.00000000E+00
  0.00000000E+00  0.00000000E+00  0.00000000E+00
  0.00000000E+00  0.00000000E+00  0.00000000E+00
  0.00000000E+00  0.00000000E+00  0.00000000E+00
  0.00000000E+00  0.00000000E+00  0.00000000E+00
  0.00000000E+00  0.00000000E+00  0.00000000E+00
  0.00000000E+00  0.00000000E+00  0.00000000E+00
  0.00000000E+00  0.00000000E+00  0.00000000E+00
  0.00000000E+00  0.00000000E+00  0.00000000E+00
  0.00000000E+00  0.00000000E+00  0.00000000E+00
  0.00000000E+00  0.00000000E+00  0.00000000E+00
  0.00000000E+00  0.00000000E+00  0.00000000E+00
  0.00000000E+00  0.00000000E+00  0.00000000E+00
  0.00000000E+00  0.00000000E+00  0.00000000E+00
  0.00000000E+00  0.00000000E+00  0.00000000E+00
  0.00000000E+00  0.00000000E+00  0.00000000E+00
  0.00000000E+00  0.00000000E+00  0.00000000E+00
  0.00000000E+00  0.00000000E+00  0.00000000E+00
  0.00000000E+00  0.00000000E+00  0.00000000E+00
  0.00000000E+00  0.00000000E+00  0.00000000E+00
  0.00000000E+00  0.00000000E+00  0.00000000E+00
  0.00000000E+00  0.00000000E+00  0.00000000E+00
  0.00000000E+00  0.00000000E+00  0.00000000E+00
  0.00000000E+00  0.00000000E+00  0.00000000E+00
  0.00000000E+00  0.00000000E+00  0.00000000E+00
  0.00000000E+00  0.00000000E+00  0.00000000E+00
  0.00000000E+00  0.00000000E+00  0.00000000E+00
  0.00000000E+00  0.00000000E+00  0.00000000E+00
  0.00000000E+00  0.00000000E+00  0.00000000E+00
  0.00000000E+00  0.00000000E+00  0.00000000E+00
  0.00000000E+00  0.00000000E+00  0.00000000E+00
  0.00000000E+00  0.00000000E+00  0.00000000E+00
  0.00000000E+00  0.00000000E+00  0.00000000E+00
  0.00000000E+00  0.00000000E+00  0.00000000E+00
  0.00000000E+00  0.00000000E+00  0.00000000E+00
  0.00000000E+00  0.00000000E+00  0.00000000E+00
  0.00000000E+00  0.00000000E+00  0.00000000E+00
  0.00000000E+00  0.00000000E+00  0.00000000E+00
  0.00000000E+00  0.00000000E+00  0.00000000E+00
  0.00000000E+00  0.00000000E+00  0.00000000E+00
  0.00000000E+00  0.00000000E+00  0.00000000E+00
  0.00000000E+00  0.00000000E+00  0.00000000E+00
  0.00000000E+00  0.00000000E+00  0.00000000E+00
  0.00000000E+00  0.00000000E+00  0.00000000E+00
  0.00000000E+00  0.00000000E+00  0.00000000E+00
  0.00000000E+00  0.00000000E+00  0.00000000E+00
  0.00000000E+00  0.00000000E+00  0.00000000E+00
  0.00000000E+00  0.00000000E+00  0.00000000E+00
  0.00000000E+00  0.00000000E+00  0.00000000E+00
  0.00000000E+00  0.00000000E+00  0.00000000E+00
  0.00000000E+00  0.00000000E+00  0.00000000E+00
  0.00000000E+00  0.00000000E+00  0.00000000E+00
  0.00000000E+00  0.00000000E+00  0.00000000E+00
  0.00000000E+00  0.00000000E+00  0.00000000E+00
  0.00000000E+00  0.00000000E+00  0.00000000E+00
  0.00000000E+00  0.00000000E+00  0.00000000E+00
  0.00000000E+00  0.00000000E+00  0.00000000E+00
  0.00000000E+00  0.00000000E+00  0.00000000E+00
  0.00000000E+00  0.00000000E+00  0.00000000E+00
  0.00000000E+00  0.00000000E+00  0.00000000E+00
  0.00000000E+00  0.00000000E+00  0.00000000E+00
  0.00000000E+00  0.00000000E+00  0.00000000E+00
  0.00000000E+00  0.00000000E+00  0.00000000E+00
  0.00000000E+00  0.00000000E+00  0.00000000E+00
  0.00000000E+00  0.00000000E+00  0.00000000E+00
  0.00000000E+00  0.00000000E+00  0.00000000E+00
  0.00000000E+00  0.00000000E+00  0.00000000E+00
  0.00000000E+00  0.00000000E+00  0.00000000E+00
  0.00000000E+00  0.00000000E+00  0.00000000E+00
  0.00000000E+00  0.00000000E+00  0.00000000E+00
  0.00000000E+00  0.00000000E+00  0.00000000E+00
  0.00000000E+00  0.00000000E+00  0.00000000E+00
  0.00000000E+00  0.00000000E+00  0.00000000E+00
  0.00000000E+00  0.00000000E+00  0.00000000E+00
  0.00000000E+00  0.00000000E+00  0.00000000E+00
  0.00000000E+00  0.00000000E+00  0.00000000E+00
  0.00000000E+00  0.00000000E+00  0.00000000E+00
  0.00000000E+00  0.00000000E+00  0.00000000E+00
  0.00000000E+00  0.00000000E+00  0.00000000E+00
  0.00000000E+00  0.00000000E+00  0.00000000E+00
  0.00000000E+00  0.00000000E+00  0.00000000E+00
  0.00000000E+00  0.00000000E+00  0.00000000E+00
  0.00000000E+00  0.00000000E+00  0.00000000E+00
  0.00000000E+00  0.00000000E+00  0.00000000E+00
  0.00000000E+00  0.00000000E+00  0.00000000E+00
  0.00000000E+00  0.00000000E+00  0.00000000E+00
  0.00000000E+00  0.00000000E+00  0.00000000E+00
  0.00000000E+00  0.00000000E+00  0.00000000E+00
  0.00000000E+00  0.00000000E+00  0.00000000E+00
  0.00000000E+00  0.00000000E+00  0.00000000E+00
  0.00000000E+00  0.00000000E+00  0.00000000E+00
  0.00000000E+00  0.00000000E+00  0.00000000E+00
  0.00000000E+00  0.00000000E+00  0.00000000E+00
  0.00000000E+00  0.00000000E+00  0.00000000E+00
  0.00000000E+00  0.00000000E+00  0.00000000E+00
  0.00000000E+00  0.00000000E+00  0.00000000E+00
  0.00000000E+00  0.00000000E+00  0.00000000E+00
  0.00000000E+00  0.00000000E+00  0.00000000E+00
  0.00000000E+00  0.00000000E+00  0.00000000E+00
  0.00000000E+00  0.00000000E+00  0.00000000E+00
  0.00000000E+00  0.00000000E+00  0.00000000E+00
  0.00000000E+00  0.00000000E+00  0.00000000E+00
  0.00000000E+00  0.00000000E+00  0.00000000E+00
  0.00000000E+00  0.00000000E+00  0.00000000E+00
  0.00000000E+00  0.00000000E+00  0.00000000E+00
  0.00000000E+00  0.00000000E+00  0.00000000E+00
  0.00000000E+00  0.00000000E+00  0.00000000E+00
  0.00000000E+00  0.00000000E+00  0.00000000E+00
  0.00000000E+00  0.00000000E+00  0.00000000E+00
  0.00000000E+00  0.00000000E+00  0.00000000E+00
  0.00000000E+00  0.00000000E+00  0.00000000E+00
  0.00000000E+00  0.00000000E+00  0.00000000E+00
  0.00000000E+00  0.00000000E+00  0.00000000E+00
  0.00000000E+00  0.00000000E+00  0.00000000E+00
  0.00000000E+00  0.00000000E+00  0.00000000E+00
  0.00000000E+00  0.00000000E+00  0.00000000E+00
  0.00000000E+00  0.00000000E+00  0.00000000E+00
  0.00000000E+00  0.00000000E+00  0.00000000E+00
  0.00000000E+00  0.00000000E+00  0.00000000E+00
  0.00000000E+00  0.00000000E+00  0.00000000E+00
