H Mg O Ni                               
   1.00000000000000     
    16.8282433949600012    0.0000000000000000    0.0000000000000000
     0.0000000000000000    8.4141216974800006    0.0000000000000000
     0.0000000000000000    0.0000000000000000   23.4141216974799988
   H    Mg   O    Ni
     2    64    64     1
Selective dynamics
Direct
  0.1241509469663668 -0.0000000000000000  0.3333561572429753   T   T   T
  0.6258490025996367 -0.0000000000000000  0.3333561572429753   T   T   T
  0.1251044696960397 -0.0000000000000000  0.0028028065518893   T   T   T
  0.6248955303039604 -0.0000000000000000  0.0028028065518893   T   T   T
  0.1250520367031020  0.5000000000000000  0.0034299604167718   T   T   T
  0.6249479632968979  0.5000000000000000  0.0034299604167718   T   T   T
  0.3750000000000000 -0.0000000000000000  0.0034946502345371   T   T   T
  0.8750000000000000 -0.0000000000000000  0.0033120904041409   T   T   T
  0.3750000000000000  0.5000000000000000  0.0040948487580817   T   T   T
  0.8750000000000000  0.5000000000000000  0.0038553288360203   T   T   T
 -0.0000742915909775  0.2502853796692870  0.0036123523508129   T   T   T
  0.4997858853001741  0.2502789385423302  0.0038031541606271   T   T   T
 -0.0000742915909775  0.7497146203307132  0.0036123523508129   T   T   T
  0.4997858853001741  0.7497210614576697  0.0038031541606271   T   T   T
  0.2502141146998259  0.2502789385423302  0.0038031541606271   T   T   T
  0.7500742915909777  0.2502853796692870  0.0036123523508129   T   T   T
  0.2502141146998259  0.7497210614576697  0.0038031541606271   T   T   T
  0.7500742915909777  0.7497146203307132  0.0036123523508129   T   T   T
  0.9994507393744022 -0.0000000000000000  0.0924005489815734   T   T   T
  0.4992810595353147 -0.0000000000000000  0.0928366997869030   T   T   T
 -0.0001238554193791  0.5000000000000000  0.0934746763927088   T   T   T
  0.4997795407106172  0.5000000000000000  0.0937352979498193   T   T   T
  0.2507189404646853 -0.0000000000000000  0.0928366997869030   T   T   T
  0.7505492606255978 -0.0000000000000000  0.0924005489815734   T   T   T
  0.2502204592893828  0.5000000000000000  0.0937352979498193   T   T   T
  0.7501238554193790  0.5000000000000000  0.0934746763927088   T   T   T
  0.1252090859418808  0.2512659811238597  0.0926409728371755   T   T   T
  0.6247909140581195  0.2512659811238597  0.0926409728371755   T   T   T
  0.1252090859418808  0.7487340188761407  0.0926409728371755   T   T   T
  0.6247909140581195  0.7487340188761407  0.0926409728371755   T   T   T
  0.3750000000000000  0.2501675109904699  0.0938718059088694   T   T   T
  0.8750000000000000  0.2505060209682237  0.0933514114644741   T   T   T
  0.3750000000000000  0.7498324890095300  0.0938718059088694   T   T   T
  0.8750000000000000  0.7494939790317765  0.0933514114644741   T   T   T
  0.1253682685133020 -0.0000000000000000  0.1777972453236904   T   T   T
  0.6246317314866981 -0.0000000000000000  0.1777972453236904   T   T   T
  0.1256026336597403  0.5000000000000000  0.1837966077873330   T   T   T
  0.6243973663402598  0.5000000000000000  0.1837966077873330   T   T   T
  0.3750000000000000 -0.0000000000000000  0.1840557661703327   T   T   T
  0.8750000000000000 -0.0000000000000000  0.1835711917427106   T   T   T
  0.3750000000000000  0.5000000000000000  0.1837883278072276   T   T   T
  0.8750000000000000  0.5000000000000000  0.1840471512783474   T   T   T
  0.0000859751132101  0.2501460628317060  0.1841627427228425   T   T   T
  0.4992227954981200  0.2510923768739604  0.1850023660825805   T   T   T
  0.0000859751132101  0.7498539371682943  0.1841627427228425   T   T   T
  0.4992227954981200  0.7489076231260395  0.1850023660825805   T   T   T
  0.2507772045018801  0.2510923768739604  0.1850023660825805   T   T   T
  0.7499140248867898  0.2501460628317060  0.1841627427228425   T   T   T
  0.2507772045018801  0.7489076231260395  0.1850023660825805   T   T   T
  0.7499140248867898  0.7498539371682943  0.1841627427228425   T   T   T
  0.9945703135879681 -0.0000000000000000  0.2741537936584809   T   T   T
  0.4946213495513114 -0.0000000000000000  0.2737106580495402   T   T   T
  0.9991542779151382  0.5000000000000000  0.2742044056841324   T   T   T
  0.4995754923322044  0.5000000000000000  0.2788116890350485   T   T   T
  0.2553786504486886 -0.0000000000000000  0.2737104449455382   T   T   T
  0.7554296864120319 -0.0000000000000000  0.2741535805544789   T   T   T
  0.2504245076677956  0.5000000000000000  0.2788116890350485   T   T   T
  0.7508457220848618  0.5000000000000000  0.2742044056841324   T   T   T
  0.1249516491115532  0.2607165991549364  0.2738755869234969   T   T   T
  0.6250483508884467  0.2607165991549364  0.2738755869234969   T   T   T
  0.1249516491115532  0.7392834008450634  0.2738755869234969   T   T   T
  0.6250483508884467  0.7392834008450634  0.2738755869234969   T   T   T
  0.3750000000000000  0.2505732968475674  0.2788484863011106   T   T   T
  0.8750000000000000  0.2519302670823423  0.2742649642525971   T   T   T
  0.3750000000000000  0.7494267031524326  0.2788484863011106   T   T   T
  0.8750000000000000  0.7480697329176578  0.2742649642525971   T   T   T
  0.9996694807413629 -0.0000000000000000  0.0016022097500850   T   T   T
  0.4998186181601445 -0.0000000000000000  0.0016406378422192   T   T   T
 -0.0001192355944162  0.5000000000000000  0.0021311501160568   T   T   T
  0.5000834032517588  0.5000000000000000  0.0021411839024371   T   T   T
  0.2501813818398555 -0.0000000000000000  0.0016406378422192   T   T   T
  0.7503305192586371 -0.0000000000000000  0.0016022097500850   T   T   T
  0.2499165967482414  0.5000000000000000  0.0021411839024371   T   T   T
  0.7501192355944160  0.5000000000000000  0.0021311501160568   T   T   T
  0.1248856961848736  0.2505004242685095  0.0016396190832136   T   T   T
  0.6251143038151262  0.2505004242685095  0.0016396190832136   T   T   T
  0.1248856961848736  0.7494995757314905  0.0016396190832136   T   T   T
  0.6251143038151262  0.7494995757314905  0.0016396190832136   T   T   T
  0.3750000000000000  0.2500467063530584  0.0021236473020140   T   T   T
  0.8750000000000000  0.2500466230755833  0.0021436520643657   T   T   T
  0.3750000000000000  0.7499532936469416  0.0021236473020140   T   T   T
  0.8750000000000000  0.7499533769244165  0.0021436520643657   T   T   T
  0.1248026853479129 -0.0000000000000000  0.0920331047600089   T   T   T
  0.6251973146520869 -0.0000000000000000  0.0920331047600089   T   T   T
  0.1247280086589273  0.5000000000000000  0.0940303195768279   T   T   T
  0.6252719913410728  0.5000000000000000  0.0940303195768279   T   T   T
  0.3750000000000000 -0.0000000000000000  0.0938836478363879   T   T   T
  0.8750000000000000 -0.0000000000000000  0.0941305616712346   T   T   T
  0.3750000000000000  0.5000000000000000  0.0938225894507642   T   T   T
  0.8750000000000000  0.5000000000000000  0.0940807842445320   T   T   T
  0.0001129181153332  0.2495036869811420  0.0939093537893084   T   T   T
  0.5003799888768370  0.2494862731631228  0.0938799037442076   T   T   T
  0.0001129181153332  0.7504963130188583  0.0939093537893084   T   T   T
  0.5003799888768370  0.7505137268368772  0.0938799037442076   T   T   T
  0.2496200111231629  0.2494862731631228  0.0938799037442076   T   T   T
  0.7498870818846668  0.2495036869811420  0.0939093537893084   T   T   T
  0.2496200111231629  0.7505137268368772  0.0938799037442076   T   T   T
  0.7498870818846668  0.7504963130188583  0.0939093537893084   T   T   T
  0.0020336886724122 -0.0000000000000000  0.1847432435790410   T   T   T
  0.5024450098392420 -0.0000000000000000  0.1843100614157469   T   T   T
  0.0001251028320123  0.5000000000000000  0.1838724979723012   T   T   T
  0.5010091889707099  0.5000000000000000  0.1838806960181348   T   T   T
  0.2475549901607581 -0.0000000000000000  0.1843100614157469   T   T   T
  0.7479663113275877 -0.0000000000000000  0.1847432435790410   T   T   T
  0.2489908110292831  0.5000000000000000  0.1838806960181348   T   T   T
  0.7498748971679948  0.5000000000000000  0.1838724979723012   T   T   T
  0.1244407041166725  0.2455385679649456  0.1845125752171912   T   T   T
  0.6255592958833274  0.2455385679649456  0.1845125752171912   T   T   T
  0.1244407041166725  0.7544614320350547  0.1845125752171912   T   T   T
  0.6255592958833274  0.7544614320350547  0.1845125752171912   T   T   T
  0.3750000000000000  0.2483333956882756  0.1838782036873285   T   T   T
  0.8750000000000000  0.2493888177246291  0.1838684412214893   T   T   T
  0.3750000000000000  0.7516666043117243  0.1838782036873285   T   T   T
  0.8750000000000000  0.7506111822753710  0.1838684412214893   T   T   T
  0.1230266904433129 -0.0000000000000000  0.2911880634657792   T   T   T
  0.6269732591226909 -0.0000000000000000  0.2911880634657792   T   T   T
  0.1239012778250695  0.5000000000000000  0.2750333773566576   T   T   T
  0.6260987221749307  0.5000000000000000  0.2750333773566576   T   T   T
  0.3750000000000000 -0.0000000000000000  0.2750683812533505   T   T   T
  0.8750000000000000 -0.0000000000000000  0.2749259935222585   T   T   T
  0.3749999243470015  0.4999998991290013  0.2703558158352042   T   T   T
  0.8750000000000000  0.5000000000000000  0.2756111814486873   T   T   T
  0.0004085389321529  0.2485929369741663  0.2753839967568158   T   T   T
  0.5028418764281445  0.2449892926599298  0.2745654495075632   T   T   T
  0.0004085389321529  0.7514070630258337  0.2753839967568158   T   T   T
  0.5028418764281445  0.7550107073400703  0.2745654495075632   T   T   T
  0.2471581235718553  0.2449892926599298  0.2745654495075632   T   T   T
  0.7495914610678471  0.2485929369741663  0.2753839967568158   T   T   T
  0.2471581235718553  0.7550107073400703  0.2745654495075632   T   T   T
  0.7495914610678471  0.7514070630258337  0.2753839967568158   T   T   T
  0.3749999243470015  0.4999998991290013  0.3564098619860242   T   T   T
 
  0.00000000E+00  0.00000000E+00  0.00000000E+00
  0.00000000E+00  0.00000000E+00  0.00000000E+00
  0.00000000E+00  0.00000000E+00  0.00000000E+00
  0.00000000E+00  0.00000000E+00  0.00000000E+00
  0.00000000E+00  0.00000000E+00  0.00000000E+00
  0.00000000E+00  0.00000000E+00  0.00000000E+00
  0.00000000E+00  0.00000000E+00  0.00000000E+00
  0.00000000E+00  0.00000000E+00  0.00000000E+00
  0.00000000E+00  0.00000000E+00  0.00000000E+00
  0.00000000E+00  0.00000000E+00  0.00000000E+00
  0.00000000E+00  0.00000000E+00  0.00000000E+00
  0.00000000E+00  0.00000000E+00  0.00000000E+00
  0.00000000E+00  0.00000000E+00  0.00000000E+00
  0.00000000E+00  0.00000000E+00  0.00000000E+00
  0.00000000E+00  0.00000000E+00  0.00000000E+00
  0.00000000E+00  0.00000000E+00  0.00000000E+00
  0.00000000E+00  0.00000000E+00  0.00000000E+00
  0.00000000E+00  0.00000000E+00  0.00000000E+00
  0.00000000E+00  0.00000000E+00  0.00000000E+00
  0.00000000E+00  0.00000000E+00  0.00000000E+00
  0.00000000E+00  0.00000000E+00  0.00000000E+00
  0.00000000E+00  0.00000000E+00  0.00000000E+00
  0.00000000E+00  0.00000000E+00  0.00000000E+00
  0.00000000E+00  0.00000000E+00  0.00000000E+00
  0.00000000E+00  0.00000000E+00  0.00000000E+00
  0.00000000E+00  0.00000000E+00  0.00000000E+00
  0.00000000E+00  0.00000000E+00  0.00000000E+00
  0.00000000E+00  0.00000000E+00  0.00000000E+00
  0.00000000E+00  0.00000000E+00  0.00000000E+00
  0.00000000E+00  0.00000000E+00  0.00000000E+00
  0.00000000E+00  0.00000000E+00  0.00000000E+00
  0.00000000E+00  0.00000000E+00  0.00000000E+00
  0.00000000E+00  0.00000000E+00  0.00000000E+00
  0.00000000E+00  0.00000000E+00  0.00000000E+00
  0.00000000E+00  0.00000000E+00  0.00000000E+00
  0.00000000E+00  0.00000000E+00  0.00000000E+00
  0.00000000E+00  0.00000000E+00  0.00000000E+00
  0.00000000E+00  0.00000000E+00  0.00000000E+00
  0.00000000E+00  0.00000000E+00  0.00000000E+00
  0.00000000E+00  0.00000000E+00  0.00000000E+00
  0.00000000E+00  0.00000000E+00  0.00000000E+00
  0.00000000E+00  0.00000000E+00  0.00000000E+00
  0.00000000E+00  0.00000000E+00  0.00000000E+00
  0.00000000E+00  0.00000000E+00  0.00000000E+00
  0.00000000E+00  0.00000000E+00  0.00000000E+00
  0.00000000E+00  0.00000000E+00  0.00000000E+00
  0.00000000E+00  0.00000000E+00  0.00000000E+00
  0.00000000E+00  0.00000000E+00  0.00000000E+00
  0.00000000E+00  0.00000000E+00  0.00000000E+00
  0.00000000E+00  0.00000000E+00  0.00000000E+00
  0.00000000E+00  0.00000000E+00  0.00000000E+00
  0.00000000E+00  0.00000000E+00  0.00000000E+00
  0.00000000E+00  0.00000000E+00  0.00000000E+00
  0.00000000E+00  0.00000000E+00  0.00000000E+00
  0.00000000E+00  0.00000000E+00  0.00000000E+00
  0.00000000E+00  0.00000000E+00  0.00000000E+00
  0.00000000E+00  0.00000000E+00  0.00000000E+00
  0.00000000E+00  0.00000000E+00  0.00000000E+00
  0.00000000E+00  0.00000000E+00  0.00000000E+00
  0.00000000E+00  0.00000000E+00  0.00000000E+00
  0.00000000E+00  0.00000000E+00  0.00000000E+00
  0.00000000E+00  0.00000000E+00  0.00000000E+00
  0.00000000E+00  0.00000000E+00  0.00000000E+00
  0.00000000E+00  0.00000000E+00  0.00000000E+00
  0.00000000E+00  0.00000000E+00  0.00000000E+00
  0.00000000E+00  0.00000000E+00  0.00000000E+00
  0.00000000E+00  0.00000000E+00  0.00000000E+00
  0.00000000E+00  0.00000000E+00  0.00000000E+00
  0.00000000E+00  0.00000000E+00  0.00000000E+00
  0.00000000E+00  0.00000000E+00  0.00000000E+00
  0.00000000E+00  0.00000000E+00  0.00000000E+00
  0.00000000E+00  0.00000000E+00  0.00000000E+00
  0.00000000E+00  0.00000000E+00  0.00000000E+00
  0.00000000E+00  0.00000000E+00  0.00000000E+00
  0.00000000E+00  0.00000000E+00  0.00000000E+00
  0.00000000E+00  0.00000000E+00  0.00000000E+00
  0.00000000E+00  0.00000000E+00  0.00000000E+00
  0.00000000E+00  0.00000000E+00  0.00000000E+00
  0.00000000E+00  0.00000000E+00  0.00000000E+00
  0.00000000E+00  0.00000000E+00  0.00000000E+00
  0.00000000E+00  0.00000000E+00  0.00000000E+00
  0.00000000E+00  0.00000000E+00  0.00000000E+00
  0.00000000E+00  0.00000000E+00  0.00000000E+00
  0.00000000E+00  0.00000000E+00  0.00000000E+00
  0.00000000E+00  0.00000000E+00  0.00000000E+00
  0.00000000E+00  0.00000000E+00  0.00000000E+00
  0.00000000E+00  0.00000000E+00  0.00000000E+00
  0.00000000E+00  0.00000000E+00  0.00000000E+00
  0.00000000E+00  0.00000000E+00  0.00000000E+00
  0.00000000E+00  0.00000000E+00  0.00000000E+00
  0.00000000E+00  0.00000000E+00  0.00000000E+00
  0.00000000E+00  0.00000000E+00  0.00000000E+00
  0.00000000E+00  0.00000000E+00  0.00000000E+00
  0.00000000E+00  0.00000000E+00  0.00000000E+00
  0.00000000E+00  0.00000000E+00  0.00000000E+00
  0.00000000E+00  0.00000000E+00  0.00000000E+00
  0.00000000E+00  0.00000000E+00  0.00000000E+00
  0.00000000E+00  0.00000000E+00  0.00000000E+00
  0.00000000E+00  0.00000000E+00  0.00000000E+00
  0.00000000E+00  0.00000000E+00  0.00000000E+00
  0.00000000E+00  0.00000000E+00  0.00000000E+00
  0.00000000E+00  0.00000000E+00  0.00000000E+00
  0.00000000E+00  0.00000000E+00  0.00000000E+00
  0.00000000E+00  0.00000000E+00  0.00000000E+00
  0.00000000E+00  0.00000000E+00  0.00000000E+00
  0.00000000E+00  0.00000000E+00  0.00000000E+00
  0.00000000E+00  0.00000000E+00  0.00000000E+00
  0.00000000E+00  0.00000000E+00  0.00000000E+00
  0.00000000E+00  0.00000000E+00  0.00000000E+00
  0.00000000E+00  0.00000000E+00  0.00000000E+00
  0.00000000E+00  0.00000000E+00  0.00000000E+00
  0.00000000E+00  0.00000000E+00  0.00000000E+00
  0.00000000E+00  0.00000000E+00  0.00000000E+00
  0.00000000E+00  0.00000000E+00  0.00000000E+00
  0.00000000E+00  0.00000000E+00  0.00000000E+00
  0.00000000E+00  0.00000000E+00  0.00000000E+00
  0.00000000E+00  0.00000000E+00  0.00000000E+00
  0.00000000E+00  0.00000000E+00  0.00000000E+00
  0.00000000E+00  0.00000000E+00  0.00000000E+00
  0.00000000E+00  0.00000000E+00  0.00000000E+00
  0.00000000E+00  0.00000000E+00  0.00000000E+00
  0.00000000E+00  0.00000000E+00  0.00000000E+00
  0.00000000E+00  0.00000000E+00  0.00000000E+00
  0.00000000E+00  0.00000000E+00  0.00000000E+00
  0.00000000E+00  0.00000000E+00  0.00000000E+00
  0.00000000E+00  0.00000000E+00  0.00000000E+00
  0.00000000E+00  0.00000000E+00  0.00000000E+00
  0.00000000E+00  0.00000000E+00  0.00000000E+00
  0.00000000E+00  0.00000000E+00  0.00000000E+00
  0.00000000E+00  0.00000000E+00  0.00000000E+00
  0.00000000E+00  0.00000000E+00  0.00000000E+00
