H Mg O Ir                               
   1.00000000000000     
    16.8282433949600012    0.0000000000000000    0.0000000000000000
     0.0000000000000000    8.4141216974800006    0.0000000000000000
     0.0000000000000000    0.0000000000000000   23.4141216974799988
   H    Mg   O    Ir
     2    64    64     1
Selective dynamics
Direct
  0.1249220792735415 -0.0000000000000000  0.3337003748828229   T   T   T
  0.6250778702924621 -0.0000000000000000  0.3337003748828229   T   T   T
  0.1251855400346923 -0.0000000000000000  0.0028268381371434   T   T   T
  0.6248144599653075 -0.0000000000000000  0.0028268381371434   T   T   T
  0.1250452208128954  0.5000000000000000  0.0034237176856175   T   T   T
  0.6249547791871051  0.5000000000000000  0.0034237176856175   T   T   T
  0.3750000000000000 -0.0000000000000000  0.0033865746162460   T   T   T
  0.8750000000000000 -0.0000000000000000  0.0033197086303647   T   T   T
  0.3750000000000000  0.5000000000000000  0.0039505912824878   T   T   T
  0.8750000000000000  0.5000000000000000  0.0038771838842263   T   T   T
 -0.0000398832623072  0.2503135606362001  0.0036427520871574   T   T   T
  0.4997773475175711  0.2502326867995078  0.0037917350050208   T   T   T
 -0.0000398832623072  0.7496864393637998  0.0036427520871574   T   T   T
  0.4997773475175711  0.7497673132004924  0.0037917350050208   T   T   T
  0.2502226524824289  0.2502326867995078  0.0037917350050208   T   T   T
  0.7500398832623073  0.2503135606362001  0.0036427520871574   T   T   T
  0.2502226524824289  0.7497673132004924  0.0037917350050208   T   T   T
  0.7500398832623073  0.7496864393637998  0.0036427520871574   T   T   T
  0.9995613651827799 -0.0000000000000000  0.0922961800976850   T   T   T
  0.4991352239604038 -0.0000000000000000  0.0928519521811601   T   T   T
 -0.0000570890745302  0.5000000000000000  0.0934313989191858   T   T   T
  0.4998148382325430  0.5000000000000000  0.0937100573725125   T   T   T
  0.2508647760395962 -0.0000000000000000  0.0928519521811601   T   T   T
  0.7504386348172201 -0.0000000000000000  0.0922961800976850   T   T   T
  0.2501851617674570  0.5000000000000000  0.0937100573725125   T   T   T
  0.7500570890745304  0.5000000000000000  0.0934313989191858   T   T   T
  0.1252980499027453  0.2513074520181294  0.0926196924573046   T   T   T
  0.6247019500972546  0.2513074520181294  0.0926196924573046   T   T   T
  0.1252980499027453  0.7486925479818702  0.0926196924573046   T   T   T
  0.6247019500972546  0.7486925479818702  0.0926196924573046   T   T   T
  0.3750000000000000  0.2499302521144997  0.0938485102992697   T   T   T
  0.8750000000000000  0.2505015119130882  0.0932715178458429   T   T   T
  0.3750000000000000  0.7500697478855003  0.0938485102992697   T   T   T
  0.8750000000000000  0.7494984880869119  0.0932715178458429   T   T   T
  0.1256757196729881 -0.0000000000000000  0.1775526863531371   T   T   T
  0.6243242803270115 -0.0000000000000000  0.1775526863531371   T   T   T
  0.1263395067331081  0.5000000000000000  0.1838907829265158   T   T   T
  0.6236604932668921  0.5000000000000000  0.1838907829265158   T   T   T
  0.3750000000000000 -0.0000000000000000  0.1843079394496537   T   T   T
  0.8750000000000000 -0.0000000000000000  0.1833459314072087   T   T   T
  0.3750000000000000  0.5000000000000000  0.1832271923942362   T   T   T
  0.8750000000000000  0.5000000000000000  0.1838797863901181   T   T   T
  0.0001484660501168  0.2502807106473376  0.1839682870567406   T   T   T
  0.4985085655174663  0.2521300536236979  0.1853525058524431   T   T   T
  0.0001484660501168  0.7497192893526623  0.1839682870567406   T   T   T
  0.4985085655174663  0.7478699463763020  0.1853525058524431   T   T   T
  0.2514914344825337  0.2521300536236979  0.1853525058524431   T   T   T
  0.7498515339498830  0.2502807106473376  0.1839682870567406   T   T   T
  0.2514914344825337  0.7478699463763020  0.1853525058524431   T   T   T
  0.7498515339498830  0.7497192893526623  0.1839682870567406   T   T   T
  0.9945129059295186 -0.0000000000000000  0.2737306866117094   T   T   T
  0.4940070278372134 -0.0000000000000000  0.2729668659948227   T   T   T
  0.9991756558970420  0.5000000000000000  0.2739811757925379   T   T   T
  0.4985682888730649  0.5000000000000000  0.2824932225015703   T   T   T
  0.2559929721627866 -0.0000000000000000  0.2729666528908207   T   T   T
  0.7554870940704814 -0.0000000000000000  0.2737304735077074   T   T   T
  0.2514317111269351  0.5000000000000000  0.2824932225015703   T   T   T
  0.7508243441029580  0.5000000000000000  0.2739811757925379   T   T   T
  0.1250276236135254  0.2611044946085772  0.2733587928261154   T   T   T
  0.6249723763864745  0.2611044946085772  0.2733587928261154   T   T   T
  0.1250276236135254  0.7388955053914229  0.2733587928261154   T   T   T
  0.6249723763864745  0.7388955053914229  0.2733587928261154   T   T   T
  0.3750000000000000  0.2522264348048846  0.2828036235506371   T   T   T
  0.8750000000000000  0.2521057780784687  0.2739080435232669   T   T   T
  0.3750000000000000  0.7477735651951153  0.2828036235506371   T   T   T
  0.8750000000000000  0.7478942219215313  0.2739080435232669   T   T   T
  0.9995871910340651 -0.0000000000000000  0.0014630503682821   T   T   T
  0.4999971950511878 -0.0000000000000000  0.0013345699102402   T   T   T
 -0.0002752184955016  0.5000000000000000  0.0019940388943794   T   T   T
  0.5002925406870389  0.5000000000000000  0.0018756534730298   T   T   T
  0.2500028049488121 -0.0000000000000000  0.0013345699102402   T   T   T
  0.7504128089659349 -0.0000000000000000  0.0014630503682821   T   T   T
  0.2497074593129612  0.5000000000000000  0.0018756534730298   T   T   T
  0.7502752184955015  0.5000000000000000  0.0019940388943794   T   T   T
  0.1246741290550144  0.2504536993088886  0.0014276133695983   T   T   T
  0.6253258709449857  0.2504536993088886  0.0014276133695983   T   T   T
  0.1246741290550144  0.7495463006911114  0.0014276133695983   T   T   T
  0.6253258709449857  0.7495463006911114  0.0014276133695983   T   T   T
  0.3750000000000000  0.2499762306052633  0.0017791311124140   T   T   T
  0.8750000000000000  0.2500202348214519  0.0020403604394586   T   T   T
  0.3750000000000000  0.7500237693947366  0.0017791311124140   T   T   T
  0.8750000000000000  0.7499797651785479  0.0020403604394586   T   T   T
  0.1245937452455099 -0.0000000000000000  0.0919309326323752   T   T   T
  0.6254062547544900 -0.0000000000000000  0.0919309326323752   T   T   T
  0.1244441521594493  0.5000000000000000  0.0938850824323080   T   T   T
  0.6255558478405510  0.5000000000000000  0.0938850824323080   T   T   T
  0.3750000000000000 -0.0000000000000000  0.0935249726923273   T   T   T
  0.8750000000000000 -0.0000000000000000  0.0940928081616935   T   T   T
  0.3750000000000000  0.5000000000000000  0.0932490137754989   T   T   T
  0.8750000000000000  0.5000000000000000  0.0940390552376954   T   T   T
 -0.0000307454274163  0.2494364752321728  0.0938382296286724   T   T   T
  0.5006040601359832  0.2493676179748205  0.0935922365767233   T   T   T
 -0.0000307454274163  0.7505635247678272  0.0938382296286724   T   T   T
  0.5006040601359832  0.7506323820251793  0.0935922365767233   T   T   T
  0.2493959398640168  0.2493676179748205  0.0935922365767233   T   T   T
  0.7500307454274165  0.2494364752321728  0.0938382296286724   T   T   T
  0.2493959398640168  0.7506323820251793  0.0935922365767233   T   T   T
  0.7500307454274165  0.7505635247678272  0.0938382296286724   T   T   T
  0.0019701225770913 -0.0000000000000000  0.1848052064555628   T   T   T
  0.5025439335451043 -0.0000000000000000  0.1839351482905509   T   T   T
  0.0000218230451934  0.5000000000000000  0.1839085830845857   T   T   T
  0.5013044655386062  0.5000000000000000  0.1833103132732590   T   T   T
  0.2474560664548958 -0.0000000000000000  0.1839351482905509   T   T   T
  0.7480298774229091 -0.0000000000000000  0.1848052064555628   T   T   T
  0.2486955344613866  0.5000000000000000  0.1833103132732590   T   T   T
  0.7499781769548135  0.5000000000000000  0.1839085830845857   T   T   T
  0.1239992334082530  0.2454332934835919  0.1843853956163826   T   T   T
  0.6260007665917470  0.2454332934835919  0.1843853956163826   T   T   T
  0.1239992334082530  0.7545667065164081  0.1843853956163826   T   T   T
  0.6260007665917470  0.7545667065164081  0.1843853956163826   T   T   T
  0.3750000000000000  0.2479270769806086  0.1832281940948428   T   T   T
  0.8750000000000000  0.2491866956833492  0.1838881479166175   T   T   T
  0.3750000000000000  0.7520729230193912  0.1832281940948428   T   T   T
  0.8750000000000000  0.7508133043166509  0.1838881479166175   T   T   T
  0.1212656729546953 -0.0000000000000000  0.2918355155507990   T   T   T
  0.6287342766113083 -0.0000000000000000  0.2918355155507990   T   T   T
  0.1234991100728733  0.5000000000000000  0.2753991271174917   T   T   T
  0.6265008899271266  0.5000000000000000  0.2753991271174917   T   T   T
  0.3750000000000000 -0.0000000000000000  0.2756412349170719   T   T   T
  0.8750000000000000 -0.0000000000000000  0.2751323121833873   T   T   T
  0.3749999243470015  0.4999998991290013  0.2672655207344546   T   T   T
  0.8750000000000000  0.5000000000000000  0.2756971409647395   T   T   T
  0.0001646538479583  0.2484914205449581  0.2755300837231993   T   T   T
  0.5041606849996302  0.2426546827959925  0.2743391778495921   T   T   T
  0.0001646538479583  0.7515085794550420  0.2755300837231993   T   T   T
  0.5041606849996302  0.7573453172040074  0.2743391778495921   T   T   T
  0.2458393150003700  0.2426546827959925  0.2743391778495921   T   T   T
  0.7498353461520421  0.2484914205449581  0.2755300837231993   T   T   T
  0.2458393150003700  0.7573453172040074  0.2743391778495921   T   T   T
  0.7498353461520421  0.7515085794550420  0.2755300837231993   T   T   T
  0.3749999243470015  0.4999998991290013  0.3574715204595284   T   T   T
 
  0.00000000E+00  0.00000000E+00  0.00000000E+00
  0.00000000E+00  0.00000000E+00  0.00000000E+00
  0.00000000E+00  0.00000000E+00  0.00000000E+00
  0.00000000E+00  0.00000000E+00  0.00000000E+00
  0.00000000E+00  0.00000000E+00  0.00000000E+00
  0.00000000E+00  0.00000000E+00  0.00000000E+00
  0.00000000E+00  0.00000000E+00  0.00000000E+00
  0.00000000E+00  0.00000000E+00  0.00000000E+00
  0.00000000E+00  0.00000000E+00  0.00000000E+00
  0.00000000E+00  0.00000000E+00  0.00000000E+00
  0.00000000E+00  0.00000000E+00  0.00000000E+00
  0.00000000E+00  0.00000000E+00  0.00000000E+00
  0.00000000E+00  0.00000000E+00  0.00000000E+00
  0.00000000E+00  0.00000000E+00  0.00000000E+00
  0.00000000E+00  0.00000000E+00  0.00000000E+00
  0.00000000E+00  0.00000000E+00  0.00000000E+00
  0.00000000E+00  0.00000000E+00  0.00000000E+00
  0.00000000E+00  0.00000000E+00  0.00000000E+00
  0.00000000E+00  0.00000000E+00  0.00000000E+00
  0.00000000E+00  0.00000000E+00  0.00000000E+00
  0.00000000E+00  0.00000000E+00  0.00000000E+00
  0.00000000E+00  0.00000000E+00  0.00000000E+00
  0.00000000E+00  0.00000000E+00  0.00000000E+00
  0.00000000E+00  0.00000000E+00  0.00000000E+00
  0.00000000E+00  0.00000000E+00  0.00000000E+00
  0.00000000E+00  0.00000000E+00  0.00000000E+00
  0.00000000E+00  0.00000000E+00  0.00000000E+00
  0.00000000E+00  0.00000000E+00  0.00000000E+00
  0.00000000E+00  0.00000000E+00  0.00000000E+00
  0.00000000E+00  0.00000000E+00  0.00000000E+00
  0.00000000E+00  0.00000000E+00  0.00000000E+00
  0.00000000E+00  0.00000000E+00  0.00000000E+00
  0.00000000E+00  0.00000000E+00  0.00000000E+00
  0.00000000E+00  0.00000000E+00  0.00000000E+00
  0.00000000E+00  0.00000000E+00  0.00000000E+00
  0.00000000E+00  0.00000000E+00  0.00000000E+00
  0.00000000E+00  0.00000000E+00  0.00000000E+00
  0.00000000E+00  0.00000000E+00  0.00000000E+00
  0.00000000E+00  0.00000000E+00  0.00000000E+00
  0.00000000E+00  0.00000000E+00  0.00000000E+00
  0.00000000E+00  0.00000000E+00  0.00000000E+00
  0.00000000E+00  0.00000000E+00  0.00000000E+00
  0.00000000E+00  0.00000000E+00  0.00000000E+00
  0.00000000E+00  0.00000000E+00  0.00000000E+00
  0.00000000E+00  0.00000000E+00  0.00000000E+00
  0.00000000E+00  0.00000000E+00  0.00000000E+00
  0.00000000E+00  0.00000000E+00  0.00000000E+00
  0.00000000E+00  0.00000000E+00  0.00000000E+00
  0.00000000E+00  0.00000000E+00  0.00000000E+00
  0.00000000E+00  0.00000000E+00  0.00000000E+00
  0.00000000E+00  0.00000000E+00  0.00000000E+00
  0.00000000E+00  0.00000000E+00  0.00000000E+00
  0.00000000E+00  0.00000000E+00  0.00000000E+00
  0.00000000E+00  0.00000000E+00  0.00000000E+00
  0.00000000E+00  0.00000000E+00  0.00000000E+00
  0.00000000E+00  0.00000000E+00  0.00000000E+00
  0.00000000E+00  0.00000000E+00  0.00000000E+00
  0.00000000E+00  0.00000000E+00  0.00000000E+00
  0.00000000E+00  0.00000000E+00  0.00000000E+00
  0.00000000E+00  0.00000000E+00  0.00000000E+00
  0.00000000E+00  0.00000000E+00  0.00000000E+00
  0.00000000E+00  0.00000000E+00  0.00000000E+00
  0.00000000E+00  0.00000000E+00  0.00000000E+00
  0.00000000E+00  0.00000000E+00  0.00000000E+00
  0.00000000E+00  0.00000000E+00  0.00000000E+00
  0.00000000E+00  0.00000000E+00  0.00000000E+00
  0.00000000E+00  0.00000000E+00  0.00000000E+00
  0.00000000E+00  0.00000000E+00  0.00000000E+00
  0.00000000E+00  0.00000000E+00  0.00000000E+00
  0.00000000E+00  0.00000000E+00  0.00000000E+00
  0.00000000E+00  0.00000000E+00  0.00000000E+00
  0.00000000E+00  0.00000000E+00  0.00000000E+00
  0.00000000E+00  0.00000000E+00  0.00000000E+00
  0.00000000E+00  0.00000000E+00  0.00000000E+00
  0.00000000E+00  0.00000000E+00  0.00000000E+00
  0.00000000E+00  0.00000000E+00  0.00000000E+00
  0.00000000E+00  0.00000000E+00  0.00000000E+00
  0.00000000E+00  0.00000000E+00  0.00000000E+00
  0.00000000E+00  0.00000000E+00  0.00000000E+00
  0.00000000E+00  0.00000000E+00  0.00000000E+00
  0.00000000E+00  0.00000000E+00  0.00000000E+00
  0.00000000E+00  0.00000000E+00  0.00000000E+00
  0.00000000E+00  0.00000000E+00  0.00000000E+00
  0.00000000E+00  0.00000000E+00  0.00000000E+00
  0.00000000E+00  0.00000000E+00  0.00000000E+00
  0.00000000E+00  0.00000000E+00  0.00000000E+00
  0.00000000E+00  0.00000000E+00  0.00000000E+00
  0.00000000E+00  0.00000000E+00  0.00000000E+00
  0.00000000E+00  0.00000000E+00  0.00000000E+00
  0.00000000E+00  0.00000000E+00  0.00000000E+00
  0.00000000E+00  0.00000000E+00  0.00000000E+00
  0.00000000E+00  0.00000000E+00  0.00000000E+00
  0.00000000E+00  0.00000000E+00  0.00000000E+00
  0.00000000E+00  0.00000000E+00  0.00000000E+00
  0.00000000E+00  0.00000000E+00  0.00000000E+00
  0.00000000E+00  0.00000000E+00  0.00000000E+00
  0.00000000E+00  0.00000000E+00  0.00000000E+00
  0.00000000E+00  0.00000000E+00  0.00000000E+00
  0.00000000E+00  0.00000000E+00  0.00000000E+00
  0.00000000E+00  0.00000000E+00  0.00000000E+00
  0.00000000E+00  0.00000000E+00  0.00000000E+00
  0.00000000E+00  0.00000000E+00  0.00000000E+00
  0.00000000E+00  0.00000000E+00  0.00000000E+00
  0.00000000E+00  0.00000000E+00  0.00000000E+00
  0.00000000E+00  0.00000000E+00  0.00000000E+00
  0.00000000E+00  0.00000000E+00  0.00000000E+00
  0.00000000E+00  0.00000000E+00  0.00000000E+00
  0.00000000E+00  0.00000000E+00  0.00000000E+00
  0.00000000E+00  0.00000000E+00  0.00000000E+00
  0.00000000E+00  0.00000000E+00  0.00000000E+00
  0.00000000E+00  0.00000000E+00  0.00000000E+00
  0.00000000E+00  0.00000000E+00  0.00000000E+00
  0.00000000E+00  0.00000000E+00  0.00000000E+00
  0.00000000E+00  0.00000000E+00  0.00000000E+00
  0.00000000E+00  0.00000000E+00  0.00000000E+00
  0.00000000E+00  0.00000000E+00  0.00000000E+00
  0.00000000E+00  0.00000000E+00  0.00000000E+00
  0.00000000E+00  0.00000000E+00  0.00000000E+00
  0.00000000E+00  0.00000000E+00  0.00000000E+00
  0.00000000E+00  0.00000000E+00  0.00000000E+00
  0.00000000E+00  0.00000000E+00  0.00000000E+00
  0.00000000E+00  0.00000000E+00  0.00000000E+00
  0.00000000E+00  0.00000000E+00  0.00000000E+00
  0.00000000E+00  0.00000000E+00  0.00000000E+00
  0.00000000E+00  0.00000000E+00  0.00000000E+00
  0.00000000E+00  0.00000000E+00  0.00000000E+00
  0.00000000E+00  0.00000000E+00  0.00000000E+00
  0.00000000E+00  0.00000000E+00  0.00000000E+00
  0.00000000E+00  0.00000000E+00  0.00000000E+00
  0.00000000E+00  0.00000000E+00  0.00000000E+00
  0.00000000E+00  0.00000000E+00  0.00000000E+00
