H Mg O Fe                               
   1.00000000000000     
    16.8282433949600012    0.0000000000000000    0.0000000000000000
     0.0000000000000000    8.4141216974800006    0.0000000000000000
     0.0000000000000000    0.0000000000000000   23.4141216974799988
   H    Mg   O    Fe
     2    64    64     1
Selective dynamics
Direct
  0.1232999606524382  0.0000000000000000  0.3315955232926179   T   T   T
  0.6266999889135653  0.0000000000000000  0.3315955232926179   T   T   T
  0.1249916850704649  0.0000000000000000  0.0030387491176579   T   T   T
  0.6250083149295351  0.0000000000000000  0.0030387491176579   T   T   T
  0.1250717691030772  0.5000000000000000  0.0035368578984696   T   T   T
  0.6249282308969228  0.5000000000000000  0.0035368578984696   T   T   T
  0.3750000000000000  0.0000000000000000  0.0036338241550690   T   T   T
  0.8750000000000000  0.0000000000000000  0.0034809435243871   T   T   T
  0.3750000000000000  0.5000000000000000  0.0040032887152926   T   T   T
  0.8750000000000000  0.5000000000000000  0.0038447841349537   T   T   T
  0.9998903027767702  0.2501482735333616  0.0037041569593908   T   T   T
  0.4998515856399344  0.2503226728030281  0.0038094040958905   T   T   T
  0.9998903027767702  0.7498517264666386  0.0037041569593908   T   T   T
  0.4998515856399344  0.7496773271969720  0.0038094040958905   T   T   T
  0.2501484143600656  0.2503226728030281  0.0038094040958905   T   T   T
  0.7501096972232298  0.2501482735333616  0.0037041569593908   T   T   T
  0.2501484143600656  0.7496773271969720  0.0038094040958905   T   T   T
  0.7501096972232298  0.7498517264666386  0.0037041569593908   T   T   T
  0.9994739922177699  0.0000000000000000  0.0926542255181606   T   T   T
  0.4994208147021358  0.0000000000000000  0.0927953633388924   T   T   T
  0.9997794906982047  0.5000000000000000  0.0934534928652255   T   T   T
  0.4997982434991718  0.5000000000000000  0.0937291778864363   T   T   T
  0.2505791852978642  0.0000000000000000  0.0927953633388924   T   T   T
  0.7505260077822301  0.0000000000000000  0.0926542255181606   T   T   T
  0.2502017565008282  0.5000000000000000  0.0937291778864363   T   T   T
  0.7502205093017953  0.5000000000000000  0.0934534928652255   T   T   T
  0.1250056390128140  0.2510475656257585  0.0927326882831389   T   T   T
  0.6249943609871862  0.2510475656257585  0.0927326882831389   T   T   T
  0.1250056390128140  0.7489524343742415  0.0927326882831389   T   T   T
  0.6249943609871862  0.7489524343742415  0.0927326882831389   T   T   T
  0.3750000000000000  0.2503565250301460  0.0938409531142555   T   T   T
  0.8750000000000000  0.2503723166230438  0.0934352524124152   T   T   T
  0.3750000000000000  0.7496434749698538  0.0938409531142555   T   T   T
  0.8750000000000000  0.7496276833769562  0.0934352524124152   T   T   T
  0.1249571541033682  0.0000000000000000  0.1782939265490814   T   T   T
  0.6250428458966319  0.0000000000000000  0.1782939265490814   T   T   T
  0.1249817608610705  0.5000000000000000  0.1835712258854283   T   T   T
  0.6250182391389294  0.5000000000000000  0.1835712258854283   T   T   T
  0.3750000000000000  0.0000000000000000  0.1838404573601789   T   T   T
  0.8750000000000000  0.0000000000000000  0.1837068336845694   T   T   T
  0.3750000000000000  0.5000000000000000  0.1843043631700357   T   T   T
  0.8750000000000000  0.5000000000000000  0.1839858103020518   T   T   T
 -0.0002848381132530  0.2500025023817485  0.1841706189594873   T   T   T
  0.4995500885341432  0.2508399683656910  0.1846912479236273   T   T   T
 -0.0002848381132530  0.7499974976182515  0.1841706189594873   T   T   T
  0.4995500885341432  0.7491600316343088  0.1846912479236273   T   T   T
  0.2504499114658567  0.2508399683656910  0.1846912479236273   T   T   T
  0.7502848381132533  0.2500025023817485  0.1841706189594873   T   T   T
  0.2504499114658567  0.7491600316343088  0.1846912479236273   T   T   T
  0.7502848381132533  0.7499974976182515  0.1841706189594873   T   T   T
  0.9943711092899981  0.0000000000000000  0.2746689173001441   T   T   T
  0.4948943062998264  0.0000000000000000  0.2736345973503343   T   T   T
  0.9987484140764356  0.5000000000000000  0.2742011043672867   T   T   T
  0.5017112052994311  0.5000000000000000  0.2765363358772154   T   T   T
  0.2551056937001736  0.0000000000000000  0.2736343842463323   T   T   T
  0.7556288907100019  0.0000000000000000  0.2746687041961421   T   T   T
  0.2482887947005690  0.5000000000000000  0.2765363358772154   T   T   T
  0.7512515859235644  0.5000000000000000  0.2742011043672867   T   T   T
  0.1245962871611220  0.2604787997344809  0.2739297296767997   T   T   T
  0.6254037128388782  0.2604787997344809  0.2739297296767997   T   T   T
  0.1245962871611220  0.7395212002655189  0.2739297296767997   T   T   T
  0.6254037128388782  0.7395212002655189  0.2739297296767997   T   T   T
  0.3750000000000000  0.2487356312679130  0.2779137230192270   T   T   T
  0.8750000000000000  0.2518261272022444  0.2744639781481819   T   T   T
  0.3750000000000000  0.7512643687320869  0.2779137230192270   T   T   T
  0.8750000000000000  0.7481738727977555  0.2744639781481819   T   T   T
  0.9997979699768734  0.0000000000000000  0.0017974607690937   T   T   T
  0.4998546215109677  0.0000000000000000  0.0018380429506537   T   T   T
  0.0000042947451308  0.5000000000000000  0.0021626876864703   T   T   T
  0.4999532804916555  0.5000000000000000  0.0022186247513347   T   T   T
  0.2501453784890323  0.0000000000000000  0.0018380429506537   T   T   T
  0.7502020300231266  0.0000000000000000  0.0017974607690937   T   T   T
  0.2500467195083444  0.5000000000000000  0.0022186247513347   T   T   T
  0.7499957052548690  0.5000000000000000  0.0021626876864703   T   T   T
  0.1249860008418266  0.2503366586811596  0.0018249645266309   T   T   T
  0.6250139991581734  0.2503366586811596  0.0018249645266309   T   T   T
  0.1249860008418266  0.7496633413188402  0.0018249645266309   T   T   T
  0.6250139991581734  0.7496633413188402  0.0018249645266309   T   T   T
  0.3750000000000000  0.2501018395715812  0.0022257429974237   T   T   T
  0.8750000000000000  0.2499592372225244  0.0021856001582139   T   T   T
  0.3750000000000000  0.7498981604284188  0.0022257429974237   T   T   T
  0.8750000000000000  0.7500407627774757  0.0021856001582139   T   T   T
  0.1248520593653049  0.0000000000000000  0.0922498877871532   T   T   T
  0.6251479406346948  0.0000000000000000  0.0922498877871532   T   T   T
  0.1249338143670714  0.5000000000000000  0.0941029708507670   T   T   T
  0.6250661856329286  0.5000000000000000  0.0941029708507670   T   T   T
  0.3750000000000000  0.0000000000000000  0.0940912875429610   T   T   T
  0.8750000000000000  0.0000000000000000  0.0941969509714699   T   T   T
  0.3750000000000000  0.5000000000000000  0.0941694884333033   T   T   T
  0.8750000000000000  0.5000000000000000  0.0939294531938388   T   T   T
  0.0000920799219358  0.2494606770908457  0.0939262481502140   T   T   T
  0.5002400444574051  0.2498535316671370  0.0939751661523208   T   T   T
  0.0000920799219358  0.7505393229091540  0.0939262481502140   T   T   T
  0.5002400444574051  0.7501464683328627  0.0939751661523208   T   T   T
  0.2497599555425948  0.2498535316671370  0.0939751661523208   T   T   T
  0.7499079200780641  0.2494606770908457  0.0939262481502140   T   T   T
  0.2497599555425948  0.7501464683328627  0.0939751661523208   T   T   T
  0.7499079200780641  0.7505393229091540  0.0939262481502140   T   T   T
  0.0018890340722896  0.0000000000000000  0.1848056437547118   T   T   T
  0.5021733643138840  0.0000000000000000  0.1842896873696328   T   T   T
  0.0001546222460872  0.5000000000000000  0.1837787334519626   T   T   T
  0.5006820220830522  0.5000000000000000  0.1841620423217875   T   T   T
  0.2478266356861161  0.0000000000000000  0.1842896873696328   T   T   T
  0.7481109659277103  0.0000000000000000  0.1848056437547118   T   T   T
  0.2493179779169406  0.5000000000000000  0.1841620423217875   T   T   T
  0.7498453777539201  0.5000000000000000  0.1837787334519626   T   T   T
  0.1245218048240341  0.2459753857589241  0.1844601885904181   T   T   T
  0.6254781951759659  0.2459753857589241  0.1844601885904181   T   T   T
  0.1245218048240341  0.7540246142410759  0.1844601885904181   T   T   T
  0.6254781951759659  0.7540246142410759  0.1844601885904181   T   T   T
  0.3750000000000000  0.2491468521227066  0.1841631954694181   T   T   T
  0.8750000000000000  0.2492283653115603  0.1838344533221560   T   T   T
  0.3750000000000000  0.7508531478772935  0.1841631954694181   T   T   T
  0.8750000000000000  0.7507716346884397  0.1838344533221560   T   T   T
  0.1239645965031100  0.0000000000000000  0.2891546484688757   T   T   T
  0.6260353530628937  0.0000000000000000  0.2891546484688757   T   T   T
  0.1236142478301551  0.5000000000000000  0.2745265888103350   T   T   T
  0.6263857521698448  0.5000000000000000  0.2745265888103350   T   T   T
  0.3750000000000000  0.0000000000000000  0.2745036679903348   T   T   T
  0.8750000000000000  0.0000000000000000  0.2746671317088270   T   T   T
  0.3749999243470015  0.4999998991290013  0.2735139793820431   T   T   T
  0.8750000000000000  0.5000000000000000  0.2753533421382121   T   T   T
  0.0003244064119278  0.2488311849773216  0.2752370296177562   T   T   T
  0.5023835700336859  0.2466560518190010  0.2743194496897522   T   T   T
  0.0003244064119278  0.7511688150226786  0.2752370296177562   T   T   T
  0.5023835700336859  0.7533439481809988  0.2743194496897522   T   T   T
  0.2476164299663141  0.2466560518190010  0.2743194496897522   T   T   T
  0.7496755935880722  0.2488311849773216  0.2752370296177562   T   T   T
  0.2476164299663141  0.7533439481809988  0.2743194496897522   T   T   T
  0.7496755935880722  0.7511688150226786  0.2752370296177562   T   T   T
  0.3749999243470015  0.4999998991290013  0.3633278681887275   T   T   T
 
  0.00000000E+00  0.00000000E+00  0.00000000E+00
  0.00000000E+00  0.00000000E+00  0.00000000E+00
  0.00000000E+00  0.00000000E+00  0.00000000E+00
  0.00000000E+00  0.00000000E+00  0.00000000E+00
  0.00000000E+00  0.00000000E+00  0.00000000E+00
  0.00000000E+00  0.00000000E+00  0.00000000E+00
  0.00000000E+00  0.00000000E+00  0.00000000E+00
  0.00000000E+00  0.00000000E+00  0.00000000E+00
  0.00000000E+00  0.00000000E+00  0.00000000E+00
  0.00000000E+00  0.00000000E+00  0.00000000E+00
  0.00000000E+00  0.00000000E+00  0.00000000E+00
  0.00000000E+00  0.00000000E+00  0.00000000E+00
  0.00000000E+00  0.00000000E+00  0.00000000E+00
  0.00000000E+00  0.00000000E+00  0.00000000E+00
  0.00000000E+00  0.00000000E+00  0.00000000E+00
  0.00000000E+00  0.00000000E+00  0.00000000E+00
  0.00000000E+00  0.00000000E+00  0.00000000E+00
  0.00000000E+00  0.00000000E+00  0.00000000E+00
  0.00000000E+00  0.00000000E+00  0.00000000E+00
  0.00000000E+00  0.00000000E+00  0.00000000E+00
  0.00000000E+00  0.00000000E+00  0.00000000E+00
  0.00000000E+00  0.00000000E+00  0.00000000E+00
  0.00000000E+00  0.00000000E+00  0.00000000E+00
  0.00000000E+00  0.00000000E+00  0.00000000E+00
  0.00000000E+00  0.00000000E+00  0.00000000E+00
  0.00000000E+00  0.00000000E+00  0.00000000E+00
  0.00000000E+00  0.00000000E+00  0.00000000E+00
  0.00000000E+00  0.00000000E+00  0.00000000E+00
  0.00000000E+00  0.00000000E+00  0.00000000E+00
  0.00000000E+00  0.00000000E+00  0.00000000E+00
  0.00000000E+00  0.00000000E+00  0.00000000E+00
  0.00000000E+00  0.00000000E+00  0.00000000E+00
  0.00000000E+00  0.00000000E+00  0.00000000E+00
  0.00000000E+00  0.00000000E+00  0.00000000E+00
  0.00000000E+00  0.00000000E+00  0.00000000E+00
  0.00000000E+00  0.00000000E+00  0.00000000E+00
  0.00000000E+00  0.00000000E+00  0.00000000E+00
  0.00000000E+00  0.00000000E+00  0.00000000E+00
  0.00000000E+00  0.00000000E+00  0.00000000E+00
  0.00000000E+00  0.00000000E+00  0.00000000E+00
  0.00000000E+00  0.00000000E+00  0.00000000E+00
  0.00000000E+00  0.00000000E+00  0.00000000E+00
  0.00000000E+00  0.00000000E+00  0.00000000E+00
  0.00000000E+00  0.00000000E+00  0.00000000E+00
  0.00000000E+00  0.00000000E+00  0.00000000E+00
  0.00000000E+00  0.00000000E+00  0.00000000E+00
  0.00000000E+00  0.00000000E+00  0.00000000E+00
  0.00000000E+00  0.00000000E+00  0.00000000E+00
  0.00000000E+00  0.00000000E+00  0.00000000E+00
  0.00000000E+00  0.00000000E+00  0.00000000E+00
  0.00000000E+00  0.00000000E+00  0.00000000E+00
  0.00000000E+00  0.00000000E+00  0.00000000E+00
  0.00000000E+00  0.00000000E+00  0.00000000E+00
  0.00000000E+00  0.00000000E+00  0.00000000E+00
  0.00000000E+00  0.00000000E+00  0.00000000E+00
  0.00000000E+00  0.00000000E+00  0.00000000E+00
  0.00000000E+00  0.00000000E+00  0.00000000E+00
  0.00000000E+00  0.00000000E+00  0.00000000E+00
  0.00000000E+00  0.00000000E+00  0.00000000E+00
  0.00000000E+00  0.00000000E+00  0.00000000E+00
  0.00000000E+00  0.00000000E+00  0.00000000E+00
  0.00000000E+00  0.00000000E+00  0.00000000E+00
  0.00000000E+00  0.00000000E+00  0.00000000E+00
  0.00000000E+00  0.00000000E+00  0.00000000E+00
  0.00000000E+00  0.00000000E+00  0.00000000E+00
  0.00000000E+00  0.00000000E+00  0.00000000E+00
  0.00000000E+00  0.00000000E+00  0.00000000E+00
  0.00000000E+00  0.00000000E+00  0.00000000E+00
  0.00000000E+00  0.00000000E+00  0.00000000E+00
  0.00000000E+00  0.00000000E+00  0.00000000E+00
  0.00000000E+00  0.00000000E+00  0.00000000E+00
  0.00000000E+00  0.00000000E+00  0.00000000E+00
  0.00000000E+00  0.00000000E+00  0.00000000E+00
  0.00000000E+00  0.00000000E+00  0.00000000E+00
  0.00000000E+00  0.00000000E+00  0.00000000E+00
  0.00000000E+00  0.00000000E+00  0.00000000E+00
  0.00000000E+00  0.00000000E+00  0.00000000E+00
  0.00000000E+00  0.00000000E+00  0.00000000E+00
  0.00000000E+00  0.00000000E+00  0.00000000E+00
  0.00000000E+00  0.00000000E+00  0.00000000E+00
  0.00000000E+00  0.00000000E+00  0.00000000E+00
  0.00000000E+00  0.00000000E+00  0.00000000E+00
  0.00000000E+00  0.00000000E+00  0.00000000E+00
  0.00000000E+00  0.00000000E+00  0.00000000E+00
  0.00000000E+00  0.00000000E+00  0.00000000E+00
  0.00000000E+00  0.00000000E+00  0.00000000E+00
  0.00000000E+00  0.00000000E+00  0.00000000E+00
  0.00000000E+00  0.00000000E+00  0.00000000E+00
  0.00000000E+00  0.00000000E+00  0.00000000E+00
  0.00000000E+00  0.00000000E+00  0.00000000E+00
  0.00000000E+00  0.00000000E+00  0.00000000E+00
  0.00000000E+00  0.00000000E+00  0.00000000E+00
  0.00000000E+00  0.00000000E+00  0.00000000E+00
  0.00000000E+00  0.00000000E+00  0.00000000E+00
  0.00000000E+00  0.00000000E+00  0.00000000E+00
  0.00000000E+00  0.00000000E+00  0.00000000E+00
  0.00000000E+00  0.00000000E+00  0.00000000E+00
  0.00000000E+00  0.00000000E+00  0.00000000E+00
  0.00000000E+00  0.00000000E+00  0.00000000E+00
  0.00000000E+00  0.00000000E+00  0.00000000E+00
  0.00000000E+00  0.00000000E+00  0.00000000E+00
  0.00000000E+00  0.00000000E+00  0.00000000E+00
  0.00000000E+00  0.00000000E+00  0.00000000E+00
  0.00000000E+00  0.00000000E+00  0.00000000E+00
  0.00000000E+00  0.00000000E+00  0.00000000E+00
  0.00000000E+00  0.00000000E+00  0.00000000E+00
  0.00000000E+00  0.00000000E+00  0.00000000E+00
  0.00000000E+00  0.00000000E+00  0.00000000E+00
  0.00000000E+00  0.00000000E+00  0.00000000E+00
  0.00000000E+00  0.00000000E+00  0.00000000E+00
  0.00000000E+00  0.00000000E+00  0.00000000E+00
  0.00000000E+00  0.00000000E+00  0.00000000E+00
  0.00000000E+00  0.00000000E+00  0.00000000E+00
  0.00000000E+00  0.00000000E+00  0.00000000E+00
  0.00000000E+00  0.00000000E+00  0.00000000E+00
  0.00000000E+00  0.00000000E+00  0.00000000E+00
  0.00000000E+00  0.00000000E+00  0.00000000E+00
  0.00000000E+00  0.00000000E+00  0.00000000E+00
  0.00000000E+00  0.00000000E+00  0.00000000E+00
  0.00000000E+00  0.00000000E+00  0.00000000E+00
  0.00000000E+00  0.00000000E+00  0.00000000E+00
  0.00000000E+00  0.00000000E+00  0.00000000E+00
  0.00000000E+00  0.00000000E+00  0.00000000E+00
  0.00000000E+00  0.00000000E+00  0.00000000E+00
  0.00000000E+00  0.00000000E+00  0.00000000E+00
  0.00000000E+00  0.00000000E+00  0.00000000E+00
  0.00000000E+00  0.00000000E+00  0.00000000E+00
  0.00000000E+00  0.00000000E+00  0.00000000E+00
  0.00000000E+00  0.00000000E+00  0.00000000E+00
  0.00000000E+00  0.00000000E+00  0.00000000E+00
  0.00000000E+00  0.00000000E+00  0.00000000E+00
