H Mg O V                                
   1.00000000000000     
    16.8282433949600012    0.0000000000000000    0.0000000000000000
     0.0000000000000000    8.4141216974800006    0.0000000000000000
     0.0000000000000000    0.0000000000000000   23.4141216974799988
   H    Mg   O    V 
     2    64    64     1
Selective dynamics
Direct
  0.1246839851072319 -0.0000000000000000  0.3326097759096868   T   T   T
  0.6253159644587718 -0.0000000000000000  0.3326097759096868   T   T   T
  0.1250239724307528 -0.0000000000000000  0.0027799889698787   T   T   T
  0.6249760275692474 -0.0000000000000000  0.0027799889698787   T   T   T
  0.1250859953858653  0.5000000000000000  0.0034445572085066   T   T   T
  0.6249140046141346  0.5000000000000000  0.0034445572085066   T   T   T
  0.3750000000000000 -0.0000000000000000  0.0035853150328453   T   T   T
  0.8750000000000000 -0.0000000000000000  0.0032770165030073   T   T   T
  0.3750000000000000  0.5000000000000000  0.0041033232846218   T   T   T
  0.8750000000000000  0.5000000000000000  0.0037677826495983   T   T   T
 -0.0001547047787944  0.2503650497995391  0.0035171470691647   T   T   T
  0.4997412983067300  0.2504571292714747  0.0037754849965711   T   T   T
 -0.0001547047787944  0.7496349502004609  0.0035171470691647   T   T   T
  0.4997412983067300  0.7495428707285254  0.0037754849965711   T   T   T
  0.2502587016932700  0.2504571292714747  0.0037754849965711   T   T   T
  0.7501547047787943  0.2503650497995391  0.0035171470691647   T   T   T
  0.2502587016932700  0.7495428707285254  0.0037754849965711   T   T   T
  0.7501547047787943  0.7496349502004609  0.0035171470691647   T   T   T
  0.9993833151999809 -0.0000000000000000  0.0924013662559919   T   T   T
  0.4994493059076864 -0.0000000000000000  0.0927600441307177   T   T   T
 -0.0001674533613154  0.5000000000000000  0.0933781244036036   T   T   T
  0.4996065716880217  0.5000000000000000  0.0937811772563433   T   T   T
  0.2505506940923136 -0.0000000000000000  0.0927600441307177   T   T   T
  0.7506166848000191 -0.0000000000000000  0.0924013662559919   T   T   T
  0.2503934283119783  0.5000000000000000  0.0937811772563433   T   T   T
  0.7501674533613154  0.5000000000000000  0.0933781244036036   T   T   T
  0.1251157679333270  0.2511708866515485  0.0926009933435707   T   T   T
  0.6248842320666729  0.2511708866515485  0.0926009933435707   T   T   T
  0.1251157679333270  0.7488291133484516  0.0926009933435707   T   T   T
  0.6248842320666729  0.7488291133484516  0.0926009933435707   T   T   T
  0.3750000000000000  0.2507522929089150  0.0939187643778577   T   T   T
  0.8750000000000000  0.2504636987369384  0.0932462615621720   T   T   T
  0.3750000000000000  0.7492477070910848  0.0939187643778577   T   T   T
  0.8750000000000000  0.7495363012630615  0.0932462615621720   T   T   T
  0.1251918451226684 -0.0000000000000000  0.1778553786129329   T   T   T
  0.6248081548773317 -0.0000000000000000  0.1778553786129329   T   T   T
  0.1250809288655172  0.5000000000000000  0.1836743529440458   T   T   T
  0.6249190711344829  0.5000000000000000  0.1836743529440458   T   T   T
  0.3750000000000000 -0.0000000000000000  0.1837196012111425   T   T   T
  0.8750000000000000 -0.0000000000000000  0.1835613848362209   T   T   T
  0.3750000000000000  0.5000000000000000  0.1851883735882724   T   T   T
  0.8750000000000000  0.5000000000000000  0.1838515478720069   T   T   T
 -0.0000438465711322  0.2501113553159237  0.1840890030114152   T   T   T
  0.4996708909721577  0.2505898506721955  0.1847636868076896   T   T   T
 -0.0000438465711322  0.7498886446840765  0.1840890030114152   T   T   T
  0.4996708909721577  0.7494101493278048  0.1847636868076896   T   T   T
  0.2503291090278422  0.2505898506721955  0.1847636868076896   T   T   T
  0.7500438465711325  0.2501113553159237  0.1840890030114152   T   T   T
  0.2503291090278422  0.7494101493278048  0.1847636868076896   T   T   T
  0.7500438465711325  0.7498886446840765  0.1840890030114152   T   T   T
  0.9944704293746101 -0.0000000000000000  0.2743056874206304   T   T   T
  0.4949569201215424 -0.0000000000000000  0.2737139663639834   T   T   T
  0.9989266697791529  0.5000000000000000  0.2739823265316515   T   T   T
  0.5014517273037191  0.5000000000000000  0.2779642123558618   T   T   T
  0.2550430798784576 -0.0000000000000000  0.2737137532599814   T   T   T
  0.7555295706253899 -0.0000000000000000  0.2743054743166284   T   T   T
  0.2485482726962809  0.5000000000000000  0.2779642123558618   T   T   T
  0.7510733302208471  0.5000000000000000  0.2739823265316515   T   T   T
  0.1246589353206583  0.2604790341786080  0.2740023018556289   T   T   T
  0.6253410646793415  0.2604790341786080  0.2740023018556289   T   T   T
  0.1246589353206583  0.7395209658213924  0.2740023018556289   T   T   T
  0.6253410646793415  0.7395209658213924  0.2740023018556289   T   T   T
  0.3750000000000000  0.2475908779500688  0.2776093836806825   T   T   T
  0.8750000000000000  0.2519345114256101  0.2741302269758948   T   T   T
  0.3750000000000000  0.7524091220499314  0.2776093836806825   T   T   T
  0.8750000000000000  0.7480654885743898  0.2741302269758948   T   T   T
  0.9996801210453444 -0.0000000000000000  0.0015115249469265   T   T   T
  0.4998158918005943 -0.0000000000000000  0.0016304040692111   T   T   T
 -0.0000065565028746  0.5000000000000000  0.0020709508436387   T   T   T
  0.5000277106190049  0.5000000000000000  0.0020880573225354   T   T   T
  0.2501841081994057 -0.0000000000000000  0.0016304040692111   T   T   T
  0.7503198789546556 -0.0000000000000000  0.0015115249469265   T   T   T
  0.2499722893809952  0.5000000000000000  0.0020880573225354   T   T   T
  0.7500065565028745  0.5000000000000000  0.0020709508436387   T   T   T
  0.1249271774068849  0.2504896556708091  0.0015875317577448   T   T   T
  0.6250728225931150  0.2504896556708091  0.0015875317577448   T   T   T
  0.1249271774068849  0.7495103443291909  0.0015875317577448   T   T   T
  0.6250728225931150  0.7495103443291909  0.0015875317577448   T   T   T
  0.3750000000000000  0.2499797302357402  0.0021729150871192   T   T   T
  0.8750000000000000  0.2499786941439652  0.0019927652834189   T   T   T
  0.3750000000000000  0.7500202697642600  0.0021729150871192   T   T   T
  0.8750000000000000  0.7500213058560347  0.0019927652834189   T   T   T
  0.1247710104367513 -0.0000000000000000  0.0919833782462447   T   T   T
  0.6252289895632488 -0.0000000000000000  0.0919833782462447   T   T   T
  0.1248923127978094  0.5000000000000000  0.0940563014942229   T   T   T
  0.6251076872021908  0.5000000000000000  0.0940563014942229   T   T   T
  0.3750000000000000 -0.0000000000000000  0.0940632191621836   T   T   T
  0.8750000000000000 -0.0000000000000000  0.0940051916229132   T   T   T
  0.3750000000000000  0.5000000000000000  0.0942698544985958   T   T   T
  0.8750000000000000  0.5000000000000000  0.0939058803267498   T   T   T
  0.0000821433549131  0.2495447788501558  0.0937710577032649   T   T   T
  0.5002705084590358  0.2497468742045753  0.0939576645844272   T   T   T
  0.0000821433549131  0.7504552211498440  0.0937710577032649   T   T   T
  0.5002705084590358  0.7502531257954248  0.0939576645844272   T   T   T
  0.2497294915409641  0.2497468742045753  0.0939576645844272   T   T   T
  0.7499178566450870  0.2495447788501558  0.0937710577032649   T   T   T
  0.2497294915409641  0.7502531257954248  0.0939576645844272   T   T   T
  0.7499178566450870  0.7504552211498440  0.0937710577032649   T   T   T
  0.0019069658881737 -0.0000000000000000  0.1847144265077595   T   T   T
  0.5023703994491211 -0.0000000000000000  0.1839856099586860   T   T   T
 -0.0000654164636007  0.5000000000000000  0.1835736336629899   T   T   T
  0.5005053642469517  0.5000000000000000  0.1843411665064808   T   T   T
  0.2476296005508787 -0.0000000000000000  0.1839856099586860   T   T   T
  0.7480930341118264 -0.0000000000000000  0.1847144265077595   T   T   T
  0.2494946357530409  0.5000000000000000  0.1843411665064808   T   T   T
  0.7500654164636079  0.5000000000000000  0.1835736336629899   T   T   T
  0.1243297857578745  0.2457111320025514  0.1843525688800963   T   T   T
  0.6256702142421255  0.2457111320025514  0.1843525688800963   T   T   T
  0.1243297857578745  0.7542888679974483  0.1843525688800963   T   T   T
  0.6256702142421255  0.7542888679974483  0.1843525688800963   T   T   T
  0.3750000000000000  0.2497929846801293  0.1842538217894491   T   T   T
  0.8750000000000000  0.2493638273407970  0.1836860340439764   T   T   T
  0.3750000000000000  0.7502070153198707  0.1842538217894491   T   T   T
  0.8750000000000000  0.7506361726592030  0.1836860340439764   T   T   T
  0.1230094027946866 -0.0000000000000000  0.2903262938355921   T   T   T
  0.6269905467713170 -0.0000000000000000  0.2903262938355921   T   T   T
  0.1232943214764012  0.5000000000000000  0.2744345004400751   T   T   T
  0.6267056785235988  0.5000000000000000  0.2744345004400751   T   T   T
  0.3750000000000000 -0.0000000000000000  0.2739073262770118   T   T   T
  0.8750000000000000 -0.0000000000000000  0.2749093433113862   T   T   T
  0.3749999243470015  0.4999998991290013  0.2758643848549907   T   T   T
  0.8750000000000000  0.5000000000000000  0.2753634938426593   T   T   T
  0.0002061735522705  0.2486670478229631  0.2751996038565960   T   T   T
  0.5028831387584968  0.2451405060119462  0.2739014204513174   T   T   T
  0.0002061735522705  0.7513329521770371  0.2751996038565960   T   T   T
  0.5028831387584968  0.7548594939880539  0.2739014204513174   T   T   T
  0.2471168612415035  0.2451405060119462  0.2739014204513174   T   T   T
  0.7497938264477292  0.2486670478229631  0.2751996038565960   T   T   T
  0.2471168612415035  0.7548594939880539  0.2739014204513174   T   T   T
  0.7497938264477292  0.7513329521770371  0.2751996038565960   T   T   T
  0.3749999243470015  0.4999998991290013  0.3672242206783150   T   T   T
 
  0.00000000E+00  0.00000000E+00  0.00000000E+00
  0.00000000E+00  0.00000000E+00  0.00000000E+00
  0.00000000E+00  0.00000000E+00  0.00000000E+00
  0.00000000E+00  0.00000000E+00  0.00000000E+00
  0.00000000E+00  0.00000000E+00  0.00000000E+00
  0.00000000E+00  0.00000000E+00  0.00000000E+00
  0.00000000E+00  0.00000000E+00  0.00000000E+00
  0.00000000E+00  0.00000000E+00  0.00000000E+00
  0.00000000E+00  0.00000000E+00  0.00000000E+00
  0.00000000E+00  0.00000000E+00  0.00000000E+00
  0.00000000E+00  0.00000000E+00  0.00000000E+00
  0.00000000E+00  0.00000000E+00  0.00000000E+00
  0.00000000E+00  0.00000000E+00  0.00000000E+00
  0.00000000E+00  0.00000000E+00  0.00000000E+00
  0.00000000E+00  0.00000000E+00  0.00000000E+00
  0.00000000E+00  0.00000000E+00  0.00000000E+00
  0.00000000E+00  0.00000000E+00  0.00000000E+00
  0.00000000E+00  0.00000000E+00  0.00000000E+00
  0.00000000E+00  0.00000000E+00  0.00000000E+00
  0.00000000E+00  0.00000000E+00  0.00000000E+00
  0.00000000E+00  0.00000000E+00  0.00000000E+00
  0.00000000E+00  0.00000000E+00  0.00000000E+00
  0.00000000E+00  0.00000000E+00  0.00000000E+00
  0.00000000E+00  0.00000000E+00  0.00000000E+00
  0.00000000E+00  0.00000000E+00  0.00000000E+00
  0.00000000E+00  0.00000000E+00  0.00000000E+00
  0.00000000E+00  0.00000000E+00  0.00000000E+00
  0.00000000E+00  0.00000000E+00  0.00000000E+00
  0.00000000E+00  0.00000000E+00  0.00000000E+00
  0.00000000E+00  0.00000000E+00  0.00000000E+00
  0.00000000E+00  0.00000000E+00  0.00000000E+00
  0.00000000E+00  0.00000000E+00  0.00000000E+00
  0.00000000E+00  0.00000000E+00  0.00000000E+00
  0.00000000E+00  0.00000000E+00  0.00000000E+00
  0.00000000E+00  0.00000000E+00  0.00000000E+00
  0.00000000E+00  0.00000000E+00  0.00000000E+00
  0.00000000E+00  0.00000000E+00  0.00000000E+00
  0.00000000E+00  0.00000000E+00  0.00000000E+00
  0.00000000E+00  0.00000000E+00  0.00000000E+00
  0.00000000E+00  0.00000000E+00  0.00000000E+00
  0.00000000E+00  0.00000000E+00  0.00000000E+00
  0.00000000E+00  0.00000000E+00  0.00000000E+00
  0.00000000E+00  0.00000000E+00  0.00000000E+00
  0.00000000E+00  0.00000000E+00  0.00000000E+00
  0.00000000E+00  0.00000000E+00  0.00000000E+00
  0.00000000E+00  0.00000000E+00  0.00000000E+00
  0.00000000E+00  0.00000000E+00  0.00000000E+00
  0.00000000E+00  0.00000000E+00  0.00000000E+00
  0.00000000E+00  0.00000000E+00  0.00000000E+00
  0.00000000E+00  0.00000000E+00  0.00000000E+00
  0.00000000E+00  0.00000000E+00  0.00000000E+00
  0.00000000E+00  0.00000000E+00  0.00000000E+00
  0.00000000E+00  0.00000000E+00  0.00000000E+00
  0.00000000E+00  0.00000000E+00  0.00000000E+00
  0.00000000E+00  0.00000000E+00  0.00000000E+00
  0.00000000E+00  0.00000000E+00  0.00000000E+00
  0.00000000E+00  0.00000000E+00  0.00000000E+00
  0.00000000E+00  0.00000000E+00  0.00000000E+00
  0.00000000E+00  0.00000000E+00  0.00000000E+00
  0.00000000E+00  0.00000000E+00  0.00000000E+00
  0.00000000E+00  0.00000000E+00  0.00000000E+00
  0.00000000E+00  0.00000000E+00  0.00000000E+00
  0.00000000E+00  0.00000000E+00  0.00000000E+00
  0.00000000E+00  0.00000000E+00  0.00000000E+00
  0.00000000E+00  0.00000000E+00  0.00000000E+00
  0.00000000E+00  0.00000000E+00  0.00000000E+00
  0.00000000E+00  0.00000000E+00  0.00000000E+00
  0.00000000E+00  0.00000000E+00  0.00000000E+00
  0.00000000E+00  0.00000000E+00  0.00000000E+00
  0.00000000E+00  0.00000000E+00  0.00000000E+00
  0.00000000E+00  0.00000000E+00  0.00000000E+00
  0.00000000E+00  0.00000000E+00  0.00000000E+00
  0.00000000E+00  0.00000000E+00  0.00000000E+00
  0.00000000E+00  0.00000000E+00  0.00000000E+00
  0.00000000E+00  0.00000000E+00  0.00000000E+00
  0.00000000E+00  0.00000000E+00  0.00000000E+00
  0.00000000E+00  0.00000000E+00  0.00000000E+00
  0.00000000E+00  0.00000000E+00  0.00000000E+00
  0.00000000E+00  0.00000000E+00  0.00000000E+00
  0.00000000E+00  0.00000000E+00  0.00000000E+00
  0.00000000E+00  0.00000000E+00  0.00000000E+00
  0.00000000E+00  0.00000000E+00  0.00000000E+00
  0.00000000E+00  0.00000000E+00  0.00000000E+00
  0.00000000E+00  0.00000000E+00  0.00000000E+00
  0.00000000E+00  0.00000000E+00  0.00000000E+00
  0.00000000E+00  0.00000000E+00  0.00000000E+00
  0.00000000E+00  0.00000000E+00  0.00000000E+00
  0.00000000E+00  0.00000000E+00  0.00000000E+00
  0.00000000E+00  0.00000000E+00  0.00000000E+00
  0.00000000E+00  0.00000000E+00  0.00000000E+00
  0.00000000E+00  0.00000000E+00  0.00000000E+00
  0.00000000E+00  0.00000000E+00  0.00000000E+00
  0.00000000E+00  0.00000000E+00  0.00000000E+00
  0.00000000E+00  0.00000000E+00  0.00000000E+00
  0.00000000E+00  0.00000000E+00  0.00000000E+00
  0.00000000E+00  0.00000000E+00  0.00000000E+00
  0.00000000E+00  0.00000000E+00  0.00000000E+00
  0.00000000E+00  0.00000000E+00  0.00000000E+00
  0.00000000E+00  0.00000000E+00  0.00000000E+00
  0.00000000E+00  0.00000000E+00  0.00000000E+00
  0.00000000E+00  0.00000000E+00  0.00000000E+00
  0.00000000E+00  0.00000000E+00  0.00000000E+00
  0.00000000E+00  0.00000000E+00  0.00000000E+00
  0.00000000E+00  0.00000000E+00  0.00000000E+00
  0.00000000E+00  0.00000000E+00  0.00000000E+00
  0.00000000E+00  0.00000000E+00  0.00000000E+00
  0.00000000E+00  0.00000000E+00  0.00000000E+00
  0.00000000E+00  0.00000000E+00  0.00000000E+00
  0.00000000E+00  0.00000000E+00  0.00000000E+00
  0.00000000E+00  0.00000000E+00  0.00000000E+00
  0.00000000E+00  0.00000000E+00  0.00000000E+00
  0.00000000E+00  0.00000000E+00  0.00000000E+00
  0.00000000E+00  0.00000000E+00  0.00000000E+00
  0.00000000E+00  0.00000000E+00  0.00000000E+00
  0.00000000E+00  0.00000000E+00  0.00000000E+00
  0.00000000E+00  0.00000000E+00  0.00000000E+00
  0.00000000E+00  0.00000000E+00  0.00000000E+00
  0.00000000E+00  0.00000000E+00  0.00000000E+00
  0.00000000E+00  0.00000000E+00  0.00000000E+00
  0.00000000E+00  0.00000000E+00  0.00000000E+00
  0.00000000E+00  0.00000000E+00  0.00000000E+00
  0.00000000E+00  0.00000000E+00  0.00000000E+00
  0.00000000E+00  0.00000000E+00  0.00000000E+00
  0.00000000E+00  0.00000000E+00  0.00000000E+00
  0.00000000E+00  0.00000000E+00  0.00000000E+00
  0.00000000E+00  0.00000000E+00  0.00000000E+00
  0.00000000E+00  0.00000000E+00  0.00000000E+00
  0.00000000E+00  0.00000000E+00  0.00000000E+00
  0.00000000E+00  0.00000000E+00  0.00000000E+00
  0.00000000E+00  0.00000000E+00  0.00000000E+00
  0.00000000E+00  0.00000000E+00  0.00000000E+00
