H Mg O Ru                               
   1.00000000000000     
    16.8282433949600012    0.0000000000000000    0.0000000000000000
     0.0000000000000000    8.4141216974800006    0.0000000000000000
     0.0000000000000000    0.0000000000000000   23.4141216974799988
   H    Mg   O    Ru
     2    64    64     1
Selective dynamics
Direct
  0.1241569422635540  0.0000000000000000  0.3338039606326731   T   T   T
  0.6258430073024497  0.0000000000000000  0.3338039606326731   T   T   T
  0.1251538184132454  0.0000000000000000  0.0027679315869635   T   T   T
  0.6248461815867545  0.0000000000000000  0.0027679315869635   T   T   T
  0.1250901096093173  0.5000000000000000  0.0034450238100741   T   T   T
  0.6249098903906825  0.5000000000000000  0.0034450238100741   T   T   T
  0.3750000000000000  0.0000000000000000  0.0035647280787694   T   T   T
  0.8750000000000000  0.0000000000000000  0.0032480651402132   T   T   T
  0.3750000000000000  0.5000000000000000  0.0041414730918545   T   T   T
  0.8750000000000000  0.5000000000000000  0.0038212310692771   T   T   T
 -0.0000655708595400  0.2503554302903085  0.0035633928044444   T   T   T
  0.4997264334358383  0.2503159192305267  0.0038418488831870   T   T   T
 -0.0000655708595400  0.7496445697096913  0.0035633928044444   T   T   T
  0.4997264334358383  0.7496840807694730  0.0038418488831870   T   T   T
  0.2502735665641617  0.2503159192305267  0.0038418488831870   T   T   T
  0.7500655708595398  0.2503554302903085  0.0035633928044444   T   T   T
  0.2502735665641617  0.7496840807694730  0.0038418488831870   T   T   T
  0.7500655708595398  0.7496445697096913  0.0035633928044444   T   T   T
  0.9995137539762821  0.0000000000000000  0.0923054235695464   T   T   T
  0.4992506780575421  0.0000000000000000  0.0928167431738419   T   T   T
 -0.0000786724831858  0.5000000000000000  0.0933797593280584   T   T   T
  0.4997513984533458  0.5000000000000000  0.0938746461953263   T   T   T
  0.2507493219424579  0.0000000000000000  0.0928167431738419   T   T   T
  0.7504862460237179  0.0000000000000000  0.0923054235695464   T   T   T
  0.2502486015466542  0.5000000000000000  0.0938746461953263   T   T   T
  0.7500786724831859  0.5000000000000000  0.0933797593280584   T   T   T
  0.1252443182985922  0.2512554877113025  0.0925895036866096   T   T   T
  0.6247556817014079  0.2512554877113025  0.0925895036866096   T   T   T
  0.1252443182985922  0.7487445122886974  0.0925895036866096   T   T   T
  0.6247556817014079  0.7487445122886974  0.0925895036866096   T   T   T
  0.3750000000000000  0.2502270192721354  0.0939751475287971   T   T   T
  0.8750000000000000  0.2504709938382368  0.0932692518321018   T   T   T
  0.3750000000000000  0.7497729807278647  0.0939751475287971   T   T   T
  0.8750000000000000  0.7495290061617635  0.0932692518321018   T   T   T
  0.1254187906726490  0.0000000000000000  0.1776081076464486   T   T   T
  0.6245812093273510  0.0000000000000000  0.1776081076464486   T   T   T
  0.1258100610898492  0.5000000000000000  0.1838361600270103   T   T   T
  0.6241899389101510  0.5000000000000000  0.1838361600270103   T   T   T
  0.3750000000000000  0.0000000000000000  0.1842088643950568   T   T   T
  0.8750000000000000  0.0000000000000000  0.1834384574365477   T   T   T
  0.3750000000000000  0.5000000000000000  0.1841954642467613   T   T   T
  0.8750000000000000  0.5000000000000000  0.1838506253752259   T   T   T
  0.0000704089271870  0.2501111929780653  0.1840219319811368   T   T   T
  0.4990921736984005  0.2513962262770388  0.1851573597603495   T   T   T
  0.0000704089271870  0.7498888070219346  0.1840219319811368   T   T   T
  0.4990921736984005  0.7486037737229614  0.1851573597603495   T   T   T
  0.2509078263015994  0.2513962262770388  0.1851573597603495   T   T   T
  0.7499295910728131  0.2501111929780653  0.1840219319811368   T   T   T
  0.2509078263015994  0.7486037737229614  0.1851573597603495   T   T   T
  0.7499295910728131  0.7498888070219346  0.1840219319811368   T   T   T
  0.9945289167111281  0.0000000000000000  0.2740347554132461   T   T   T
  0.4944458103045145  0.0000000000000000  0.2733645379672527   T   T   T
  0.9991126275808316  0.5000000000000000  0.2739844467735729   T   T   T
  0.4998438943267301  0.5000000000000000  0.2801333486586766   T   T   T
  0.2555541896954855  0.0000000000000000  0.2733643248632507   T   T   T
  0.7554710832888719  0.0000000000000000  0.2740345423092441   T   T   T
  0.2501561056732700  0.5000000000000000  0.2801333486586766   T   T   T
  0.7508873724191684  0.5000000000000000  0.2739844467735729   T   T   T
  0.1247922893788571  0.2607972890768788  0.2736537760760136   T   T   T
  0.6252077106211430  0.2607972890768788  0.2736537760760136   T   T   T
  0.1247922893788571  0.7392027109231207  0.2736537760760136   T   T   T
  0.6252077106211430  0.7392027109231207  0.2736537760760136   T   T   T
  0.3750000000000000  0.2501628348532493  0.2800126726072627   T   T   T
  0.8750000000000000  0.2518972103353908  0.2740842535891277   T   T   T
  0.3750000000000000  0.7498371651467505  0.2800126726072627   T   T   T
  0.8750000000000000  0.7481027896646093  0.2740842535891277   T   T   T
  0.9996685647193714  0.0000000000000000  0.0014376339189145   T   T   T
  0.4998833285027324  0.0000000000000000  0.0014940148181876   T   T   T
 -0.0001364127494158  0.5000000000000000  0.0020294569540842   T   T   T
  0.5000850547306570  0.5000000000000000  0.0020632466688037   T   T   T
  0.2501166714972675  0.0000000000000000  0.0014940148181876   T   T   T
  0.7503314352806286  0.0000000000000000  0.0014376339189145   T   T   T
  0.2499149452693427  0.5000000000000000  0.0020632466688037   T   T   T
  0.7501364127494157  0.5000000000000000  0.0020294569540842   T   T   T
  0.1248580497883147  0.2504823666164147  0.0014834091145985   T   T   T
  0.6251419502116854  0.2504823666164147  0.0014834091145985   T   T   T
  0.1248580497883147  0.7495176333835855  0.0014834091145985   T   T   T
  0.6251419502116854  0.7495176333835855  0.0014834091145985   T   T   T
  0.3750000000000000  0.2500927593871808  0.0020558707691307   T   T   T
  0.8750000000000000  0.2500520142819005  0.0020138222834526   T   T   T
  0.3750000000000000  0.7499072406128191  0.0020558707691307   T   T   T
  0.8750000000000000  0.7499479857180996  0.0020138222834526   T   T   T
  0.1247153773657570  0.0000000000000000  0.0919297215523309   T   T   T
  0.6252846226342430  0.0000000000000000  0.0919297215523309   T   T   T
  0.1246697145293603  0.5000000000000000  0.0939632366258598   T   T   T
  0.6253302854706398  0.5000000000000000  0.0939632366258598   T   T   T
  0.3750000000000000  0.0000000000000000  0.0938362170578298   T   T   T
  0.8750000000000000  0.0000000000000000  0.0940292618717017   T   T   T
  0.3750000000000000  0.5000000000000000  0.0938926751510301   T   T   T
  0.8750000000000000  0.5000000000000000  0.0939424368611358   T   T   T
  0.0000636504661168  0.2494599553026255  0.0937989581580759   T   T   T
  0.5004232658076301  0.2495306373003559  0.0938269266977257   T   T   T
  0.0000636504661168  0.7505400446973745  0.0937989581580759   T   T   T
  0.5004232658076301  0.7504693626996441  0.0938269266977257   T   T   T
  0.2495767341923701  0.2495306373003559  0.0938269266977257   T   T   T
  0.7499363495338832  0.2494599553026255  0.0937989581580759   T   T   T
  0.2495767341923701  0.7504693626996441  0.0938269266977257   T   T   T
  0.7499363495338832  0.7505400446973745  0.0937989581580759   T   T   T
  0.0020444667176572  0.0000000000000000  0.1847243848889353   T   T   T
  0.5025428916359691  0.0000000000000000  0.1839664597736967   T   T   T
  0.0000273477797637  0.5000000000000000  0.1837408055528867   T   T   T
  0.5010048307483946  0.5000000000000000  0.1839019770050592   T   T   T
  0.2474571083640311  0.0000000000000000  0.1839664597736967   T   T   T
  0.7479555332823427  0.0000000000000000  0.1847243848889353   T   T   T
  0.2489951692515985  0.5000000000000000  0.1839019770050592   T   T   T
  0.7499726522202436  0.5000000000000000  0.1837408055528867   T   T   T
  0.1241655429494065  0.2454567301253782  0.1843425254008994   T   T   T
  0.6258344570505935  0.2454567301253782  0.1843425254008994   T   T   T
  0.1241655429494065  0.7545432698746217  0.1843425254008994   T   T   T
  0.6258344570505935  0.7545432698746217  0.1843425254008994   T   T   T
  0.3750000000000000  0.2485714385012447  0.1838315137995383   T   T   T
  0.8750000000000000  0.2492588251702955  0.1837956477999900   T   T   T
  0.3750000000000000  0.7514285614987555  0.1838315137995383   T   T   T
  0.8750000000000000  0.7507411748297044  0.1837956477999900   T   T   T
  0.1222714975148908  0.0000000000000000  0.2917047611723629   T   T   T
  0.6277284520511129  0.0000000000000000  0.2917047611723629   T   T   T
  0.1234837732404562  0.5000000000000000  0.2749769860411005   T   T   T
  0.6265162267595437  0.5000000000000000  0.2749769860411005   T   T   T
  0.3750000000000000  0.0000000000000000  0.2748872961094524   T   T   T
  0.8750000000000000  0.0000000000000000  0.2749124946377689   T   T   T
  0.3749999243470015  0.4999998991290013  0.2698176503034700   T   T   T
  0.8750000000000000  0.5000000000000000  0.2755064760929486   T   T   T
  0.0002979118462078  0.2484704944299599  0.2753530161915796   T   T   T
  0.5036286743198221  0.2437359725511912  0.2742632839063606   T   T   T
  0.0002979118462078  0.7515295055700404  0.2753530161915796   T   T   T
  0.5036286743198221  0.7562640274488086  0.2742632839063606   T   T   T
  0.2463713256801778  0.2437359725511912  0.2742632839063606   T   T   T
  0.7497020881537924  0.2484704944299599  0.2753530161915796   T   T   T
  0.2463713256801778  0.7562640274488086  0.2742632839063606   T   T   T
  0.7497020881537924  0.7515295055700404  0.2753530161915796   T   T   T
  0.3749999243470015  0.4999998991290013  0.3598673073284088   T   T   T
 
  0.00000000E+00  0.00000000E+00  0.00000000E+00
  0.00000000E+00  0.00000000E+00  0.00000000E+00
  0.00000000E+00  0.00000000E+00  0.00000000E+00
  0.00000000E+00  0.00000000E+00  0.00000000E+00
  0.00000000E+00  0.00000000E+00  0.00000000E+00
  0.00000000E+00  0.00000000E+00  0.00000000E+00
  0.00000000E+00  0.00000000E+00  0.00000000E+00
  0.00000000E+00  0.00000000E+00  0.00000000E+00
  0.00000000E+00  0.00000000E+00  0.00000000E+00
  0.00000000E+00  0.00000000E+00  0.00000000E+00
  0.00000000E+00  0.00000000E+00  0.00000000E+00
  0.00000000E+00  0.00000000E+00  0.00000000E+00
  0.00000000E+00  0.00000000E+00  0.00000000E+00
  0.00000000E+00  0.00000000E+00  0.00000000E+00
  0.00000000E+00  0.00000000E+00  0.00000000E+00
  0.00000000E+00  0.00000000E+00  0.00000000E+00
  0.00000000E+00  0.00000000E+00  0.00000000E+00
  0.00000000E+00  0.00000000E+00  0.00000000E+00
  0.00000000E+00  0.00000000E+00  0.00000000E+00
  0.00000000E+00  0.00000000E+00  0.00000000E+00
  0.00000000E+00  0.00000000E+00  0.00000000E+00
  0.00000000E+00  0.00000000E+00  0.00000000E+00
  0.00000000E+00  0.00000000E+00  0.00000000E+00
  0.00000000E+00  0.00000000E+00  0.00000000E+00
  0.00000000E+00  0.00000000E+00  0.00000000E+00
  0.00000000E+00  0.00000000E+00  0.00000000E+00
  0.00000000E+00  0.00000000E+00  0.00000000E+00
  0.00000000E+00  0.00000000E+00  0.00000000E+00
  0.00000000E+00  0.00000000E+00  0.00000000E+00
  0.00000000E+00  0.00000000E+00  0.00000000E+00
  0.00000000E+00  0.00000000E+00  0.00000000E+00
  0.00000000E+00  0.00000000E+00  0.00000000E+00
  0.00000000E+00  0.00000000E+00  0.00000000E+00
  0.00000000E+00  0.00000000E+00  0.00000000E+00
  0.00000000E+00  0.00000000E+00  0.00000000E+00
  0.00000000E+00  0.00000000E+00  0.00000000E+00
  0.00000000E+00  0.00000000E+00  0.00000000E+00
  0.00000000E+00  0.00000000E+00  0.00000000E+00
  0.00000000E+00  0.00000000E+00  0.00000000E+00
  0.00000000E+00  0.00000000E+00  0.00000000E+00
  0.00000000E+00  0.00000000E+00  0.00000000E+00
  0.00000000E+00  0.00000000E+00  0.00000000E+00
  0.00000000E+00  0.00000000E+00  0.00000000E+00
  0.00000000E+00  0.00000000E+00  0.00000000E+00
  0.00000000E+00  0.00000000E+00  0.00000000E+00
  0.00000000E+00  0.00000000E+00  0.00000000E+00
  0.00000000E+00  0.00000000E+00  0.00000000E+00
  0.00000000E+00  0.00000000E+00  0.00000000E+00
  0.00000000E+00  0.00000000E+00  0.00000000E+00
  0.00000000E+00  0.00000000E+00  0.00000000E+00
  0.00000000E+00  0.00000000E+00  0.00000000E+00
  0.00000000E+00  0.00000000E+00  0.00000000E+00
  0.00000000E+00  0.00000000E+00  0.00000000E+00
  0.00000000E+00  0.00000000E+00  0.00000000E+00
  0.00000000E+00  0.00000000E+00  0.00000000E+00
  0.00000000E+00  0.00000000E+00  0.00000000E+00
  0.00000000E+00  0.00000000E+00  0.00000000E+00
  0.00000000E+00  0.00000000E+00  0.00000000E+00
  0.00000000E+00  0.00000000E+00  0.00000000E+00
  0.00000000E+00  0.00000000E+00  0.00000000E+00
  0.00000000E+00  0.00000000E+00  0.00000000E+00
  0.00000000E+00  0.00000000E+00  0.00000000E+00
  0.00000000E+00  0.00000000E+00  0.00000000E+00
  0.00000000E+00  0.00000000E+00  0.00000000E+00
  0.00000000E+00  0.00000000E+00  0.00000000E+00
  0.00000000E+00  0.00000000E+00  0.00000000E+00
  0.00000000E+00  0.00000000E+00  0.00000000E+00
  0.00000000E+00  0.00000000E+00  0.00000000E+00
  0.00000000E+00  0.00000000E+00  0.00000000E+00
  0.00000000E+00  0.00000000E+00  0.00000000E+00
  0.00000000E+00  0.00000000E+00  0.00000000E+00
  0.00000000E+00  0.00000000E+00  0.00000000E+00
  0.00000000E+00  0.00000000E+00  0.00000000E+00
  0.00000000E+00  0.00000000E+00  0.00000000E+00
  0.00000000E+00  0.00000000E+00  0.00000000E+00
  0.00000000E+00  0.00000000E+00  0.00000000E+00
  0.00000000E+00  0.00000000E+00  0.00000000E+00
  0.00000000E+00  0.00000000E+00  0.00000000E+00
  0.00000000E+00  0.00000000E+00  0.00000000E+00
  0.00000000E+00  0.00000000E+00  0.00000000E+00
  0.00000000E+00  0.00000000E+00  0.00000000E+00
  0.00000000E+00  0.00000000E+00  0.00000000E+00
  0.00000000E+00  0.00000000E+00  0.00000000E+00
  0.00000000E+00  0.00000000E+00  0.00000000E+00
  0.00000000E+00  0.00000000E+00  0.00000000E+00
  0.00000000E+00  0.00000000E+00  0.00000000E+00
  0.00000000E+00  0.00000000E+00  0.00000000E+00
  0.00000000E+00  0.00000000E+00  0.00000000E+00
  0.00000000E+00  0.00000000E+00  0.00000000E+00
  0.00000000E+00  0.00000000E+00  0.00000000E+00
  0.00000000E+00  0.00000000E+00  0.00000000E+00
  0.00000000E+00  0.00000000E+00  0.00000000E+00
  0.00000000E+00  0.00000000E+00  0.00000000E+00
  0.00000000E+00  0.00000000E+00  0.00000000E+00
  0.00000000E+00  0.00000000E+00  0.00000000E+00
  0.00000000E+00  0.00000000E+00  0.00000000E+00
  0.00000000E+00  0.00000000E+00  0.00000000E+00
  0.00000000E+00  0.00000000E+00  0.00000000E+00
  0.00000000E+00  0.00000000E+00  0.00000000E+00
  0.00000000E+00  0.00000000E+00  0.00000000E+00
  0.00000000E+00  0.00000000E+00  0.00000000E+00
  0.00000000E+00  0.00000000E+00  0.00000000E+00
  0.00000000E+00  0.00000000E+00  0.00000000E+00
  0.00000000E+00  0.00000000E+00  0.00000000E+00
  0.00000000E+00  0.00000000E+00  0.00000000E+00
  0.00000000E+00  0.00000000E+00  0.00000000E+00
  0.00000000E+00  0.00000000E+00  0.00000000E+00
  0.00000000E+00  0.00000000E+00  0.00000000E+00
  0.00000000E+00  0.00000000E+00  0.00000000E+00
  0.00000000E+00  0.00000000E+00  0.00000000E+00
  0.00000000E+00  0.00000000E+00  0.00000000E+00
  0.00000000E+00  0.00000000E+00  0.00000000E+00
  0.00000000E+00  0.00000000E+00  0.00000000E+00
  0.00000000E+00  0.00000000E+00  0.00000000E+00
  0.00000000E+00  0.00000000E+00  0.00000000E+00
  0.00000000E+00  0.00000000E+00  0.00000000E+00
  0.00000000E+00  0.00000000E+00  0.00000000E+00
  0.00000000E+00  0.00000000E+00  0.00000000E+00
  0.00000000E+00  0.00000000E+00  0.00000000E+00
  0.00000000E+00  0.00000000E+00  0.00000000E+00
  0.00000000E+00  0.00000000E+00  0.00000000E+00
  0.00000000E+00  0.00000000E+00  0.00000000E+00
  0.00000000E+00  0.00000000E+00  0.00000000E+00
  0.00000000E+00  0.00000000E+00  0.00000000E+00
  0.00000000E+00  0.00000000E+00  0.00000000E+00
  0.00000000E+00  0.00000000E+00  0.00000000E+00
  0.00000000E+00  0.00000000E+00  0.00000000E+00
  0.00000000E+00  0.00000000E+00  0.00000000E+00
  0.00000000E+00  0.00000000E+00  0.00000000E+00
  0.00000000E+00  0.00000000E+00  0.00000000E+00
  0.00000000E+00  0.00000000E+00  0.00000000E+00
