O Zn                                    
   1.00000000000000     
     6.5625568183449996    0.0000000000000000    0.0000000000000000
     0.0000000000000000   10.5156600000000005    0.0000000000000000
     0.0000000000000000    0.0000000000000000   32.0500282661819966
   O    Zn
    40    40
Selective dynamics
Direct
  0.2499987879510002  0.0011593389640012  0.0882739143560016   T   T   T
  0.2499987879510002  0.5011593389640012  0.0882739143560016   T   T   T
  0.7499987879510002  0.0011593389640012  0.0882739143560016   T   T   T
  0.7499987879510002  0.5011593389640012  0.0882739143560016   T   T   T
  0.9999984461509968  0.2476397966100023  0.1191084542819993   T   T   T
  0.9999984461509968  0.7476397966100023  0.1191084542819993   T   T   T
  0.4999984461509968  0.2476397966100023  0.1191084542819993   T   T   T
  0.4999984461509968  0.7476397966100023  0.1191084542819993   T   T   T
  0.9999990303610033  0.9979228667580031  0.1763428546770029   T   T   T
  0.9999990303610033  0.4979228667580031  0.1763428546770029   T   T   T
  0.4999990303610033  0.9979228667580031  0.1763428546770029   T   T   T
  0.4999990303610033  0.4979228667580031  0.1763428546770029   T   T   T
  0.2499986885609999  0.2466109798769978  0.2077400785929981   T   T   T
  0.2499986885609999  0.7466109798769978  0.2077400785929981   T   T   T
  0.7499986885609999  0.2466109798769978  0.2077400785929981   T   T   T
  0.7499986885609999  0.7466109798769978  0.2077400785929981   T   T   T
  0.2499992727709994  0.9971914938439994  0.2652665138639989   T   T   T
  0.2499992727709994  0.4971914938439994  0.2652665138639989   T   T   T
  0.7499992727709994  0.9971914938439994  0.2652665138639989   T   T   T
  0.7499992727709994  0.4971914938439994  0.2652665138639989   T   T   T
  0.9999989309710031  0.2471914365399996  0.2962697665560015   T   T   T
  0.9999989309710031  0.7471914365399996  0.2962697665560015   T   T   T
  0.4999989309710031  0.2471914365399996  0.2962697665560015   T   T   T
  0.4999989309710031  0.7471914365399996  0.2962697665560015   T   T   T
  0.9999995151800007  0.9966110371809975  0.3537962018270022   T   T   T
  0.9999995151800007  0.4966110371809975  0.3537962018270022   T   T   T
  0.4999995151800007  0.9966110371809975  0.3537962018270022   T   T   T
  0.4999995151800007  0.4966110371809975  0.3537962018270022   T   T   T
  0.2499991733809992  0.2479228094540034  0.3851934257429974   T   T   T
  0.2499991733809992  0.7479228094540034  0.3851934257429974   T   T   T
  0.7499991733809992  0.2479228094540034  0.3851934257429974   T   T   T
  0.7499991733809992  0.7479228094540034  0.3851934257429974   T   T   T
  0.2499997575899968  0.9976398539140021  0.4424278261380010   T   T   T
  0.2499997575899968  0.4976398539140021  0.4424278261380010   T   T   T
  0.7499997575899968  0.9976398539140021  0.4424278261380010   T   T   T
  0.7499997575899968  0.4976398539140021  0.4424278261380010   T   T   T
  0.9999994157900005  0.2511592816600015  0.4732623660639987   T   T   T
  0.9999994157900005  0.7511592816600015  0.4732623660639987   T   T   T
  0.4999994157900005  0.2511592816600015  0.4732623660639987   T   T   T
  0.4999994157900005  0.7511592816600015  0.4732623660639987   T   T   T
  0.2499987879510002  0.3268980301860012  0.0997271625439993   T   T   T
  0.2499987879510002  0.8268980301860012  0.0997271625439993   T   T   T
  0.7499987879510002  0.3268980301860012  0.0997271625439993   T   T   T
  0.7499987879510002  0.8268980301860012  0.0997271625439993   T   T   T
  0.9999984461509968  0.0581515364070029  0.1142476842619971   T   T   T
  0.9999984461509968  0.5581515364070029  0.1142476842619971   T   T   T
  0.4999984461509968  0.0581515364070029  0.1142476842619971   T   T   T
  0.4999984461509968  0.5581515364070029  0.1142476842619971   T   T   T
  0.9999990303610033  0.3090065343779997  0.1798923782429966   T   T   T
  0.9999990303610033  0.8090065343779997  0.1798923782429966   T   T   T
  0.4999990303610033  0.3090065343779997  0.1798923782429966   T   T   T
  0.4999990303610033  0.8090065343779997  0.1798923782429966   T   T   T
  0.2499986885609999  0.0557036304579981  0.2055573302770028   T   T   T
  0.2499986885609999  0.5557036304579981  0.2055573302770028   T   T   T
  0.7499986885609999  0.0557036304579981  0.2055573302770028   T   T   T
  0.7499986885609999  0.5557036304579981  0.2055573302770028   T   T   T
  0.2499992727709994  0.3069905393370007  0.2671068732529989   T   T   T
  0.2499992727709994  0.8069905393370007  0.2671068732529989   T   T   T
  0.7499992727709994  0.3069905393370007  0.2671068732529989   T   T   T
  0.7499992727709994  0.8069905393370007  0.2671068732529989   T   T   T
  0.9999989309710031  0.0569905966410005  0.2944294071670015   T   T   T
  0.9999989309710031  0.5569905966410005  0.2944294071670015   T   T   T
  0.4999989309710031  0.0569905966410005  0.2944294071670015   T   T   T
  0.4999989309710031  0.5569905966410005  0.2944294071670015   T   T   T
  0.9999995151800007  0.3057035731539983  0.3559789501429975   T   T   T
  0.9999995151800007  0.8057035731539983  0.3559789501429975   T   T   T
  0.4999995151800007  0.3057035731539983  0.3559789501429975   T   T   T
  0.4999995151800007  0.8057035731539983  0.3559789501429975   T   T   T
  0.2499991733809992  0.0590065916819995  0.3816439021769966   T   T   T
  0.2499991733809992  0.5590065916819995  0.3816439021769966   T   T   T
  0.7499991733809992  0.0590065916819995  0.3816439021769966   T   T   T
  0.7499991733809992  0.5590065916819995  0.3816439021769966   T   T   T
  0.2499997575899968  0.3081514791030031  0.4472885961580033   T   T   T
  0.2499997575899968  0.8081514791030031  0.4472885961580033   T   T   T
  0.7499997575899968  0.3081514791030031  0.4472885961580033   T   T   T
  0.7499997575899968  0.8081514791030031  0.4472885961580033   T   T   T
  0.9999994157900005  0.0768980874900009  0.4618091178760011   T   T   T
  0.9999994157900005  0.5768980874900009  0.4618091178760011   T   T   T
  0.4999994157900005  0.0768980874900009  0.4618091178760011   T   T   T
  0.4999994157900005  0.5768980874900009  0.4618091178760011   T   T   T
 
  0.00000000E+00  0.00000000E+00  0.00000000E+00
  0.00000000E+00  0.00000000E+00  0.00000000E+00
  0.00000000E+00  0.00000000E+00  0.00000000E+00
  0.00000000E+00  0.00000000E+00  0.00000000E+00
  0.00000000E+00  0.00000000E+00  0.00000000E+00
  0.00000000E+00  0.00000000E+00  0.00000000E+00
  0.00000000E+00  0.00000000E+00  0.00000000E+00
  0.00000000E+00  0.00000000E+00  0.00000000E+00
  0.00000000E+00  0.00000000E+00  0.00000000E+00
  0.00000000E+00  0.00000000E+00  0.00000000E+00
  0.00000000E+00  0.00000000E+00  0.00000000E+00
  0.00000000E+00  0.00000000E+00  0.00000000E+00
  0.00000000E+00  0.00000000E+00  0.00000000E+00
  0.00000000E+00  0.00000000E+00  0.00000000E+00
  0.00000000E+00  0.00000000E+00  0.00000000E+00
  0.00000000E+00  0.00000000E+00  0.00000000E+00
  0.00000000E+00  0.00000000E+00  0.00000000E+00
  0.00000000E+00  0.00000000E+00  0.00000000E+00
  0.00000000E+00  0.00000000E+00  0.00000000E+00
  0.00000000E+00  0.00000000E+00  0.00000000E+00
  0.00000000E+00  0.00000000E+00  0.00000000E+00
  0.00000000E+00  0.00000000E+00  0.00000000E+00
  0.00000000E+00  0.00000000E+00  0.00000000E+00
  0.00000000E+00  0.00000000E+00  0.00000000E+00
  0.00000000E+00  0.00000000E+00  0.00000000E+00
  0.00000000E+00  0.00000000E+00  0.00000000E+00
  0.00000000E+00  0.00000000E+00  0.00000000E+00
  0.00000000E+00  0.00000000E+00  0.00000000E+00
  0.00000000E+00  0.00000000E+00  0.00000000E+00
  0.00000000E+00  0.00000000E+00  0.00000000E+00
  0.00000000E+00  0.00000000E+00  0.00000000E+00
  0.00000000E+00  0.00000000E+00  0.00000000E+00
  0.00000000E+00  0.00000000E+00  0.00000000E+00
  0.00000000E+00  0.00000000E+00  0.00000000E+00
  0.00000000E+00  0.00000000E+00  0.00000000E+00
  0.00000000E+00  0.00000000E+00  0.00000000E+00
  0.00000000E+00  0.00000000E+00  0.00000000E+00
  0.00000000E+00  0.00000000E+00  0.00000000E+00
  0.00000000E+00  0.00000000E+00  0.00000000E+00
  0.00000000E+00  0.00000000E+00  0.00000000E+00
  0.00000000E+00  0.00000000E+00  0.00000000E+00
  0.00000000E+00  0.00000000E+00  0.00000000E+00
  0.00000000E+00  0.00000000E+00  0.00000000E+00
  0.00000000E+00  0.00000000E+00  0.00000000E+00
  0.00000000E+00  0.00000000E+00  0.00000000E+00
  0.00000000E+00  0.00000000E+00  0.00000000E+00
  0.00000000E+00  0.00000000E+00  0.00000000E+00
  0.00000000E+00  0.00000000E+00  0.00000000E+00
  0.00000000E+00  0.00000000E+00  0.00000000E+00
  0.00000000E+00  0.00000000E+00  0.00000000E+00
  0.00000000E+00  0.00000000E+00  0.00000000E+00
  0.00000000E+00  0.00000000E+00  0.00000000E+00
  0.00000000E+00  0.00000000E+00  0.00000000E+00
  0.00000000E+00  0.00000000E+00  0.00000000E+00
  0.00000000E+00  0.00000000E+00  0.00000000E+00
  0.00000000E+00  0.00000000E+00  0.00000000E+00
  0.00000000E+00  0.00000000E+00  0.00000000E+00
  0.00000000E+00  0.00000000E+00  0.00000000E+00
  0.00000000E+00  0.00000000E+00  0.00000000E+00
  0.00000000E+00  0.00000000E+00  0.00000000E+00
  0.00000000E+00  0.00000000E+00  0.00000000E+00
  0.00000000E+00  0.00000000E+00  0.00000000E+00
  0.00000000E+00  0.00000000E+00  0.00000000E+00
  0.00000000E+00  0.00000000E+00  0.00000000E+00
  0.00000000E+00  0.00000000E+00  0.00000000E+00
  0.00000000E+00  0.00000000E+00  0.00000000E+00
  0.00000000E+00  0.00000000E+00  0.00000000E+00
  0.00000000E+00  0.00000000E+00  0.00000000E+00
  0.00000000E+00  0.00000000E+00  0.00000000E+00
  0.00000000E+00  0.00000000E+00  0.00000000E+00
  0.00000000E+00  0.00000000E+00  0.00000000E+00
  0.00000000E+00  0.00000000E+00  0.00000000E+00
  0.00000000E+00  0.00000000E+00  0.00000000E+00
  0.00000000E+00  0.00000000E+00  0.00000000E+00
  0.00000000E+00  0.00000000E+00  0.00000000E+00
  0.00000000E+00  0.00000000E+00  0.00000000E+00
  0.00000000E+00  0.00000000E+00  0.00000000E+00
  0.00000000E+00  0.00000000E+00  0.00000000E+00
  0.00000000E+00  0.00000000E+00  0.00000000E+00
  0.00000000E+00  0.00000000E+00  0.00000000E+00
