Co O Zn                                 
   1.00000000000000     
     6.5625568183449996    0.0000000000000000    0.0000000000000000
     0.0000000000000000   10.5156600000000005    0.0000000000000000
     0.0000000000000000    0.0000000000000000   32.0500282661819966
   Co   O    Zn
     1    40    40
Selective dynamics
Direct
  0.2499993212120017  0.2462567578529687  0.4977779012324598   T   T   T
  0.2499987879510002  0.0010369263206422  0.0879262571445214   T   T   T
  0.2499987879510002  0.5012834392044015  0.0881162463581203   T   T   T
  0.7499987879510002  0.0009872450802401  0.0883681395891071   T   T   T
  0.7499987879510002  0.5009001399596372  0.0884973269309756   T   T   T
  0.0005752410077558  0.2474861725787723  0.1187884519508950   T   T   T
  0.0003090136580194  0.7475883127378697  0.1189500459023095   T   T   T
  0.4994216512942448  0.2474861725787723  0.1187884519508950   T   T   T
  0.4996878786439812  0.7475883127378697  0.1189500459023095   T   T   T
  0.0006362039955602  0.4978245716712735  0.1764477800085370   T   T   T
  0.0008941320069833  0.9977344814702025  0.1762666784542864   T   T   T
  0.4993618567264394  0.4978245716712735  0.1764477800085370   T   T   T
  0.4991039287150162  0.9977344814702025  0.1762666784542864   T   T   T
  0.2499986885609999  0.2467464276758450  0.2080113186462795   T   T   T
  0.2499986885609999  0.7468241274809225  0.2079908592367617   T   T   T
  0.7499986885609999  0.2464024481964988  0.2069224927788586   T   T   T
  0.7499986885609999  0.7467985647441814  0.2075011329422607   T   T   T
  0.2499992727709994  0.4978196543734260  0.2658665745002819   T   T   T
  0.2499992727709994  0.9984236116530915  0.2658012449283992   T   T   T
  0.7499992727709994  0.4984127863632856  0.2652444755037324   T   T   T
  0.7499992727709994  0.9975943037810207  0.2649220577418868   T   T   T
  0.9965959621279992  0.2483282615151075  0.2961190681845042   T   T   T
  0.9992092817210206  0.7487153658879759  0.2965577496715889   T   T   T
  0.5034018998140000  0.2483282615151075  0.2961190681845042   T   T   T
  0.5007885802209785  0.7487153658879759  0.2965577496715889   T   T   T
  0.9943901807643318  0.0009070652958155  0.3542756245282849   T   T   T
  0.9976614356462156  0.4989743730655458  0.3546070848561870   T   T   T
  0.5056088495956625  0.0009070652958155  0.3542756245282849   T   T   T
  0.5023375947137788  0.4989743730655458  0.3546070848561870   T   T   T
  0.2499991733809992  0.2470304356154174  0.3802092149632219   T   T   T
  0.2499991733809992  0.7563073684611186  0.3845232545334364   T   T   T
  0.7499991733809992  0.2535669719344826  0.3909146241181907   T   T   T
  0.7499991733809992  0.7508658806352444  0.3868358334558657   T   T   T
  0.2499997575899968  0.0004593254481200  0.4413822004559987   T   T   T
  0.2499997575899968  0.5122799838068276  0.4413657465133958   T   T   T
  0.7499997575899968  0.0088237742102449  0.4456817342211417   T   T   T
  0.7499997575899968  0.4959219475748617  0.4456012426467341   T   T   T
  0.9812678634232826  0.2476100692006886  0.4891579108091829   T   T   T
  0.0002561444851418  0.7589313203816715  0.4743384496815894   T   T   T
  0.5187309681567184  0.2476097983936887  0.4891579108091829   T   T   T
  0.4997423615358590  0.7589310495746716  0.4743368908355878   T   T   T
  0.2499987879510002  0.3268389777816390  0.0990765236413167   T   T   T
  0.2499987879510002  0.8267070818643434  0.0991938732145021   T   T   T
  0.7499987879510002  0.3264039810887355  0.0994880216958047   T   T   T
  0.7499987879510002  0.8265616092637098  0.0994751047737329   T   T   T
  0.0005073916532876  0.0579760270496267  0.1140694077605551   T   T   T
  0.0003240918910129  0.5581090379767369  0.1142283854090388   T   T   T
  0.4994895006487130  0.0579760270496267  0.1140694077605551   T   T   T
  0.4996728004109878  0.5581090379767369  0.1142283854090388   T   T   T
  0.0012227228955810  0.3088572826110079  0.1793532425931955   T   T   T
  0.0006195519548922  0.8088737456318996  0.1795825317128923   T   T   T
  0.4987753378264186  0.3088572826110079  0.1793532425931955   T   T   T
  0.4993785087671074  0.8088737456318996  0.1795825317128923   T   T   T
  0.2499986885609999  0.0556391742367148  0.2055974063233879   T   T   T
  0.2499986885609999  0.5558405050949714  0.2056809729987427   T   T   T
  0.7499986885609999  0.0553202910575568  0.2049546625576562   T   T   T
  0.7499986885609999  0.5560432648801467  0.2051148093536294   T   T   T
  0.2499992727709994  0.3076354733910743  0.2670948340607817   T   T   T
  0.2499992727709994  0.8080267987563042  0.2670363366115331   T   T   T
  0.7499992727709994  0.3085075210346553  0.2653861231402589   T   T   T
  0.7499992727709994  0.8075529966534930  0.2664502641952024   T   T   T
  0.9982044292278287  0.0576390253039792  0.2941813925959086   T   T   T
  0.9989612328942897  0.5586862721982960  0.2942566345855250   T   T   T
  0.5017934327141704  0.0576390253039792  0.2941813925959086   T   T   T
  0.5010366290477094  0.5586862721982960  0.2942566345855250   T   T   T
  0.9871391955382059  0.3089196343670112  0.3543352242960257   T   T   T
  0.9953787075871100  0.8099068572566699  0.3554933364695380   T   T   T
  0.5128598348217955  0.3089196343670112  0.3543352242960257   T   T   T
  0.5046203227728915  0.8099068572566699  0.3554933364695380   T   T   T
  0.2499991733809992  0.0550855574286718  0.3808366481038390   T   T   T
  0.2499991733809992  0.5702141829274833  0.3790316634723249   T   T   T
  0.7499991733809992  0.0629374416068278  0.3839095482451765   T   T   T
  0.7499991733809992  0.5616360905982111  0.3833352973097633   T   T   T
  0.2500001212049980  0.3315825350208823  0.4321390974980136   T   T   T
  0.2500001212049980  0.8101174344974076  0.4462448220947686   T   T   T
  0.7499997575899968  0.3086656550354882  0.4525751235412556   T   T   T
  0.7499997575899968  0.8160703877327410  0.4477604196550814   T   T   T
  0.0074829141074740  0.0731914987522005  0.4670749002023532   T   T   T
  0.9956556361608225  0.5841888655693593  0.4638798406828745   T   T   T
  0.4925159174725272  0.0731914987522005  0.4670749002023532   T   T   T
  0.5043430062631739  0.5841892591353640  0.4638798406828745   T   T   T
 
  0.00000000E+00  0.00000000E+00  0.00000000E+00
  0.00000000E+00  0.00000000E+00  0.00000000E+00
  0.00000000E+00  0.00000000E+00  0.00000000E+00
  0.00000000E+00  0.00000000E+00  0.00000000E+00
  0.00000000E+00  0.00000000E+00  0.00000000E+00
  0.00000000E+00  0.00000000E+00  0.00000000E+00
  0.00000000E+00  0.00000000E+00  0.00000000E+00
  0.00000000E+00  0.00000000E+00  0.00000000E+00
  0.00000000E+00  0.00000000E+00  0.00000000E+00
  0.00000000E+00  0.00000000E+00  0.00000000E+00
  0.00000000E+00  0.00000000E+00  0.00000000E+00
  0.00000000E+00  0.00000000E+00  0.00000000E+00
  0.00000000E+00  0.00000000E+00  0.00000000E+00
  0.00000000E+00  0.00000000E+00  0.00000000E+00
  0.00000000E+00  0.00000000E+00  0.00000000E+00
  0.00000000E+00  0.00000000E+00  0.00000000E+00
  0.00000000E+00  0.00000000E+00  0.00000000E+00
  0.00000000E+00  0.00000000E+00  0.00000000E+00
  0.00000000E+00  0.00000000E+00  0.00000000E+00
  0.00000000E+00  0.00000000E+00  0.00000000E+00
  0.00000000E+00  0.00000000E+00  0.00000000E+00
  0.00000000E+00  0.00000000E+00  0.00000000E+00
  0.00000000E+00  0.00000000E+00  0.00000000E+00
  0.00000000E+00  0.00000000E+00  0.00000000E+00
  0.00000000E+00  0.00000000E+00  0.00000000E+00
  0.00000000E+00  0.00000000E+00  0.00000000E+00
  0.00000000E+00  0.00000000E+00  0.00000000E+00
  0.00000000E+00  0.00000000E+00  0.00000000E+00
  0.00000000E+00  0.00000000E+00  0.00000000E+00
  0.00000000E+00  0.00000000E+00  0.00000000E+00
  0.00000000E+00  0.00000000E+00  0.00000000E+00
  0.00000000E+00  0.00000000E+00  0.00000000E+00
  0.00000000E+00  0.00000000E+00  0.00000000E+00
  0.00000000E+00  0.00000000E+00  0.00000000E+00
  0.00000000E+00  0.00000000E+00  0.00000000E+00
  0.00000000E+00  0.00000000E+00  0.00000000E+00
  0.00000000E+00  0.00000000E+00  0.00000000E+00
  0.00000000E+00  0.00000000E+00  0.00000000E+00
  0.00000000E+00  0.00000000E+00  0.00000000E+00
  0.00000000E+00  0.00000000E+00  0.00000000E+00
  0.00000000E+00  0.00000000E+00  0.00000000E+00
  0.00000000E+00  0.00000000E+00  0.00000000E+00
  0.00000000E+00  0.00000000E+00  0.00000000E+00
  0.00000000E+00  0.00000000E+00  0.00000000E+00
  0.00000000E+00  0.00000000E+00  0.00000000E+00
  0.00000000E+00  0.00000000E+00  0.00000000E+00
  0.00000000E+00  0.00000000E+00  0.00000000E+00
  0.00000000E+00  0.00000000E+00  0.00000000E+00
  0.00000000E+00  0.00000000E+00  0.00000000E+00
  0.00000000E+00  0.00000000E+00  0.00000000E+00
  0.00000000E+00  0.00000000E+00  0.00000000E+00
  0.00000000E+00  0.00000000E+00  0.00000000E+00
  0.00000000E+00  0.00000000E+00  0.00000000E+00
  0.00000000E+00  0.00000000E+00  0.00000000E+00
  0.00000000E+00  0.00000000E+00  0.00000000E+00
  0.00000000E+00  0.00000000E+00  0.00000000E+00
  0.00000000E+00  0.00000000E+00  0.00000000E+00
  0.00000000E+00  0.00000000E+00  0.00000000E+00
  0.00000000E+00  0.00000000E+00  0.00000000E+00
  0.00000000E+00  0.00000000E+00  0.00000000E+00
  0.00000000E+00  0.00000000E+00  0.00000000E+00
  0.00000000E+00  0.00000000E+00  0.00000000E+00
  0.00000000E+00  0.00000000E+00  0.00000000E+00
  0.00000000E+00  0.00000000E+00  0.00000000E+00
  0.00000000E+00  0.00000000E+00  0.00000000E+00
  0.00000000E+00  0.00000000E+00  0.00000000E+00
  0.00000000E+00  0.00000000E+00  0.00000000E+00
  0.00000000E+00  0.00000000E+00  0.00000000E+00
  0.00000000E+00  0.00000000E+00  0.00000000E+00
  0.00000000E+00  0.00000000E+00  0.00000000E+00
  0.00000000E+00  0.00000000E+00  0.00000000E+00
  0.00000000E+00  0.00000000E+00  0.00000000E+00
  0.00000000E+00  0.00000000E+00  0.00000000E+00
  0.00000000E+00  0.00000000E+00  0.00000000E+00
  0.00000000E+00  0.00000000E+00  0.00000000E+00
  0.00000000E+00  0.00000000E+00  0.00000000E+00
  0.00000000E+00  0.00000000E+00  0.00000000E+00
  0.00000000E+00  0.00000000E+00  0.00000000E+00
  0.00000000E+00  0.00000000E+00  0.00000000E+00
  0.00000000E+00  0.00000000E+00  0.00000000E+00
  0.00000000E+00  0.00000000E+00  0.00000000E+00
