Fe O Zn                                 
   1.00000000000000     
     6.5625568183449996    0.0000000000000000    0.0000000000000000
     0.0000000000000000   10.5156600000000005    0.0000000000000000
     0.0000000000000000    0.0000000000000000   32.0500282661819966
   Fe   O    Zn
     1    40    40
Selective dynamics
Direct
  0.2499993212120017  0.2461536249848555  0.5084427168209539   T   T   T
  0.2499987879510002  0.0009573340410550  0.0876167260249180   T   T   T
  0.2499987879510002  0.5011125120262195  0.0877691906771055   T   T   T
  0.7499987879510002  0.0007473785832890  0.0881979885495944   T   T   T
  0.7499987879510002  0.5007320218770875  0.0883193615228693   T   T   T
  0.0006502230233205  0.2473609421925154  0.1187082594387288   T   T   T
  0.0004899621825817  0.7473841029583226  0.1187513261224154   T   T   T
  0.4993466692786800  0.2473609421925154  0.1187082594387288   T   T   T
  0.4995069301194190  0.7473841029583226  0.1187513261224154   T   T   T
  0.0008378539989167  0.4977644580440741  0.1764044789987796   T   T   T
  0.0010485777371762  0.9976772133468694  0.1762026588230270   T   T   T
  0.4991602067230830  0.4977644580440741  0.1764044789987796   T   T   T
  0.4989494829848234  0.9976772133468694  0.1762026588230270   T   T   T
  0.2499986885609999  0.2467829561364037  0.2081333674769658   T   T   T
  0.2499986885609999  0.7467128025771506  0.2079988102578064   T   T   T
  0.7499986885609999  0.2465699743047650  0.2071329915788494   T   T   T
  0.7499986885609999  0.7466734084985874  0.2074169300476253   T   T   T
  0.2499992727709994  0.4980568484207058  0.2660769210409453   T   T   T
  0.2499992727709994  0.9985335003612986  0.2659191254017691   T   T   T
  0.7499992727709994  0.4983628255324105  0.2653804040808643   T   T   T
  0.7499992727709994  0.9978373774422342  0.2649253592452854   T   T   T
  0.9976181231467410  0.2486222918344138  0.2964127823506329   T   T   T
  0.9991918375501619  0.7487124169485935  0.2966065062064525   T   T   T
  0.5023797387952581  0.2486222918344138  0.2964127823506329   T   T   T
  0.5008060243918372  0.7487124169485935  0.2966065062064525   T   T   T
  0.9947724021366404  0.0007613477313818  0.3543624477638926   T   T   T
  0.9980670735818800  0.4992186822422974  0.3548282946831352   T   T   T
  0.5052266282233540  0.0007613477313818  0.3543624477638926   T   T   T
  0.5019319567781144  0.4992186822422974  0.3548282946831352   T   T   T
  0.2499991733809992  0.2483644919546520  0.3830153983264194   T   T   T
  0.2499991733809992  0.7543163457500908  0.3848834854549426   T   T   T
  0.7499991733809992  0.2528059811213770  0.3891544045947367   T   T   T
  0.7499991733809992  0.7519638064712832  0.3867144847176542   T   T   T
  0.2499997575899968  0.0016396461584618  0.4412275997568006   T   T   T
  0.2499997575899968  0.5076902283200404  0.4426053616917554   T   T   T
  0.7499997575899968  0.0086336876333079  0.4463649595254829   T   T   T
  0.7499997575899968  0.4998345415721744  0.4453384743527305   T   T   T
  0.0021508997045581  0.2544793180338338  0.4796939371263428   T   T   T
  0.0007005104028387  0.7596675973149037  0.4744008211562227   T   T   T
  0.4978479318754427  0.2544790472268338  0.4796939371263428   T   T   T
  0.4992979956181620  0.7596673265079038  0.4743992623102211   T   T   T
  0.2499987879510002  0.3266220742512863  0.0987846867039767   T   T   T
  0.2499987879510002  0.8265904569571537  0.0988768789762592   T   T   T
  0.7499987879510002  0.3262002235813781  0.0993216532532353   T   T   T
  0.7499987879510002  0.8262503610801816  0.0992921263747281   T   T   T
  0.0006176776636349  0.0577445230488519  0.1139145166605124   T   T   T
  0.0005273111526668  0.5578106594415576  0.1140593658033560   T   T   T
  0.4993792146383657  0.0577445230488519  0.1139145166605124   T   T   T
  0.4994695811493336  0.5578106594415576  0.1140593658033560   T   T   T
  0.0012657095488090  0.3086876301858779  0.1793418309323606   T   T   T
  0.0008040543308672  0.8086020074314838  0.1794108846438927   T   T   T
  0.4987323511731906  0.3086876301858779  0.1793418309323606   T   T   T
  0.4991940063911324  0.8086020074314838  0.1794108846438927   T   T   T
  0.2499986885609999  0.0555773831579260  0.2056875894278402   T   T   T
  0.2499986885609999  0.5555938740370825  0.2058439456731340   T   T   T
  0.7499986885609999  0.0553887419640992  0.2048719820118003   T   T   T
  0.7499986885609999  0.5557108176780269  0.2051378812312684   T   T   T
  0.2499992727709994  0.3078611895059777  0.2671611516649443   T   T   T
  0.2499992727709994  0.8080688819305973  0.2670338098772892   T   T   T
  0.7499992727709994  0.3083778781561282  0.2657467631494295   T   T   T
  0.7499992727709994  0.8075799903964389  0.2663993669539128   T   T   T
  0.9979592940480070  0.0579399135569883  0.2942802126045024   T   T   T
  0.9988743755991455  0.5586311231370288  0.2945108195400944   T   T   T
  0.5020385678939921  0.0579399135569883  0.2942802126045024   T   T   T
  0.5011234863428536  0.5586311231370288  0.2945108195400944   T   T   T
  0.9920660561376462  0.3088666271000885  0.3547931996592755   T   T   T
  0.9967841031142439  0.8097100079309724  0.3555563026109445   T   T   T
  0.5079329742223553  0.3088666271000885  0.3547931996592755   T   T   T
  0.5032149272457576  0.8097100079309724  0.3555563026109445   T   T   T
  0.2499991733809992  0.0567723107527850  0.3807868966619057   T   T   T
  0.2499991733809992  0.5673163809765981  0.3801671996331083   T   T   T
  0.7499991733809992  0.0619691669652706  0.3842493289503438   T   T   T
  0.7499991733809992  0.5629907224250300  0.3830732237223518   T   T   T
  0.2500001212049980  0.3244702523797568  0.4370147959441446   T   T   T
  0.2500001212049980  0.8113474898248952  0.4461686897154405   T   T   T
  0.7499997575899968  0.3122068625538591  0.4490973653193073   T   T   T
  0.7499997575899968  0.8155986250894803  0.4476963895674666   T   T   T
  0.0079605020250525  0.0684051248011521  0.4684962797448913   T   T   T
 -0.0017151630245557  0.5849793046865795  0.4636266379710330   T   T   T
  0.4920383295549484  0.0684051248011521  0.4684962797448913   T   T   T
  0.5017138054485523  0.5849796982525842  0.4636266379710330   T   T   T
 
  0.00000000E+00  0.00000000E+00  0.00000000E+00
  0.00000000E+00  0.00000000E+00  0.00000000E+00
  0.00000000E+00  0.00000000E+00  0.00000000E+00
  0.00000000E+00  0.00000000E+00  0.00000000E+00
  0.00000000E+00  0.00000000E+00  0.00000000E+00
  0.00000000E+00  0.00000000E+00  0.00000000E+00
  0.00000000E+00  0.00000000E+00  0.00000000E+00
  0.00000000E+00  0.00000000E+00  0.00000000E+00
  0.00000000E+00  0.00000000E+00  0.00000000E+00
  0.00000000E+00  0.00000000E+00  0.00000000E+00
  0.00000000E+00  0.00000000E+00  0.00000000E+00
  0.00000000E+00  0.00000000E+00  0.00000000E+00
  0.00000000E+00  0.00000000E+00  0.00000000E+00
  0.00000000E+00  0.00000000E+00  0.00000000E+00
  0.00000000E+00  0.00000000E+00  0.00000000E+00
  0.00000000E+00  0.00000000E+00  0.00000000E+00
  0.00000000E+00  0.00000000E+00  0.00000000E+00
  0.00000000E+00  0.00000000E+00  0.00000000E+00
  0.00000000E+00  0.00000000E+00  0.00000000E+00
  0.00000000E+00  0.00000000E+00  0.00000000E+00
  0.00000000E+00  0.00000000E+00  0.00000000E+00
  0.00000000E+00  0.00000000E+00  0.00000000E+00
  0.00000000E+00  0.00000000E+00  0.00000000E+00
  0.00000000E+00  0.00000000E+00  0.00000000E+00
  0.00000000E+00  0.00000000E+00  0.00000000E+00
  0.00000000E+00  0.00000000E+00  0.00000000E+00
  0.00000000E+00  0.00000000E+00  0.00000000E+00
  0.00000000E+00  0.00000000E+00  0.00000000E+00
  0.00000000E+00  0.00000000E+00  0.00000000E+00
  0.00000000E+00  0.00000000E+00  0.00000000E+00
  0.00000000E+00  0.00000000E+00  0.00000000E+00
  0.00000000E+00  0.00000000E+00  0.00000000E+00
  0.00000000E+00  0.00000000E+00  0.00000000E+00
  0.00000000E+00  0.00000000E+00  0.00000000E+00
  0.00000000E+00  0.00000000E+00  0.00000000E+00
  0.00000000E+00  0.00000000E+00  0.00000000E+00
  0.00000000E+00  0.00000000E+00  0.00000000E+00
  0.00000000E+00  0.00000000E+00  0.00000000E+00
  0.00000000E+00  0.00000000E+00  0.00000000E+00
  0.00000000E+00  0.00000000E+00  0.00000000E+00
  0.00000000E+00  0.00000000E+00  0.00000000E+00
  0.00000000E+00  0.00000000E+00  0.00000000E+00
  0.00000000E+00  0.00000000E+00  0.00000000E+00
  0.00000000E+00  0.00000000E+00  0.00000000E+00
  0.00000000E+00  0.00000000E+00  0.00000000E+00
  0.00000000E+00  0.00000000E+00  0.00000000E+00
  0.00000000E+00  0.00000000E+00  0.00000000E+00
  0.00000000E+00  0.00000000E+00  0.00000000E+00
  0.00000000E+00  0.00000000E+00  0.00000000E+00
  0.00000000E+00  0.00000000E+00  0.00000000E+00
  0.00000000E+00  0.00000000E+00  0.00000000E+00
  0.00000000E+00  0.00000000E+00  0.00000000E+00
  0.00000000E+00  0.00000000E+00  0.00000000E+00
  0.00000000E+00  0.00000000E+00  0.00000000E+00
  0.00000000E+00  0.00000000E+00  0.00000000E+00
  0.00000000E+00  0.00000000E+00  0.00000000E+00
  0.00000000E+00  0.00000000E+00  0.00000000E+00
  0.00000000E+00  0.00000000E+00  0.00000000E+00
  0.00000000E+00  0.00000000E+00  0.00000000E+00
  0.00000000E+00  0.00000000E+00  0.00000000E+00
  0.00000000E+00  0.00000000E+00  0.00000000E+00
  0.00000000E+00  0.00000000E+00  0.00000000E+00
  0.00000000E+00  0.00000000E+00  0.00000000E+00
  0.00000000E+00  0.00000000E+00  0.00000000E+00
  0.00000000E+00  0.00000000E+00  0.00000000E+00
  0.00000000E+00  0.00000000E+00  0.00000000E+00
  0.00000000E+00  0.00000000E+00  0.00000000E+00
  0.00000000E+00  0.00000000E+00  0.00000000E+00
  0.00000000E+00  0.00000000E+00  0.00000000E+00
  0.00000000E+00  0.00000000E+00  0.00000000E+00
  0.00000000E+00  0.00000000E+00  0.00000000E+00
  0.00000000E+00  0.00000000E+00  0.00000000E+00
  0.00000000E+00  0.00000000E+00  0.00000000E+00
  0.00000000E+00  0.00000000E+00  0.00000000E+00
  0.00000000E+00  0.00000000E+00  0.00000000E+00
  0.00000000E+00  0.00000000E+00  0.00000000E+00
  0.00000000E+00  0.00000000E+00  0.00000000E+00
  0.00000000E+00  0.00000000E+00  0.00000000E+00
  0.00000000E+00  0.00000000E+00  0.00000000E+00
  0.00000000E+00  0.00000000E+00  0.00000000E+00
  0.00000000E+00  0.00000000E+00  0.00000000E+00
