Ag O Zn                                 
   1.00000000000000     
     6.5625568183449996    0.0000000000000000    0.0000000000000000
     0.0000000000000000   10.5156600000000005    0.0000000000000000
     0.0000000000000000    0.0000000000000000   32.0500282661819966
   Ag   O    Zn
     1    40    40
Selective dynamics
Direct
  0.4999987186129999  0.8802476138050112  0.5276329516562120   T   T   T
  0.2501559159531137  0.0009855320300935  0.0883724569316788   T   T   T
  0.2501545662137323  0.5009877543005082  0.0883911282320228   T   T   T
  0.7498416599488866  0.0009855320300935  0.0883724569316788   T   T   T
  0.7498430096882680  0.5009877543005082  0.0883911282320228   T   T   T
  0.9999984461509968  0.2472224525179255  0.1189435284148446   T   T   T
  0.9999984461509968  0.7472354626141617  0.1189708279809396   T   T   T
  0.4999984461509968  0.2472433609842293  0.1190445059894151   T   T   T
  0.4999984461509968  0.7472449955265952  0.1190857912032274   T   T   T
  0.9999990303610033  0.4964541644253161  0.1764197774802374   T   T   T
  0.9999990303610033  0.9964419535573986  0.1763901239000655   T   T   T
  0.4999990303610033  0.4965392687326854  0.1765746088352462   T   T   T
  0.4999990303610033  0.9964962735345130  0.1765356810844722   T   T   T
  0.2498750033728864  0.2448199470383406  0.2076565042794635   T   T   T
  0.2498428067860182  0.7447684066574590  0.2077375482368318   T   T   T
  0.7501223737491133  0.2448199470383406  0.2076565042794635   T   T   T
  0.7501545703359815  0.7447684066574590  0.2077375482368318   T   T   T
  0.2494687814783772  0.4946684954156442  0.2656264477476603   T   T   T
  0.2494099572564766  0.9946205994135636  0.2655425122815626   T   T   T
  0.7505297640636216  0.4946684954156442  0.2656264477476603   T   T   T
  0.7505885882855221  0.9946205994135636  0.2655425122815626   T   T   T
  0.9999989309710031  0.2443103536661922  0.2963418956128250   T   T   T
  0.9999989309710031  0.7440096383537486  0.2965583315818750   T   T   T
  0.4999989309710031  0.2442529662210501  0.2961390600155630   T   T   T
  0.4999989309710031  0.7439552475409159  0.2962818778392831   T   T   T
  0.9999995151800007  0.4932728233376671  0.3547046707443604   T   T   T
  0.9999995151800007  0.9934113471150956  0.3547947515910835   T   T   T
  0.4999995151800007  0.4929109700286288  0.3543119318045847   T   T   T
  0.4999995151800007  0.9931448988096914  0.3541078068732544   T   T   T
  0.2501213983037509  0.2444217341365538  0.3851258969889928   T   T   T
  0.2507706666028499  0.7427486494712634  0.3855229356448570   T   T   T
  0.7498769484582472  0.2444217341365538  0.3851258969889928   T   T   T
  0.7492276801591486  0.7427486494712634  0.3855229356448570   T   T   T
  0.2496487045587449  0.4916770176875325  0.4435794745254474   T   T   T
  0.2522660881423107  0.9928036535239310  0.4432233858446854   T   T   T
  0.7503508106212560  0.4916770176875325  0.4435794745254474   T   T   T
  0.7477334270376899  0.9928036535239310  0.4432233858446854   T   T   T
  0.9999994157900005  0.2447204402966534  0.4733668598075784   T   T   T
  0.9999994157900005  0.7453058881820651  0.4743407148680381   T   T   T
  0.4999987186129999  0.2452909486064627  0.4734137072012136   T   T   T
  0.4999987186129999  0.7432360918220609  0.4740157743844780   T   T   T
  0.2500719273704473  0.3266441934081427  0.0996246711103453   T   T   T
  0.2500962555729223  0.8266702992701758  0.0996379821165752   T   T   T
  0.7499256485315530  0.3266441934081427  0.0996246711103453   T   T   T
  0.7499013203290780  0.8266702992701758  0.0996379821165752   T   T   T
  0.9999984461509968  0.0577131073377680  0.1143226229260877   T   T   T
  0.9999984461509968  0.5577280963751504  0.1143340421083433   T   T   T
  0.4999984461509968  0.0577305774306706  0.1144712772780400   T   T   T
  0.4999984461509968  0.5577349382009215  0.1144845191173233   T   T   T
  0.9999990303610033  0.3074761877724765  0.1797632553476424   T   T   T
  0.9999990303610033  0.8075051560866173  0.1797903333816628   T   T   T
  0.4999990303610033  0.3075270768808964  0.1798592771267598   T   T   T
  0.4999990303610033  0.8075374048673742  0.1799073540966376   T   T   T
  0.2497177916397797  0.0537830939465963  0.2057797038421643   T   T   T
  0.2496948244293968  0.5537312575791434  0.2058156525624442   T   T   T
  0.7502795854822203  0.0537830939465963  0.2057797038421643   T   T   T
  0.7503025526926032  0.5537312575791434  0.2058156525624442   T   T   T
  0.2497068643993215  0.3042144766065925  0.2670258521897229   T   T   T
  0.2496208656557222  0.8043755380568866  0.2670573103366649   T   T   T
  0.7502916811426774  0.3042144766065925  0.2670258521897229   T   T   T
  0.7503776798862767  0.8043755380568866  0.2670573103366649   T   T   T
  0.9999989309710031  0.0538181736050066  0.2952762183460404   T   T   T
  0.9999989309710031  0.5534722728166821  0.2952378499705628   T   T   T
  0.4999989309710031  0.0538603577064575  0.2946953551444406   T   T   T
  0.4999989309710031  0.5534611046599763  0.2947920871509291   T   T   T
  0.9999995151800007  0.3018512256275929  0.3559463313820365   T   T   T
  0.9999995151800007  0.8026704635661310  0.3559719443206762   T   T   T
  0.4999995151800007  0.3015073241436053  0.3557596825940646   T   T   T
  0.4999995151800007  0.8025956933178311  0.3556879639285759   T   T   T
  0.2521237118713893  0.0551694529361609  0.3830635398554433   T   T   T
  0.2506649338020026  0.5530583427393559  0.3826231981852377   T   T   T
  0.7478746348906090  0.0551694529361609  0.3830635398554433   T   T   T
  0.7493334129599958  0.5530583427393559  0.3826231981852377   T   T   T
  0.2505215992303296  0.2992580767102196  0.4470547510469230   T   T   T
  0.2446429741812765  0.8039249922332402  0.4456797118305361   T   T   T
  0.7494779159496712  0.2992580767102196  0.4470547510469230   T   T   T
  0.7553565409987242  0.8039249922332402  0.4456797118305361   T   T   T
  0.9999994157900005  0.0692818692394911  0.4630361568116813   T   T   T
  0.9999994157900005  0.5700479555237731  0.4631760143454288   T   T   T
  0.4999994157900005  0.0658248016975499  0.4708409090531843   T   T   T
  0.4999994157900005  0.5651027234361644  0.4636438005035864   T   T   T
 
  0.00000000E+00  0.00000000E+00  0.00000000E+00
  0.00000000E+00  0.00000000E+00  0.00000000E+00
  0.00000000E+00  0.00000000E+00  0.00000000E+00
  0.00000000E+00  0.00000000E+00  0.00000000E+00
  0.00000000E+00  0.00000000E+00  0.00000000E+00
  0.00000000E+00  0.00000000E+00  0.00000000E+00
  0.00000000E+00  0.00000000E+00  0.00000000E+00
  0.00000000E+00  0.00000000E+00  0.00000000E+00
  0.00000000E+00  0.00000000E+00  0.00000000E+00
  0.00000000E+00  0.00000000E+00  0.00000000E+00
  0.00000000E+00  0.00000000E+00  0.00000000E+00
  0.00000000E+00  0.00000000E+00  0.00000000E+00
  0.00000000E+00  0.00000000E+00  0.00000000E+00
  0.00000000E+00  0.00000000E+00  0.00000000E+00
  0.00000000E+00  0.00000000E+00  0.00000000E+00
  0.00000000E+00  0.00000000E+00  0.00000000E+00
  0.00000000E+00  0.00000000E+00  0.00000000E+00
  0.00000000E+00  0.00000000E+00  0.00000000E+00
  0.00000000E+00  0.00000000E+00  0.00000000E+00
  0.00000000E+00  0.00000000E+00  0.00000000E+00
  0.00000000E+00  0.00000000E+00  0.00000000E+00
  0.00000000E+00  0.00000000E+00  0.00000000E+00
  0.00000000E+00  0.00000000E+00  0.00000000E+00
  0.00000000E+00  0.00000000E+00  0.00000000E+00
  0.00000000E+00  0.00000000E+00  0.00000000E+00
  0.00000000E+00  0.00000000E+00  0.00000000E+00
  0.00000000E+00  0.00000000E+00  0.00000000E+00
  0.00000000E+00  0.00000000E+00  0.00000000E+00
  0.00000000E+00  0.00000000E+00  0.00000000E+00
  0.00000000E+00  0.00000000E+00  0.00000000E+00
  0.00000000E+00  0.00000000E+00  0.00000000E+00
  0.00000000E+00  0.00000000E+00  0.00000000E+00
  0.00000000E+00  0.00000000E+00  0.00000000E+00
  0.00000000E+00  0.00000000E+00  0.00000000E+00
  0.00000000E+00  0.00000000E+00  0.00000000E+00
  0.00000000E+00  0.00000000E+00  0.00000000E+00
  0.00000000E+00  0.00000000E+00  0.00000000E+00
  0.00000000E+00  0.00000000E+00  0.00000000E+00
  0.00000000E+00  0.00000000E+00  0.00000000E+00
  0.00000000E+00  0.00000000E+00  0.00000000E+00
  0.00000000E+00  0.00000000E+00  0.00000000E+00
  0.00000000E+00  0.00000000E+00  0.00000000E+00
  0.00000000E+00  0.00000000E+00  0.00000000E+00
  0.00000000E+00  0.00000000E+00  0.00000000E+00
  0.00000000E+00  0.00000000E+00  0.00000000E+00
  0.00000000E+00  0.00000000E+00  0.00000000E+00
  0.00000000E+00  0.00000000E+00  0.00000000E+00
  0.00000000E+00  0.00000000E+00  0.00000000E+00
  0.00000000E+00  0.00000000E+00  0.00000000E+00
  0.00000000E+00  0.00000000E+00  0.00000000E+00
  0.00000000E+00  0.00000000E+00  0.00000000E+00
  0.00000000E+00  0.00000000E+00  0.00000000E+00
  0.00000000E+00  0.00000000E+00  0.00000000E+00
  0.00000000E+00  0.00000000E+00  0.00000000E+00
  0.00000000E+00  0.00000000E+00  0.00000000E+00
  0.00000000E+00  0.00000000E+00  0.00000000E+00
  0.00000000E+00  0.00000000E+00  0.00000000E+00
  0.00000000E+00  0.00000000E+00  0.00000000E+00
  0.00000000E+00  0.00000000E+00  0.00000000E+00
  0.00000000E+00  0.00000000E+00  0.00000000E+00
  0.00000000E+00  0.00000000E+00  0.00000000E+00
  0.00000000E+00  0.00000000E+00  0.00000000E+00
  0.00000000E+00  0.00000000E+00  0.00000000E+00
  0.00000000E+00  0.00000000E+00  0.00000000E+00
  0.00000000E+00  0.00000000E+00  0.00000000E+00
  0.00000000E+00  0.00000000E+00  0.00000000E+00
  0.00000000E+00  0.00000000E+00  0.00000000E+00
  0.00000000E+00  0.00000000E+00  0.00000000E+00
  0.00000000E+00  0.00000000E+00  0.00000000E+00
  0.00000000E+00  0.00000000E+00  0.00000000E+00
  0.00000000E+00  0.00000000E+00  0.00000000E+00
  0.00000000E+00  0.00000000E+00  0.00000000E+00
  0.00000000E+00  0.00000000E+00  0.00000000E+00
  0.00000000E+00  0.00000000E+00  0.00000000E+00
  0.00000000E+00  0.00000000E+00  0.00000000E+00
  0.00000000E+00  0.00000000E+00  0.00000000E+00
  0.00000000E+00  0.00000000E+00  0.00000000E+00
  0.00000000E+00  0.00000000E+00  0.00000000E+00
  0.00000000E+00  0.00000000E+00  0.00000000E+00
  0.00000000E+00  0.00000000E+00  0.00000000E+00
  0.00000000E+00  0.00000000E+00  0.00000000E+00
