Au O Zn                                 
   1.00000000000000     
     6.5625568183449996    0.0000000000000000    0.0000000000000000
     0.0000000000000000   10.5156600000000005    0.0000000000000000
     0.0000000000000000    0.0000000000000000   32.0500282661819966
   Au   O    Zn
     1    40    40
Selective dynamics
Direct
 -0.0073516151228034  0.8790437583026119  0.5257093472393384   T   T   T
  0.2498627857391610  0.0016583499876366  0.0881940208479751   T   T   T
  0.2498877203276377  0.5012922616306759  0.0882289316499788   T   T   T
  0.7499325491552418  0.0018867219438888  0.0880082122375966   T   T   T
  0.7499391914868381  0.5013374356159035  0.0880010261842196   T   T   T
  0.9997881399003221  0.2479298260062286  0.1188745480362842   T   T   T
  0.9996622833884075  0.7479898128421815  0.1185520263867602   T   T   T
  0.5001551689550698  0.2479400763010125  0.1188574597498936   T   T   T
  0.5000140920842204  0.7479958313905811  0.1185591754364060   T   T   T
  0.9995514621386566  0.9979262978763465  0.1761805365736913   T   T   T
  0.9997413523997571  0.4979874722660188  0.1761393864590920   T   T   T
  0.4997262578023419  0.9978734792525389  0.1761192397440631   T   T   T
  0.4998524464005130  0.4979834143992085  0.1761142078434232   T   T   T
  0.2499235494437252  0.2465639985354266  0.2074352410505619   T   T   T
  0.2495710463831547  0.7466519746362933  0.2073128555155203   T   T   T
  0.7498823671104448  0.2466678690260853  0.2075285595466243   T   T   T
  0.7495724308094612  0.7465291655157191  0.2072712737377960   T   T   T
  0.2491685890159491  0.9970977802469499  0.2651837685935325   T   T   T
  0.2491959672035428  0.4971046641196686  0.2651201617827681   T   T   T
  0.7483489034908157  0.9971064072424307  0.2651691484913405   T   T   T
  0.7491260135139380  0.4970357309880275  0.2651471914338191   T   T   T
 -0.0004038057535570  0.2468307210180123  0.2960216368799353   T   T   T
 -0.0015100653378772  0.7467825482272835  0.2958302768377739   T   T   T
  0.4993739899975688  0.2467724792755826  0.2960301452659937   T   T   T
  0.4987148384381842  0.7468310042099814  0.2958865731407298   T   T   T
 -0.0026335308712303  0.9957217794073797  0.3536916893553639   T   T   T
 -0.0027367553423763  0.4959267239338341  0.3537894613897717   T   T   T
  0.4971070567614552  0.9965996243773501  0.3543324338937421   T   T   T
  0.4981176083749823  0.4957167267294268  0.3538249651983545   T   T   T
  0.2480824727759398  0.2477662877534630  0.3849022499996405   T   T   T
  0.2467763167638078  0.7451104737573733  0.3846462778554017   T   T   T
  0.7482109275046811  0.2474574248373975  0.3849826385212241   T   T   T
  0.7473399223487919  0.7455888541139183  0.3847449100098757   T   T   T
  0.2450869567909549  0.9967610261011414  0.4424491082117201   T   T   T
  0.2461423339951118  0.4932222206777439  0.4428775610009896   T   T   T
  0.7471348352770085  0.9968033581364698  0.4423685717406304   T   T   T
  0.7469577090064757  0.4932547397227847  0.4430480985063343   T   T   T
  0.9972241854376913  0.2434292679261980  0.4732791904220746   T   T   T
  0.9963817908810386  0.7461045709014993  0.4716036874654502   T   T   T
  0.4969060843109176  0.2481785271976430  0.4735031527956602   T   T   T
  0.4960429651807282  0.7461927492222484  0.4729807712061508   T   T   T
  0.2499558864146277  0.3270504173919982  0.0995271380186230   T   T   T
  0.2498446366825475  0.8270784596296932  0.0991732040181096   T   T   T
  0.7499990578330076  0.3271011667377362  0.0993197459939578   T   T   T
  0.7498333085307380  0.8273660443766369  0.0990751082530538   T   T   T
  0.9997930516840272  0.0584284323516650  0.1141835585943059   T   T   T
  0.9996948632960569  0.5583605143506658  0.1140613397208778   T   T   T
  0.5000060058392430  0.0584391846197261  0.1141555233844570   T   T   T
  0.5001512245504934  0.5583877027227712  0.1140312796491651   T   T   T
  0.9998056752257297  0.3090461697262109  0.1796759379358974   T   T   T
  0.9995397797145193  0.8089658971280264  0.1793480237303171   T   T   T
  0.5000255301878048  0.3090461691282717  0.1796553715793320   T   T   T
  0.4995870120318924  0.8089354576584151  0.1793625098745020   T   T   T
  0.2498263351656175  0.0554844874164318  0.2054261752944780   T   T   T
  0.2498612124224076  0.5555922004791662  0.2053415759327738   T   T   T
  0.7495159970252636  0.0556774123166535  0.2054399416286493   T   T   T
  0.7497938451016521  0.5554614957630657  0.2053928376573403   T   T   T
  0.2495975883022924  0.3066073859928597  0.2668257663199770   T   T   T
  0.2485743999034521  0.8070128779762590  0.2666159109480754   T   T   T
  0.7494438789997895  0.3065736108266430  0.2669431199334988   T   T   T
  0.7486268997216152  0.8070407850813692  0.2665451147354854   T   T   T
 -0.0012478017480687  0.0564520455825398  0.2944948015056387   T   T   T
 -0.0008192025729981  0.5564932831347591  0.2943425017311604   T   T   T
  0.4987778055858152  0.0563246141080507  0.2949488757143146   T   T   T
  0.4992418462678332  0.5564736391966159  0.2943781382231705   T   T   T
 -0.0021936122285486  0.3043710479081040  0.3557904908909987   T   T   T
 -0.0029861964927186  0.8055443359355287  0.3552751521310741   T   T   T
  0.4984639543427009  0.3040050219679356  0.3558217907191960   T   T   T
  0.4968226858034700  0.8063515837480303  0.3552197740996261   T   T   T
  0.2445096362750463  0.0585957791221550  0.3828494136852352   T   T   T
  0.2477607347593383  0.5553472926540098  0.3818319717894429   T   T   T
  0.7499036706362802  0.0582827954645994  0.3828259201332015   T   T   T
  0.7476133117521511  0.5559242603464210  0.3820655733400902   T   T   T
  0.2449113711934950  0.3000069508587178  0.4473268159974317   T   T   T
  0.2550915737237002  0.8092187110535102  0.4446513805355100   T   T   T
  0.7492742234890847  0.2999877078397399  0.4474322806985903   T   T   T
  0.7373688978245438  0.8090941048177122  0.4447672859879044   T   T   T
  0.9960944724605399  0.0628106434385832  0.4734273403818345   T   T   T
  0.9965974240443142  0.5667209884331814  0.4628369579753908   T   T   T
  0.4960234114629991  0.0723970196029221  0.4629169823795888   T   T   T
  0.4963768024066019  0.5711422226545102  0.4623267896211835   T   T   T
 
  0.00000000E+00  0.00000000E+00  0.00000000E+00
  0.00000000E+00  0.00000000E+00  0.00000000E+00
  0.00000000E+00  0.00000000E+00  0.00000000E+00
  0.00000000E+00  0.00000000E+00  0.00000000E+00
  0.00000000E+00  0.00000000E+00  0.00000000E+00
  0.00000000E+00  0.00000000E+00  0.00000000E+00
  0.00000000E+00  0.00000000E+00  0.00000000E+00
  0.00000000E+00  0.00000000E+00  0.00000000E+00
  0.00000000E+00  0.00000000E+00  0.00000000E+00
  0.00000000E+00  0.00000000E+00  0.00000000E+00
  0.00000000E+00  0.00000000E+00  0.00000000E+00
  0.00000000E+00  0.00000000E+00  0.00000000E+00
  0.00000000E+00  0.00000000E+00  0.00000000E+00
  0.00000000E+00  0.00000000E+00  0.00000000E+00
  0.00000000E+00  0.00000000E+00  0.00000000E+00
  0.00000000E+00  0.00000000E+00  0.00000000E+00
  0.00000000E+00  0.00000000E+00  0.00000000E+00
  0.00000000E+00  0.00000000E+00  0.00000000E+00
  0.00000000E+00  0.00000000E+00  0.00000000E+00
  0.00000000E+00  0.00000000E+00  0.00000000E+00
  0.00000000E+00  0.00000000E+00  0.00000000E+00
  0.00000000E+00  0.00000000E+00  0.00000000E+00
  0.00000000E+00  0.00000000E+00  0.00000000E+00
  0.00000000E+00  0.00000000E+00  0.00000000E+00
  0.00000000E+00  0.00000000E+00  0.00000000E+00
  0.00000000E+00  0.00000000E+00  0.00000000E+00
  0.00000000E+00  0.00000000E+00  0.00000000E+00
  0.00000000E+00  0.00000000E+00  0.00000000E+00
  0.00000000E+00  0.00000000E+00  0.00000000E+00
  0.00000000E+00  0.00000000E+00  0.00000000E+00
  0.00000000E+00  0.00000000E+00  0.00000000E+00
  0.00000000E+00  0.00000000E+00  0.00000000E+00
  0.00000000E+00  0.00000000E+00  0.00000000E+00
  0.00000000E+00  0.00000000E+00  0.00000000E+00
  0.00000000E+00  0.00000000E+00  0.00000000E+00
  0.00000000E+00  0.00000000E+00  0.00000000E+00
  0.00000000E+00  0.00000000E+00  0.00000000E+00
  0.00000000E+00  0.00000000E+00  0.00000000E+00
  0.00000000E+00  0.00000000E+00  0.00000000E+00
  0.00000000E+00  0.00000000E+00  0.00000000E+00
  0.00000000E+00  0.00000000E+00  0.00000000E+00
  0.00000000E+00  0.00000000E+00  0.00000000E+00
  0.00000000E+00  0.00000000E+00  0.00000000E+00
  0.00000000E+00  0.00000000E+00  0.00000000E+00
  0.00000000E+00  0.00000000E+00  0.00000000E+00
  0.00000000E+00  0.00000000E+00  0.00000000E+00
  0.00000000E+00  0.00000000E+00  0.00000000E+00
  0.00000000E+00  0.00000000E+00  0.00000000E+00
  0.00000000E+00  0.00000000E+00  0.00000000E+00
  0.00000000E+00  0.00000000E+00  0.00000000E+00
  0.00000000E+00  0.00000000E+00  0.00000000E+00
  0.00000000E+00  0.00000000E+00  0.00000000E+00
  0.00000000E+00  0.00000000E+00  0.00000000E+00
  0.00000000E+00  0.00000000E+00  0.00000000E+00
  0.00000000E+00  0.00000000E+00  0.00000000E+00
  0.00000000E+00  0.00000000E+00  0.00000000E+00
  0.00000000E+00  0.00000000E+00  0.00000000E+00
  0.00000000E+00  0.00000000E+00  0.00000000E+00
  0.00000000E+00  0.00000000E+00  0.00000000E+00
  0.00000000E+00  0.00000000E+00  0.00000000E+00
  0.00000000E+00  0.00000000E+00  0.00000000E+00
  0.00000000E+00  0.00000000E+00  0.00000000E+00
  0.00000000E+00  0.00000000E+00  0.00000000E+00
  0.00000000E+00  0.00000000E+00  0.00000000E+00
  0.00000000E+00  0.00000000E+00  0.00000000E+00
  0.00000000E+00  0.00000000E+00  0.00000000E+00
  0.00000000E+00  0.00000000E+00  0.00000000E+00
  0.00000000E+00  0.00000000E+00  0.00000000E+00
  0.00000000E+00  0.00000000E+00  0.00000000E+00
  0.00000000E+00  0.00000000E+00  0.00000000E+00
  0.00000000E+00  0.00000000E+00  0.00000000E+00
  0.00000000E+00  0.00000000E+00  0.00000000E+00
  0.00000000E+00  0.00000000E+00  0.00000000E+00
  0.00000000E+00  0.00000000E+00  0.00000000E+00
  0.00000000E+00  0.00000000E+00  0.00000000E+00
  0.00000000E+00  0.00000000E+00  0.00000000E+00
  0.00000000E+00  0.00000000E+00  0.00000000E+00
  0.00000000E+00  0.00000000E+00  0.00000000E+00
  0.00000000E+00  0.00000000E+00  0.00000000E+00
  0.00000000E+00  0.00000000E+00  0.00000000E+00
  0.00000000E+00  0.00000000E+00  0.00000000E+00
