O Pd Zn                                 
   1.00000000000000     
     6.5625568183449996    0.0000000000000000    0.0000000000000000
     0.0000000000000000   10.5156600000000005    0.0000000000000000
     0.0000000000000000    0.0000000000000000   32.0500282661819966
   O    Pd   Zn
    40     1    40
Selective dynamics
Direct
  0.2499537914520779  0.0012766886195848  0.0878931754294634   T   T   T
  0.2499296323852884  0.5011071995584998  0.0876607217128743   T   T   T
  0.7500095831570157  0.0010415497359568  0.0883581941160650   T   T   T
  0.7500355937399080  0.5009256402080767  0.0881335831098626   T   T   T
  0.0003958233510911  0.2476079348423570  0.1188990476532442   T   T   T
  0.0004070551664422  0.7476276655378822  0.1187942283405526   T   T   T
  0.4995744374525370  0.2475891637512856  0.1188545314955360   T   T   T
  0.4995726243692173  0.7476223893814690  0.1187362447516283   T   T   T
  0.0003938904257820  0.4979410962769044  0.1759905924699509   T   T   T
  0.0004395104859305  0.9981567676753553  0.1763640644634900   T   T   T
  0.4995869097601494  0.4979305859162426  0.1759789908410230   T   T   T
  0.4995272166721885  0.9982054152240172  0.1763304469593532   T   T   T
  0.2500360820790530  0.2470625940468141  0.2078770715443405   T   T   T
  0.2501604471879240  0.7471791716375293  0.2075953248842444   T   T   T
  0.7499261016171471  0.2469892806325102  0.2075945134115865   T   T   T
  0.7498309295701131  0.7471451567657619  0.2073123506129590   T   T   T
  0.2497637990583210  0.4984954407949695  0.2650149138186463   T   T   T
  0.2500707765806359  0.9989272863521914  0.2655985669910038   T   T   T
  0.7503555305911402  0.4984611874946620  0.2647494093549989   T   T   T
  0.7499403959360609  0.9988687006176951  0.2653185001200642   T   T   T
  0.9996184305434124  0.2493662592682074  0.2963407651340803   T   T   T
  0.9996894542857941  0.7493824781975980  0.2957366698008370   T   T   T
  0.5004008670646205  0.2492766736337179  0.2964298541367891   T   T   T
  0.5003478019879309  0.7494961764876564  0.2960018709185263   T   T   T
  0.9997593915448916  0.0013401586648582  0.3541907961289508   T   T   T
  0.9999258689217083  0.5011398453759868  0.3536161065066502   T   T   T
  0.5002706589352443  0.0010212511010305  0.3541574805031926   T   T   T
  0.5006958107143684  0.5004331419586441  0.3531193184700781   T   T   T
  0.2500017716529238  0.2510572524279646  0.3852011660573784   T   T   T
  0.2496698024636200  0.7547744024485588  0.3846384666684650   T   T   T
  0.7500788205457102  0.2511673989341490  0.3854557217263271   T   T   T
  0.7506989075014653  0.7545795976922571  0.3847851610977565   T   T   T
  0.2526816213383706  0.0025748560232129  0.4436393897607038   T   T   T
  0.2491046341551536  0.5054991524770711  0.4408991691843583   T   T   T
  0.7473289173264123  0.0024382679841125  0.4437910993826906   T   T   T
  0.7527136407526662  0.5055180267472207  0.4413786230252022   T   T   T
  0.0005131564340841  0.2538628014045795  0.4741503515775133   T   T   T
  0.0006590103237989  0.7588969273990229  0.4733569729829948   T   T   T
  0.5001847823589815  0.2596841795544479  0.4719472528714057   T   T   T
  0.5001849012838681  0.7473027208311803  0.4728996865344151   T   T   T
  0.4914491630000141  0.3797631288683558  0.5230876575708339   T   T   T
  0.2499507957909985  0.3268844947254017  0.0991636737016120   T   T   T
  0.2499301195684853  0.8268857537007920  0.0991088741425087   T   T   T
  0.7500163227695584  0.3266291207781403  0.0995304483659589   T   T   T
  0.7500446758643746  0.8266047732175653  0.0994649038499797   T   T   T
  0.0004210058555199  0.0580190852952917  0.1141977869898704   T   T   T
  0.0004519809447279  0.5580051856904524  0.1139482070789459   T   T   T
  0.4995413033490152  0.0580027475364050  0.1141729080257464   T   T   T
  0.4995141442468063  0.5580135608670057  0.1138897073750544   T   T   T
  0.0004147329204569  0.3089641356870642  0.1797038696538155   T   T   T
  0.0004219613819153  0.8091098361710521  0.1795817534097934   T   T   T
  0.4995431275256074  0.3089429990802045  0.1796501236097415   T   T   T
  0.4995628785227949  0.8091675201555212  0.1794935782295448   T   T   T
  0.2500227436524048  0.0560475751094827  0.2057596688893515   T   T   T
  0.2499657869855587  0.5560587688321948  0.2053246333454074   T   T   T
  0.7499493038368433  0.0559446306710006  0.2054273825220875   T   T   T
  0.7500156827711171  0.5559925666199194  0.2050333856467735   T   T   T
  0.2502009565989780  0.3085232075732617  0.2671427235617649   T   T   T
  0.2503266363949624  0.8085661211441161  0.2668591408814583   T   T   T
  0.7497990201777913  0.3084643620387236  0.2668267858690674   T   T   T
  0.7496910671866349  0.8084861445314989  0.2665624234888780   T   T   T
  0.9995512006291236  0.0591889242073992  0.2945190456892481   T   T   T
  0.9996198771087219  0.5588473452052487  0.2942516143908543   T   T   T
  0.5004509644493960  0.0591359327837659  0.2945881351059427   T   T   T
  0.5004744919356751  0.5591065693744750  0.2938162331507189   T   T   T
  0.9996478970613161  0.3109249992732853  0.3555365513942600   T   T   T
 -0.0001141847868699  0.8098284929562415  0.3552275458505713   T   T   T
  0.5004160380243202  0.3103018875442216  0.3558140491109670   T   T   T
  0.5004782244069769  0.8096016768959958  0.3555676788876680   T   T   T
  0.2501747051848316  0.0615441838569776  0.3821680242562147   T   T   T
  0.2527172122230282  0.5655455257630193  0.3814618469707250   T   T   T
  0.7498377576650095  0.0615737126183396  0.3823653491661895   T   T   T
  0.7478589809128486  0.5653099832089004  0.3818595836895433   T   T   T
  0.2381547438716973  0.3186865395877465  0.4450115563538314   T   T   T
  0.2547022394859996  0.8086021555746630  0.4471424351134167   T   T   T
  0.7620629961849749  0.3187735068273976  0.4453719252764322   T   T   T
  0.7462702678717102  0.8085010407112796  0.4473024724810559   T   T   T
  0.0000566610374644  0.0791685526879250  0.4627321527411376   T   T   T
  0.0015650732037723  0.5838955961980288  0.4617467252695818   T   T   T
  0.4999021248051921  0.0800838676355020  0.4636627206057629   T   T   T
  0.5004305124281615  0.5656013293869038  0.4724211883184465   T   T   T
 
  0.00000000E+00  0.00000000E+00  0.00000000E+00
  0.00000000E+00  0.00000000E+00  0.00000000E+00
  0.00000000E+00  0.00000000E+00  0.00000000E+00
  0.00000000E+00  0.00000000E+00  0.00000000E+00
  0.00000000E+00  0.00000000E+00  0.00000000E+00
  0.00000000E+00  0.00000000E+00  0.00000000E+00
  0.00000000E+00  0.00000000E+00  0.00000000E+00
  0.00000000E+00  0.00000000E+00  0.00000000E+00
  0.00000000E+00  0.00000000E+00  0.00000000E+00
  0.00000000E+00  0.00000000E+00  0.00000000E+00
  0.00000000E+00  0.00000000E+00  0.00000000E+00
  0.00000000E+00  0.00000000E+00  0.00000000E+00
  0.00000000E+00  0.00000000E+00  0.00000000E+00
  0.00000000E+00  0.00000000E+00  0.00000000E+00
  0.00000000E+00  0.00000000E+00  0.00000000E+00
  0.00000000E+00  0.00000000E+00  0.00000000E+00
  0.00000000E+00  0.00000000E+00  0.00000000E+00
  0.00000000E+00  0.00000000E+00  0.00000000E+00
  0.00000000E+00  0.00000000E+00  0.00000000E+00
  0.00000000E+00  0.00000000E+00  0.00000000E+00
  0.00000000E+00  0.00000000E+00  0.00000000E+00
  0.00000000E+00  0.00000000E+00  0.00000000E+00
  0.00000000E+00  0.00000000E+00  0.00000000E+00
  0.00000000E+00  0.00000000E+00  0.00000000E+00
  0.00000000E+00  0.00000000E+00  0.00000000E+00
  0.00000000E+00  0.00000000E+00  0.00000000E+00
  0.00000000E+00  0.00000000E+00  0.00000000E+00
  0.00000000E+00  0.00000000E+00  0.00000000E+00
  0.00000000E+00  0.00000000E+00  0.00000000E+00
  0.00000000E+00  0.00000000E+00  0.00000000E+00
  0.00000000E+00  0.00000000E+00  0.00000000E+00
  0.00000000E+00  0.00000000E+00  0.00000000E+00
  0.00000000E+00  0.00000000E+00  0.00000000E+00
  0.00000000E+00  0.00000000E+00  0.00000000E+00
  0.00000000E+00  0.00000000E+00  0.00000000E+00
  0.00000000E+00  0.00000000E+00  0.00000000E+00
  0.00000000E+00  0.00000000E+00  0.00000000E+00
  0.00000000E+00  0.00000000E+00  0.00000000E+00
  0.00000000E+00  0.00000000E+00  0.00000000E+00
  0.00000000E+00  0.00000000E+00  0.00000000E+00
  0.00000000E+00  0.00000000E+00  0.00000000E+00
  0.00000000E+00  0.00000000E+00  0.00000000E+00
  0.00000000E+00  0.00000000E+00  0.00000000E+00
  0.00000000E+00  0.00000000E+00  0.00000000E+00
  0.00000000E+00  0.00000000E+00  0.00000000E+00
  0.00000000E+00  0.00000000E+00  0.00000000E+00
  0.00000000E+00  0.00000000E+00  0.00000000E+00
  0.00000000E+00  0.00000000E+00  0.00000000E+00
  0.00000000E+00  0.00000000E+00  0.00000000E+00
  0.00000000E+00  0.00000000E+00  0.00000000E+00
  0.00000000E+00  0.00000000E+00  0.00000000E+00
  0.00000000E+00  0.00000000E+00  0.00000000E+00
  0.00000000E+00  0.00000000E+00  0.00000000E+00
  0.00000000E+00  0.00000000E+00  0.00000000E+00
  0.00000000E+00  0.00000000E+00  0.00000000E+00
  0.00000000E+00  0.00000000E+00  0.00000000E+00
  0.00000000E+00  0.00000000E+00  0.00000000E+00
  0.00000000E+00  0.00000000E+00  0.00000000E+00
  0.00000000E+00  0.00000000E+00  0.00000000E+00
  0.00000000E+00  0.00000000E+00  0.00000000E+00
  0.00000000E+00  0.00000000E+00  0.00000000E+00
  0.00000000E+00  0.00000000E+00  0.00000000E+00
  0.00000000E+00  0.00000000E+00  0.00000000E+00
  0.00000000E+00  0.00000000E+00  0.00000000E+00
  0.00000000E+00  0.00000000E+00  0.00000000E+00
  0.00000000E+00  0.00000000E+00  0.00000000E+00
  0.00000000E+00  0.00000000E+00  0.00000000E+00
  0.00000000E+00  0.00000000E+00  0.00000000E+00
  0.00000000E+00  0.00000000E+00  0.00000000E+00
  0.00000000E+00  0.00000000E+00  0.00000000E+00
  0.00000000E+00  0.00000000E+00  0.00000000E+00
  0.00000000E+00  0.00000000E+00  0.00000000E+00
  0.00000000E+00  0.00000000E+00  0.00000000E+00
  0.00000000E+00  0.00000000E+00  0.00000000E+00
  0.00000000E+00  0.00000000E+00  0.00000000E+00
  0.00000000E+00  0.00000000E+00  0.00000000E+00
  0.00000000E+00  0.00000000E+00  0.00000000E+00
  0.00000000E+00  0.00000000E+00  0.00000000E+00
  0.00000000E+00  0.00000000E+00  0.00000000E+00
  0.00000000E+00  0.00000000E+00  0.00000000E+00
  0.00000000E+00  0.00000000E+00  0.00000000E+00
