O Pt Zn                                 
   1.00000000000000     
     6.5625568183449996    0.0000000000000000    0.0000000000000000
     0.0000000000000000   10.5156600000000005    0.0000000000000000
     0.0000000000000000    0.0000000000000000   32.0500282661819966
   O    Pt   Zn
    40     1    40
Selective dynamics
Direct
  0.2499737503972223  0.0013434089087895  0.0879116136357739   T   T   T
  0.2499334287059373  0.5010607223067692  0.0875462640649189   T   T   T
  0.7500155282926603  0.0011180615305702  0.0883720281922007   T   T   T
  0.7500522783943487  0.5009070321752579  0.0880124883850730   T   T   T
  0.0003972430895412  0.2476699430141923  0.1189541393250955   T   T   T
  0.0003957507356040  0.7476662459515724  0.1187407411746662   T   T   T
  0.4995764385373068  0.2476413866319035  0.1189063009257851   T   T   T
  0.4995870352634929  0.7476673885573837  0.1186746485839144   T   T   T
  0.0003377491831622  0.4978886233299861  0.1758415802088863   T   T   T
  0.0004443938967268  0.9982625280618261  0.1763908942180367   T   T   T
  0.4996761986029111  0.4978961900070623  0.1758776151436873   T   T   T
  0.4995392033741435  0.9983646251263800  0.1763795859308308   T   T   T
  0.2500407650166965  0.2471319475709849  0.2079571981805546   T   T   T
  0.2501555985915478  0.7472050263342348  0.2074378614401700   T   T   T
  0.7499308774777054  0.2469949834482310  0.2076548040973437   T   T   T
  0.7498462088174295  0.7471976991035888  0.2071858959635013   T   T   T
  0.2494182378108925  0.4986627854153578  0.2648910428077625   T   T   T
  0.2498921393508458  0.9993024862773889  0.2656892206077031   T   T   T
  0.7507826919881316  0.4986926869910137  0.2646430502750612   T   T   T
  0.7500856260732256  0.9991767358813022  0.2654061976432825   T   T   T
  0.9994554941576743  0.2497675248667988  0.2964424190064318   T   T   T
  0.9997514437030962  0.7498299598621889  0.2957044921064456   T   T   T
  0.5004166216868494  0.2497930988440158  0.2965529503132595   T   T   T
  0.5003504986849477  0.7498369860192072  0.2957662863437498   T   T   T
  0.9996259248591319  0.0024994183785888  0.3545430349904338   T   T   T
  0.9999287447096894  0.5020055135699714  0.3536871191773731   T   T   T
  0.5003439452277016  0.0022065630642604  0.3543729452598307   T   T   T
  0.5009035561401777  0.5011684018863869  0.3529302923879053   T   T   T
  0.2499910580435678  0.2517103592072391  0.3853913674605742   T   T   T
  0.2499944034507879  0.7560665815082168  0.3844357724244403   T   T   T
  0.7496929327728843  0.2520595629387538  0.3856820501739290   T   T   T
  0.7503978869147094  0.7556772567889819  0.3844886965727360   T   T   T
  0.2532351822164967  0.0018089688253716  0.4439654410051125   T   T   T
  0.2487348568320426  0.5070257995879235  0.4406288781618149   T   T   T
  0.7464025666850137  0.0015278787319876  0.4441094845411880   T   T   T
  0.7530893063237212  0.5074060459130740  0.4412410946694487   T   T   T
  0.0000866613008806  0.2515662597741040  0.4738378131747883   T   T   T
  0.0007222404502332  0.7614219333828409  0.4731566032879219   T   T   T
  0.4998462533028424  0.2582535942268009  0.4713526344574093   T   T   T
  0.5004525672397730  0.7440692186639712  0.4730362658105574   T   T   T
  0.4932956192839527  0.3668100657751619  0.5209146487781469   T   T   T
  0.2499585773607995  0.3269158973403749  0.0992120381932094   T   T   T
  0.2499146527389602  0.8269359366252073  0.0990892870060500   T   T   T
  0.7500171695287707  0.3266978176658756  0.0995741230874549   T   T   T
  0.7500629560218876  0.8266504585947966  0.0994414400919646   T   T   T
  0.0004250724506540  0.0581267169319915  0.1141947034069293   T   T   T
  0.0004498955564030  0.5580716351421547  0.1138060292580662   T   T   T
  0.4995616828313549  0.0580942802076466  0.1141817628898429   T   T   T
  0.4995414348373600  0.5580790107605363  0.1137489654902528   T   T   T
  0.0004263693328875  0.3089734497028931  0.1797522519835610   T   T   T
  0.0004010976373606  0.8092376048394286  0.1795021207314784   T   T   T
  0.4995482120183253  0.3089404492384811  0.1796915326217907   T   T   T
  0.4995843492579255  0.8093364472283996  0.1794073724038821   T   T   T
  0.2499596386901571  0.0561312022435420  0.2058132251711052   T   T   T
  0.2498872661633697  0.5559729957276827  0.2052066853535992   T   T   T
  0.7500271420081269  0.0559897688255485  0.2054787661896064   T   T   T
  0.7501354811056432  0.5559829053524004  0.2049472451281058   T   T   T
  0.2501631100112918  0.3087250765685353  0.2672223335163433   T   T   T
  0.2501208041694610  0.8087774248562397  0.2666963355837677   T   T   T
  0.7497336836026940  0.3087374629464756  0.2668656930630088   T   T   T
  0.7500033343649674  0.8086702834296081  0.2664236011544735   T   T   T
  0.9994941876105757  0.0595844421047078  0.2947437039171146   T   T   T
  0.9997030178446141  0.5591177941902465  0.2943960785441486   T   T   T
  0.5004822927645274  0.0596394594313430  0.2946866732049933   T   T   T
  0.5005021250009919  0.5592568035042084  0.2936480428228426   T   T   T
  0.9993981608485398  0.3121318768768674  0.3554948374071553   T   T   T
  0.0001414276231346  0.8108508176526603  0.3551581238157328   T   T   T
  0.5001757832793411  0.3113658208105699  0.3558850637084396   T   T   T
  0.5002970722032012  0.8105578193590770  0.3552400584536326   T   T   T
  0.2503107894907618  0.0622326106881827  0.3824942925557394   T   T   T
  0.2536324116527674  0.5666789077032378  0.3815311933390852   T   T   T
  0.7496771349381692  0.0624006690650093  0.3827395464903688   T   T   T
  0.7471058021289163  0.5661741632038338  0.3820300689672695   T   T   T
  0.2318393445002906  0.3218122788393634  0.4446098747049825   T   T   T
  0.2569340934038467  0.8066287788755722  0.4470037569028107   T   T   T
  0.7673226076697324  0.3218091802685781  0.4451231765893628   T   T   T
  0.7442612104188373  0.8062687665010965  0.4471509579373891   T   T   T
 -0.0001622306977242  0.0766713874490694  0.4630720639354973   T   T   T
  0.0018644994969239  0.5863121246686314  0.4615525370704404   T   T   T
  0.4998536469696988  0.0755200642892358  0.4644541268961673   T   T   T
  0.5003753597997129  0.5618479361230292  0.4753037140845336   T   T   T
 
  0.00000000E+00  0.00000000E+00  0.00000000E+00
  0.00000000E+00  0.00000000E+00  0.00000000E+00
  0.00000000E+00  0.00000000E+00  0.00000000E+00
  0.00000000E+00  0.00000000E+00  0.00000000E+00
  0.00000000E+00  0.00000000E+00  0.00000000E+00
  0.00000000E+00  0.00000000E+00  0.00000000E+00
  0.00000000E+00  0.00000000E+00  0.00000000E+00
  0.00000000E+00  0.00000000E+00  0.00000000E+00
  0.00000000E+00  0.00000000E+00  0.00000000E+00
  0.00000000E+00  0.00000000E+00  0.00000000E+00
  0.00000000E+00  0.00000000E+00  0.00000000E+00
  0.00000000E+00  0.00000000E+00  0.00000000E+00
  0.00000000E+00  0.00000000E+00  0.00000000E+00
  0.00000000E+00  0.00000000E+00  0.00000000E+00
  0.00000000E+00  0.00000000E+00  0.00000000E+00
  0.00000000E+00  0.00000000E+00  0.00000000E+00
  0.00000000E+00  0.00000000E+00  0.00000000E+00
  0.00000000E+00  0.00000000E+00  0.00000000E+00
  0.00000000E+00  0.00000000E+00  0.00000000E+00
  0.00000000E+00  0.00000000E+00  0.00000000E+00
  0.00000000E+00  0.00000000E+00  0.00000000E+00
  0.00000000E+00  0.00000000E+00  0.00000000E+00
  0.00000000E+00  0.00000000E+00  0.00000000E+00
  0.00000000E+00  0.00000000E+00  0.00000000E+00
  0.00000000E+00  0.00000000E+00  0.00000000E+00
  0.00000000E+00  0.00000000E+00  0.00000000E+00
  0.00000000E+00  0.00000000E+00  0.00000000E+00
  0.00000000E+00  0.00000000E+00  0.00000000E+00
  0.00000000E+00  0.00000000E+00  0.00000000E+00
  0.00000000E+00  0.00000000E+00  0.00000000E+00
  0.00000000E+00  0.00000000E+00  0.00000000E+00
  0.00000000E+00  0.00000000E+00  0.00000000E+00
  0.00000000E+00  0.00000000E+00  0.00000000E+00
  0.00000000E+00  0.00000000E+00  0.00000000E+00
  0.00000000E+00  0.00000000E+00  0.00000000E+00
  0.00000000E+00  0.00000000E+00  0.00000000E+00
  0.00000000E+00  0.00000000E+00  0.00000000E+00
  0.00000000E+00  0.00000000E+00  0.00000000E+00
  0.00000000E+00  0.00000000E+00  0.00000000E+00
  0.00000000E+00  0.00000000E+00  0.00000000E+00
  0.00000000E+00  0.00000000E+00  0.00000000E+00
  0.00000000E+00  0.00000000E+00  0.00000000E+00
  0.00000000E+00  0.00000000E+00  0.00000000E+00
  0.00000000E+00  0.00000000E+00  0.00000000E+00
  0.00000000E+00  0.00000000E+00  0.00000000E+00
  0.00000000E+00  0.00000000E+00  0.00000000E+00
  0.00000000E+00  0.00000000E+00  0.00000000E+00
  0.00000000E+00  0.00000000E+00  0.00000000E+00
  0.00000000E+00  0.00000000E+00  0.00000000E+00
  0.00000000E+00  0.00000000E+00  0.00000000E+00
  0.00000000E+00  0.00000000E+00  0.00000000E+00
  0.00000000E+00  0.00000000E+00  0.00000000E+00
  0.00000000E+00  0.00000000E+00  0.00000000E+00
  0.00000000E+00  0.00000000E+00  0.00000000E+00
  0.00000000E+00  0.00000000E+00  0.00000000E+00
  0.00000000E+00  0.00000000E+00  0.00000000E+00
  0.00000000E+00  0.00000000E+00  0.00000000E+00
  0.00000000E+00  0.00000000E+00  0.00000000E+00
  0.00000000E+00  0.00000000E+00  0.00000000E+00
  0.00000000E+00  0.00000000E+00  0.00000000E+00
  0.00000000E+00  0.00000000E+00  0.00000000E+00
  0.00000000E+00  0.00000000E+00  0.00000000E+00
  0.00000000E+00  0.00000000E+00  0.00000000E+00
  0.00000000E+00  0.00000000E+00  0.00000000E+00
  0.00000000E+00  0.00000000E+00  0.00000000E+00
  0.00000000E+00  0.00000000E+00  0.00000000E+00
  0.00000000E+00  0.00000000E+00  0.00000000E+00
  0.00000000E+00  0.00000000E+00  0.00000000E+00
  0.00000000E+00  0.00000000E+00  0.00000000E+00
  0.00000000E+00  0.00000000E+00  0.00000000E+00
  0.00000000E+00  0.00000000E+00  0.00000000E+00
  0.00000000E+00  0.00000000E+00  0.00000000E+00
  0.00000000E+00  0.00000000E+00  0.00000000E+00
  0.00000000E+00  0.00000000E+00  0.00000000E+00
  0.00000000E+00  0.00000000E+00  0.00000000E+00
  0.00000000E+00  0.00000000E+00  0.00000000E+00
  0.00000000E+00  0.00000000E+00  0.00000000E+00
  0.00000000E+00  0.00000000E+00  0.00000000E+00
  0.00000000E+00  0.00000000E+00  0.00000000E+00
  0.00000000E+00  0.00000000E+00  0.00000000E+00
  0.00000000E+00  0.00000000E+00  0.00000000E+00
