Ni O Zn                                 
   1.00000000000000     
     6.5625568183449996    0.0000000000000000    0.0000000000000000
     0.0000000000000000   10.5156600000000005    0.0000000000000000
     0.0000000000000000    0.0000000000000000   32.0500282661819966
   Ni   O    Zn
     1    40    40
Selective dynamics
Direct
  0.2500001212049980  0.7412020101723626  0.5072013703870286   T   T   T
  0.2499987879510002  0.0010570646652214  0.0876882283187606   T   T   T
  0.2499987879510002  0.5009970356811656  0.0875791770519300   T   T   T
  0.7499987879510002  0.0007505911819316  0.0882764778096701   T   T   T
  0.7499987879510002  0.5007419585197387  0.0882033619528690   T   T   T
  0.0005282442950651  0.2473430981012601  0.1186732908624414   T   T   T
  0.0006200063252605  0.7473425235629340  0.1186359531079781   T   T   T
  0.4994686480069355  0.2473430981012601  0.1186732908624414   T   T   T
  0.4993768859767401  0.7473425235629340  0.1186359531079781   T   T   T
  0.0011046022769016  0.4977061808564652  0.1761109198923567   T   T   T
  0.0008833034621896  0.9978316914256822  0.1763172775219660   T   T   T
  0.4988934584450979  0.4977061808564652  0.1761109198923567   T   T   T
  0.4991147572598099  0.9978316914256822  0.1763172775219660   T   T   T
  0.2499986885609999  0.2467696757975769  0.2079788156717193   T   T   T
  0.2499986885609999  0.7468436011082521  0.2080772942671966   T   T   T
  0.7499986885609999  0.2467314594849430  0.2073981677141495   T   T   T
  0.7499986885609999  0.7466601664151513  0.2070891976797748   T   T   T
  0.2499992727709994  0.4984798648749336  0.2659335704696427   T   T   T
  0.2499992727709994  0.9983548575589131  0.2661023136813326   T   T   T
  0.7499992727709994  0.4978378913716761  0.2649218548791935   T   T   T
  0.7499992727709994  0.9986175910094907  0.2653887736597508   T   T   T
  0.9991480608163118  0.2487334310484820  0.2964979037279588   T   T   T
  0.9977553538563116  0.7487334958343935  0.2965303879292333   T   T   T
  0.5008498011256873  0.2487334310484820  0.2964979037279588   T   T   T
  0.5022425080856875  0.7487334958343935  0.2965303879292333   T   T   T
  0.9981113503289697 -0.0011080437913067  0.3547237729983745   T   T   T
  0.9950869073011982  0.5006436606567024  0.3542525696251081   T   T   T
  0.5018876800310247 -0.0011080437913067  0.3547237729983745   T   T   T
  0.5049121230587962  0.5006436606567024  0.3542525696251081   T   T   T
  0.2499991733809992  0.2533916027498170  0.3849620405951408   T   T   T
  0.2499991733809992  0.7489841564425587  0.3830732588858287   T   T   T
  0.7499991733809992  0.2516654023955462  0.3865111326788112   T   T   T
  0.7499991733809992  0.7524753865801064  0.3889062198064432   T   T   T
  0.2499997575899968  0.0056461535792009  0.4424014920881152   T   T   T
  0.2499997575899968  0.5006102089194043  0.4409858566174086   T   T   T
  0.7499997575899968  0.0001688452508817  0.4447253193402002   T   T   T
  0.7499997575899968  0.5058211866865399  0.4454972603865145   T   T   T
  0.0009205785635771  0.2582345283479478  0.4742974882304530   T   T   T
  0.0007298788780530  0.7539364329276214  0.4783026217357370   T   T   T
  0.4990782530164239  0.2582345283479478  0.4742974882304530   T   T   T
  0.4992689527019481  0.7539364329276214  0.4783026217357370   T   T   T
  0.2499987879510002  0.3266299657387332  0.0988357634643514   T   T   T
  0.2499987879510002  0.8266284488683209  0.0987869596804613   T   T   T
  0.7499987879510002  0.3262599611510200  0.0993020639778799   T   T   T
  0.7499987879510002  0.8262495605585354  0.0993040067112655   T   T   T
  0.0005849287935418  0.0577633328815837  0.1140049620531024   T   T   T
  0.0006420997397128  0.5577232321808447  0.1138878750259480   T   T   T
  0.4994119635084588  0.0577633328815837  0.1140049620531024   T   T   T
  0.4993547925622879  0.5577232321808447  0.1138878750259480   T   T   T
  0.0008085947919701  0.3085394746028964  0.1794224958314640   T   T   T
  0.0012991528485194  0.8087174703299195  0.1792866623068375   T   T   T
  0.4991894659300295  0.3085394746028964  0.1794224958314640   T   T   T
  0.4986989078734802  0.8087174703299195  0.1792866623068375   T   T   T
  0.2499986885609999  0.0555853204135535  0.2059011557464440   T   T   T
  0.2499986885609999  0.5555173358141323  0.2057221890955993   T   T   T
  0.7499986885609999  0.0556598402571508  0.2051671399438106   T   T   T
  0.7499986885609999  0.5553019520945465  0.2048786000347004   T   T   T
  0.2499992727709994  0.3079221508567170  0.2670843509282138   T   T   T
  0.2499992727709994  0.8079754433449000  0.2672270948041457   T   T   T
  0.7499992727709994  0.3075689213588672  0.2664244571398462   T   T   T
  0.7499992727709994  0.8083814933673598  0.2659017849343875   T   T   T
  0.9988372454360447  0.0585091123451078  0.2947096239409189   T   T   T
  0.9979461518360588  0.5581368014780943  0.2943174478679714   T   T   T
  0.5011606165059544  0.0585091123451078  0.2947096239409189   T   T   T
  0.5020517101059403  0.5581368014780943  0.2943174478679714   T   T   T
  0.9971333610232386  0.3094118178523779  0.3556338860548616   T   T   T
  0.9922066652709973  0.8087871919145402  0.3551032014992194   T   T   T
  0.5028656693367629  0.3094118178523779  0.3556338860548616   T   T   T
  0.5077923650890042  0.8087871919145402  0.3551032014992194   T   T   T
  0.2499991733809992  0.0658869431507110  0.3804473600951918   T   T   T
  0.2499991733809992  0.5577917695643310  0.3805210209276382   T   T   T
  0.7499991733809992  0.0627175499396670  0.3830104415027180   T   T   T
  0.7499991733809992  0.5622717816114728  0.3838178876579723   T   T   T
  0.2500001212049980  0.3108180376863084  0.4463646127382979   T   T   T
  0.2500001212049980  0.8207502971806998  0.4383040521824297   T   T   T
  0.7499997575899968  0.3142631052134987  0.4477952218423423   T   T   T
  0.7499997575899968  0.8130521763266579  0.4491926029795218   T   T   T
 -0.0007368968468368  0.0836381951969699  0.4634665027052636   T   T   T
  0.0066802760763627  0.5714106317351736  0.4666240687704305   T   T   T
  0.5007357284268378  0.0836381951969699  0.4634665027052636   T   T   T
  0.4933185555036383  0.5714106317351736  0.4666240687704305   T   T   T
 
  0.00000000E+00  0.00000000E+00  0.00000000E+00
  0.00000000E+00  0.00000000E+00  0.00000000E+00
  0.00000000E+00  0.00000000E+00  0.00000000E+00
  0.00000000E+00  0.00000000E+00  0.00000000E+00
  0.00000000E+00  0.00000000E+00  0.00000000E+00
  0.00000000E+00  0.00000000E+00  0.00000000E+00
  0.00000000E+00  0.00000000E+00  0.00000000E+00
  0.00000000E+00  0.00000000E+00  0.00000000E+00
  0.00000000E+00  0.00000000E+00  0.00000000E+00
  0.00000000E+00  0.00000000E+00  0.00000000E+00
  0.00000000E+00  0.00000000E+00  0.00000000E+00
  0.00000000E+00  0.00000000E+00  0.00000000E+00
  0.00000000E+00  0.00000000E+00  0.00000000E+00
  0.00000000E+00  0.00000000E+00  0.00000000E+00
  0.00000000E+00  0.00000000E+00  0.00000000E+00
  0.00000000E+00  0.00000000E+00  0.00000000E+00
  0.00000000E+00  0.00000000E+00  0.00000000E+00
  0.00000000E+00  0.00000000E+00  0.00000000E+00
  0.00000000E+00  0.00000000E+00  0.00000000E+00
  0.00000000E+00  0.00000000E+00  0.00000000E+00
  0.00000000E+00  0.00000000E+00  0.00000000E+00
  0.00000000E+00  0.00000000E+00  0.00000000E+00
  0.00000000E+00  0.00000000E+00  0.00000000E+00
  0.00000000E+00  0.00000000E+00  0.00000000E+00
  0.00000000E+00  0.00000000E+00  0.00000000E+00
  0.00000000E+00  0.00000000E+00  0.00000000E+00
  0.00000000E+00  0.00000000E+00  0.00000000E+00
  0.00000000E+00  0.00000000E+00  0.00000000E+00
  0.00000000E+00  0.00000000E+00  0.00000000E+00
  0.00000000E+00  0.00000000E+00  0.00000000E+00
  0.00000000E+00  0.00000000E+00  0.00000000E+00
  0.00000000E+00  0.00000000E+00  0.00000000E+00
  0.00000000E+00  0.00000000E+00  0.00000000E+00
  0.00000000E+00  0.00000000E+00  0.00000000E+00
  0.00000000E+00  0.00000000E+00  0.00000000E+00
  0.00000000E+00  0.00000000E+00  0.00000000E+00
  0.00000000E+00  0.00000000E+00  0.00000000E+00
  0.00000000E+00  0.00000000E+00  0.00000000E+00
  0.00000000E+00  0.00000000E+00  0.00000000E+00
  0.00000000E+00  0.00000000E+00  0.00000000E+00
  0.00000000E+00  0.00000000E+00  0.00000000E+00
  0.00000000E+00  0.00000000E+00  0.00000000E+00
  0.00000000E+00  0.00000000E+00  0.00000000E+00
  0.00000000E+00  0.00000000E+00  0.00000000E+00
  0.00000000E+00  0.00000000E+00  0.00000000E+00
  0.00000000E+00  0.00000000E+00  0.00000000E+00
  0.00000000E+00  0.00000000E+00  0.00000000E+00
  0.00000000E+00  0.00000000E+00  0.00000000E+00
  0.00000000E+00  0.00000000E+00  0.00000000E+00
  0.00000000E+00  0.00000000E+00  0.00000000E+00
  0.00000000E+00  0.00000000E+00  0.00000000E+00
  0.00000000E+00  0.00000000E+00  0.00000000E+00
  0.00000000E+00  0.00000000E+00  0.00000000E+00
  0.00000000E+00  0.00000000E+00  0.00000000E+00
  0.00000000E+00  0.00000000E+00  0.00000000E+00
  0.00000000E+00  0.00000000E+00  0.00000000E+00
  0.00000000E+00  0.00000000E+00  0.00000000E+00
  0.00000000E+00  0.00000000E+00  0.00000000E+00
  0.00000000E+00  0.00000000E+00  0.00000000E+00
  0.00000000E+00  0.00000000E+00  0.00000000E+00
  0.00000000E+00  0.00000000E+00  0.00000000E+00
  0.00000000E+00  0.00000000E+00  0.00000000E+00
  0.00000000E+00  0.00000000E+00  0.00000000E+00
  0.00000000E+00  0.00000000E+00  0.00000000E+00
  0.00000000E+00  0.00000000E+00  0.00000000E+00
  0.00000000E+00  0.00000000E+00  0.00000000E+00
  0.00000000E+00  0.00000000E+00  0.00000000E+00
  0.00000000E+00  0.00000000E+00  0.00000000E+00
  0.00000000E+00  0.00000000E+00  0.00000000E+00
  0.00000000E+00  0.00000000E+00  0.00000000E+00
  0.00000000E+00  0.00000000E+00  0.00000000E+00
  0.00000000E+00  0.00000000E+00  0.00000000E+00
  0.00000000E+00  0.00000000E+00  0.00000000E+00
  0.00000000E+00  0.00000000E+00  0.00000000E+00
  0.00000000E+00  0.00000000E+00  0.00000000E+00
  0.00000000E+00  0.00000000E+00  0.00000000E+00
  0.00000000E+00  0.00000000E+00  0.00000000E+00
  0.00000000E+00  0.00000000E+00  0.00000000E+00
  0.00000000E+00  0.00000000E+00  0.00000000E+00
  0.00000000E+00  0.00000000E+00  0.00000000E+00
  0.00000000E+00  0.00000000E+00  0.00000000E+00
