Ir O Zn                                 
   1.00000000000000     
     6.5625568183449996    0.0000000000000000    0.0000000000000000
     0.0000000000000000   10.5156600000000005    0.0000000000000000
     0.0000000000000000    0.0000000000000000   32.0500282661819966
   Ir   O    Zn
     1    40    40
Selective dynamics
Direct
  0.2500001212049980  0.7466806927590424  0.4997812988557866   T   T   T
  0.2499987879510002  0.0023180447035027  0.0871779955579106   T   T   T
  0.2499987879510002  0.5021913235270631  0.0881514531283188   T   T   T
  0.7499987879510002  0.0018225315687131  0.0877334057688178   T   T   T
  0.7499987879510002  0.5024123385525416  0.0886157961075284   T   T   T
  0.0002576165702478  0.2482908797620344  0.1187627401616213   T   T   T
  0.0008615807149315  0.7488092165942413  0.1183173699263863   T   T   T
  0.4997392757317526  0.2482908797620344  0.1187627401616213   T   T   T
  0.4991353115870693  0.7488092165942413  0.1183173699263863   T   T   T
  0.0016104162972363  0.4981093970271465  0.1764466825076380   T   T   T
  0.0013831276367955  0.9983724037175884  0.1757119790860434   T   T   T
  0.4983876444247633  0.4981093970271465  0.1764466825076380   T   T   T
  0.4986149330852040  0.9983724037175884  0.1757119790860434   T   T   T
  0.2499986885609999  0.2466946122589747  0.2080791778390869   T   T   T
  0.2499986885609999  0.7472263139440997  0.2079285273218331   T   T   T
  0.7499986885609999  0.2469441451422723  0.2071312576375861   T   T   T
  0.7499986885609999  0.7464714971228372  0.2060942332052510   T   T   T
  0.2499992727709994  0.4980016077952238  0.2662342990722735   T   T   T
  0.2499992727709994  0.9972148423406183  0.2654713415045143   T   T   T
  0.7499992727709994  0.4969623093709844  0.2647934811353060   T   T   T
  0.7499992727709994  0.9978066935468873  0.2640385900457849   T   T   T
 -0.0014740175718182  0.2478545788885737  0.2962983939849091   T   T   T
  0.9950547554373625  0.7474590466707797  0.2957007642837017   T   T   T
  0.5014718795138243  0.2478545788885737  0.2962983939849091   T   T   T
  0.5049431065046366  0.7474590466707797  0.2957007642837017   T   T   T
 -0.0044997897390556  0.9969419565293594  0.3535230424212500   T   T   T
  0.9923447015671495  0.5001880947617544  0.3544139606243271   T   T   T
  0.5044988200990502  0.9969419565293594  0.3535230424212500   T   T   T
  0.5076543287928449  0.5001880947617544  0.3544139606243271   T   T   T
  0.2499991733809992  0.2554233882281203  0.3832032486772570   T   T   T
  0.2499991733809992  0.7449285547125231  0.3783277893016421   T   T   T
  0.7499991733809992  0.2483426869808335  0.3868059443370763   T   T   T
  0.7499991733809992  0.7523254851545497  0.3919504116072571   T   T   T
  0.2499997575899968  0.0109969972687511  0.4375876556532002   T   T   T
  0.2500001212049980  0.4953676615112576  0.4407217888568468   T   T   T
  0.7499997575899968  0.9922623674861658  0.4451508356698820   T   T   T
  0.7499997575899968  0.5052925453151558  0.4464671912075304   T   T   T
  0.0015615500723891  0.2531462913304981  0.4734654390094030   T   T   T
  0.9558835304616949  0.7370848914181001  0.4949826538370691   T   T   T
  0.4984372815076120  0.2531460205234982  0.4734654390094030   T   T   T
  0.5441149755592988  0.7370846206111001  0.4949810949910675   T   T   T
  0.2499987879510002  0.3277610112624353  0.0991861407046068   T   T   T
  0.2499987879510002  0.8279196872672515  0.0983080868820339   T   T   T
  0.7499987879510002  0.3278028806199397  0.0994426792481255   T   T   T
  0.7499987879510002  0.8274058274090123  0.0989919758868899   T   T   T
  0.0005218304831610  0.0589057256997090  0.1134702712075566   T   T   T
  0.0006498655057140  0.5591780645004147  0.1143016790848726   T   T   T
  0.4994750618188396  0.0589057256997090  0.1134702712075566   T   T   T
  0.4993470267962866  0.5591780645004147  0.1143016790848726   T   T   T
  0.0013087620834842  0.3091521839810720  0.1795034515000614   T   T   T
  0.0020677949758656  0.8093680205105703  0.1789129013907196   T   T   T
  0.4986892986385154  0.3091521839810720  0.1795034515000614   T   T   T
  0.4979302657461340  0.8093680205105703  0.1789129013907196   T   T   T
  0.2499986885609999  0.0557767809173591  0.2053160258393618   T   T   T
  0.2499986885609999  0.5560547533531547  0.2060838947630876   T   T   T
  0.7499986885609999  0.0563914558667144  0.2040060132695681   T   T   T
  0.7499986885609999  0.5553437303014205  0.2048775293058624   T   T   T
  0.2499992727709994  0.3075195061252288  0.2671770980188186   T   T   T
  0.2499992727709994  0.8068568495942556  0.2672254360354159   T   T   T
  0.7499992727709994  0.3069949303051228  0.2661112520462217   T   T   T
  0.7499992727709994  0.8079361737207025  0.2645286455162584   T   T   T
 -0.0024830841420130  0.0578702177767275  0.2934030049862226   T   T   T
  0.9971573055938256  0.5568235962690214  0.2943828082830774   T   T   T
  0.5024809460840121  0.0578702177767275  0.2934030049862226   T   T   T
  0.5028405563481735  0.5568235962690214  0.2943828082830774   T   T   T
 -0.0069230266006537  0.3090826055834857  0.3552864642149148   T   T   T
  0.9848006024779680  0.8068797176855395  0.3541146706609139   T   T   T
  0.5069220569606552  0.3090826055834857  0.3552864642149148   T   T   T
  0.5151984278820335  0.8068797176855395  0.3541146706609139   T   T   T
  0.2499991733809992  0.0699285082649717  0.3763728553188594   T   T   T
  0.2499991733809992  0.5527856685855111  0.3807827261011276   T   T   T
  0.7499991733809992  0.0592829735889136  0.3831139902904481   T   T   T
  0.7499991733809992  0.5612134064540033  0.3852229725410112   T   T   T
  0.2500001212049980  0.3061789578015475  0.4453597302918586   T   T   T
  0.2500001212049980  0.8277678651381111  0.4304972737405001   T   T   T
  0.7500003636150012  0.3121905309854870  0.4483663452513345   T   T   T
  0.7499997575899968  0.8057305648707679  0.4544791997819864   T   T   T
  0.9994013188979399  0.0785017973311489  0.4624651792942663   T   T   T
  0.0102274324883842  0.5678520090282146  0.4687329585859737   T   T   T
  0.5005975126820611  0.0785017973311489  0.4624651792942663   T   T   T
  0.4897712099356122  0.5678524025942193  0.4687329585859737   T   T   T
 
  0.00000000E+00  0.00000000E+00  0.00000000E+00
  0.00000000E+00  0.00000000E+00  0.00000000E+00
  0.00000000E+00  0.00000000E+00  0.00000000E+00
  0.00000000E+00  0.00000000E+00  0.00000000E+00
  0.00000000E+00  0.00000000E+00  0.00000000E+00
  0.00000000E+00  0.00000000E+00  0.00000000E+00
  0.00000000E+00  0.00000000E+00  0.00000000E+00
  0.00000000E+00  0.00000000E+00  0.00000000E+00
  0.00000000E+00  0.00000000E+00  0.00000000E+00
  0.00000000E+00  0.00000000E+00  0.00000000E+00
  0.00000000E+00  0.00000000E+00  0.00000000E+00
  0.00000000E+00  0.00000000E+00  0.00000000E+00
  0.00000000E+00  0.00000000E+00  0.00000000E+00
  0.00000000E+00  0.00000000E+00  0.00000000E+00
  0.00000000E+00  0.00000000E+00  0.00000000E+00
  0.00000000E+00  0.00000000E+00  0.00000000E+00
  0.00000000E+00  0.00000000E+00  0.00000000E+00
  0.00000000E+00  0.00000000E+00  0.00000000E+00
  0.00000000E+00  0.00000000E+00  0.00000000E+00
  0.00000000E+00  0.00000000E+00  0.00000000E+00
  0.00000000E+00  0.00000000E+00  0.00000000E+00
  0.00000000E+00  0.00000000E+00  0.00000000E+00
  0.00000000E+00  0.00000000E+00  0.00000000E+00
  0.00000000E+00  0.00000000E+00  0.00000000E+00
  0.00000000E+00  0.00000000E+00  0.00000000E+00
  0.00000000E+00  0.00000000E+00  0.00000000E+00
  0.00000000E+00  0.00000000E+00  0.00000000E+00
  0.00000000E+00  0.00000000E+00  0.00000000E+00
  0.00000000E+00  0.00000000E+00  0.00000000E+00
  0.00000000E+00  0.00000000E+00  0.00000000E+00
  0.00000000E+00  0.00000000E+00  0.00000000E+00
  0.00000000E+00  0.00000000E+00  0.00000000E+00
  0.00000000E+00  0.00000000E+00  0.00000000E+00
  0.00000000E+00  0.00000000E+00  0.00000000E+00
  0.00000000E+00  0.00000000E+00  0.00000000E+00
  0.00000000E+00  0.00000000E+00  0.00000000E+00
  0.00000000E+00  0.00000000E+00  0.00000000E+00
  0.00000000E+00  0.00000000E+00  0.00000000E+00
  0.00000000E+00  0.00000000E+00  0.00000000E+00
  0.00000000E+00  0.00000000E+00  0.00000000E+00
  0.00000000E+00  0.00000000E+00  0.00000000E+00
  0.00000000E+00  0.00000000E+00  0.00000000E+00
  0.00000000E+00  0.00000000E+00  0.00000000E+00
  0.00000000E+00  0.00000000E+00  0.00000000E+00
  0.00000000E+00  0.00000000E+00  0.00000000E+00
  0.00000000E+00  0.00000000E+00  0.00000000E+00
  0.00000000E+00  0.00000000E+00  0.00000000E+00
  0.00000000E+00  0.00000000E+00  0.00000000E+00
  0.00000000E+00  0.00000000E+00  0.00000000E+00
  0.00000000E+00  0.00000000E+00  0.00000000E+00
  0.00000000E+00  0.00000000E+00  0.00000000E+00
  0.00000000E+00  0.00000000E+00  0.00000000E+00
  0.00000000E+00  0.00000000E+00  0.00000000E+00
  0.00000000E+00  0.00000000E+00  0.00000000E+00
  0.00000000E+00  0.00000000E+00  0.00000000E+00
  0.00000000E+00  0.00000000E+00  0.00000000E+00
  0.00000000E+00  0.00000000E+00  0.00000000E+00
  0.00000000E+00  0.00000000E+00  0.00000000E+00
  0.00000000E+00  0.00000000E+00  0.00000000E+00
  0.00000000E+00  0.00000000E+00  0.00000000E+00
  0.00000000E+00  0.00000000E+00  0.00000000E+00
  0.00000000E+00  0.00000000E+00  0.00000000E+00
  0.00000000E+00  0.00000000E+00  0.00000000E+00
  0.00000000E+00  0.00000000E+00  0.00000000E+00
  0.00000000E+00  0.00000000E+00  0.00000000E+00
  0.00000000E+00  0.00000000E+00  0.00000000E+00
  0.00000000E+00  0.00000000E+00  0.00000000E+00
  0.00000000E+00  0.00000000E+00  0.00000000E+00
  0.00000000E+00  0.00000000E+00  0.00000000E+00
  0.00000000E+00  0.00000000E+00  0.00000000E+00
  0.00000000E+00  0.00000000E+00  0.00000000E+00
  0.00000000E+00  0.00000000E+00  0.00000000E+00
  0.00000000E+00  0.00000000E+00  0.00000000E+00
  0.00000000E+00  0.00000000E+00  0.00000000E+00
  0.00000000E+00  0.00000000E+00  0.00000000E+00
  0.00000000E+00  0.00000000E+00  0.00000000E+00
  0.00000000E+00  0.00000000E+00  0.00000000E+00
  0.00000000E+00  0.00000000E+00  0.00000000E+00
  0.00000000E+00  0.00000000E+00  0.00000000E+00
  0.00000000E+00  0.00000000E+00  0.00000000E+00
  0.00000000E+00  0.00000000E+00  0.00000000E+00
