O Rh Zn                                 
   1.00000000000000     
     6.5625568183449996    0.0000000000000000    0.0000000000000000
     0.0000000000000000   10.5156600000000005    0.0000000000000000
     0.0000000000000000    0.0000000000000000   32.0500282661819966
   O    Rh   Zn
    40     1    40
Selective dynamics
Direct
  0.2499049072613213  0.0014192059815036  0.0881596072484430   T   T   T
  0.2499497789456147  0.5012659202586104  0.0878435583990400   T   T   T
  0.7500457977762437  0.0012415047993904  0.0883564975842624   T   T   T
  0.7499560891198777  0.5011706296526455  0.0880685667841977   T   T   T
  0.0001524805067539  0.2477970124028172  0.1189180817254071   T   T   T
  0.0002000207145574  0.7476548334636856  0.1187447861072626   T   T   T
  0.4998021474708093  0.2478301122206045  0.1188728666720542   T   T   T
  0.4997732652016855  0.7476533298432646  0.1186528634389778   T   T   T
 -0.0000351962803738  0.4980923680068745  0.1759260249569885   T   T   T
  0.0000408943323756  0.9982159636909601  0.1762470859116783   T   T   T
  0.4999341603599630  0.4982055443756012  0.1760150953175817   T   T   T
  0.4999709802427532  0.9982501876431735  0.1762197526836352   T   T   T
  0.2500035729205909  0.2472083179414401  0.2074896515037115   T   T   T
  0.2500313137145326  0.7472042856893861  0.2072648824383429   T   T   T
  0.7499638751902324  0.2472132068215923  0.2074354543347617   T   T   T
  0.7499481963693120  0.7472258367420559  0.2072532813265199   T   T   T
  0.2492296873323301  0.4989700001295969  0.2649439864768215   T   T   T
  0.2497925938329324  0.9988620377213357  0.2652687727075392   T   T   T
  0.7504563351347621  0.4990207961027640  0.2649936291371945   T   T   T
  0.7503028451178382  0.9989575100492606  0.2652865919557700   T   T   T
  0.0000192857462542  0.2496661589340746  0.2960743567681458   T   T   T
  0.9999506234748623  0.7497002074459013  0.2959063006132429   T   T   T
  0.5001849745732855  0.2494151660045658  0.2959404789302427   T   T   T
  0.5000213828150017  0.7495487642705566  0.2956517063434642   T   T   T
  0.0001061633418068  0.0009193833528428  0.3541509784516325   T   T   T
  0.9998590777031828  0.5020781249418713  0.3540932961398044   T   T   T
  0.5002634134614440  0.0013459898091506  0.3539792689932486   T   T   T
  0.4996866125026061  0.5009619743085799  0.3533747337740191   T   T   T
  0.2508394855036219  0.2502052655133496  0.3845783719511008   T   T   T
  0.2505259338199694  0.7551503691021628  0.3847255399421131   T   T   T
  0.7498820110785835  0.2505283516372981  0.3848251560114430   T   T   T
  0.7493052037892882  0.7553466083427111  0.3847341482065388   T   T   T
  0.2543411607923974  0.0027048465773367  0.4437461471824647   T   T   T
  0.2484556255821400  0.5056669304641525  0.4418547377011873   T   T   T
  0.7463018914025887  0.0029743053027276  0.4437705958046396   T   T   T
  0.7514875712439888  0.5058237479543112  0.4417851807358260   T   T   T
  0.0009363901719997  0.2532556969802728  0.4735071977434426   T   T   T
 -0.0002200409686068  0.7612960541634251  0.4727715132579042   T   T   T
  0.4999957165899068  0.2619304488593898  0.4723532947425787   T   T   T
  0.5002763417373179  0.7447972051275992  0.4731594486072183   T   T   T
  0.4969202126891797  0.3695656752574152  0.5250151296290134   T   T   T
  0.2498908906304918  0.3269633096174167  0.0993665101947913   T   T   T
  0.2498832043306377  0.8271398443630452  0.0992720764765605   T   T   T
  0.7500598854002786  0.3268438728245875  0.0995206289798899   T   T   T
  0.7500752431701228  0.8269317505866041  0.0994539060440186   T   T   T
  0.0001147941754135  0.0582911910293195  0.1142490003603042   T   T   T
  0.0001592563974028  0.5581795475203124  0.1139201664932133   T   T   T
  0.4998346780447776  0.0582949662741093  0.1141795999206494   T   T   T
  0.4997488383803926  0.5581179815716341  0.1139305950589355   T   T   T
  0.0000691881716812  0.3092687191776679  0.1796019435949575   T   T   T
  0.0000742799942084  0.8092606574529324  0.1794796627284793   T   T   T
  0.4998785629807063  0.3093494193436304  0.1795666034681989   T   T   T
  0.4999355100487659  0.8092524364983896  0.1794090495282849   T   T   T
  0.2500247195405564  0.0562506927995885  0.2053869583620490   T   T   T
  0.2497106598090925  0.5562297002637988  0.2051513851003297   T   T   T
  0.7499954156394896  0.0561765302967531  0.2053903875554831   T   T   T
  0.7501777972193764  0.5561806493720068  0.2051855757004090   T   T   T
  0.2501173130856657  0.3089719653119705  0.2666041212639940   T   T   T
  0.2495974261406200  0.8082614716289801  0.2665351871217194   T   T   T
  0.7500947624961489  0.3089935586455858  0.2665453492633939   T   T   T
  0.7503595418666931  0.8083761178348435  0.2665172336405371   T   T   T
  0.0001526774118998  0.0592092382488610  0.2944718479595134   T   T   T
  0.9999678041432444  0.5591904869616670  0.2946314479739732   T   T   T
  0.4999571602470724  0.0589455864221824  0.2943407100044389   T   T   T
  0.4997142422528881  0.5590840364983236  0.2939883275662298   T   T   T
  0.0001223773792990  0.3120209005298061  0.3550405687290999   T   T   T
 -0.0000651857304405  0.8090492938851510  0.3555695876774235   T   T   T
  0.5007290382585218  0.3110292897196263  0.3550720616498811   T   T   T
  0.4998476685128466  0.8097658344988498  0.3551050675540288   T   T   T
  0.2503139407528450  0.0599874857741684  0.3822548959746569   T   T   T
  0.2533666281651575  0.5658168160276980  0.3826138075784416   T   T   T
  0.7500763972425896  0.0606160323418124  0.3822294876818463   T   T   T
  0.7462383939691118  0.5660195980774235  0.3824849534134241   T   T   T
  0.2361828376636179  0.3192935087665260  0.4432466139578523   T   T   T
  0.2569536451587763  0.8078197449862674  0.4473632843567092   T   T   T
  0.7645347943863606  0.3195825527759644  0.4436749368084296   T   T   T
  0.7428771632157078  0.8080794789908525  0.4472695323082521   T   T   T
  0.0005731902367399  0.0775623091201206  0.4625840642955619   T   T   T
 -0.0001340275338340  0.5860153859940824  0.4613218434986078   T   T   T
  0.5000865949760249  0.0812078902592398  0.4639477913363177   T   T   T
  0.5000694836750805  0.5623002940939240  0.4768514751595956   T   T   T
 
  0.00000000E+00  0.00000000E+00  0.00000000E+00
  0.00000000E+00  0.00000000E+00  0.00000000E+00
  0.00000000E+00  0.00000000E+00  0.00000000E+00
  0.00000000E+00  0.00000000E+00  0.00000000E+00
  0.00000000E+00  0.00000000E+00  0.00000000E+00
  0.00000000E+00  0.00000000E+00  0.00000000E+00
  0.00000000E+00  0.00000000E+00  0.00000000E+00
  0.00000000E+00  0.00000000E+00  0.00000000E+00
  0.00000000E+00  0.00000000E+00  0.00000000E+00
  0.00000000E+00  0.00000000E+00  0.00000000E+00
  0.00000000E+00  0.00000000E+00  0.00000000E+00
  0.00000000E+00  0.00000000E+00  0.00000000E+00
  0.00000000E+00  0.00000000E+00  0.00000000E+00
  0.00000000E+00  0.00000000E+00  0.00000000E+00
  0.00000000E+00  0.00000000E+00  0.00000000E+00
  0.00000000E+00  0.00000000E+00  0.00000000E+00
  0.00000000E+00  0.00000000E+00  0.00000000E+00
  0.00000000E+00  0.00000000E+00  0.00000000E+00
  0.00000000E+00  0.00000000E+00  0.00000000E+00
  0.00000000E+00  0.00000000E+00  0.00000000E+00
  0.00000000E+00  0.00000000E+00  0.00000000E+00
  0.00000000E+00  0.00000000E+00  0.00000000E+00
  0.00000000E+00  0.00000000E+00  0.00000000E+00
  0.00000000E+00  0.00000000E+00  0.00000000E+00
  0.00000000E+00  0.00000000E+00  0.00000000E+00
  0.00000000E+00  0.00000000E+00  0.00000000E+00
  0.00000000E+00  0.00000000E+00  0.00000000E+00
  0.00000000E+00  0.00000000E+00  0.00000000E+00
  0.00000000E+00  0.00000000E+00  0.00000000E+00
  0.00000000E+00  0.00000000E+00  0.00000000E+00
  0.00000000E+00  0.00000000E+00  0.00000000E+00
  0.00000000E+00  0.00000000E+00  0.00000000E+00
  0.00000000E+00  0.00000000E+00  0.00000000E+00
  0.00000000E+00  0.00000000E+00  0.00000000E+00
  0.00000000E+00  0.00000000E+00  0.00000000E+00
  0.00000000E+00  0.00000000E+00  0.00000000E+00
  0.00000000E+00  0.00000000E+00  0.00000000E+00
  0.00000000E+00  0.00000000E+00  0.00000000E+00
  0.00000000E+00  0.00000000E+00  0.00000000E+00
  0.00000000E+00  0.00000000E+00  0.00000000E+00
  0.00000000E+00  0.00000000E+00  0.00000000E+00
  0.00000000E+00  0.00000000E+00  0.00000000E+00
  0.00000000E+00  0.00000000E+00  0.00000000E+00
  0.00000000E+00  0.00000000E+00  0.00000000E+00
  0.00000000E+00  0.00000000E+00  0.00000000E+00
  0.00000000E+00  0.00000000E+00  0.00000000E+00
  0.00000000E+00  0.00000000E+00  0.00000000E+00
  0.00000000E+00  0.00000000E+00  0.00000000E+00
  0.00000000E+00  0.00000000E+00  0.00000000E+00
  0.00000000E+00  0.00000000E+00  0.00000000E+00
  0.00000000E+00  0.00000000E+00  0.00000000E+00
  0.00000000E+00  0.00000000E+00  0.00000000E+00
  0.00000000E+00  0.00000000E+00  0.00000000E+00
  0.00000000E+00  0.00000000E+00  0.00000000E+00
  0.00000000E+00  0.00000000E+00  0.00000000E+00
  0.00000000E+00  0.00000000E+00  0.00000000E+00
  0.00000000E+00  0.00000000E+00  0.00000000E+00
  0.00000000E+00  0.00000000E+00  0.00000000E+00
  0.00000000E+00  0.00000000E+00  0.00000000E+00
  0.00000000E+00  0.00000000E+00  0.00000000E+00
  0.00000000E+00  0.00000000E+00  0.00000000E+00
  0.00000000E+00  0.00000000E+00  0.00000000E+00
  0.00000000E+00  0.00000000E+00  0.00000000E+00
  0.00000000E+00  0.00000000E+00  0.00000000E+00
  0.00000000E+00  0.00000000E+00  0.00000000E+00
  0.00000000E+00  0.00000000E+00  0.00000000E+00
  0.00000000E+00  0.00000000E+00  0.00000000E+00
  0.00000000E+00  0.00000000E+00  0.00000000E+00
  0.00000000E+00  0.00000000E+00  0.00000000E+00
  0.00000000E+00  0.00000000E+00  0.00000000E+00
  0.00000000E+00  0.00000000E+00  0.00000000E+00
  0.00000000E+00  0.00000000E+00  0.00000000E+00
  0.00000000E+00  0.00000000E+00  0.00000000E+00
  0.00000000E+00  0.00000000E+00  0.00000000E+00
  0.00000000E+00  0.00000000E+00  0.00000000E+00
  0.00000000E+00  0.00000000E+00  0.00000000E+00
  0.00000000E+00  0.00000000E+00  0.00000000E+00
  0.00000000E+00  0.00000000E+00  0.00000000E+00
  0.00000000E+00  0.00000000E+00  0.00000000E+00
  0.00000000E+00  0.00000000E+00  0.00000000E+00
  0.00000000E+00  0.00000000E+00  0.00000000E+00
