O V Zn                                  
   1.00000000000000     
     6.5625568183449996    0.0000000000000000    0.0000000000000000
     0.0000000000000000   10.5156600000000005    0.0000000000000000
     0.0000000000000000    0.0000000000000000   32.0500282661819966
   O    V    Zn
    40     1    40
Selective dynamics
Direct
  0.2499987879510002  0.0013222287157519  0.0880584342518568   T   T   T
  0.2499987879510002  0.5008341988842101  0.0874431431265100   T   T   T
  0.7499987879510002  0.0008590938786643  0.0884545111979769   T   T   T
  0.7499987879510002  0.5009160963560710  0.0879402963498031   T   T   T
  0.0002867868147375  0.2475641881753382  0.1188047922575037   T   T   T
  0.0006075261437566  0.7472998076285301  0.1186367639549765   T   T   T
  0.4997101054872631  0.2475641881753382  0.1188047922575037   T   T   T
  0.4993893661582440  0.7472998076285301  0.1186367639549765   T   T   T
  0.0012234661017157  0.4977495816411568  0.1758834003632157   T   T   T
  0.0007502906920259  0.9978517876179657  0.1764801395801441   T   T   T
  0.4987745946202839  0.4977495816411568  0.1758834003632157   T   T   T
  0.4992477700299738  0.9978517876179657  0.1764801395801441   T   T   T
  0.2499986885609999  0.2468165716988218  0.2078730795074981   T   T   T
  0.2499986885609999  0.7465665532073454  0.2077905054287515   T   T   T
  0.7499986885609999  0.2466906335082533  0.2072750346655708   T   T   T
  0.7499986885609999  0.7464554654739645  0.2067872545955176   T   T   T
  0.2499992727709994  0.4984612970968202  0.2657078741029273   T   T   T
  0.2499992727709994  0.9976588050778596  0.2660110933321538   T   T   T
  0.7499992727709994  0.4973271740300395  0.2643180337271004   T   T   T
  0.7499992727709994  0.9981754839579164  0.2653222885057395   T   T   T
  0.9990415756683136  0.2483673866014764  0.2962944682749765   T   T   T
  0.9972682926954892  0.7478586616723514  0.2958298067073326   T   T   T
  0.5009562862736855  0.2483673866014764  0.2962944682749765   T   T   T
  0.5027295692465099  0.7478586616723514  0.2958298067073326   T   T   T
  0.9967739835523907  0.9976841436019085  0.3545289169126477   T   T   T
  0.9917386730655409  0.5004170947262052  0.3539748282715305   T   T   T
  0.5032250468076037  0.9976841436019085  0.3545289169126477   T   T   T
  0.5082603572944535  0.5004170947262052  0.3539748282715305   T   T   T
  0.2499991733809992  0.2508400773005945  0.3835932002814420   T   T   T
  0.2499991733809992  0.7477401701415238  0.3813807472106157   T   T   T
  0.7499991733809992  0.2510813040933845  0.3865877473466247   T   T   T
  0.7499991733809992  0.7506613953575618  0.3887981536508774   T   T   T
  0.2499997575899968  0.0039579372158005  0.4418489500574672   T   T   T
  0.2500001212049980  0.4979318724755278  0.4383818480210366   T   T   T
  0.7499997575899968  0.9947668924874404  0.4448338637149125   T   T   T
  0.7499997575899968  0.5108754381251253  0.4485256236615000   T   T   T
  0.0013179144219540  0.2558064453171609  0.4731477255161926   T   T   T
  0.0135857522184093  0.7593509956474637  0.4780375985353565   T   T   T
  0.4986809171580470  0.2558061745101610  0.4731477255161926   T   T   T
  0.4864127538025915  0.7593507248404637  0.4780360396893549   T   T   T
  0.2500001212049980  0.7329073998971520  0.5099867109423524   T   T   T
  0.2499987879510002  0.3266273458462601  0.0989887751739813   T   T   T
  0.2499987879510002  0.8268114310819505  0.0989387426941257   T   T   T
  0.7499987879510002  0.3265413235713385  0.0992636972466551   T   T   T
  0.7499987879510002  0.8263173151305031  0.0993794448749955   T   T   T
  0.0003109760347251  0.0580870001451968  0.1141887834229250   T   T   T
  0.0006332564823989  0.5578167532411820  0.1136203596976403   T   T   T
  0.4996859162672754  0.0580870001451968  0.1141887834229250   T   T   T
  0.4993636358196016  0.5578167532411820  0.1136203596976403   T   T   T
  0.0007162793305782  0.3088532999788984  0.1794072716678146   T   T   T
  0.0012568887308758  0.8087878451156985  0.1791840556462247   T   T   T
  0.4992817813914214  0.3088532999788984  0.1794072716678146   T   T   T
  0.4987411719911238  0.8087878451156985  0.1791840556462247   T   T   T
  0.2499986885609999  0.0558520810972857  0.2057986266387291   T   T   T
  0.2499986885609999  0.5554484978263695  0.2054476332766782   T   T   T
  0.7499986885609999  0.0559511385993752  0.2051668094247668   T   T   T
  0.7499986885609999  0.5553912652923969  0.2044739505973132   T   T   T
  0.2499992727709994  0.3080926750885593  0.2669137567073539   T   T   T
  0.2499992727709994  0.8073323982963692  0.2668271171038250   T   T   T
  0.7499992727709994  0.3073937241918647  0.2662447281568319   T   T   T
  0.7499992727709994  0.8082171139242940  0.2653696486464975   T   T   T
  0.9989513620777515  0.0584229927556707  0.2944180353940574   T   T   T
  0.9968815444751601  0.5570433321863227  0.2940908412774526   T   T   T
  0.5010464998642477  0.0584229927556707  0.2944180353940574   T   T   T
  0.5031163174668390  0.5570433321863227  0.2940908412774526   T   T   T
  0.9964156515668381  0.3097072669208161  0.3553459123954217   T   T   T
  0.9902175577989393  0.8072862280573324  0.3542750973532448   T   T   T
  0.5035833787931634  0.3097072669208161  0.3553459123954217   T   T   T
  0.5097814725610622  0.8072862280573324  0.3542750973532448   T   T   T
  0.2499991733809992  0.0643871970852306  0.3797233345168972   T   T   T
  0.2499991733809992  0.5557690853088125  0.3798424942842138   T   T   T
  0.7499991733809992  0.0620060485228256  0.3831183187363660   T   T   T
  0.7499991733809992  0.5591872953538742  0.3861607842742614   T   T   T
  0.2500001212049980  0.3095276379183536  0.4447334926062453   T   T   T
  0.2500001212049980  0.8193980080517344  0.4358681667654968   T   T   T
  0.7500003636150012  0.3165148620227510  0.4476874279164218   T   T   T
  0.7499997575899968  0.8053224097821725  0.4489451386339101   T   T   T
  0.9977466579077747  0.0812196804526434  0.4627371311252519   T   T   T
  0.0178134029190026  0.5534930829575969  0.4738530423821699   T   T   T
  0.5022521736722263  0.0812196804526434  0.4627371311252519   T   T   T
  0.4821852395049938  0.5534934765236016  0.4738530423821699   T   T   T
 
  0.00000000E+00  0.00000000E+00  0.00000000E+00
  0.00000000E+00  0.00000000E+00  0.00000000E+00
  0.00000000E+00  0.00000000E+00  0.00000000E+00
  0.00000000E+00  0.00000000E+00  0.00000000E+00
  0.00000000E+00  0.00000000E+00  0.00000000E+00
  0.00000000E+00  0.00000000E+00  0.00000000E+00
  0.00000000E+00  0.00000000E+00  0.00000000E+00
  0.00000000E+00  0.00000000E+00  0.00000000E+00
  0.00000000E+00  0.00000000E+00  0.00000000E+00
  0.00000000E+00  0.00000000E+00  0.00000000E+00
  0.00000000E+00  0.00000000E+00  0.00000000E+00
  0.00000000E+00  0.00000000E+00  0.00000000E+00
  0.00000000E+00  0.00000000E+00  0.00000000E+00
  0.00000000E+00  0.00000000E+00  0.00000000E+00
  0.00000000E+00  0.00000000E+00  0.00000000E+00
  0.00000000E+00  0.00000000E+00  0.00000000E+00
  0.00000000E+00  0.00000000E+00  0.00000000E+00
  0.00000000E+00  0.00000000E+00  0.00000000E+00
  0.00000000E+00  0.00000000E+00  0.00000000E+00
  0.00000000E+00  0.00000000E+00  0.00000000E+00
  0.00000000E+00  0.00000000E+00  0.00000000E+00
  0.00000000E+00  0.00000000E+00  0.00000000E+00
  0.00000000E+00  0.00000000E+00  0.00000000E+00
  0.00000000E+00  0.00000000E+00  0.00000000E+00
  0.00000000E+00  0.00000000E+00  0.00000000E+00
  0.00000000E+00  0.00000000E+00  0.00000000E+00
  0.00000000E+00  0.00000000E+00  0.00000000E+00
  0.00000000E+00  0.00000000E+00  0.00000000E+00
  0.00000000E+00  0.00000000E+00  0.00000000E+00
  0.00000000E+00  0.00000000E+00  0.00000000E+00
  0.00000000E+00  0.00000000E+00  0.00000000E+00
  0.00000000E+00  0.00000000E+00  0.00000000E+00
  0.00000000E+00  0.00000000E+00  0.00000000E+00
  0.00000000E+00  0.00000000E+00  0.00000000E+00
  0.00000000E+00  0.00000000E+00  0.00000000E+00
  0.00000000E+00  0.00000000E+00  0.00000000E+00
  0.00000000E+00  0.00000000E+00  0.00000000E+00
  0.00000000E+00  0.00000000E+00  0.00000000E+00
  0.00000000E+00  0.00000000E+00  0.00000000E+00
  0.00000000E+00  0.00000000E+00  0.00000000E+00
  0.00000000E+00  0.00000000E+00  0.00000000E+00
  0.00000000E+00  0.00000000E+00  0.00000000E+00
  0.00000000E+00  0.00000000E+00  0.00000000E+00
  0.00000000E+00  0.00000000E+00  0.00000000E+00
  0.00000000E+00  0.00000000E+00  0.00000000E+00
  0.00000000E+00  0.00000000E+00  0.00000000E+00
  0.00000000E+00  0.00000000E+00  0.00000000E+00
  0.00000000E+00  0.00000000E+00  0.00000000E+00
  0.00000000E+00  0.00000000E+00  0.00000000E+00
  0.00000000E+00  0.00000000E+00  0.00000000E+00
  0.00000000E+00  0.00000000E+00  0.00000000E+00
  0.00000000E+00  0.00000000E+00  0.00000000E+00
  0.00000000E+00  0.00000000E+00  0.00000000E+00
  0.00000000E+00  0.00000000E+00  0.00000000E+00
  0.00000000E+00  0.00000000E+00  0.00000000E+00
  0.00000000E+00  0.00000000E+00  0.00000000E+00
  0.00000000E+00  0.00000000E+00  0.00000000E+00
  0.00000000E+00  0.00000000E+00  0.00000000E+00
  0.00000000E+00  0.00000000E+00  0.00000000E+00
  0.00000000E+00  0.00000000E+00  0.00000000E+00
  0.00000000E+00  0.00000000E+00  0.00000000E+00
  0.00000000E+00  0.00000000E+00  0.00000000E+00
  0.00000000E+00  0.00000000E+00  0.00000000E+00
  0.00000000E+00  0.00000000E+00  0.00000000E+00
  0.00000000E+00  0.00000000E+00  0.00000000E+00
  0.00000000E+00  0.00000000E+00  0.00000000E+00
  0.00000000E+00  0.00000000E+00  0.00000000E+00
  0.00000000E+00  0.00000000E+00  0.00000000E+00
  0.00000000E+00  0.00000000E+00  0.00000000E+00
  0.00000000E+00  0.00000000E+00  0.00000000E+00
  0.00000000E+00  0.00000000E+00  0.00000000E+00
  0.00000000E+00  0.00000000E+00  0.00000000E+00
  0.00000000E+00  0.00000000E+00  0.00000000E+00
  0.00000000E+00  0.00000000E+00  0.00000000E+00
  0.00000000E+00  0.00000000E+00  0.00000000E+00
  0.00000000E+00  0.00000000E+00  0.00000000E+00
  0.00000000E+00  0.00000000E+00  0.00000000E+00
  0.00000000E+00  0.00000000E+00  0.00000000E+00
  0.00000000E+00  0.00000000E+00  0.00000000E+00
  0.00000000E+00  0.00000000E+00  0.00000000E+00
  0.00000000E+00  0.00000000E+00  0.00000000E+00
