Mn O Zn                                 
   1.00000000000000     
     6.5625568183449996    0.0000000000000000    0.0000000000000000
     0.0000000000000000   10.5156600000000005    0.0000000000000000
     0.0000000000000000    0.0000000000000000   32.0500282661819966
   Mn   O    Zn
     1    40    40
Selective dynamics
Direct
  0.2499993212120017  0.7217074953412831  0.5160332417513045   T   T   T
  0.2499987879510002  0.0016990532105344  0.0884916528966229   T   T   T
  0.2499987879510002  0.5013978913594657  0.0878916754781190   T   T   T
  0.7499987879510002  0.0015189360905010  0.0886626706608415   T   T   T
  0.7499987879510002  0.5015937568807721  0.0881323937060458   T   T   T
  0.0000872804148605  0.2481957830714910  0.1189258824887269   T   T   T
  0.0003088668065286  0.7478830690581909  0.1190824014156016   T   T   T
  0.4999096118871402  0.2481957830714910  0.1189258824887269   T   T   T
  0.4996880254954721  0.7478830690581909  0.1190824014156016   T   T   T
  0.0009989891011253  0.4981166895011890  0.1762381454697489   T   T   T
  0.0007591207838997  0.9980309276542809  0.1766699713823559   T   T   T
  0.4989990716208744  0.4981166895011890  0.1762381454697489   T   T   T
  0.4992389399380999  0.9980309276542809  0.1766699713823559   T   T   T
  0.2499986885609999  0.2469530289583752  0.2079249246592599   T   T   T
  0.2499986885609999  0.7466560900050482  0.2082317074164754   T   T   T
  0.7499986885609999  0.2467915425621604  0.2073498320099837   T   T   T
  0.7499986885609999  0.7464852427393416  0.2072872966575259   T   T   T
  0.2499992727709994  0.4979279318209439  0.2658670117742929   T   T   T
  0.2499992727709994  0.9972041043774040  0.2660876415763175   T   T   T
  0.7499992727709994  0.4971212598822268  0.2647006165680389   T   T   T
  0.7499992727709994  0.9976358569658018  0.2653996372843295   T   T   T
 -0.0009983777130094  0.2475630336371354  0.2963077117200930   T   T   T
  0.9973754284231119  0.7472461728046486  0.2963514411540555   T   T   T
  0.5009962396550086  0.2475630336371354  0.2963077117200930   T   T   T
  0.5026224335188872  0.7472461728046486  0.2963514411540555   T   T   T
 -0.0031549336795345  0.9963651325769681  0.3545082718121650   T   T   T
  0.9931703785266963  0.4981152386833670  0.3541630911907893   T   T   T
  0.5031539640395289  0.9963651325769681  0.3545082718121650   T   T   T
  0.5068286518332981  0.4981152386833670  0.3541630911907893   T   T   T
  0.2499991733809992  0.2486742510162941  0.3838719915023994   T   T   T
  0.2499991733809992  0.7463367195012061  0.3818581646556933   T   T   T
  0.7499991733809992  0.2482179304030255  0.3864932837145487   T   T   T
  0.7499991733809992  0.7489408484969359  0.3890604482456294   T   T   T
  0.2499997575899968  0.9995827108146156  0.4419471008344842   T   T   T
  0.2499997575899968  0.4962007093330467  0.4394936257143267   T   T   T
  0.7499997575899968  0.9924135687226914  0.4448691509518874   T   T   T
  0.7499997575899968  0.5054880544113631  0.4474189485972186   T   T   T
  0.0013917831159702  0.2523308344607380  0.4731273413874010   T   T   T
  0.0182030059290440  0.7523297877664066  0.4767056536201204   T   T   T
  0.4986070484640308  0.2523308344607380  0.4731273413874010   T   T   T
  0.4817955000919569  0.7523295169594066  0.4767040947741188   T   T   T
  0.2499987879510002  0.3270800540141541  0.0992099715260341   T   T   T
  0.2499987879510002  0.8272806658405560  0.0994933331145784   T   T   T
  0.7499987879510002  0.3271916871075806  0.0993184017807286   T   T   T
  0.7499987879510002  0.8270451462902462  0.0996706675393519   T   T   T
  0.0001709955918453  0.0586369788109156  0.1145163608530560   T   T   T
  0.0004031756142763  0.5583891198865604  0.1140537601492237   T   T   T
  0.4998258967101555  0.0586369788109156  0.1145163608530560   T   T   T
  0.4995937166877244  0.5583891198865604  0.1140537601492237   T   T   T
  0.0006257497941739  0.3091685562339049  0.1795834120428435   T   T   T
  0.0010958610079850  0.8090407588931526  0.1797500456587562   T   T   T
  0.4993723109278256  0.3091685562339049  0.1795834120428435   T   T   T
  0.4989021997140146  0.8090407588931526  0.1797500456587562   T   T   T
  0.2499986885609999  0.0559450877391394  0.2060678906886902   T   T   T
  0.2499986885609999  0.5555954850804594  0.2057829640543850   T   T   T
  0.7499986885609999  0.0559420532597745  0.2054298670715832   T   T   T
  0.7499986885609999  0.5555147747414263  0.2049501033438369   T   T   T
  0.2499992727709994  0.3075462502931128  0.2671404991427856   T   T   T
  0.2499992727709994  0.8067093116340878  0.2674906945725601   T   T   T
  0.7499992727709994  0.3071515360026517  0.2664440757437988   T   T   T
  0.7499992727709994  0.8075222863353260  0.2660892264919235   T   T   T
 -0.0011223223697049  0.0575045157101733  0.2947104576932082   T   T   T
 -0.0025626406934551  0.5565909868826242  0.2945052667792302   T   T   T
  0.5011201843117038  0.0575045157101733  0.2947104576932082   T   T   T
  0.5025605026354545  0.5565909868826242  0.2945052667792302   T   T   T
 -0.0035894852726338  0.3072579729264396  0.3556460652984574   T   T   T
  0.9913496997583076  0.8057434067822412  0.3552539091462533   T   T   T
  0.5035885156326351  0.3072579729264396  0.3556460652984574   T   T   T
  0.5086493306016939  0.8057434067822412  0.3552539091462533   T   T   T
  0.2499991733809992  0.0613177594774127  0.3803026420363779   T   T   T
  0.2499991733809992  0.5551431446600013  0.3804544507948657   T   T   T
  0.7499991733809992  0.0589439616029017  0.3834792005920908   T   T   T
  0.7499991733809992  0.5585116342550790  0.3854331225253472   T   T   T
  0.2500001212049980  0.3073697586820127  0.4451890407979337   T   T   T
  0.2500001212049980  0.8128107625365824  0.4380164008827289   T   T   T
  0.7499997575899968  0.3121595802659229  0.4477162765683963   T   T   T
  0.7499997575899968  0.8027369559850450  0.4503732705989247   T   T   T
  0.9989961156231085  0.0777461204069588  0.4624393998845596   T   T   T
  0.0127324528805476  0.5581630360028536  0.4714634914916914   T   T   T
  0.5010027159568925  0.0777461204069588  0.4624393998845596   T   T   T
  0.4872661895434486  0.5581634295688582  0.4714634914916914   T   T   T
 
  0.00000000E+00  0.00000000E+00  0.00000000E+00
  0.00000000E+00  0.00000000E+00  0.00000000E+00
  0.00000000E+00  0.00000000E+00  0.00000000E+00
  0.00000000E+00  0.00000000E+00  0.00000000E+00
  0.00000000E+00  0.00000000E+00  0.00000000E+00
  0.00000000E+00  0.00000000E+00  0.00000000E+00
  0.00000000E+00  0.00000000E+00  0.00000000E+00
  0.00000000E+00  0.00000000E+00  0.00000000E+00
  0.00000000E+00  0.00000000E+00  0.00000000E+00
  0.00000000E+00  0.00000000E+00  0.00000000E+00
  0.00000000E+00  0.00000000E+00  0.00000000E+00
  0.00000000E+00  0.00000000E+00  0.00000000E+00
  0.00000000E+00  0.00000000E+00  0.00000000E+00
  0.00000000E+00  0.00000000E+00  0.00000000E+00
  0.00000000E+00  0.00000000E+00  0.00000000E+00
  0.00000000E+00  0.00000000E+00  0.00000000E+00
  0.00000000E+00  0.00000000E+00  0.00000000E+00
  0.00000000E+00  0.00000000E+00  0.00000000E+00
  0.00000000E+00  0.00000000E+00  0.00000000E+00
  0.00000000E+00  0.00000000E+00  0.00000000E+00
  0.00000000E+00  0.00000000E+00  0.00000000E+00
  0.00000000E+00  0.00000000E+00  0.00000000E+00
  0.00000000E+00  0.00000000E+00  0.00000000E+00
  0.00000000E+00  0.00000000E+00  0.00000000E+00
  0.00000000E+00  0.00000000E+00  0.00000000E+00
  0.00000000E+00  0.00000000E+00  0.00000000E+00
  0.00000000E+00  0.00000000E+00  0.00000000E+00
  0.00000000E+00  0.00000000E+00  0.00000000E+00
  0.00000000E+00  0.00000000E+00  0.00000000E+00
  0.00000000E+00  0.00000000E+00  0.00000000E+00
  0.00000000E+00  0.00000000E+00  0.00000000E+00
  0.00000000E+00  0.00000000E+00  0.00000000E+00
  0.00000000E+00  0.00000000E+00  0.00000000E+00
  0.00000000E+00  0.00000000E+00  0.00000000E+00
  0.00000000E+00  0.00000000E+00  0.00000000E+00
  0.00000000E+00  0.00000000E+00  0.00000000E+00
  0.00000000E+00  0.00000000E+00  0.00000000E+00
  0.00000000E+00  0.00000000E+00  0.00000000E+00
  0.00000000E+00  0.00000000E+00  0.00000000E+00
  0.00000000E+00  0.00000000E+00  0.00000000E+00
  0.00000000E+00  0.00000000E+00  0.00000000E+00
  0.00000000E+00  0.00000000E+00  0.00000000E+00
  0.00000000E+00  0.00000000E+00  0.00000000E+00
  0.00000000E+00  0.00000000E+00  0.00000000E+00
  0.00000000E+00  0.00000000E+00  0.00000000E+00
  0.00000000E+00  0.00000000E+00  0.00000000E+00
  0.00000000E+00  0.00000000E+00  0.00000000E+00
  0.00000000E+00  0.00000000E+00  0.00000000E+00
  0.00000000E+00  0.00000000E+00  0.00000000E+00
  0.00000000E+00  0.00000000E+00  0.00000000E+00
  0.00000000E+00  0.00000000E+00  0.00000000E+00
  0.00000000E+00  0.00000000E+00  0.00000000E+00
  0.00000000E+00  0.00000000E+00  0.00000000E+00
  0.00000000E+00  0.00000000E+00  0.00000000E+00
  0.00000000E+00  0.00000000E+00  0.00000000E+00
  0.00000000E+00  0.00000000E+00  0.00000000E+00
  0.00000000E+00  0.00000000E+00  0.00000000E+00
  0.00000000E+00  0.00000000E+00  0.00000000E+00
  0.00000000E+00  0.00000000E+00  0.00000000E+00
  0.00000000E+00  0.00000000E+00  0.00000000E+00
  0.00000000E+00  0.00000000E+00  0.00000000E+00
  0.00000000E+00  0.00000000E+00  0.00000000E+00
  0.00000000E+00  0.00000000E+00  0.00000000E+00
  0.00000000E+00  0.00000000E+00  0.00000000E+00
  0.00000000E+00  0.00000000E+00  0.00000000E+00
  0.00000000E+00  0.00000000E+00  0.00000000E+00
  0.00000000E+00  0.00000000E+00  0.00000000E+00
  0.00000000E+00  0.00000000E+00  0.00000000E+00
  0.00000000E+00  0.00000000E+00  0.00000000E+00
  0.00000000E+00  0.00000000E+00  0.00000000E+00
  0.00000000E+00  0.00000000E+00  0.00000000E+00
  0.00000000E+00  0.00000000E+00  0.00000000E+00
  0.00000000E+00  0.00000000E+00  0.00000000E+00
  0.00000000E+00  0.00000000E+00  0.00000000E+00
  0.00000000E+00  0.00000000E+00  0.00000000E+00
  0.00000000E+00  0.00000000E+00  0.00000000E+00
  0.00000000E+00  0.00000000E+00  0.00000000E+00
  0.00000000E+00  0.00000000E+00  0.00000000E+00
  0.00000000E+00  0.00000000E+00  0.00000000E+00
  0.00000000E+00  0.00000000E+00  0.00000000E+00
  0.00000000E+00  0.00000000E+00  0.00000000E+00
