O Ru Zn                                 
   1.00000000000000     
     6.5625568183449996    0.0000000000000000    0.0000000000000000
     0.0000000000000000   10.5156600000000005    0.0000000000000000
     0.0000000000000000    0.0000000000000000   32.0500282661819966
   O    Ru   Zn
    40     1    40
Selective dynamics
Direct
  0.2500330773996043  0.0016604653170469  0.0883458032443705   T   T   T
  0.2500577032594204  0.5015681948141543  0.0882982059194928   T   T   T
  0.7499639559536772  0.0016604665260283  0.0883457996606487   T   T   T
  0.7499393335215404  0.5015681884267019  0.0882982021573324   T   T   T
  0.9999987061090536  0.2480952370541966  0.1189915331108055   T   T   T
  0.9999987076245489  0.7480897368451920  0.1190419049454894   T   T   T
  0.4999987089321039  0.2481297050077677  0.1189727834330794   T   T   T
  0.4999987025532349  0.7481136127428670  0.1190644010962691   T   T   T
  0.9999988463261005  0.4985555600167618  0.1765292740913718   T   T   T
  0.9999988503076196  0.9983289786782245  0.1764624953120623   T   T   T
  0.4999988522910286  0.4986629927145586  0.1765917259323589   T   T   T
  0.4999988567475384  0.9982982162614222  0.1764865411244670   T   T   T
  0.2500453462648050  0.2473483802455635  0.2077138811592389   T   T   T
  0.2499183482193768  0.7474298186947019  0.2079864322191770   T   T   T
  0.7499524417151946  0.2473483847727439  0.2077138802473994   T   T   T
  0.7500794334701668  0.7474298250825380  0.2079864302759776   T   T   T
  0.2497402868066353  0.4988172805450228  0.2657673386805463   T   T   T
  0.2499477502519348  0.9983976170007104  0.2654865958837805   T   T   T
  0.7502578934717044  0.4988172828365657  0.2657673391412409   T   T   T
  0.7500504320826940  0.9983976192561578  0.2654865991610167   T   T   T
  0.9999990964473824  0.2490311971841555  0.2962132893993233   T   T   T
  0.9999991066075467  0.7488092683489657  0.2968703165210855   T   T   T
  0.4999990965987422  0.2489789844330887  0.2961954723623432   T   T   T
  0.4999991325749349  0.7488175900320001  0.2966719207013851   T   T   T
  0.9999992923134684  0.9966608164257361  0.3538296527510640   T   T   T
  0.9999992860868261  0.5018073607051270  0.3549479604313400   T   T   T
  0.4999993809337155  0.4996430589998633  0.3543928292365467   T   T   T
  0.4999993098050197  0.9985800610716202  0.3539233117804740   T   T   T
  0.2489957115622481  0.2496975185080900  0.3845343277137499   T   T   T
  0.2522433028854752  0.7503406714974832  0.3866138498873912   T   T   T
  0.7510029684950045  0.2496975758683221  0.3845343364616252   T   T   T
  0.7477552915878073  0.7503406091290616  0.3866138936736423   T   T   T
  0.2490838504165233  0.0009487541486895  0.4422597487733427   T   T   T
  0.2489989788806798  0.4979426518822302  0.4432735595021168   T   T   T
  0.7509147949494539  0.0009490556436749  0.4422597763962245   T   T   T
  0.7510008623332552  0.4979422105865831  0.4432736793315965   T   T   T
  0.9999995722298038  0.2523219215661249  0.4746064967840594   T   T   T
  0.9999990057291441  0.7512574195935474  0.4751417816796092   T   T   T
  0.5000001740014142  0.2560499179056947  0.4724402170299147   T   T   T
  0.4999981928654975  0.8020929538267549  0.4794702989884357   T   T   T
  0.5000016796023914  0.7011161102612371  0.5263836815023858   T   T   T
  0.2499615729483334  0.3271514514673595  0.0994424844295247   T   T   T
  0.2500086598144773  0.8272409333283229  0.0994935767548778   T   T   T
  0.7500352800746092  0.3271514470006747  0.0994424842768788   T   T   T
  0.7499881956522843  0.8272409331238145  0.0994935760349772   T   T   T
  0.9999985306758958  0.0585317374144889  0.1143210452362940   T   T   T
  0.9999985369205149  0.5584931414540436  0.1142843758639215   T   T   T
  0.4999985266918898  0.0585315097239026  0.1143650437091758   T   T   T
  0.4999985269249834  0.5584974484673583  0.1143453732229983   T   T   T
  0.9999987091314964  0.3095167798937347  0.1796775644743071   T   T   T
  0.9999987199252161  0.8093015979261041  0.1797648780439822   T   T   T
  0.4999987186019297  0.3095972244772426  0.1796517606184229   T   T   T
  0.4999987066188964  0.8092626753139215  0.1798036338788278   T   T   T
  0.2499757882932531  0.0563032476724708  0.2055583615173642   T   T   T
  0.2498494963162035  0.5562821482383633  0.2058104420471202   T   T   T
  0.7500216626363734  0.0563032595116049  0.2055583757592910   T   T   T
  0.7501479211474642  0.5562821399941988  0.2058104515719811   T   T   T
  0.2500331705371956  0.3085994976807169  0.2668031519770753   T   T   T
  0.2497412351475382  0.8082883778129901  0.2670978919240565   T   T   T
  0.7499648741326632  0.3085994928202990  0.2668031603512904   T   T   T
  0.7502584115297078  0.8082879831460563  0.2670975733385216   T   T   T
  0.9999989605694992  0.0587908459110516  0.2944118692557305   T   T   T
  0.9999989817978943  0.5582957797654862  0.2951516109771619   T   T   T
  0.4999989567192671  0.0589093012101848  0.2943157424791601   T   T   T
  0.4999989789661328  0.5583273348548007  0.2948631721159528   T   T   T
  0.9999992923556249  0.3110064784259329  0.3552763215094999   T   T   T
  0.9999993598322519  0.8058602035540342  0.3561461371891212   T   T   T
  0.4999992448893238  0.3088411452006481  0.3555244208594315   T   T   T
  0.4999992409284388  0.8082534371553488  0.3556999711453598   T   T   T
  0.2491649226961662  0.0610728569647633  0.3812170144630607   T   T   T
  0.2530119806714066  0.5595362804992653  0.3838853478306441   T   T   T
  0.7508366550406587  0.0610713736977004  0.3812168374266343   T   T   T
  0.7469865247366655  0.5595363309378235  0.3838852754503415   T   T   T
  0.2443595821550836  0.3076511965715179  0.4456699447601786   T   T   T
  0.2398155484050616  0.8108287439853713  0.4459476373908356   T   T   T
  0.7556387141150375  0.3076511171800769  0.4456699780840716   T   T   T
  0.7601832753089329  0.8108290243532496  0.4459476812386766   T   T   T
  0.9999995024656769  0.0786347835263280  0.4624808714595368   T   T   T
  0.0000001361145010  0.5738668997071633  0.4657502914857500   T   T   T
  0.4999996289002908  0.0789684423570171  0.4625231927235709   T   T   T
  0.4999964233119059  0.5254553927665540  0.4768029667665298   T   T   T
 
  0.00000000E+00  0.00000000E+00  0.00000000E+00
  0.00000000E+00  0.00000000E+00  0.00000000E+00
  0.00000000E+00  0.00000000E+00  0.00000000E+00
  0.00000000E+00  0.00000000E+00  0.00000000E+00
  0.00000000E+00  0.00000000E+00  0.00000000E+00
  0.00000000E+00  0.00000000E+00  0.00000000E+00
  0.00000000E+00  0.00000000E+00  0.00000000E+00
  0.00000000E+00  0.00000000E+00  0.00000000E+00
  0.00000000E+00  0.00000000E+00  0.00000000E+00
  0.00000000E+00  0.00000000E+00  0.00000000E+00
  0.00000000E+00  0.00000000E+00  0.00000000E+00
  0.00000000E+00  0.00000000E+00  0.00000000E+00
  0.00000000E+00  0.00000000E+00  0.00000000E+00
  0.00000000E+00  0.00000000E+00  0.00000000E+00
  0.00000000E+00  0.00000000E+00  0.00000000E+00
  0.00000000E+00  0.00000000E+00  0.00000000E+00
  0.00000000E+00  0.00000000E+00  0.00000000E+00
  0.00000000E+00  0.00000000E+00  0.00000000E+00
  0.00000000E+00  0.00000000E+00  0.00000000E+00
  0.00000000E+00  0.00000000E+00  0.00000000E+00
  0.00000000E+00  0.00000000E+00  0.00000000E+00
  0.00000000E+00  0.00000000E+00  0.00000000E+00
  0.00000000E+00  0.00000000E+00  0.00000000E+00
  0.00000000E+00  0.00000000E+00  0.00000000E+00
  0.00000000E+00  0.00000000E+00  0.00000000E+00
  0.00000000E+00  0.00000000E+00  0.00000000E+00
  0.00000000E+00  0.00000000E+00  0.00000000E+00
  0.00000000E+00  0.00000000E+00  0.00000000E+00
  0.00000000E+00  0.00000000E+00  0.00000000E+00
  0.00000000E+00  0.00000000E+00  0.00000000E+00
  0.00000000E+00  0.00000000E+00  0.00000000E+00
  0.00000000E+00  0.00000000E+00  0.00000000E+00
  0.00000000E+00  0.00000000E+00  0.00000000E+00
  0.00000000E+00  0.00000000E+00  0.00000000E+00
  0.00000000E+00  0.00000000E+00  0.00000000E+00
  0.00000000E+00  0.00000000E+00  0.00000000E+00
  0.00000000E+00  0.00000000E+00  0.00000000E+00
  0.00000000E+00  0.00000000E+00  0.00000000E+00
  0.00000000E+00  0.00000000E+00  0.00000000E+00
  0.00000000E+00  0.00000000E+00  0.00000000E+00
  0.00000000E+00  0.00000000E+00  0.00000000E+00
  0.00000000E+00  0.00000000E+00  0.00000000E+00
  0.00000000E+00  0.00000000E+00  0.00000000E+00
  0.00000000E+00  0.00000000E+00  0.00000000E+00
  0.00000000E+00  0.00000000E+00  0.00000000E+00
  0.00000000E+00  0.00000000E+00  0.00000000E+00
  0.00000000E+00  0.00000000E+00  0.00000000E+00
  0.00000000E+00  0.00000000E+00  0.00000000E+00
  0.00000000E+00  0.00000000E+00  0.00000000E+00
  0.00000000E+00  0.00000000E+00  0.00000000E+00
  0.00000000E+00  0.00000000E+00  0.00000000E+00
  0.00000000E+00  0.00000000E+00  0.00000000E+00
  0.00000000E+00  0.00000000E+00  0.00000000E+00
  0.00000000E+00  0.00000000E+00  0.00000000E+00
  0.00000000E+00  0.00000000E+00  0.00000000E+00
  0.00000000E+00  0.00000000E+00  0.00000000E+00
  0.00000000E+00  0.00000000E+00  0.00000000E+00
  0.00000000E+00  0.00000000E+00  0.00000000E+00
  0.00000000E+00  0.00000000E+00  0.00000000E+00
  0.00000000E+00  0.00000000E+00  0.00000000E+00
  0.00000000E+00  0.00000000E+00  0.00000000E+00
  0.00000000E+00  0.00000000E+00  0.00000000E+00
  0.00000000E+00  0.00000000E+00  0.00000000E+00
  0.00000000E+00  0.00000000E+00  0.00000000E+00
  0.00000000E+00  0.00000000E+00  0.00000000E+00
  0.00000000E+00  0.00000000E+00  0.00000000E+00
  0.00000000E+00  0.00000000E+00  0.00000000E+00
  0.00000000E+00  0.00000000E+00  0.00000000E+00
  0.00000000E+00  0.00000000E+00  0.00000000E+00
  0.00000000E+00  0.00000000E+00  0.00000000E+00
  0.00000000E+00  0.00000000E+00  0.00000000E+00
  0.00000000E+00  0.00000000E+00  0.00000000E+00
  0.00000000E+00  0.00000000E+00  0.00000000E+00
  0.00000000E+00  0.00000000E+00  0.00000000E+00
  0.00000000E+00  0.00000000E+00  0.00000000E+00
  0.00000000E+00  0.00000000E+00  0.00000000E+00
  0.00000000E+00  0.00000000E+00  0.00000000E+00
  0.00000000E+00  0.00000000E+00  0.00000000E+00
  0.00000000E+00  0.00000000E+00  0.00000000E+00
  0.00000000E+00  0.00000000E+00  0.00000000E+00
  0.00000000E+00  0.00000000E+00  0.00000000E+00
