Cu O Zn                                 
   1.00000000000000     
     6.5625568183449996    0.0000000000000000    0.0000000000000000
     0.0000000000000000   10.5156600000000005    0.0000000000000000
     0.0000000000000000    0.0000000000000000   32.0500282661819966
   Cu   O    Zn
     1    40    40
Selective dynamics
Direct
  0.2499993212120017  0.2534952700684219  0.5127560968221812   T   T   T
  0.2499987879510002  0.0009954242024972  0.0876391118850733   T   T   T
  0.2499987879510002  0.5010634551259918  0.0877129815970820   T   T   T
  0.7499987879510002  0.0007424986711731  0.0882224855653630   T   T   T
  0.7499987879510002  0.5007343591860213  0.0882824574303225   T   T   T
  0.0006335075750084  0.2473667110978231  0.1187221066359560   T   T   T
  0.0005216404549069  0.7473684069494952  0.1187309891339070   T   T   T
  0.4993633847269922  0.2473667110978231  0.1187221066359560   T   T   T
  0.4994752518470937  0.7473684069494952  0.1187309891339070   T   T   T
  0.0007593175283251  0.4978324917477485  0.1763628849542289   T   T   T
  0.0008925384101211  0.9977408664085895  0.1762298427467712   T   T   T
  0.4992387431936744  0.4978324917477485  0.1763628849542289   T   T   T
  0.4991055223118787  0.9977408664085895  0.1762298427467712   T   T   T
  0.2499986885609999  0.2469541831976292  0.2082415381955068   T   T   T
  0.2499986885609999  0.7467997618984908  0.2079931877647944   T   T   T
  0.7499986885609999  0.2467060210240168  0.2073135743942981   T   T   T
  0.7499986885609999  0.7467820434499420  0.2074868400517421   T   T   T
  0.2499992727709994  0.4981964805530700  0.2660806234486483   T   T   T
  0.2499992727709994  0.9985527167811525  0.2658997802276016   T   T   T
  0.7499992727709994  0.4984705614941932  0.2654606094981151   T   T   T
  0.7499992727709994  0.9980991275127553  0.2651501030155204   T   T   T
  0.9977887378157794  0.2488224519329414  0.2966942535421578   T   T   T
  0.9993490654757874  0.7487116847815823  0.2966420417177624   T   T   T
  0.5022091241262198  0.2488224519329414  0.2966942535421578   T   T   T
  0.5006487964662117  0.7487116847815823  0.2966420417177624   T   T   T
  0.9966435124287313 -0.0001415641882414  0.3542732555726226   T   T   T
  0.9988591609316410  0.4991736341616946  0.3547401730250593   T   T   T
  0.5033555179312631 -0.0001415641882414  0.3542732555726226   T   T   T
  0.5011398694283534  0.4991736341616946  0.3547401730250593   T   T   T
  0.2499991733809992  0.2485033116171159  0.3834513124327946   T   T   T
  0.2499991733809992  0.7534884673555994  0.3855600094934770   T   T   T
  0.7499991733809992  0.2525395897641717  0.3890540026910423   T   T   T
  0.7499991733809992  0.7510013729056503  0.3863462567465373   T   T   T
  0.2499997575899968  0.0036594652470063  0.4425845721886207   T   T   T
  0.2499997575899968  0.5033381108100157  0.4428302015234383   T   T   T
  0.7499997575899968  0.0042231565763870  0.4444060732836122   T   T   T
  0.7499997575899968  0.5012330085414771  0.4447237139074530   T   T   T
  0.0053865080888147  0.2553541007760987  0.4778246100386049   T   T   T
  0.0008291416742450  0.7579127557269654  0.4743788763080974   T   T   T
  0.4946123234911862  0.2553538299690988  0.4778246100386049   T   T   T
  0.4991693643467559  0.7579124849199654  0.4743773174620958   T   T   T
  0.2499987879510002  0.3265946319770519  0.0987990952762621   T   T   T
  0.2499987879510002  0.8266016219578123  0.0988392356667385   T   T   T
  0.7499987879510002  0.3261997455975075  0.0993158474793070   T   T   T
  0.7499987879510002  0.8262419306126163  0.0992910101584648   T   T   T
  0.0005802458611172  0.0577394899975607  0.1139425551037138   T   T   T
  0.0005455543877623  0.5577710480190454  0.1140247819959326   T   T   T
  0.4994166464408833  0.0577394899975607  0.1139425551037138   T   T   T
  0.4994513379142383  0.5577710480190454  0.1140247819959326   T   T   T
  0.0011912866302620  0.3086385728474517  0.1794036064198771   T   T   T
  0.0007535819091319  0.8085659544419940  0.1794453159448276   T   T   T
  0.4988067740917376  0.3086385728474517  0.1794036064198771   T   T   T
  0.4992444788128677  0.8085659544419940  0.1794453159448276   T   T   T
  0.2499986885609999  0.0556546553578048  0.2057600849873434   T   T   T
  0.2499986885609999  0.5555797621805921  0.2059089122692959   T   T   T
  0.7499986885609999  0.0553853975299529  0.2050921355059720   T   T   T
  0.7499986885609999  0.5556625301871757  0.2052649903288942   T   T   T
  0.2499992727709994  0.3079783512389533  0.2674194884317058   T   T   T
  0.2499992727709994  0.8080634595876711  0.2671159758694543   T   T   T
  0.7499992727709994  0.3083542251535688  0.2661228561191978   T   T   T
  0.7499992727709994  0.8077798491959005  0.2665655259465237   T   T   T
  0.9986000668493941  0.0582801195215315  0.2943755032136252   T   T   T
  0.9990273515935369  0.5585368454494818  0.2946762764578755   T   T   T
  0.5013977950926051  0.0582801195215315  0.2943755032136252   T   T   T
  0.5009705103484622  0.5585368454494818  0.2946762764578755   T   T   T
  0.9930032788938247  0.3087744759373038  0.3554369620976548   T   T   T
  0.9977946022226842  0.8087080211334837  0.3558039398140182   T   T   T
  0.5069957514661768  0.3087744759373038  0.3554369620976548   T   T   T
  0.5022044281373172  0.8087080211334837  0.3558039398140182   T   T   T
  0.2499991733809992  0.0577102109043753  0.3810511764910602   T   T   T
  0.2499991733809992  0.5658398393454985  0.3809503584719675   T   T   T
  0.7499991733809992  0.0626336325145362  0.3829105545156692   T   T   T
  0.7499991733809992  0.5621632126331515  0.3828611202720812   T   T   T
  0.2500001212049980  0.3174056767357812  0.4393594936755030   T   T   T
  0.2500001212049980  0.8125661157738407  0.4469949885366539   T   T   T
  0.7499997575899968  0.3141949613485572  0.4498458608018825   T   T   T
  0.7499997575899968  0.8125034802675178  0.4476692466161056   T   T   T
  0.0013353054621199  0.0754402555625160  0.4648032886223574   T   T   T
  0.0004074026836327  0.5835706203370982  0.4632064476827694   T   T   T
  0.4986635261178812  0.0754402555625160  0.4648032886223574   T   T   T
  0.4995912397403637  0.5835710139031028  0.4632064476827694   T   T   T
 
  0.00000000E+00  0.00000000E+00  0.00000000E+00
  0.00000000E+00  0.00000000E+00  0.00000000E+00
  0.00000000E+00  0.00000000E+00  0.00000000E+00
  0.00000000E+00  0.00000000E+00  0.00000000E+00
  0.00000000E+00  0.00000000E+00  0.00000000E+00
  0.00000000E+00  0.00000000E+00  0.00000000E+00
  0.00000000E+00  0.00000000E+00  0.00000000E+00
  0.00000000E+00  0.00000000E+00  0.00000000E+00
  0.00000000E+00  0.00000000E+00  0.00000000E+00
  0.00000000E+00  0.00000000E+00  0.00000000E+00
  0.00000000E+00  0.00000000E+00  0.00000000E+00
  0.00000000E+00  0.00000000E+00  0.00000000E+00
  0.00000000E+00  0.00000000E+00  0.00000000E+00
  0.00000000E+00  0.00000000E+00  0.00000000E+00
  0.00000000E+00  0.00000000E+00  0.00000000E+00
  0.00000000E+00  0.00000000E+00  0.00000000E+00
  0.00000000E+00  0.00000000E+00  0.00000000E+00
  0.00000000E+00  0.00000000E+00  0.00000000E+00
  0.00000000E+00  0.00000000E+00  0.00000000E+00
  0.00000000E+00  0.00000000E+00  0.00000000E+00
  0.00000000E+00  0.00000000E+00  0.00000000E+00
  0.00000000E+00  0.00000000E+00  0.00000000E+00
  0.00000000E+00  0.00000000E+00  0.00000000E+00
  0.00000000E+00  0.00000000E+00  0.00000000E+00
  0.00000000E+00  0.00000000E+00  0.00000000E+00
  0.00000000E+00  0.00000000E+00  0.00000000E+00
  0.00000000E+00  0.00000000E+00  0.00000000E+00
  0.00000000E+00  0.00000000E+00  0.00000000E+00
  0.00000000E+00  0.00000000E+00  0.00000000E+00
  0.00000000E+00  0.00000000E+00  0.00000000E+00
  0.00000000E+00  0.00000000E+00  0.00000000E+00
  0.00000000E+00  0.00000000E+00  0.00000000E+00
  0.00000000E+00  0.00000000E+00  0.00000000E+00
  0.00000000E+00  0.00000000E+00  0.00000000E+00
  0.00000000E+00  0.00000000E+00  0.00000000E+00
  0.00000000E+00  0.00000000E+00  0.00000000E+00
  0.00000000E+00  0.00000000E+00  0.00000000E+00
  0.00000000E+00  0.00000000E+00  0.00000000E+00
  0.00000000E+00  0.00000000E+00  0.00000000E+00
  0.00000000E+00  0.00000000E+00  0.00000000E+00
  0.00000000E+00  0.00000000E+00  0.00000000E+00
  0.00000000E+00  0.00000000E+00  0.00000000E+00
  0.00000000E+00  0.00000000E+00  0.00000000E+00
  0.00000000E+00  0.00000000E+00  0.00000000E+00
  0.00000000E+00  0.00000000E+00  0.00000000E+00
  0.00000000E+00  0.00000000E+00  0.00000000E+00
  0.00000000E+00  0.00000000E+00  0.00000000E+00
  0.00000000E+00  0.00000000E+00  0.00000000E+00
  0.00000000E+00  0.00000000E+00  0.00000000E+00
  0.00000000E+00  0.00000000E+00  0.00000000E+00
  0.00000000E+00  0.00000000E+00  0.00000000E+00
  0.00000000E+00  0.00000000E+00  0.00000000E+00
  0.00000000E+00  0.00000000E+00  0.00000000E+00
  0.00000000E+00  0.00000000E+00  0.00000000E+00
  0.00000000E+00  0.00000000E+00  0.00000000E+00
  0.00000000E+00  0.00000000E+00  0.00000000E+00
  0.00000000E+00  0.00000000E+00  0.00000000E+00
  0.00000000E+00  0.00000000E+00  0.00000000E+00
  0.00000000E+00  0.00000000E+00  0.00000000E+00
  0.00000000E+00  0.00000000E+00  0.00000000E+00
  0.00000000E+00  0.00000000E+00  0.00000000E+00
  0.00000000E+00  0.00000000E+00  0.00000000E+00
  0.00000000E+00  0.00000000E+00  0.00000000E+00
  0.00000000E+00  0.00000000E+00  0.00000000E+00
  0.00000000E+00  0.00000000E+00  0.00000000E+00
  0.00000000E+00  0.00000000E+00  0.00000000E+00
  0.00000000E+00  0.00000000E+00  0.00000000E+00
  0.00000000E+00  0.00000000E+00  0.00000000E+00
  0.00000000E+00  0.00000000E+00  0.00000000E+00
  0.00000000E+00  0.00000000E+00  0.00000000E+00
  0.00000000E+00  0.00000000E+00  0.00000000E+00
  0.00000000E+00  0.00000000E+00  0.00000000E+00
  0.00000000E+00  0.00000000E+00  0.00000000E+00
  0.00000000E+00  0.00000000E+00  0.00000000E+00
  0.00000000E+00  0.00000000E+00  0.00000000E+00
  0.00000000E+00  0.00000000E+00  0.00000000E+00
  0.00000000E+00  0.00000000E+00  0.00000000E+00
  0.00000000E+00  0.00000000E+00  0.00000000E+00
  0.00000000E+00  0.00000000E+00  0.00000000E+00
  0.00000000E+00  0.00000000E+00  0.00000000E+00
  0.00000000E+00  0.00000000E+00  0.00000000E+00
