Mg Na O Mn                              
   1.00000000000000     
    16.8282433949600012    0.0000000000000000    0.0000000000000000
     0.0000000000000000    8.4141216974800006    0.0000000000000000
     0.0000000000000000    0.0000000000000000   23.4141216974799988
   Mg   Na   O    Mn
    62     2    64     1
Selective dynamics
Direct
  0.1239307932124238  0.0003175516146481  0.0043789035652980   T   T   T
  0.6260692067875763  0.0003175516146481  0.0043789035652980   T   T   T
  0.1239880895544606  0.5014980058736797  0.0043993342073243   T   T   T
  0.6260119104455395  0.5014980058736797  0.0043993342073243   T   T   T
  0.3750000000000000  0.9997036689261168  0.0028825859553928   T   T   T
  0.8750000000000000  0.0009667396738985  0.0051742293557216   T   T   T
  0.3750000000000000  0.5008784774253624  0.0028165353248541   T   T   T
  0.8750000000000000  0.5010810295525907  0.0051710953124704   T   T   T
  0.9991367447579886  0.2509902918705933  0.0046857277893920   T   T   T
  0.5009375374439534  0.2506550970445930  0.0025579958466204   T   T   T
  0.9995026651424457  0.7510056870117030  0.0051321978024289   T   T   T
  0.5008915342928786  0.7506666203495264  0.0036318198814147   T   T   T
  0.2490624625560465  0.2506550970445930  0.0025579958466204   T   T   T
  0.7508632552420114  0.2509902918705933  0.0046857277893920   T   T   T
  0.2491084657071213  0.7506666203495264  0.0036318198814147   T   T   T
  0.7504973348575543  0.7510056870117030  0.0051321978024289   T   T   T
  0.0000517692006852  0.0018136102497461  0.0949545142960707   T   T   T
  0.5011267715684790  0.9996495715980505  0.0923311801649888   T   T   T
 -0.0000194911537420  0.5005392694206076  0.0949163154040118   T   T   T
  0.5008337392438004  0.5017814397105502  0.0922655816829788   T   T   T
  0.2488732284315212  0.9996495715980505  0.0923311801649888   T   T   T
  0.7499482307993147  0.0018136102497461  0.0949545142960707   T   T   T
  0.2491662607561996  0.5017814397105502  0.0922655816829788   T   T   T
  0.7500194911537419  0.5005392694206076  0.0949163154040118   T   T   T
  0.1232153973006251  0.2510302579325163  0.0931406650567275   T   T   T
  0.6267846026993749  0.2510302579325163  0.0931406650567275   T   T   T
  0.1242222529714561  0.7510154579653866  0.0948048843760115   T   T   T
  0.6257777470285438  0.7510154579653866  0.0948048843760115   T   T   T
  0.3750000000000000  0.2502796893016563  0.0904359072422240   T   T   T
  0.8750000000000000  0.2512146392845371  0.0951925906183958   T   T   T
  0.3750000000000000  0.7488541451505119  0.0924171309579362   T   T   T
  0.8750000000000000  0.7512405069896220  0.0946888084730836   T   T   T
  0.1247375591958555  0.0065566938360404  0.1873600260950452   T   T   T
  0.6252624408041445  0.0065566938360404  0.1873600260950452   T   T   T
  0.1241933096899606  0.4961985321936010  0.1873494936191131   T   T   T
  0.6258066903100394  0.4961985321936010  0.1873494936191131   T   T   T
  0.3750000000000000  0.9916068871029763  0.1808325255255730   T   T   T
  0.8750000000000000  0.0027424501789323  0.1854519393730295   T   T   T
  0.3750000000000000  0.5009202944601064  0.1824148504448813   T   T   T
  0.8750000000000000  0.5002905403064961  0.1853977778708729   T   T   T
  0.0020543242048490  0.2514110778084616  0.1874984734499921   T   T   T
  0.5036532837778465  0.2515510838889688  0.1772316262941912   T   T   T
  0.9999594521812221  0.7515587673911354  0.1852636532241762   T   T   T
  0.5014466128140528  0.7495805046361348  0.1847678911106052   T   T   T
  0.2463467162221532  0.2515510838889688  0.1772316262941912   T   T   T
  0.7479456757951510  0.2514110778084616  0.1874984734499921   T   T   T
  0.2485533871859472  0.7495805046361348  0.1847678911106052   T   T   T
  0.7500405478187779  0.7515587673911354  0.1852636532241762   T   T   T
  0.9997981761106552  0.0045743923717940  0.2746938537758422   T   T   T
  0.5021011150641904  0.9881755339421818  0.2765465439810352   T   T   T
  0.9997371613579801  0.4991810844745694  0.2746301687578429   T   T   T
  0.5039748967891596  0.5084769116678816  0.2761742548136635   T   T   T
  0.2478988849358096  0.9881755339421818  0.2765465439810352   T   T   T
  0.7502018238893448  0.0045743923717940  0.2746938537758422   T   T   T
  0.2460251032108404  0.5084769116678816  0.2761742548136635   T   T   T
  0.7502628386420199  0.4991810844745694  0.2746301687578429   T   T   T
  0.1221371895643029  0.7515632732685579  0.2744196648314527   T   T   T
  0.6278628104356970  0.7515632732685579  0.2744196648314527   T   T   T
  0.3750000000000000  0.2139332383869355  0.2627468396399747   T   T   T
  0.8750000000000000  0.2516428982061505  0.2747216746883350   T   T   T
  0.3750000000000000  0.7544960376600801  0.2723340430014915   T   T   T
  0.8750000000000000  0.7520438684257608  0.2738490153294432   T   T   T
  0.1253234575168351  0.2524110728126526  0.3019757286640125   T   T   T
  0.6246765424831648  0.2524110728126526  0.3019757286640125   T   T   T
  0.0000462949213537  0.0008196072012699  0.0025663806195201   T   T   T
  0.4998827822848531  0.9998909243392088  0.0014526690971929   T   T   T
  0.0000913942493366  0.5012311262974209  0.0026000063408629   T   T   T
  0.4998543311147792  0.5014684646193913  0.0013706364722754   T   T   T
  0.2501172177151469  0.9998909243392088  0.0014526690971929   T   T   T
  0.7499537050786463  0.0008196072012699  0.0025663806195201   T   T   T
  0.2501456688852208  0.5014684646193913  0.0013706364722754   T   T   T
  0.7499086057506634  0.5012311262974209  0.0026000063408629   T   T   T
  0.1249557733264167  0.2509437071519480  0.0016265143924894   T   T   T
  0.6250442266735833  0.2509437071519480  0.0016265143924894   T   T   T
  0.1251720810132402  0.7508675401825594  0.0023359423952141   T   T   T
  0.6248279189867597  0.7508675401825594  0.0023359423952141   T   T   T
  0.3750000000000000  0.2502869587191450  0.0001719073644176   T   T   T
  0.8750000000000000  0.2510219453055408  0.0023120681050758   T   T   T
  0.3750000000000000  0.7503361882510684  0.0016197109386010   T   T   T
  0.8750000000000000  0.7510260533158953  0.0027087642701569   T   T   T
  0.1260699977251292  0.0005733449447354  0.0940609470247430   T   T   T
  0.6239300022748708  0.0005733449447354  0.0940609470247430   T   T   T
  0.1262226264790733  0.5014962003458778  0.0941967335415397   T   T   T
  0.6237773735209269  0.5014962003458778  0.0941967335415397   T   T   T
  0.3750000000000000 -0.0001872918144161  0.0932646959063724   T   T   T
  0.8750000000000000  0.0010569245444827  0.0945868165015886   T   T   T
  0.3750000000000000  0.4996269351264136  0.0933311446976744   T   T   T
  0.8750000000000000  0.5013806379613860  0.0945108489433555   T   T   T
  0.0001086557261175  0.2511579934532156  0.0941142039427518   T   T   T
  0.4988121403833572  0.2508316011331763  0.0916329488594319   T   T   T
  0.0003589297848839  0.7512161312540993  0.0945870637293800   T   T   T
  0.4992758938783514  0.7505604701211429  0.0947303379585312   T   T   T
  0.2511878596166428  0.2508316011331763  0.0916329488594319   T   T   T
  0.7498913442738896  0.2511579934532156  0.0941142039427518   T   T   T
  0.2507241061216486  0.7505604701211429  0.0947303379585312   T   T   T
  0.7496410702151163  0.7512161312540993  0.0945870637293800   T   T   T
  0.0012675422487723  0.0019829783832524  0.1847723235847273   T   T   T
  0.4983294529691986  0.0078893465654477  0.1863115616800701   T   T   T
  0.0008943147126246  0.5009663440298621  0.1846321833473475   T   T   T
  0.4976169518584805  0.4940885264512896  0.1869697309876657   T   T   T
  0.2516705470308014  0.0078893465654477  0.1863115616800701   T   T   T
  0.7487324577512277  0.0019829783832524  0.1847723235847273   T   T   T
  0.2523830481415195  0.4940885264512896  0.1869697309876657   T   T   T
  0.7491056852873755  0.5009663440298621  0.1846321833473475   T   T   T
  0.1274728332674428  0.2514708497315705  0.1813448224716653   T   T   T
  0.6225271667325573  0.2514708497315705  0.1813448224716653   T   T   T
  0.1264243879998427  0.7512945991011950  0.1839825041556686   T   T   T
  0.6235756120001573  0.7512945991011950  0.1839825041556686   T   T   T
  0.3750000000000000  0.2508432838869116  0.1820516722783235   T   T   T
  0.8750000000000000  0.2514497562163342  0.1837601162472392   T   T   T
  0.3750000000000000  0.7466417534554247  0.1830448484923244   T   T   T
  0.8750000000000000  0.7515973300654067  0.1836537726430337   T   T   T
  0.1280777952431408  0.9900540721904775  0.2782233206009033   T   T   T
  0.6219221543228627  0.9900540721904775  0.2782233206009033   T   T   T
  0.1260765476728618  0.5140284003051379  0.2777168686174820   T   T   T
  0.6239234018931418  0.5140284003051379  0.2777168686174820   T   T   T
  0.3749999747830017  0.9892041334041456  0.2727369068834595   T   T   T
  0.8749999747830017  0.9981231567591321  0.2757756624722303   T   T   T
  0.3749999243470015  0.5213860044916521  0.2837814252248190   T   T   T
  0.8749999747830017  0.5056508329540874  0.2758167379260053   T   T   T
  0.9936762101627787  0.2515580675690299  0.2776249492522561   T   T   T
  0.4723769083130920  0.2719173414850521  0.3066409115334349   T   T   T
  0.9992670749405500  0.7524543577848872  0.2758546551242008   T   T   T
  0.4980174099162093  0.7502220300713394  0.2757651197215111   T   T   T
  0.2776230916869080  0.2719173414850521  0.3066409115334349   T   T   T
  0.7563237898372213  0.2515580675690299  0.2776249492522561   T   T   T
  0.2519825900837907  0.7502220300713394  0.2757651197215111   T   T   T
  0.7507329250594500  0.7524543577848872  0.2758546551242008   T   T   T
  0.3749999243470015  0.3690702014422699  0.3471978453623792   T   T   T
 
  0.00000000E+00  0.00000000E+00  0.00000000E+00
  0.00000000E+00  0.00000000E+00  0.00000000E+00
  0.00000000E+00  0.00000000E+00  0.00000000E+00
  0.00000000E+00  0.00000000E+00  0.00000000E+00
  0.00000000E+00  0.00000000E+00  0.00000000E+00
  0.00000000E+00  0.00000000E+00  0.00000000E+00
  0.00000000E+00  0.00000000E+00  0.00000000E+00
  0.00000000E+00  0.00000000E+00  0.00000000E+00
  0.00000000E+00  0.00000000E+00  0.00000000E+00
  0.00000000E+00  0.00000000E+00  0.00000000E+00
  0.00000000E+00  0.00000000E+00  0.00000000E+00
  0.00000000E+00  0.00000000E+00  0.00000000E+00
  0.00000000E+00  0.00000000E+00  0.00000000E+00
  0.00000000E+00  0.00000000E+00  0.00000000E+00
  0.00000000E+00  0.00000000E+00  0.00000000E+00
  0.00000000E+00  0.00000000E+00  0.00000000E+00
  0.00000000E+00  0.00000000E+00  0.00000000E+00
  0.00000000E+00  0.00000000E+00  0.00000000E+00
  0.00000000E+00  0.00000000E+00  0.00000000E+00
  0.00000000E+00  0.00000000E+00  0.00000000E+00
  0.00000000E+00  0.00000000E+00  0.00000000E+00
  0.00000000E+00  0.00000000E+00  0.00000000E+00
  0.00000000E+00  0.00000000E+00  0.00000000E+00
  0.00000000E+00  0.00000000E+00  0.00000000E+00
  0.00000000E+00  0.00000000E+00  0.00000000E+00
  0.00000000E+00  0.00000000E+00  0.00000000E+00
  0.00000000E+00  0.00000000E+00  0.00000000E+00
  0.00000000E+00  0.00000000E+00  0.00000000E+00
  0.00000000E+00  0.00000000E+00  0.00000000E+00
  0.00000000E+00  0.00000000E+00  0.00000000E+00
  0.00000000E+00  0.00000000E+00  0.00000000E+00
  0.00000000E+00  0.00000000E+00  0.00000000E+00
  0.00000000E+00  0.00000000E+00  0.00000000E+00
  0.00000000E+00  0.00000000E+00  0.00000000E+00
  0.00000000E+00  0.00000000E+00  0.00000000E+00
  0.00000000E+00  0.00000000E+00  0.00000000E+00
  0.00000000E+00  0.00000000E+00  0.00000000E+00
  0.00000000E+00  0.00000000E+00  0.00000000E+00
  0.00000000E+00  0.00000000E+00  0.00000000E+00
  0.00000000E+00  0.00000000E+00  0.00000000E+00
  0.00000000E+00  0.00000000E+00  0.00000000E+00
  0.00000000E+00  0.00000000E+00  0.00000000E+00
  0.00000000E+00  0.00000000E+00  0.00000000E+00
  0.00000000E+00  0.00000000E+00  0.00000000E+00
  0.00000000E+00  0.00000000E+00  0.00000000E+00
  0.00000000E+00  0.00000000E+00  0.00000000E+00
  0.00000000E+00  0.00000000E+00  0.00000000E+00
  0.00000000E+00  0.00000000E+00  0.00000000E+00
  0.00000000E+00  0.00000000E+00  0.00000000E+00
  0.00000000E+00  0.00000000E+00  0.00000000E+00
  0.00000000E+00  0.00000000E+00  0.00000000E+00
  0.00000000E+00  0.00000000E+00  0.00000000E+00
  0.00000000E+00  0.00000000E+00  0.00000000E+00
  0.00000000E+00  0.00000000E+00  0.00000000E+00
  0.00000000E+00  0.00000000E+00  0.00000000E+00
  0.00000000E+00  0.00000000E+00  0.00000000E+00
  0.00000000E+00  0.00000000E+00  0.00000000E+00
  0.00000000E+00  0.00000000E+00  0.00000000E+00
  0.00000000E+00  0.00000000E+00  0.00000000E+00
  0.00000000E+00  0.00000000E+00  0.00000000E+00
  0.00000000E+00  0.00000000E+00  0.00000000E+00
  0.00000000E+00  0.00000000E+00  0.00000000E+00
  0.00000000E+00  0.00000000E+00  0.00000000E+00
  0.00000000E+00  0.00000000E+00  0.00000000E+00
  0.00000000E+00  0.00000000E+00  0.00000000E+00
  0.00000000E+00  0.00000000E+00  0.00000000E+00
  0.00000000E+00  0.00000000E+00  0.00000000E+00
  0.00000000E+00  0.00000000E+00  0.00000000E+00
  0.00000000E+00  0.00000000E+00  0.00000000E+00
  0.00000000E+00  0.00000000E+00  0.00000000E+00
  0.00000000E+00  0.00000000E+00  0.00000000E+00
  0.00000000E+00  0.00000000E+00  0.00000000E+00
  0.00000000E+00  0.00000000E+00  0.00000000E+00
  0.00000000E+00  0.00000000E+00  0.00000000E+00
  0.00000000E+00  0.00000000E+00  0.00000000E+00
  0.00000000E+00  0.00000000E+00  0.00000000E+00
  0.00000000E+00  0.00000000E+00  0.00000000E+00
  0.00000000E+00  0.00000000E+00  0.00000000E+00
  0.00000000E+00  0.00000000E+00  0.00000000E+00
  0.00000000E+00  0.00000000E+00  0.00000000E+00
  0.00000000E+00  0.00000000E+00  0.00000000E+00
  0.00000000E+00  0.00000000E+00  0.00000000E+00
  0.00000000E+00  0.00000000E+00  0.00000000E+00
  0.00000000E+00  0.00000000E+00  0.00000000E+00
  0.00000000E+00  0.00000000E+00  0.00000000E+00
  0.00000000E+00  0.00000000E+00  0.00000000E+00
  0.00000000E+00  0.00000000E+00  0.00000000E+00
  0.00000000E+00  0.00000000E+00  0.00000000E+00
  0.00000000E+00  0.00000000E+00  0.00000000E+00
  0.00000000E+00  0.00000000E+00  0.00000000E+00
  0.00000000E+00  0.00000000E+00  0.00000000E+00
  0.00000000E+00  0.00000000E+00  0.00000000E+00
  0.00000000E+00  0.00000000E+00  0.00000000E+00
  0.00000000E+00  0.00000000E+00  0.00000000E+00
  0.00000000E+00  0.00000000E+00  0.00000000E+00
  0.00000000E+00  0.00000000E+00  0.00000000E+00
  0.00000000E+00  0.00000000E+00  0.00000000E+00
  0.00000000E+00  0.00000000E+00  0.00000000E+00
  0.00000000E+00  0.00000000E+00  0.00000000E+00
  0.00000000E+00  0.00000000E+00  0.00000000E+00
  0.00000000E+00  0.00000000E+00  0.00000000E+00
  0.00000000E+00  0.00000000E+00  0.00000000E+00
  0.00000000E+00  0.00000000E+00  0.00000000E+00
  0.00000000E+00  0.00000000E+00  0.00000000E+00
  0.00000000E+00  0.00000000E+00  0.00000000E+00
  0.00000000E+00  0.00000000E+00  0.00000000E+00
  0.00000000E+00  0.00000000E+00  0.00000000E+00
  0.00000000E+00  0.00000000E+00  0.00000000E+00
  0.00000000E+00  0.00000000E+00  0.00000000E+00
  0.00000000E+00  0.00000000E+00  0.00000000E+00
  0.00000000E+00  0.00000000E+00  0.00000000E+00
  0.00000000E+00  0.00000000E+00  0.00000000E+00
  0.00000000E+00  0.00000000E+00  0.00000000E+00
  0.00000000E+00  0.00000000E+00  0.00000000E+00
  0.00000000E+00  0.00000000E+00  0.00000000E+00
  0.00000000E+00  0.00000000E+00  0.00000000E+00
  0.00000000E+00  0.00000000E+00  0.00000000E+00
  0.00000000E+00  0.00000000E+00  0.00000000E+00
  0.00000000E+00  0.00000000E+00  0.00000000E+00
  0.00000000E+00  0.00000000E+00  0.00000000E+00
  0.00000000E+00  0.00000000E+00  0.00000000E+00
  0.00000000E+00  0.00000000E+00  0.00000000E+00
  0.00000000E+00  0.00000000E+00  0.00000000E+00
  0.00000000E+00  0.00000000E+00  0.00000000E+00
  0.00000000E+00  0.00000000E+00  0.00000000E+00
  0.00000000E+00  0.00000000E+00  0.00000000E+00
  0.00000000E+00  0.00000000E+00  0.00000000E+00
  0.00000000E+00  0.00000000E+00  0.00000000E+00
  0.00000000E+00  0.00000000E+00  0.00000000E+00
