Mg Na O Ir                              
   1.00000000000000     
    16.8282433949600012    0.0000000000000000    0.0000000000000000
     0.0000000000000000    8.4141216974800006    0.0000000000000000
     0.0000000000000000    0.0000000000000000   23.4141216974799988
   Mg   Na   O    Ir
    62     2    64     1
Selective dynamics
Direct
  0.1248228645880298  0.9998172900373828  0.0047133510658939   T   T   T
  0.6251771354119701  0.9998172900373828  0.0047133510658939   T   T   T
  0.1246952677009857  0.5002293813100660  0.0044371642617684   T   T   T
  0.6253047322990145  0.5002293813100660  0.0044371642617684   T   T   T
  0.3750000000000000 -0.0000817545509315  0.0045557407124618   T   T   T
  0.8750000000000000  0.0002612992626065  0.0046033494443646   T   T   T
  0.3750000000000000  0.4998000087327957  0.0040244053708324   T   T   T
  0.8750000000000000  0.5001017449322495  0.0044388388819189   T   T   T
  0.9998257576050222  0.2499790968536693  0.0045039581820509   T   T   T
  0.5001130945200580  0.2497803111702068  0.0045556658583432   T   T   T
  0.9999328558667118  0.7502778043768439  0.0046231939859630   T   T   T
  0.5002803395719381  0.7500882970946139  0.0047203535102088   T   T   T
  0.2498869054799419  0.2497803111702068  0.0045556658583432   T   T   T
  0.7501742423949778  0.2499790968536693  0.0045039581820509   T   T   T
  0.2497196604280618  0.7500882970946139  0.0047203535102088   T   T   T
  0.7500671441332882  0.7502778043768439  0.0046231939859630   T   T   T
  0.0001542533858089  0.0008123125380692  0.0942047709405596   T   T   T
  0.5007196139735018  0.0005176215136388  0.0945162181878937   T   T   T
  0.9999171207474137  0.4995434008522251  0.0940403936010496   T   T   T
  0.5011596299170910  0.4992345364364946  0.0936122060633127   T   T   T
  0.2492803860264982  0.0005176215136388  0.0945162181878937   T   T   T
  0.7498457466141912  0.0008123125380692  0.0942047709405596   T   T   T
  0.2488403700829091  0.4992345364364946  0.0936122060633127   T   T   T
  0.7500828792525863  0.4995434008522251  0.0940403936010496   T   T   T
  0.1247671510822027  0.2497863916683153  0.0939355490752982   T   T   T
  0.6252328489177973  0.2497863916683153  0.0939355490752982   T   T   T
  0.1247069220955316  0.7502451775017458  0.0945629951780957   T   T   T
  0.6252930779044683  0.7502451775017458  0.0945629951780957   T   T   T
  0.3750000000000000  0.2487459800903870  0.0938066477181497   T   T   T
  0.8750000000000000  0.2502008921099200  0.0942616964064733   T   T   T
  0.3750000000000000  0.7506236765475768  0.0934982595028794   T   T   T
  0.8750000000000000  0.7502934962263164  0.0938886359331377   T   T   T
  0.1246548317690055  0.0046442549976867  0.1862988380213099   T   T   T
  0.6253451682309944  0.0046442549976867  0.1862988380213099   T   T   T
  0.1231710247662580  0.4956720247311160  0.1857430211909053   T   T   T
  0.6268289752337417  0.4956720247311160  0.1857430211909053   T   T   T
  0.3750000000000000  0.0007588776327213  0.1840398285794594   T   T   T
  0.8750000000000000  0.0012225993842638  0.1842995995564871   T   T   T
  0.3750000000000000  0.4982525669661461  0.1788141866106532   T   T   T
  0.8750000000000000  0.4994021710957907  0.1842214086542977   T   T   T
  0.0019839761819789  0.2500631070740195  0.1861063819274615   T   T   T
  0.5023861100078064  0.2504721740482829  0.1867379934582430   T   T   T
 -0.0001445289056945  0.7503494464077793  0.1844020312263360   T   T   T
  0.5008525961819204  0.7489507097078731  0.1851585951895613   T   T   T
  0.2476138899921936  0.2504721740482829  0.1867379934582430   T   T   T
  0.7480160238180211  0.2500631070740195  0.1861063819274615   T   T   T
  0.2491474038180799  0.7489507097078731  0.1851585951895613   T   T   T
  0.7501445289056945  0.7503494464077793  0.1844020312263360   T   T   T
  0.0004636278035407  0.0016871184748922  0.2737627020391771   T   T   T
  0.5028559741720199  0.0009085028058610  0.2741026633036010   T   T   T
  0.9990625862196650  0.4988543613875215  0.2738350877980328   T   T   T
  0.5117774527507351  0.4974152202520939  0.2749790765826032   T   T   T
  0.2471440258279803  0.0009085028058610  0.2741026633036010   T   T   T
  0.7495363721964594  0.0016871184748922  0.2737627020391771   T   T   T
  0.2382225472492651  0.4974152202520939  0.2749790765826032   T   T   T
  0.7509374137803350  0.4988543613875215  0.2738350877980328   T   T   T
  0.1224810970069276  0.7507749444555502  0.2740487191441672   T   T   T
  0.6275189029930724  0.7507749444555502  0.2740487191441672   T   T   T
  0.3750000000000000  0.2318839736227285  0.2748711605360856   T   T   T
  0.8750000000000000  0.2501631557637031  0.2736656040520588   T   T   T
  0.3750000000000000  0.7650679974045090  0.2740557641438920   T   T   T
  0.8750000000000000  0.7506339214243709  0.2731853050292444   T   T   T
  0.1236325975065401  0.2483559831186175  0.3001809226035121   T   T   T
  0.6263674024934600  0.2483559831186175  0.3001809226035121   T   T   T
  0.0000829112692375  0.0000101883201042  0.0023074978871834   T   T   T
  0.4998067850932746  0.9997635538904377  0.0027194374135125   T   T   T
  0.0001002922966007  0.5002354596750517  0.0021808825218298   T   T   T
  0.4999652149732831  0.5001068880926470  0.0022336667599023   T   T   T
  0.2501932149067254  0.9997635538904377  0.0027194374135125   T   T   T
  0.7499170887307625  0.0000101883201042  0.0023074978871834   T   T   T
  0.2500347850267171  0.5001068880926470  0.0022336667599023   T   T   T
  0.7498997077033992  0.5002354596750517  0.0021808825218298   T   T   T
  0.1252024668898982  0.2499947208533435  0.0022994753649720   T   T   T
  0.6247975331101018  0.2499947208533435  0.0022994753649720   T   T   T
  0.1251777937856851  0.7500565975289798  0.0024062472567239   T   T   T
  0.6248222062143148  0.7500565975289798  0.0024062472567239   T   T   T
  0.3750000000000000  0.2495501294729396  0.0022019430210397   T   T   T
  0.8750000000000000  0.2501207509147823  0.0019855962468368   T   T   T
  0.3750000000000000  0.7501810119776484  0.0024678396883098   T   T   T
  0.8750000000000000  0.7502279677858660  0.0021932431667027   T   T   T
  0.1252419996098190  0.9992503611932892  0.0942112689477449   T   T   T
  0.6247580003901810  0.9992503611932892  0.0942112689477449   T   T   T
  0.1252947689612654  0.5008078461396547  0.0942419388138306   T   T   T
  0.6247052310387344  0.5008078461396547  0.0942419388138306   T   T   T
  0.3750000000000000  0.9994566045822080  0.0949713356842044   T   T   T
  0.8750000000000000  0.0000662714390560  0.0940976415962915   T   T   T
  0.3750000000000000  0.4999625547582485  0.0932177265256815   T   T   T
  0.8750000000000000  0.5004199460794904  0.0939199970078617   T   T   T
  0.9997355399859686  0.2501991817136901  0.0938431529388904   T   T   T
  0.4992094197957561  0.2504908019833406  0.0944200692687836   T   T   T
 -0.0000085573026241  0.7501409537368801  0.0941607258225023   T   T   T
  0.4994999869314899  0.7491985835465055  0.0948488442776504   T   T   T
  0.2507905802042439  0.2504908019833406  0.0944200692687836   T   T   T
  0.7502644600140314  0.2501991817136901  0.0938431529388904   T   T   T
  0.2505000130685101  0.7491985835465055  0.0948488442776504   T   T   T
  0.7500085573026239  0.7501409537368801  0.0941607258225023   T   T   T
  0.0002554311585721  0.0005344295214667  0.1843119479912805   T   T   T
  0.4995286435546071  0.0000906289097317  0.1851023516253057   T   T   T
  0.9995986300972277  0.4998714633839271  0.1841546078169467   T   T   T
  0.4982190525036084  0.4993922269448385  0.1864390577824713   T   T   T
  0.2504713564453929  0.0000906289097317  0.1851023516253057   T   T   T
  0.7497445688414279  0.0005344295214667  0.1843119479912805   T   T   T
  0.2517809474963916  0.4993922269448385  0.1864390577824713   T   T   T
  0.7504013699027723  0.4998714633839271  0.1841546078169467   T   T   T
  0.1252627752876234  0.2506450095787902  0.1813432956943709   T   T   T
  0.6247372247123767  0.2506450095787902  0.1813432956943709   T   T   T
  0.1250580642845786  0.7492733048294088  0.1839143564094255   T   T   T
  0.6249419357154213  0.7492733048294088  0.1839143564094255   T   T   T
  0.3750000000000000  0.2536717678771116  0.1852276724152908   T   T   T
  0.8750000000000000  0.2501248739599113  0.1834608596103244   T   T   T
  0.3750000000000000  0.7447697361421424  0.1854180688301854   T   T   T
  0.8750000000000000  0.7505040709632611  0.1833227038888043   T   T   T
  0.1252623235102729  0.9860529416911371  0.2774111019318226   T   T   T
  0.6247376260557307  0.9860529416911371  0.2774111019318226   T   T   T
  0.1210011239144487  0.5140253349052858  0.2773709234763549   T   T   T
  0.6289988256515547  0.5140253349052858  0.2773709234763549   T   T   T
  0.3749999747830017  0.9973332531819517  0.2758429339294772   T   T   T
  0.8749999747830017  0.9980805324139777  0.2753551073791323   T   T   T
  0.3749999243470015  0.5068392289436362  0.2918415729204951   T   T   T
  0.8749999747830017  0.5029289945486404  0.2754967603367192   T   T   T
  0.9930017314476599  0.2493476946803179  0.2769632454984734   T   T   T
  0.4921075234610418  0.2545724394705102  0.2776770657268633   T   T   T
  0.9975864251535104  0.7513759890301029  0.2754493292005550   T   T   T
  0.4975044246405023  0.7456405626507612  0.2758179101076215   T   T   T
  0.2578924765389582  0.2545724394705102  0.2776770657268633   T   T   T
  0.7569982685523401  0.2493476946803179  0.2769632454984734   T   T   T
  0.2524955753594977  0.7456405626507612  0.2758179101076215   T   T   T
  0.7524135748464896  0.7513759890301029  0.2754493292005550   T   T   T
  0.3749999243470015  0.5021399785534418  0.3688282224124975   T   T   T
 
  0.00000000E+00  0.00000000E+00  0.00000000E+00
  0.00000000E+00  0.00000000E+00  0.00000000E+00
  0.00000000E+00  0.00000000E+00  0.00000000E+00
  0.00000000E+00  0.00000000E+00  0.00000000E+00
  0.00000000E+00  0.00000000E+00  0.00000000E+00
  0.00000000E+00  0.00000000E+00  0.00000000E+00
  0.00000000E+00  0.00000000E+00  0.00000000E+00
  0.00000000E+00  0.00000000E+00  0.00000000E+00
  0.00000000E+00  0.00000000E+00  0.00000000E+00
  0.00000000E+00  0.00000000E+00  0.00000000E+00
  0.00000000E+00  0.00000000E+00  0.00000000E+00
  0.00000000E+00  0.00000000E+00  0.00000000E+00
  0.00000000E+00  0.00000000E+00  0.00000000E+00
  0.00000000E+00  0.00000000E+00  0.00000000E+00
  0.00000000E+00  0.00000000E+00  0.00000000E+00
  0.00000000E+00  0.00000000E+00  0.00000000E+00
  0.00000000E+00  0.00000000E+00  0.00000000E+00
  0.00000000E+00  0.00000000E+00  0.00000000E+00
  0.00000000E+00  0.00000000E+00  0.00000000E+00
  0.00000000E+00  0.00000000E+00  0.00000000E+00
  0.00000000E+00  0.00000000E+00  0.00000000E+00
  0.00000000E+00  0.00000000E+00  0.00000000E+00
  0.00000000E+00  0.00000000E+00  0.00000000E+00
  0.00000000E+00  0.00000000E+00  0.00000000E+00
  0.00000000E+00  0.00000000E+00  0.00000000E+00
  0.00000000E+00  0.00000000E+00  0.00000000E+00
  0.00000000E+00  0.00000000E+00  0.00000000E+00
  0.00000000E+00  0.00000000E+00  0.00000000E+00
  0.00000000E+00  0.00000000E+00  0.00000000E+00
  0.00000000E+00  0.00000000E+00  0.00000000E+00
  0.00000000E+00  0.00000000E+00  0.00000000E+00
  0.00000000E+00  0.00000000E+00  0.00000000E+00
  0.00000000E+00  0.00000000E+00  0.00000000E+00
  0.00000000E+00  0.00000000E+00  0.00000000E+00
  0.00000000E+00  0.00000000E+00  0.00000000E+00
  0.00000000E+00  0.00000000E+00  0.00000000E+00
  0.00000000E+00  0.00000000E+00  0.00000000E+00
  0.00000000E+00  0.00000000E+00  0.00000000E+00
  0.00000000E+00  0.00000000E+00  0.00000000E+00
  0.00000000E+00  0.00000000E+00  0.00000000E+00
  0.00000000E+00  0.00000000E+00  0.00000000E+00
  0.00000000E+00  0.00000000E+00  0.00000000E+00
  0.00000000E+00  0.00000000E+00  0.00000000E+00
  0.00000000E+00  0.00000000E+00  0.00000000E+00
  0.00000000E+00  0.00000000E+00  0.00000000E+00
  0.00000000E+00  0.00000000E+00  0.00000000E+00
  0.00000000E+00  0.00000000E+00  0.00000000E+00
  0.00000000E+00  0.00000000E+00  0.00000000E+00
  0.00000000E+00  0.00000000E+00  0.00000000E+00
  0.00000000E+00  0.00000000E+00  0.00000000E+00
  0.00000000E+00  0.00000000E+00  0.00000000E+00
  0.00000000E+00  0.00000000E+00  0.00000000E+00
  0.00000000E+00  0.00000000E+00  0.00000000E+00
  0.00000000E+00  0.00000000E+00  0.00000000E+00
  0.00000000E+00  0.00000000E+00  0.00000000E+00
  0.00000000E+00  0.00000000E+00  0.00000000E+00
  0.00000000E+00  0.00000000E+00  0.00000000E+00
  0.00000000E+00  0.00000000E+00  0.00000000E+00
  0.00000000E+00  0.00000000E+00  0.00000000E+00
  0.00000000E+00  0.00000000E+00  0.00000000E+00
  0.00000000E+00  0.00000000E+00  0.00000000E+00
  0.00000000E+00  0.00000000E+00  0.00000000E+00
  0.00000000E+00  0.00000000E+00  0.00000000E+00
  0.00000000E+00  0.00000000E+00  0.00000000E+00
  0.00000000E+00  0.00000000E+00  0.00000000E+00
  0.00000000E+00  0.00000000E+00  0.00000000E+00
  0.00000000E+00  0.00000000E+00  0.00000000E+00
  0.00000000E+00  0.00000000E+00  0.00000000E+00
  0.00000000E+00  0.00000000E+00  0.00000000E+00
  0.00000000E+00  0.00000000E+00  0.00000000E+00
  0.00000000E+00  0.00000000E+00  0.00000000E+00
  0.00000000E+00  0.00000000E+00  0.00000000E+00
  0.00000000E+00  0.00000000E+00  0.00000000E+00
  0.00000000E+00  0.00000000E+00  0.00000000E+00
  0.00000000E+00  0.00000000E+00  0.00000000E+00
  0.00000000E+00  0.00000000E+00  0.00000000E+00
  0.00000000E+00  0.00000000E+00  0.00000000E+00
  0.00000000E+00  0.00000000E+00  0.00000000E+00
  0.00000000E+00  0.00000000E+00  0.00000000E+00
  0.00000000E+00  0.00000000E+00  0.00000000E+00
  0.00000000E+00  0.00000000E+00  0.00000000E+00
  0.00000000E+00  0.00000000E+00  0.00000000E+00
  0.00000000E+00  0.00000000E+00  0.00000000E+00
  0.00000000E+00  0.00000000E+00  0.00000000E+00
  0.00000000E+00  0.00000000E+00  0.00000000E+00
  0.00000000E+00  0.00000000E+00  0.00000000E+00
  0.00000000E+00  0.00000000E+00  0.00000000E+00
  0.00000000E+00  0.00000000E+00  0.00000000E+00
  0.00000000E+00  0.00000000E+00  0.00000000E+00
  0.00000000E+00  0.00000000E+00  0.00000000E+00
  0.00000000E+00  0.00000000E+00  0.00000000E+00
  0.00000000E+00  0.00000000E+00  0.00000000E+00
  0.00000000E+00  0.00000000E+00  0.00000000E+00
  0.00000000E+00  0.00000000E+00  0.00000000E+00
  0.00000000E+00  0.00000000E+00  0.00000000E+00
  0.00000000E+00  0.00000000E+00  0.00000000E+00
  0.00000000E+00  0.00000000E+00  0.00000000E+00
  0.00000000E+00  0.00000000E+00  0.00000000E+00
  0.00000000E+00  0.00000000E+00  0.00000000E+00
  0.00000000E+00  0.00000000E+00  0.00000000E+00
  0.00000000E+00  0.00000000E+00  0.00000000E+00
  0.00000000E+00  0.00000000E+00  0.00000000E+00
  0.00000000E+00  0.00000000E+00  0.00000000E+00
  0.00000000E+00  0.00000000E+00  0.00000000E+00
  0.00000000E+00  0.00000000E+00  0.00000000E+00
  0.00000000E+00  0.00000000E+00  0.00000000E+00
  0.00000000E+00  0.00000000E+00  0.00000000E+00
  0.00000000E+00  0.00000000E+00  0.00000000E+00
  0.00000000E+00  0.00000000E+00  0.00000000E+00
  0.00000000E+00  0.00000000E+00  0.00000000E+00
  0.00000000E+00  0.00000000E+00  0.00000000E+00
  0.00000000E+00  0.00000000E+00  0.00000000E+00
  0.00000000E+00  0.00000000E+00  0.00000000E+00
  0.00000000E+00  0.00000000E+00  0.00000000E+00
  0.00000000E+00  0.00000000E+00  0.00000000E+00
  0.00000000E+00  0.00000000E+00  0.00000000E+00
  0.00000000E+00  0.00000000E+00  0.00000000E+00
  0.00000000E+00  0.00000000E+00  0.00000000E+00
  0.00000000E+00  0.00000000E+00  0.00000000E+00
  0.00000000E+00  0.00000000E+00  0.00000000E+00
  0.00000000E+00  0.00000000E+00  0.00000000E+00
  0.00000000E+00  0.00000000E+00  0.00000000E+00
  0.00000000E+00  0.00000000E+00  0.00000000E+00
  0.00000000E+00  0.00000000E+00  0.00000000E+00
  0.00000000E+00  0.00000000E+00  0.00000000E+00
  0.00000000E+00  0.00000000E+00  0.00000000E+00
  0.00000000E+00  0.00000000E+00  0.00000000E+00
  0.00000000E+00  0.00000000E+00  0.00000000E+00
  0.00000000E+00  0.00000000E+00  0.00000000E+00
