Mg Na O Pd                              
   1.00000000000000     
    16.8282433949600012    0.0000000000000000    0.0000000000000000
     0.0000000000000000    8.4141216974800006    0.0000000000000000
     0.0000000000000000    0.0000000000000000   23.4141216974799988
   Mg   Na   O    Pd
    62     2    64     1
Selective dynamics
Direct
  0.1249766581666612  0.0001318331136952  0.0047938183290589   T   T   T
  0.6250233418333390  0.0001318331136952  0.0047938183290589   T   T   T
  0.1250295971061582  0.5005941675062362  0.0046471652364169   T   T   T
  0.6249704028938419  0.5005941675062362  0.0046471652364169   T   T   T
  0.3750000000000000  0.0000634732752701  0.0049332848316967   T   T   T
  0.8750000000000000  0.0005245206288818  0.0045430830608511   T   T   T
  0.3750000000000000  0.5002374401810766  0.0047305224898953   T   T   T
  0.8750000000000000  0.5003590910092263  0.0044097176506788   T   T   T
  0.9999582177093721  0.2502750903177522  0.0045119874238807   T   T   T
  0.5000059693166048  0.2501795064164968  0.0047377521935295   T   T   T
  0.0000577688017154  0.7505229984176274  0.0046355710988147   T   T   T
  0.5001426520662461  0.7504409114237809  0.0049615694734031   T   T   T
  0.2499940306833955  0.2501795064164968  0.0047377521935295   T   T   T
  0.7500417822906279  0.2502750903177522  0.0045119874238807   T   T   T
  0.2498573479337539  0.7504409114237809  0.0049615694734031   T   T   T
  0.7499422311982845  0.7505229984176274  0.0046355710988147   T   T   T
  0.0002615707245837  0.0011749691585060  0.0942585585358286   T   T   T
  0.5005384388195362  0.0010485668021757  0.0945036774554254   T   T   T
  0.0001339921380412  0.5000231495525178  0.0941099680750858   T   T   T
  0.5005179570259998  0.5000396389368807  0.0942041105788442   T   T   T
  0.2494615611804638  0.0010485668021757  0.0945036774554254   T   T   T
  0.7497384292754165  0.0011749691585060  0.0942585585358286   T   T   T
  0.2494820429740003  0.5000396389368807  0.0942041105788442   T   T   T
  0.7498660078619589  0.5000231495525178  0.0941099680750858   T   T   T
  0.1248143271572997  0.2504229193244748  0.0939516757476064   T   T   T
  0.6251856728427001  0.2504229193244748  0.0939516757476064   T   T   T
  0.1248576037583993  0.7507943275665360  0.0946118049458131   T   T   T
  0.6251423962416007  0.7507943275665360  0.0946118049458131   T   T   T
  0.3750000000000000  0.2499801631564731  0.0941585643505602   T   T   T
  0.8750000000000000  0.2505272589923989  0.0942891365946202   T   T   T
  0.3750000000000000  0.7500028792369906  0.0940531570595850   T   T   T
  0.8750000000000000  0.7506657396350317  0.0939069509652938   T   T   T
  0.1248156034576467  0.0054886723489796  0.1866443387904855   T   T   T
  0.6251843965423532  0.0054886723489796  0.1866443387904855   T   T   T
  0.1240647988685484  0.4967675519614272  0.1860508533329480   T   T   T
  0.6259352011314517  0.4967675519614272  0.1860508533329480   T   T   T
  0.3750000000000000 -0.0016525794359620  0.1841638362632354   T   T   T
  0.8750000000000000  0.0016806874431319  0.1843472681778742   T   T   T
  0.3750000000000000  0.4991528526634791  0.1830369061520168   T   T   T
  0.8750000000000000  0.5000516585676025  0.1842510967298278   T   T   T
  0.0022650417769577  0.2508341983810861  0.1861380034061276   T   T   T
  0.5026786517164147  0.2511657620403372  0.1855996862731293   T   T   T
  0.0001694105664488  0.7510464084914686  0.1844558433886434   T   T   T
  0.5007867264501069  0.7508292274086056  0.1852421287190071   T   T   T
  0.2473213482835853  0.2511657620403372  0.1855996862731293   T   T   T
  0.7477349582230423  0.2508341983810861  0.1861380034061276   T   T   T
  0.2492132735498930  0.7508292274086056  0.1852421287190071   T   T   T
  0.7498305894335513  0.7510464084914686  0.1844558433886434   T   T   T
  0.0004239657842667  0.0026738928330400  0.2738721575701386   T   T   T
  0.5021411933734291 -0.0004637852745621  0.2753040122637029   T   T   T
  0.0000259044862236  0.4999732986155905  0.2737693440827586   T   T   T
  0.5060592806960121  0.5021864816295085  0.2739555667741864   T   T   T
  0.2478588066265708 -0.0004637852745621  0.2753040122637029   T   T   T
  0.7495760342157338  0.0026738928330400  0.2738721575701386   T   T   T
  0.2439407193039879  0.5021864816295085  0.2739555667741864   T   T   T
  0.7499740955137765  0.4999732986155905  0.2737693440827586   T   T   T
  0.1233913094030875  0.7517200464976984  0.2743250886966764   T   T   T
  0.6266086905969124  0.7517200464976984  0.2743250886966764   T   T   T
  0.3750000000000000  0.2326020411635886  0.2703973455487470   T   T   T
  0.8750000000000000  0.2513571533267022  0.2736174169098373   T   T   T
  0.3750000000000000  0.7566186192052562  0.2743981476912237   T   T   T
  0.8750000000000000  0.7512159590068647  0.2731352527995862   T   T   T
  0.1241212606469257  0.2511856426565128  0.3004033688911545   T   T   T
  0.6258787393530740  0.2511856426565128  0.3004033688911545   T   T   T
  0.0001682466315493  0.0003192295775647  0.0023078245499644   T   T   T
  0.4997738110693225  0.0001324535811372  0.0027885984375022   T   T   T
  0.0001925301878524  0.5005174168362801  0.0022467665718673   T   T   T
  0.4997790217107768  0.5005111643554540  0.0026628661660098   T   T   T
  0.2502261889306775  0.0001324535811372  0.0027885984375022   T   T   T
  0.7498317533684508  0.0003192295775647  0.0023078245499644   T   T   T
  0.2502209782892232  0.5005111643554540  0.0026628661660098   T   T   T
  0.7498074698121477  0.5005174168362801  0.0022467665718673   T   T   T
  0.1252666349362394  0.2502959937116063  0.0023185539002846   T   T   T
  0.6247333650637605  0.2502959937116063  0.0023185539002846   T   T   T
  0.1252433746467733  0.7504438098810956  0.0024539944310708   T   T   T
  0.6247566253532263  0.7504438098810956  0.0024539944310708   T   T   T
  0.3750000000000000  0.2500711231632254  0.0025515829663411   T   T   T
  0.8750000000000000  0.2504136669602334  0.0020304314223614   T   T   T
  0.3750000000000000  0.7502418861216364  0.0028747365143971   T   T   T
  0.8750000000000000  0.7504406591580083  0.0021877317341391   T   T   T
  0.1252837819463293  0.9999428923192878  0.0943557982736219   T   T   T
  0.6247162180536708  0.9999428923192878  0.0943557982736219   T   T   T
  0.1253170258427340  0.5013302792986252  0.0942415394279551   T   T   T
  0.6246829741572661  0.5013302792986252  0.0942415394279551   T   T   T
  0.3750000000000000  0.9997060814251810  0.0950336548998023   T   T   T
  0.8750000000000000  0.0004297011554517  0.0940976667889940   T   T   T
  0.3750000000000000  0.5003005602162023  0.0945753251499999   T   T   T
  0.8750000000000000  0.5007667934232423  0.0940575404924081   T   T   T
  0.9998044212821788  0.2506291180765330  0.0939695797436780   T   T   T
  0.4993697313776701  0.2505812970965406  0.0944256630661796   T   T   T
  0.0000308187152035  0.7506050769386029  0.0942261798508845   T   T   T
  0.4996268623917189  0.7505312605251977  0.0950316452665389   T   T   T
  0.2506302686223299  0.2505812970965406  0.0944256630661796   T   T   T
  0.7501955787178212  0.2506291180765330  0.0939695797436780   T   T   T
  0.2503731376082811  0.7505312605251977  0.0950316452665389   T   T   T
  0.7499691812847963  0.7506050769386029  0.0942261798508845   T   T   T
  0.0002337140644892  0.0012931836354116  0.1844223314996636   T   T   T
  0.4997449112412823  0.0022783727261050  0.1857114600722351   T   T   T
 -0.0000577785800619  0.5005863317635101  0.1842897711695674   T   T   T
  0.4991905427152779  0.4996591833702665  0.1857332699541669   T   T   T
  0.2502550887587177  0.0022783727261050  0.1857114600722351   T   T   T
  0.7497662859355105  0.0012931836354116  0.1844223314996636   T   T   T
  0.2508094572847221  0.4996591833702665  0.1857332699541669   T   T   T
  0.7500577785800622  0.5005863317635101  0.1842897711695674   T   T   T
  0.1255401959565884  0.2512770317729668  0.1816133784018739   T   T   T
  0.6244598040434114  0.2512770317729668  0.1816133784018739   T   T   T
  0.1251703728800191  0.7507859375650178  0.1840296015808098   T   T   T
  0.6248296271199808  0.7507859375650178  0.1840296015808098   T   T   T
  0.3750000000000000  0.2511264273499248  0.1842382789772452   T   T   T
  0.8750000000000000  0.2507376835677206  0.1835735418858114   T   T   T
  0.3750000000000000  0.7472681982954441  0.1850311776869868   T   T   T
  0.8750000000000000  0.7510406876492595  0.1834054748739652   T   T   T
  0.1248092038973385  0.9881091392971719  0.2777391117435167   T   T   T
  0.6251907456686648  0.9881091392971719  0.2777391117435167   T   T   T
  0.1232348417929694  0.5148432828902803  0.2773032851601006   T   T   T
  0.6267651077730340  0.5148432828902803  0.2773032851601006   T   T   T
  0.3749999747830017  0.9951398373078073  0.2757205268028560   T   T   T
  0.8749999747830017  0.9988522262139319  0.2754701260940277   T   T   T
  0.3749999243470015  0.5093251728598862  0.2804969521594525   T   T   T
  0.8749999747830017  0.5035686449869099  0.2754410641981857   T   T   T
  0.9931149429114873  0.2509382075405878  0.2770201200720051   T   T   T
  0.4916369541184796  0.2543131128866007  0.2808472829384482   T   T   T
  0.9978857748436164  0.7516251001121267  0.2755235438757515   T   T   T
  0.4987599621833245  0.7499284151757790  0.2766897590236198   T   T   T
  0.2583630458815204  0.2543131128866007  0.2808472829384482   T   T   T
  0.7568850570885127  0.2509382075405878  0.2770201200720051   T   T   T
  0.2512400378166755  0.7499284151757790  0.2766897590236198   T   T   T
  0.7521142251563836  0.7516251001121267  0.2755235438757515   T   T   T
  0.3749999243470015  0.4188997003786753  0.3608627088105082   T   T   T
 
  0.00000000E+00  0.00000000E+00  0.00000000E+00
  0.00000000E+00  0.00000000E+00  0.00000000E+00
  0.00000000E+00  0.00000000E+00  0.00000000E+00
  0.00000000E+00  0.00000000E+00  0.00000000E+00
  0.00000000E+00  0.00000000E+00  0.00000000E+00
  0.00000000E+00  0.00000000E+00  0.00000000E+00
  0.00000000E+00  0.00000000E+00  0.00000000E+00
  0.00000000E+00  0.00000000E+00  0.00000000E+00
  0.00000000E+00  0.00000000E+00  0.00000000E+00
  0.00000000E+00  0.00000000E+00  0.00000000E+00
  0.00000000E+00  0.00000000E+00  0.00000000E+00
  0.00000000E+00  0.00000000E+00  0.00000000E+00
  0.00000000E+00  0.00000000E+00  0.00000000E+00
  0.00000000E+00  0.00000000E+00  0.00000000E+00
  0.00000000E+00  0.00000000E+00  0.00000000E+00
  0.00000000E+00  0.00000000E+00  0.00000000E+00
  0.00000000E+00  0.00000000E+00  0.00000000E+00
  0.00000000E+00  0.00000000E+00  0.00000000E+00
  0.00000000E+00  0.00000000E+00  0.00000000E+00
  0.00000000E+00  0.00000000E+00  0.00000000E+00
  0.00000000E+00  0.00000000E+00  0.00000000E+00
  0.00000000E+00  0.00000000E+00  0.00000000E+00
  0.00000000E+00  0.00000000E+00  0.00000000E+00
  0.00000000E+00  0.00000000E+00  0.00000000E+00
  0.00000000E+00  0.00000000E+00  0.00000000E+00
  0.00000000E+00  0.00000000E+00  0.00000000E+00
  0.00000000E+00  0.00000000E+00  0.00000000E+00
  0.00000000E+00  0.00000000E+00  0.00000000E+00
  0.00000000E+00  0.00000000E+00  0.00000000E+00
  0.00000000E+00  0.00000000E+00  0.00000000E+00
  0.00000000E+00  0.00000000E+00  0.00000000E+00
  0.00000000E+00  0.00000000E+00  0.00000000E+00
  0.00000000E+00  0.00000000E+00  0.00000000E+00
  0.00000000E+00  0.00000000E+00  0.00000000E+00
  0.00000000E+00  0.00000000E+00  0.00000000E+00
  0.00000000E+00  0.00000000E+00  0.00000000E+00
  0.00000000E+00  0.00000000E+00  0.00000000E+00
  0.00000000E+00  0.00000000E+00  0.00000000E+00
  0.00000000E+00  0.00000000E+00  0.00000000E+00
  0.00000000E+00  0.00000000E+00  0.00000000E+00
  0.00000000E+00  0.00000000E+00  0.00000000E+00
  0.00000000E+00  0.00000000E+00  0.00000000E+00
  0.00000000E+00  0.00000000E+00  0.00000000E+00
  0.00000000E+00  0.00000000E+00  0.00000000E+00
  0.00000000E+00  0.00000000E+00  0.00000000E+00
  0.00000000E+00  0.00000000E+00  0.00000000E+00
  0.00000000E+00  0.00000000E+00  0.00000000E+00
  0.00000000E+00  0.00000000E+00  0.00000000E+00
  0.00000000E+00  0.00000000E+00  0.00000000E+00
  0.00000000E+00  0.00000000E+00  0.00000000E+00
  0.00000000E+00  0.00000000E+00  0.00000000E+00
  0.00000000E+00  0.00000000E+00  0.00000000E+00
  0.00000000E+00  0.00000000E+00  0.00000000E+00
  0.00000000E+00  0.00000000E+00  0.00000000E+00
  0.00000000E+00  0.00000000E+00  0.00000000E+00
  0.00000000E+00  0.00000000E+00  0.00000000E+00
  0.00000000E+00  0.00000000E+00  0.00000000E+00
  0.00000000E+00  0.00000000E+00  0.00000000E+00
  0.00000000E+00  0.00000000E+00  0.00000000E+00
  0.00000000E+00  0.00000000E+00  0.00000000E+00
  0.00000000E+00  0.00000000E+00  0.00000000E+00
  0.00000000E+00  0.00000000E+00  0.00000000E+00
  0.00000000E+00  0.00000000E+00  0.00000000E+00
  0.00000000E+00  0.00000000E+00  0.00000000E+00
  0.00000000E+00  0.00000000E+00  0.00000000E+00
  0.00000000E+00  0.00000000E+00  0.00000000E+00
  0.00000000E+00  0.00000000E+00  0.00000000E+00
  0.00000000E+00  0.00000000E+00  0.00000000E+00
  0.00000000E+00  0.00000000E+00  0.00000000E+00
  0.00000000E+00  0.00000000E+00  0.00000000E+00
  0.00000000E+00  0.00000000E+00  0.00000000E+00
  0.00000000E+00  0.00000000E+00  0.00000000E+00
  0.00000000E+00  0.00000000E+00  0.00000000E+00
  0.00000000E+00  0.00000000E+00  0.00000000E+00
  0.00000000E+00  0.00000000E+00  0.00000000E+00
  0.00000000E+00  0.00000000E+00  0.00000000E+00
  0.00000000E+00  0.00000000E+00  0.00000000E+00
  0.00000000E+00  0.00000000E+00  0.00000000E+00
  0.00000000E+00  0.00000000E+00  0.00000000E+00
  0.00000000E+00  0.00000000E+00  0.00000000E+00
  0.00000000E+00  0.00000000E+00  0.00000000E+00
  0.00000000E+00  0.00000000E+00  0.00000000E+00
  0.00000000E+00  0.00000000E+00  0.00000000E+00
  0.00000000E+00  0.00000000E+00  0.00000000E+00
  0.00000000E+00  0.00000000E+00  0.00000000E+00
  0.00000000E+00  0.00000000E+00  0.00000000E+00
  0.00000000E+00  0.00000000E+00  0.00000000E+00
  0.00000000E+00  0.00000000E+00  0.00000000E+00
  0.00000000E+00  0.00000000E+00  0.00000000E+00
  0.00000000E+00  0.00000000E+00  0.00000000E+00
  0.00000000E+00  0.00000000E+00  0.00000000E+00
  0.00000000E+00  0.00000000E+00  0.00000000E+00
  0.00000000E+00  0.00000000E+00  0.00000000E+00
  0.00000000E+00  0.00000000E+00  0.00000000E+00
  0.00000000E+00  0.00000000E+00  0.00000000E+00
  0.00000000E+00  0.00000000E+00  0.00000000E+00
  0.00000000E+00  0.00000000E+00  0.00000000E+00
  0.00000000E+00  0.00000000E+00  0.00000000E+00
  0.00000000E+00  0.00000000E+00  0.00000000E+00
  0.00000000E+00  0.00000000E+00  0.00000000E+00
  0.00000000E+00  0.00000000E+00  0.00000000E+00
  0.00000000E+00  0.00000000E+00  0.00000000E+00
  0.00000000E+00  0.00000000E+00  0.00000000E+00
  0.00000000E+00  0.00000000E+00  0.00000000E+00
  0.00000000E+00  0.00000000E+00  0.00000000E+00
  0.00000000E+00  0.00000000E+00  0.00000000E+00
  0.00000000E+00  0.00000000E+00  0.00000000E+00
  0.00000000E+00  0.00000000E+00  0.00000000E+00
  0.00000000E+00  0.00000000E+00  0.00000000E+00
  0.00000000E+00  0.00000000E+00  0.00000000E+00
  0.00000000E+00  0.00000000E+00  0.00000000E+00
  0.00000000E+00  0.00000000E+00  0.00000000E+00
  0.00000000E+00  0.00000000E+00  0.00000000E+00
  0.00000000E+00  0.00000000E+00  0.00000000E+00
  0.00000000E+00  0.00000000E+00  0.00000000E+00
  0.00000000E+00  0.00000000E+00  0.00000000E+00
  0.00000000E+00  0.00000000E+00  0.00000000E+00
  0.00000000E+00  0.00000000E+00  0.00000000E+00
  0.00000000E+00  0.00000000E+00  0.00000000E+00
  0.00000000E+00  0.00000000E+00  0.00000000E+00
  0.00000000E+00  0.00000000E+00  0.00000000E+00
  0.00000000E+00  0.00000000E+00  0.00000000E+00
  0.00000000E+00  0.00000000E+00  0.00000000E+00
  0.00000000E+00  0.00000000E+00  0.00000000E+00
  0.00000000E+00  0.00000000E+00  0.00000000E+00
  0.00000000E+00  0.00000000E+00  0.00000000E+00
  0.00000000E+00  0.00000000E+00  0.00000000E+00
  0.00000000E+00  0.00000000E+00  0.00000000E+00
  0.00000000E+00  0.00000000E+00  0.00000000E+00
