Mg Na O Rh                              
   1.00000000000000     
    16.8282433949600012    0.0000000000000000    0.0000000000000000
     0.0000000000000000    8.4141216974800006    0.0000000000000000
     0.0000000000000000    0.0000000000000000   23.4141216974799988
   Mg   Na   O    Rh
    62     2    64     1
Selective dynamics
Direct
  0.1240523346107213  0.0004523942431011  0.0045672564524328   T   T   T
  0.6259476653892789  0.0004523942431011  0.0045672564524328   T   T   T
  0.1240402990455248  0.5015816643363715  0.0045759344211417   T   T   T
  0.6259597009544751  0.5015816643363715  0.0045759344211417   T   T   T
  0.3750000000000000 -0.0004853018243100  0.0032809323195310   T   T   T
  0.8750000000000000  0.0011027291601618  0.0051800087118693   T   T   T
  0.3750000000000000  0.5006867165854338  0.0032554808061259   T   T   T
  0.8750000000000000  0.5011976961485958  0.0050161123502736   T   T   T
 -0.0007925049574705  0.2509895459082202  0.0047057852581385   T   T   T
  0.5008792436117518  0.2506932961015038  0.0029516016944709   T   T   T
 -0.0004365148768584  0.7512117387508502  0.0050944068699522   T   T   T
  0.5008144088765053  0.7506731300074451  0.0039611073089497   T   T   T
  0.2491207563882482  0.2506932961015038  0.0029516016944709   T   T   T
  0.7507925049574702  0.2509895459082202  0.0047057852581385   T   T   T
  0.2491855911234945  0.7506731300074451  0.0039611073089497   T   T   T
  0.7504365148768585  0.7512117387508502  0.0050944068699522   T   T   T
  0.0000347570018809  0.0020248916219942  0.0949899041716817   T   T   T
  0.5011263320824256 -0.0003471044920212  0.0926539488558011   T   T   T
 -0.0002258533771850  0.5006499470966136  0.0947778610845911   T   T   T
  0.5010272356109388  0.5016455447863758  0.0926517513660479   T   T   T
  0.2488736679175743 -0.0003471044920212  0.0926539488558011   T   T   T
  0.7499652429981192  0.0020248916219942  0.0949899041716817   T   T   T
  0.2489727643890614  0.5016455447863758  0.0926517513660479   T   T   T
  0.7502258533771851  0.5006499470966136  0.0947778610845911   T   T   T
  0.1231745182918075  0.2510130631125586  0.0933086675122402   T   T   T
  0.6268254817081924  0.2510130631125586  0.0933086675122402   T   T   T
  0.1241345310929290  0.7513732274035978  0.0948799260258533   T   T   T
  0.6258654689070712  0.7513732274035978  0.0948799260258533   T   T   T
  0.3750000000000000  0.2497969290953913  0.0909403236359024   T   T   T
  0.8750000000000000  0.2512960803506304  0.0951312270348364   T   T   T
  0.3750000000000000  0.7483857514626076  0.0927465316722750   T   T   T
  0.8750000000000000  0.7514119608897391  0.0945809819053544   T   T   T
  0.1245600844531381  0.0067978493407352  0.1874229168960094   T   T   T
  0.6254399155468616  0.0067978493407352  0.1874229168960094   T   T   T
  0.1233728955080904  0.4964011114934129  0.1868145113655260   T   T   T
  0.6266271044919098  0.4964011114934129  0.1868145113655260   T   T   T
  0.3750000000000000  0.9918683890640420  0.1814779801285376   T   T   T
  0.8750000000000000  0.0029800570631743  0.1854191214129338   T   T   T
  0.3750000000000000  0.4982567258626959  0.1826581611882164   T   T   T
  0.8750000000000000  0.5004976030106298  0.1851862355441936   T   T   T
  0.0018514154370078  0.2514589906948116  0.1874505824217931   T   T   T
  0.5037036676915010  0.2516263609924927  0.1780479554773566   T   T   T
 -0.0003680234828333  0.7519711183916584  0.1851642708980033   T   T   T
  0.5015037897872040  0.7487950327617714  0.1847535297556411   T   T   T
  0.2462963323084992  0.2516263609924927  0.1780479554773566   T   T   T
  0.7481485845629924  0.2514589906948116  0.1874505824217931   T   T   T
  0.2484962102127959  0.7487950327617714  0.1847535297556411   T   T   T
  0.7503680234828330  0.7519711183916584  0.1851642708980033   T   T   T
 -0.0005873140708428  0.0049200351588523  0.2747500121173886   T   T   T
  0.5022676332726574  0.9864688224547086  0.2764498324305746   T   T   T
  0.9991866717111196  0.4994200722315479  0.2744214251504594   T   T   T
  0.5069413027362780  0.5079343160861762  0.2751174563780067   T   T   T
  0.2477323667273424  0.9864688224547086  0.2764498324305746   T   T   T
  0.7505873140708430  0.0049200351588523  0.2747500121173886   T   T   T
  0.2430586972637217  0.5079343160861762  0.2751174563780067   T   T   T
  0.7508133282888804  0.4994200722315479  0.2744214251504594   T   T   T
  0.1209620192491563  0.7517968172747820  0.2743465361349349   T   T   T
  0.6290379807508438  0.7517968172747820  0.2743465361349349   T   T   T
  0.3750000000000000  0.2158225572581452  0.2637243825043447   T   T   T
  0.8750000000000000  0.2517715671127574  0.2747042940487939   T   T   T
  0.3750000000000000  0.7528342429582660  0.2735209380509304   T   T   T
  0.8750000000000000  0.7524355756116197  0.2738455313003703   T   T   T
  0.1242574253224978  0.2531035082453791  0.3021866740621781   T   T   T
  0.6257425746775095  0.2531035082453791  0.3021866740621781   T   T   T
  0.0000655266809453  0.0008995274939941  0.0026267898554570   T   T   T
  0.4998402360497274 -0.0000536548386478  0.0017639600218019   T   T   T
  0.0000328133381993  0.5013611077812389  0.0025222098976141   T   T   T
  0.4998786431827915  0.5014079883979652  0.0017976059287328   T   T   T
  0.2501597639502726 -0.0000536548386478  0.0017639600218019   T   T   T
  0.7499344733190545  0.0008995274939941  0.0026267898554570   T   T   T
  0.2501213568172085  0.5014079883979652  0.0017976059287328   T   T   T
  0.7499671866618005  0.5013611077812389  0.0025222098976141   T   T   T
  0.1249611022328534  0.2509871795543172  0.0018211874069288   T   T   T
  0.6250388977671466  0.2509871795543172  0.0018211874069288   T   T   T
  0.1251767854105857  0.7510259857712964  0.0025096588793373   T   T   T
  0.6248232145894141  0.7510259857712964  0.0025096588793373   T   T   T
  0.3750000000000000  0.2501989492614416  0.0006952318043060   T   T   T
  0.8750000000000000  0.2510555245105225  0.0022394467772974   T   T   T
  0.3750000000000000  0.7500857379390734  0.0019929490903024   T   T   T
  0.8750000000000000  0.7512428578385805  0.0025975509358577   T   T   T
  0.1260240197477245  0.0007109572178190  0.0942387219203283   T   T   T
  0.6239759802522754  0.0007109572178190  0.0942387219203283   T   T   T
  0.1258872595225091  0.5016938248974380  0.0942334085321725   T   T   T
  0.6241127404774908  0.5016938248974380  0.0942334085321725   T   T   T
  0.3750000000000000 -0.0008781231269092  0.0937486498897217   T   T   T
  0.8750000000000000  0.0011764741044046  0.0945296504189415   T   T   T
  0.3750000000000000  0.4993379622520959  0.0937553416310874   T   T   T
  0.8750000000000000  0.5015657918559762  0.0942762895707350   T   T   T
 -0.0000036972497405  0.2512399214574604  0.0940847470416134   T   T   T
  0.4988786467366007  0.2505379987162509  0.0920718619330112   T   T   T
  0.0002524287374039  0.7514532545346349  0.0945197503964551   T   T   T
  0.4992679689188663  0.7506952671875626  0.0949728628046784   T   T   T
  0.2511213532633993  0.2505379987162509  0.0920718619330112   T   T   T
  0.7500036972497408  0.2512399214574604  0.0940847470416134   T   T   T
  0.2507320310811337  0.7506952671875626  0.0949728628046784   T   T   T
  0.7497475712625959  0.7514532545346349  0.0945197503964551   T   T   T
  0.0011235575660238  0.0021811578313998  0.1848044281111728   T   T   T
  0.4983387353876821  0.0070357798200555  0.1867636376442945   T   T   T
  0.0003954710093218  0.5012954877050776  0.1843756741997154   T   T   T
  0.4984531493416540  0.4949468779500332  0.1862341684347595   T   T   T
  0.2516612646123179  0.0070357798200555  0.1867636376442945   T   T   T
  0.7488764424339763  0.0021811578313998  0.1848044281111728   T   T   T
  0.2515468506583460  0.4949468779500332  0.1862341684347595   T   T   T
  0.7496045289906781  0.5012954877050776  0.1843756741997154   T   T   T
  0.1272740282486387  0.2514985064894777  0.1814390986087045   T   T   T
  0.6227259717513614  0.2514985064894777  0.1814390986087045   T   T   T
  0.1261883041340499  0.7518596507441010  0.1840737294256601   T   T   T
  0.6238116958659502  0.7518596507441010  0.1840737294256601   T   T   T
  0.3750000000000000  0.2492588723039093  0.1823900620597523   T   T   T
  0.8750000000000000  0.2515176957890842  0.1836732045612182   T   T   T
  0.3750000000000000  0.7450949215756624  0.1840742878095127   T   T   T
  0.8750000000000000  0.7519283039916166  0.1835168284442316   T   T   T
  0.1280212874331400  0.9896151033419782  0.2784742000890003   T   T   T
  0.6219786621328633  0.9896151033419782  0.2784742000890003   T   T   T
  0.1242942158923070  0.5149843647154707  0.2770712270558813   T   T   T
  0.6257057336736968  0.5149843647154707  0.2770712270558813   T   T   T
  0.3749999747830017  0.9897553370088717  0.2741317917093736   T   T   T
  0.8749999747830017  0.9986226166874067  0.2757406302195665   T   T   T
  0.3749999243470015  0.5114642436033682  0.2797846667749098   T   T   T
  0.8749999747830017  0.5057499021759396  0.2756592814168891   T   T   T
  0.9934215654251564  0.2515991386091427  0.2775438582931457   T   T   T
  0.4783518842787586  0.2771987572065930  0.3028375084905219   T   T   T
  0.9986855959903731  0.7532482383292350  0.2757700745738244   T   T   T
  0.4973753099092857  0.7480885480093985  0.2761509239039242   T   T   T
  0.2716481157212414  0.2771987572065930  0.3028375084905219   T   T   T
  0.7565784345748436  0.2515991386091427  0.2775438582931457   T   T   T
  0.2526246900907143  0.7480885480093985  0.2761509239039242   T   T   T
  0.7513144040096269  0.7532482383292350  0.2757700745738244   T   T   T
  0.3749999243470015  0.3694125089759151  0.3463357608089300   T   T   T
 
  0.00000000E+00  0.00000000E+00  0.00000000E+00
  0.00000000E+00  0.00000000E+00  0.00000000E+00
  0.00000000E+00  0.00000000E+00  0.00000000E+00
  0.00000000E+00  0.00000000E+00  0.00000000E+00
  0.00000000E+00  0.00000000E+00  0.00000000E+00
  0.00000000E+00  0.00000000E+00  0.00000000E+00
  0.00000000E+00  0.00000000E+00  0.00000000E+00
  0.00000000E+00  0.00000000E+00  0.00000000E+00
  0.00000000E+00  0.00000000E+00  0.00000000E+00
  0.00000000E+00  0.00000000E+00  0.00000000E+00
  0.00000000E+00  0.00000000E+00  0.00000000E+00
  0.00000000E+00  0.00000000E+00  0.00000000E+00
  0.00000000E+00  0.00000000E+00  0.00000000E+00
  0.00000000E+00  0.00000000E+00  0.00000000E+00
  0.00000000E+00  0.00000000E+00  0.00000000E+00
  0.00000000E+00  0.00000000E+00  0.00000000E+00
  0.00000000E+00  0.00000000E+00  0.00000000E+00
  0.00000000E+00  0.00000000E+00  0.00000000E+00
  0.00000000E+00  0.00000000E+00  0.00000000E+00
  0.00000000E+00  0.00000000E+00  0.00000000E+00
  0.00000000E+00  0.00000000E+00  0.00000000E+00
  0.00000000E+00  0.00000000E+00  0.00000000E+00
  0.00000000E+00  0.00000000E+00  0.00000000E+00
  0.00000000E+00  0.00000000E+00  0.00000000E+00
  0.00000000E+00  0.00000000E+00  0.00000000E+00
  0.00000000E+00  0.00000000E+00  0.00000000E+00
  0.00000000E+00  0.00000000E+00  0.00000000E+00
  0.00000000E+00  0.00000000E+00  0.00000000E+00
  0.00000000E+00  0.00000000E+00  0.00000000E+00
  0.00000000E+00  0.00000000E+00  0.00000000E+00
  0.00000000E+00  0.00000000E+00  0.00000000E+00
  0.00000000E+00  0.00000000E+00  0.00000000E+00
  0.00000000E+00  0.00000000E+00  0.00000000E+00
  0.00000000E+00  0.00000000E+00  0.00000000E+00
  0.00000000E+00  0.00000000E+00  0.00000000E+00
  0.00000000E+00  0.00000000E+00  0.00000000E+00
  0.00000000E+00  0.00000000E+00  0.00000000E+00
  0.00000000E+00  0.00000000E+00  0.00000000E+00
  0.00000000E+00  0.00000000E+00  0.00000000E+00
  0.00000000E+00  0.00000000E+00  0.00000000E+00
  0.00000000E+00  0.00000000E+00  0.00000000E+00
  0.00000000E+00  0.00000000E+00  0.00000000E+00
  0.00000000E+00  0.00000000E+00  0.00000000E+00
  0.00000000E+00  0.00000000E+00  0.00000000E+00
  0.00000000E+00  0.00000000E+00  0.00000000E+00
  0.00000000E+00  0.00000000E+00  0.00000000E+00
  0.00000000E+00  0.00000000E+00  0.00000000E+00
  0.00000000E+00  0.00000000E+00  0.00000000E+00
  0.00000000E+00  0.00000000E+00  0.00000000E+00
  0.00000000E+00  0.00000000E+00  0.00000000E+00
  0.00000000E+00  0.00000000E+00  0.00000000E+00
  0.00000000E+00  0.00000000E+00  0.00000000E+00
  0.00000000E+00  0.00000000E+00  0.00000000E+00
  0.00000000E+00  0.00000000E+00  0.00000000E+00
  0.00000000E+00  0.00000000E+00  0.00000000E+00
  0.00000000E+00  0.00000000E+00  0.00000000E+00
  0.00000000E+00  0.00000000E+00  0.00000000E+00
  0.00000000E+00  0.00000000E+00  0.00000000E+00
  0.00000000E+00  0.00000000E+00  0.00000000E+00
  0.00000000E+00  0.00000000E+00  0.00000000E+00
  0.00000000E+00  0.00000000E+00  0.00000000E+00
  0.00000000E+00  0.00000000E+00  0.00000000E+00
  0.00000000E+00  0.00000000E+00  0.00000000E+00
  0.00000000E+00  0.00000000E+00  0.00000000E+00
  0.00000000E+00  0.00000000E+00  0.00000000E+00
  0.00000000E+00  0.00000000E+00  0.00000000E+00
  0.00000000E+00  0.00000000E+00  0.00000000E+00
  0.00000000E+00  0.00000000E+00  0.00000000E+00
  0.00000000E+00  0.00000000E+00  0.00000000E+00
  0.00000000E+00  0.00000000E+00  0.00000000E+00
  0.00000000E+00  0.00000000E+00  0.00000000E+00
  0.00000000E+00  0.00000000E+00  0.00000000E+00
  0.00000000E+00  0.00000000E+00  0.00000000E+00
  0.00000000E+00  0.00000000E+00  0.00000000E+00
  0.00000000E+00  0.00000000E+00  0.00000000E+00
  0.00000000E+00  0.00000000E+00  0.00000000E+00
  0.00000000E+00  0.00000000E+00  0.00000000E+00
  0.00000000E+00  0.00000000E+00  0.00000000E+00
  0.00000000E+00  0.00000000E+00  0.00000000E+00
  0.00000000E+00  0.00000000E+00  0.00000000E+00
  0.00000000E+00  0.00000000E+00  0.00000000E+00
  0.00000000E+00  0.00000000E+00  0.00000000E+00
  0.00000000E+00  0.00000000E+00  0.00000000E+00
  0.00000000E+00  0.00000000E+00  0.00000000E+00
  0.00000000E+00  0.00000000E+00  0.00000000E+00
  0.00000000E+00  0.00000000E+00  0.00000000E+00
  0.00000000E+00  0.00000000E+00  0.00000000E+00
  0.00000000E+00  0.00000000E+00  0.00000000E+00
  0.00000000E+00  0.00000000E+00  0.00000000E+00
  0.00000000E+00  0.00000000E+00  0.00000000E+00
  0.00000000E+00  0.00000000E+00  0.00000000E+00
  0.00000000E+00  0.00000000E+00  0.00000000E+00
  0.00000000E+00  0.00000000E+00  0.00000000E+00
  0.00000000E+00  0.00000000E+00  0.00000000E+00
  0.00000000E+00  0.00000000E+00  0.00000000E+00
  0.00000000E+00  0.00000000E+00  0.00000000E+00
  0.00000000E+00  0.00000000E+00  0.00000000E+00
  0.00000000E+00  0.00000000E+00  0.00000000E+00
  0.00000000E+00  0.00000000E+00  0.00000000E+00
  0.00000000E+00  0.00000000E+00  0.00000000E+00
  0.00000000E+00  0.00000000E+00  0.00000000E+00
  0.00000000E+00  0.00000000E+00  0.00000000E+00
  0.00000000E+00  0.00000000E+00  0.00000000E+00
  0.00000000E+00  0.00000000E+00  0.00000000E+00
  0.00000000E+00  0.00000000E+00  0.00000000E+00
  0.00000000E+00  0.00000000E+00  0.00000000E+00
  0.00000000E+00  0.00000000E+00  0.00000000E+00
  0.00000000E+00  0.00000000E+00  0.00000000E+00
  0.00000000E+00  0.00000000E+00  0.00000000E+00
  0.00000000E+00  0.00000000E+00  0.00000000E+00
  0.00000000E+00  0.00000000E+00  0.00000000E+00
  0.00000000E+00  0.00000000E+00  0.00000000E+00
  0.00000000E+00  0.00000000E+00  0.00000000E+00
  0.00000000E+00  0.00000000E+00  0.00000000E+00
  0.00000000E+00  0.00000000E+00  0.00000000E+00
  0.00000000E+00  0.00000000E+00  0.00000000E+00
  0.00000000E+00  0.00000000E+00  0.00000000E+00
  0.00000000E+00  0.00000000E+00  0.00000000E+00
  0.00000000E+00  0.00000000E+00  0.00000000E+00
  0.00000000E+00  0.00000000E+00  0.00000000E+00
  0.00000000E+00  0.00000000E+00  0.00000000E+00
  0.00000000E+00  0.00000000E+00  0.00000000E+00
  0.00000000E+00  0.00000000E+00  0.00000000E+00
  0.00000000E+00  0.00000000E+00  0.00000000E+00
  0.00000000E+00  0.00000000E+00  0.00000000E+00
  0.00000000E+00  0.00000000E+00  0.00000000E+00
  0.00000000E+00  0.00000000E+00  0.00000000E+00
  0.00000000E+00  0.00000000E+00  0.00000000E+00
  0.00000000E+00  0.00000000E+00  0.00000000E+00
