Mg Na O Ni                              
   1.00000000000000     
    16.8282433949600012    0.0000000000000000    0.0000000000000000
     0.0000000000000000    8.4141216974800006    0.0000000000000000
     0.0000000000000000    0.0000000000000000   23.4141216974799988
   Mg   Na   O    Ni
    62     2    64     1
Selective dynamics
Direct
  0.1248386874948772  0.9998437259758889  0.0048301762042824   T   T   T
  0.6251613125051230  0.9998437259758889  0.0048301762042824   T   T   T
  0.1247514744688561  0.5002362744979906  0.0046746665311652   T   T   T
  0.6252485255311437  0.5002362744979906  0.0046746665311652   T   T   T
  0.3750000000000000  0.0000220756296577  0.0045680124109346   T   T   T
  0.8750000000000000  0.0000859253946948  0.0049290547090549   T   T   T
  0.3750000000000000  0.4998958762363874  0.0042215554480427   T   T   T
  0.8750000000000000  0.4999370707642279  0.0048295695005573   T   T   T
  0.9997918607292647  0.2499443428737646  0.0048129628009369   T   T   T
  0.5001067908756783  0.2498934651918305  0.0046286027050297   T   T   T
  0.9999318926825508  0.7501007124964404  0.0049301827981707   T   T   T
  0.5002495642389083  0.7501273495759239  0.0047534208521794   T   T   T
  0.2498932091243216  0.2498934651918305  0.0046286027050297   T   T   T
  0.7502081392707353  0.2499443428737646  0.0048129628009369   T   T   T
  0.2497504357610915  0.7501273495759239  0.0047534208521794   T   T   T
  0.7500681073174492  0.7501007124964404  0.0049301827981707   T   T   T
  0.0002101938245533  0.0006972677645204  0.0944911153939244   T   T   T
  0.5005987865310226  0.0006185838454243  0.0943691061307399   T   T   T
 -0.0000076582342867  0.4994192861483352  0.0943344468070576   T   T   T
  0.5008850240339323  0.4994275973011767  0.0937962495075665   T   T   T
  0.2494012134689773  0.0006185838454243  0.0943691061307399   T   T   T
  0.7497898061754467  0.0006972677645204  0.0944911153939244   T   T   T
  0.2491149759660677  0.4994275973011767  0.0937962495075665   T   T   T
  0.7500076582342865  0.4994192861483352  0.0943344468070576   T   T   T
  0.1247802726741315  0.2499070884962621  0.0940487840694084   T   T   T
  0.6252197273258684  0.2499070884962621  0.0940487840694084   T   T   T
  0.1247307559407121  0.7502572083791643  0.0946530831774892   T   T   T
  0.6252692440592880  0.7502572083791643  0.0946530831774892   T   T   T
  0.3750000000000000  0.2494062111180596  0.0938692911021889   T   T   T
  0.8750000000000000  0.2499318051589211  0.0946346461841686   T   T   T
  0.3750000000000000  0.7503211979052711  0.0936149487591327   T   T   T
  0.8750000000000000  0.7501213510769652  0.0942075756909496   T   T   T
  0.1247283510306801  0.0046700525135108  0.1864188603544769   T   T   T
  0.6252716489693200  0.0046700525135108  0.1864188603544769   T   T   T
  0.1233653031553511  0.4957976225419937  0.1858878584219575   T   T   T
  0.6266346968446489  0.4957976225419937  0.1858878584219575   T   T   T
  0.3750000000000000  0.0005801892007099  0.1838949985479330   T   T   T
  0.8750000000000000  0.0010224830705230  0.1846747852458754   T   T   T
  0.3750000000000000  0.4988484635481399  0.1806757656274127   T   T   T
  0.8750000000000000  0.4991323312390776  0.1845595317131145   T   T   T
  0.0020810306610202  0.2499288831734348  0.1864180580699244   T   T   T
  0.5025185043582012  0.2503567708825855  0.1861813142815375   T   T   T
 -0.0000796113720121  0.7502775931220538  0.1846670985819241   T   T   T
  0.5009919162819038  0.7497455374224898  0.1848016664336235   T   T   T
  0.2474814956417987  0.2503567708825855  0.1861813142815375   T   T   T
  0.7479189693389798  0.2499288831734348  0.1864180580699244   T   T   T
  0.2490080837180961  0.7497455374224898  0.1848016664336235   T   T   T
  0.7500796113720123  0.7502775931220538  0.1846670985819241   T   T   T
  0.0001959151426319  0.0014873051456414  0.2740730519307497   T   T   T
  0.5020782592498338  0.0008324167397874  0.2741829410054097   T   T   T
 -0.0004891683710609  0.4986799140868810  0.2740669449016609   T   T   T
  0.5092969285846887  0.4982958480894002  0.2737313420283878   T   T   T
  0.2479217407501660  0.0008324167397874  0.2741829410054097   T   T   T
  0.7498040848573680  0.0014873051456414  0.2740730519307497   T   T   T
  0.2407030714153111  0.4982958480894002  0.2737313420283878   T   T   T
  0.7504891683710609  0.4986799140868810  0.2740669449016609   T   T   T
  0.1226728374836282  0.7503778519943296  0.2741731685755308   T   T   T
  0.6273271625163717  0.7503778519943296  0.2741731685755308   T   T   T
  0.3750000000000000  0.2358667851907592  0.2732431977922806   T   T   T
  0.8750000000000000  0.2496060869588435  0.2740471284947158   T   T   T
  0.3750000000000000  0.7614539058176926  0.2728927864553473   T   T   T
  0.8750000000000000  0.7505580056933635  0.2734904176287117   T   T   T
  0.1238565259513199  0.2494175239330636  0.2996656018198072   T   T   T
  0.6261434740486800  0.2494175239330636  0.2996656018198072   T   T   T
  0.0000749347197598  0.9998950110053895  0.0025765618032224   T   T   T
  0.4998109729590061  0.9998540221121823  0.0027156292566549   T   T   T
  0.0000960094267615  0.5001661324820158  0.0025255550904787   T   T   T
  0.4999406431126188  0.5001742652110186  0.0023910646758559   T   T   T
  0.2501890270409939  0.9998540221121823  0.0027156292566549   T   T   T
  0.7499250652802403  0.9998950110053895  0.0025765618032224   T   T   T
  0.2500593568873812  0.5001742652110186  0.0023910646758559   T   T   T
  0.7499039905732386  0.5001661324820158  0.0025255550904787   T   T   T
  0.1251405679587901  0.2500320535309424  0.0024548963097065   T   T   T
  0.6248594320412100  0.2500320535309424  0.0024548963097065   T   T   T
  0.1251447156419673  0.7500490728979990  0.0025318916126016   T   T   T
  0.6248552843580325  0.7500490728979990  0.0025318916126016   T   T   T
  0.3750000000000000  0.2497216206187663  0.0022519094135491   T   T   T
  0.8750000000000000  0.2499462951128974  0.0023954798152909   T   T   T
  0.3750000000000000  0.7502053340023423  0.0024847404657678   T   T   T
  0.8750000000000000  0.7500842115900067  0.0026006604638568   T   T   T
  0.1253120969620707  0.9993085042779882  0.0943673392938057   T   T   T
  0.6246879030379294  0.9993085042779882  0.0943673392938057   T   T   T
  0.1253057919982512  0.5008718863329537  0.0943853805293939   T   T   T
  0.6246942080017488  0.5008718863329537  0.0943853805293939   T   T   T
  0.3750000000000000  0.9996480092248614  0.0949122354999021   T   T   T
  0.8750000000000000  0.9998743898884176  0.0944706182604579   T   T   T
  0.3750000000000000  0.5001236934455447  0.0937973786128303   T   T   T
  0.8750000000000000  0.5001889431490428  0.0943489429328636   T   T   T
  0.9997798016217315  0.2500280624370509  0.0941843206381633   T   T   T
  0.4992364252213964  0.2503961266476070  0.0944308655652095   T   T   T
  0.0000391035802730  0.7500971603905553  0.0944829968097850   T   T   T
  0.4995566876012471  0.7496267060612396  0.0948342168479562   T   T   T
  0.2507635747786036  0.2503961266476070  0.0944308655652095   T   T   T
  0.7502201983782685  0.2500280624370509  0.0941843206381633   T   T   T
  0.2504433123987529  0.7496267060612396  0.0948342168479562   T   T   T
  0.7499608964197269  0.7500971603905553  0.0944829968097850   T   T   T
  0.0003800219666745  0.0004620219932621  0.1846970344346952   T   T   T
  0.4995671478324519  0.0005377852832202  0.1851985790246768   T   T   T
 -0.0002717541635625  0.4997475355586418  0.1844868540624493   T   T   T
  0.4987235118266068  0.4996095813452133  0.1858972329427454   T   T   T
  0.2504328521675481  0.0005377852832202  0.1851985790246768   T   T   T
  0.7496199780333256  0.0004620219932621  0.1846970344346952   T   T   T
  0.2512764881733932  0.4996095813452133  0.1858972329427454   T   T   T
  0.7502717541635626  0.4997475355586418  0.1844868540624493   T   T   T
  0.1253992876405469  0.2504885238748360  0.1815516117394910   T   T   T
  0.6246007123594529  0.2504885238748360  0.1815516117394910   T   T   T
  0.1251594263222611  0.7497479148121059  0.1841343771243219   T   T   T
  0.6248405736777386  0.7497479148121059  0.1841343771243219   T   T   T
  0.3750000000000000  0.2528980310255403  0.1848257876980496   T   T   T
  0.8750000000000000  0.2499153670593735  0.1838945149332731   T   T   T
  0.3750000000000000  0.7463010185731421  0.1848716392744018   T   T   T
  0.8750000000000000  0.7502382110956582  0.1836983776082734   T   T   T
  0.1256233053135268  0.9861633193718571  0.2777399161108996   T   T   T
  0.6243766442524767  0.9861633193718571  0.2777399161108996   T   T   T
  0.1222766528632514  0.5140923975334366  0.2775089827971826   T   T   T
  0.6277232967027522  0.5140923975334366  0.2775089827971826   T   T   T
  0.3749999747830017  0.9973653430643626  0.2758292466873613   T   T   T
  0.8749999747830017  0.9976006834435850  0.2757801309146740   T   T   T
  0.3749999243470015  0.5059853311601407  0.2848888783692999   T   T   T
  0.8749999747830017  0.5027368319249332  0.2758385454405022   T   T   T
  0.9930477590739163  0.2493718747640050  0.2773446222156070   T   T   T
  0.4923122391864965  0.2540129658468886  0.2784701858446308   T   T   T
  0.9978892706138772  0.7511043927739307  0.2758054851659620   T   T   T
  0.4977388721127105  0.7471793075020794  0.2763491370506572   T   T   T
  0.2576877608135035  0.2540129658468886  0.2784701858446308   T   T   T
  0.7569522409260837  0.2493718747640050  0.2773446222156070   T   T   T
  0.2522611278872895  0.7471793075020794  0.2763491370506572   T   T   T
  0.7521107293861228  0.7511043927739307  0.2758054851659620   T   T   T
  0.3749999243470015  0.4964447715504615  0.3587469292940290   T   T   T
 
  0.00000000E+00  0.00000000E+00  0.00000000E+00
  0.00000000E+00  0.00000000E+00  0.00000000E+00
  0.00000000E+00  0.00000000E+00  0.00000000E+00
  0.00000000E+00  0.00000000E+00  0.00000000E+00
  0.00000000E+00  0.00000000E+00  0.00000000E+00
  0.00000000E+00  0.00000000E+00  0.00000000E+00
  0.00000000E+00  0.00000000E+00  0.00000000E+00
  0.00000000E+00  0.00000000E+00  0.00000000E+00
  0.00000000E+00  0.00000000E+00  0.00000000E+00
  0.00000000E+00  0.00000000E+00  0.00000000E+00
  0.00000000E+00  0.00000000E+00  0.00000000E+00
  0.00000000E+00  0.00000000E+00  0.00000000E+00
  0.00000000E+00  0.00000000E+00  0.00000000E+00
  0.00000000E+00  0.00000000E+00  0.00000000E+00
  0.00000000E+00  0.00000000E+00  0.00000000E+00
  0.00000000E+00  0.00000000E+00  0.00000000E+00
  0.00000000E+00  0.00000000E+00  0.00000000E+00
  0.00000000E+00  0.00000000E+00  0.00000000E+00
  0.00000000E+00  0.00000000E+00  0.00000000E+00
  0.00000000E+00  0.00000000E+00  0.00000000E+00
  0.00000000E+00  0.00000000E+00  0.00000000E+00
  0.00000000E+00  0.00000000E+00  0.00000000E+00
  0.00000000E+00  0.00000000E+00  0.00000000E+00
  0.00000000E+00  0.00000000E+00  0.00000000E+00
  0.00000000E+00  0.00000000E+00  0.00000000E+00
  0.00000000E+00  0.00000000E+00  0.00000000E+00
  0.00000000E+00  0.00000000E+00  0.00000000E+00
  0.00000000E+00  0.00000000E+00  0.00000000E+00
  0.00000000E+00  0.00000000E+00  0.00000000E+00
  0.00000000E+00  0.00000000E+00  0.00000000E+00
  0.00000000E+00  0.00000000E+00  0.00000000E+00
  0.00000000E+00  0.00000000E+00  0.00000000E+00
  0.00000000E+00  0.00000000E+00  0.00000000E+00
  0.00000000E+00  0.00000000E+00  0.00000000E+00
  0.00000000E+00  0.00000000E+00  0.00000000E+00
  0.00000000E+00  0.00000000E+00  0.00000000E+00
  0.00000000E+00  0.00000000E+00  0.00000000E+00
  0.00000000E+00  0.00000000E+00  0.00000000E+00
  0.00000000E+00  0.00000000E+00  0.00000000E+00
  0.00000000E+00  0.00000000E+00  0.00000000E+00
  0.00000000E+00  0.00000000E+00  0.00000000E+00
  0.00000000E+00  0.00000000E+00  0.00000000E+00
  0.00000000E+00  0.00000000E+00  0.00000000E+00
  0.00000000E+00  0.00000000E+00  0.00000000E+00
  0.00000000E+00  0.00000000E+00  0.00000000E+00
  0.00000000E+00  0.00000000E+00  0.00000000E+00
  0.00000000E+00  0.00000000E+00  0.00000000E+00
  0.00000000E+00  0.00000000E+00  0.00000000E+00
  0.00000000E+00  0.00000000E+00  0.00000000E+00
  0.00000000E+00  0.00000000E+00  0.00000000E+00
  0.00000000E+00  0.00000000E+00  0.00000000E+00
  0.00000000E+00  0.00000000E+00  0.00000000E+00
  0.00000000E+00  0.00000000E+00  0.00000000E+00
  0.00000000E+00  0.00000000E+00  0.00000000E+00
  0.00000000E+00  0.00000000E+00  0.00000000E+00
  0.00000000E+00  0.00000000E+00  0.00000000E+00
  0.00000000E+00  0.00000000E+00  0.00000000E+00
  0.00000000E+00  0.00000000E+00  0.00000000E+00
  0.00000000E+00  0.00000000E+00  0.00000000E+00
  0.00000000E+00  0.00000000E+00  0.00000000E+00
  0.00000000E+00  0.00000000E+00  0.00000000E+00
  0.00000000E+00  0.00000000E+00  0.00000000E+00
  0.00000000E+00  0.00000000E+00  0.00000000E+00
  0.00000000E+00  0.00000000E+00  0.00000000E+00
  0.00000000E+00  0.00000000E+00  0.00000000E+00
  0.00000000E+00  0.00000000E+00  0.00000000E+00
  0.00000000E+00  0.00000000E+00  0.00000000E+00
  0.00000000E+00  0.00000000E+00  0.00000000E+00
  0.00000000E+00  0.00000000E+00  0.00000000E+00
  0.00000000E+00  0.00000000E+00  0.00000000E+00
  0.00000000E+00  0.00000000E+00  0.00000000E+00
  0.00000000E+00  0.00000000E+00  0.00000000E+00
  0.00000000E+00  0.00000000E+00  0.00000000E+00
  0.00000000E+00  0.00000000E+00  0.00000000E+00
  0.00000000E+00  0.00000000E+00  0.00000000E+00
  0.00000000E+00  0.00000000E+00  0.00000000E+00
  0.00000000E+00  0.00000000E+00  0.00000000E+00
  0.00000000E+00  0.00000000E+00  0.00000000E+00
  0.00000000E+00  0.00000000E+00  0.00000000E+00
  0.00000000E+00  0.00000000E+00  0.00000000E+00
  0.00000000E+00  0.00000000E+00  0.00000000E+00
  0.00000000E+00  0.00000000E+00  0.00000000E+00
  0.00000000E+00  0.00000000E+00  0.00000000E+00
  0.00000000E+00  0.00000000E+00  0.00000000E+00
  0.00000000E+00  0.00000000E+00  0.00000000E+00
  0.00000000E+00  0.00000000E+00  0.00000000E+00
  0.00000000E+00  0.00000000E+00  0.00000000E+00
  0.00000000E+00  0.00000000E+00  0.00000000E+00
  0.00000000E+00  0.00000000E+00  0.00000000E+00
  0.00000000E+00  0.00000000E+00  0.00000000E+00
  0.00000000E+00  0.00000000E+00  0.00000000E+00
  0.00000000E+00  0.00000000E+00  0.00000000E+00
  0.00000000E+00  0.00000000E+00  0.00000000E+00
  0.00000000E+00  0.00000000E+00  0.00000000E+00
  0.00000000E+00  0.00000000E+00  0.00000000E+00
  0.00000000E+00  0.00000000E+00  0.00000000E+00
  0.00000000E+00  0.00000000E+00  0.00000000E+00
  0.00000000E+00  0.00000000E+00  0.00000000E+00
  0.00000000E+00  0.00000000E+00  0.00000000E+00
  0.00000000E+00  0.00000000E+00  0.00000000E+00
  0.00000000E+00  0.00000000E+00  0.00000000E+00
  0.00000000E+00  0.00000000E+00  0.00000000E+00
  0.00000000E+00  0.00000000E+00  0.00000000E+00
  0.00000000E+00  0.00000000E+00  0.00000000E+00
  0.00000000E+00  0.00000000E+00  0.00000000E+00
  0.00000000E+00  0.00000000E+00  0.00000000E+00
  0.00000000E+00  0.00000000E+00  0.00000000E+00
  0.00000000E+00  0.00000000E+00  0.00000000E+00
  0.00000000E+00  0.00000000E+00  0.00000000E+00
  0.00000000E+00  0.00000000E+00  0.00000000E+00
  0.00000000E+00  0.00000000E+00  0.00000000E+00
  0.00000000E+00  0.00000000E+00  0.00000000E+00
  0.00000000E+00  0.00000000E+00  0.00000000E+00
  0.00000000E+00  0.00000000E+00  0.00000000E+00
  0.00000000E+00  0.00000000E+00  0.00000000E+00
  0.00000000E+00  0.00000000E+00  0.00000000E+00
  0.00000000E+00  0.00000000E+00  0.00000000E+00
  0.00000000E+00  0.00000000E+00  0.00000000E+00
  0.00000000E+00  0.00000000E+00  0.00000000E+00
  0.00000000E+00  0.00000000E+00  0.00000000E+00
  0.00000000E+00  0.00000000E+00  0.00000000E+00
  0.00000000E+00  0.00000000E+00  0.00000000E+00
  0.00000000E+00  0.00000000E+00  0.00000000E+00
  0.00000000E+00  0.00000000E+00  0.00000000E+00
  0.00000000E+00  0.00000000E+00  0.00000000E+00
  0.00000000E+00  0.00000000E+00  0.00000000E+00
  0.00000000E+00  0.00000000E+00  0.00000000E+00
  0.00000000E+00  0.00000000E+00  0.00000000E+00
  0.00000000E+00  0.00000000E+00  0.00000000E+00
