Mg Na O V                               
   1.00000000000000     
    16.8282433949600012    0.0000000000000000    0.0000000000000000
     0.0000000000000000    8.4141216974800006    0.0000000000000000
     0.0000000000000000    0.0000000000000000   23.4141216974799988
   Mg   Na   O    V 
    62     2    64     1
Selective dynamics
Direct
  0.1236755408246368  0.0003552250123948  0.0042356883151704   T   T   T
  0.6263244591753632  0.0003552250123948  0.0042356883151704   T   T   T
  0.1237681060367724  0.5016806831678030  0.0043362760022285   T   T   T
  0.6262318939632275  0.5016806831678030  0.0043362760022285   T   T   T
  0.3750000000000000  0.9996013714285801  0.0025486443101166   T   T   T
  0.8750000000000000  0.0010934547817885  0.0055332441685451   T   T   T
  0.3750000000000000  0.5008431338929351  0.0026060862238191   T   T   T
  0.8750000000000000  0.5011496232330845  0.0055668747915927   T   T   T
  0.9989322537945299  0.2511227714497605  0.0048353512356169   T   T   T
  0.5010902352355672  0.2506712977845096  0.0021481759178190   T   T   T
  0.9993381444380428  0.7510956869471116  0.0053202533300549   T   T   T
  0.5010251234141697  0.7507147082693649  0.0033544907095045   T   T   T
  0.2489097647644326  0.2506712977845096  0.0021481759178190   T   T   T
  0.7510677462054701  0.2511227714497605  0.0048353512356169   T   T   T
  0.2489748765858306  0.7507147082693649  0.0033544907095045   T   T   T
  0.7506618555619572  0.7510956869471116  0.0053202533300549   T   T   T
  0.0000732403244674  0.0019125562768257  0.0952050546265053   T   T   T
  0.5011203932225442  0.9993400836543945  0.0918356868133877   T   T   T
 -0.0000211569388419  0.5005494317883731  0.0951472871303773   T   T   T
  0.5008178549792813  0.5017218385879292  0.0920031525880304   T   T   T
  0.2488796067774559  0.9993400836543945  0.0918356868133877   T   T   T
  0.7499267596755325  0.0019125562768257  0.0952050546265053   T   T   T
  0.2491821450207185  0.5017218385879292  0.0920031525880304   T   T   T
  0.7500211569388422  0.5005494317883731  0.0951472871303773   T   T   T
  0.1230996046655245  0.2509960296528257  0.0929548378322584   T   T   T
  0.6269003953344755  0.2509960296528257  0.0929548378322584   T   T   T
  0.1241864966944869  0.7511772487826083  0.0947625481481585   T   T   T
  0.6258135033055057  0.7511772487826083  0.0947625481481585   T   T   T
  0.3750000000000000  0.2501491101222777  0.0899634989636661   T   T   T
  0.8750000000000000  0.2512211262611604  0.0955981088720445   T   T   T
  0.3750000000000000  0.7486228035080934  0.0921248337336078   T   T   T
  0.8750000000000000  0.7512907117167567  0.0950851835843460   T   T   T
  0.1249917911141306  0.0067273360112182  0.1874313037413729   T   T   T
  0.6250082088858765  0.0067273360112182  0.1874313037413729   T   T   T
  0.1242868710488824  0.4958369026998592  0.1871701206078973   T   T   T
  0.6257131289511176  0.4958369026998592  0.1871701206078973   T   T   T
  0.3750000000000000  0.9923348681196921  0.1806258063197916   T   T   T
  0.8750000000000000  0.0027153561350968  0.1859045590380760   T   T   T
  0.3750000000000000  0.5001986692330741  0.1828873768048999   T   T   T
  0.8750000000000000  0.5001551721079436  0.1857449790084209   T   T   T
  0.0022684905794900  0.2512708482506842  0.1878163658442147   T   T   T
  0.5036848904731219  0.2511907826600182  0.1763149192611861   T   T   T
  0.0001051465426397  0.7515814177262535  0.1854948231062827   T   T   T
  0.5012358822236848  0.7486426370301145  0.1841389792533858   T   T   T
  0.2463151095268781  0.2511907826600182  0.1763149192611861   T   T   T
  0.7477315094205026  0.2512708482506842  0.1878163658442147   T   T   T
  0.2487641177763225  0.7486426370301145  0.1841389792533858   T   T   T
  0.7498948534573601  0.7515814177262535  0.1854948231062827   T   T   T
 -0.0000082945590501  0.0044451042042841  0.2750260120376862   T   T   T
  0.5016907870439404  0.9837180126247640  0.2760169290534467   T   T   T
 -0.0000200488807007  0.4989829086886667  0.2747801469305183   T   T   T
  0.5038599144689143  0.5085488199707178  0.2754331626104448   T   T   T
  0.2483092129560597  0.9837180126247640  0.2760169290534467   T   T   T
  0.7500082945590502  0.0044451042042841  0.2750260120376862   T   T   T
  0.2461400855310784  0.5085488199707178  0.2754331626104448   T   T   T
  0.7500200488807006  0.4989829086886667  0.2747801469305183   T   T   T
  0.1223014014601913  0.7509483938087739  0.2744157571574305   T   T   T
  0.6276985985398158  0.7509483938087739  0.2744157571574305   T   T   T
  0.3750000000000000  0.2173057101029224  0.2629956782536563   T   T   T
  0.8750000000000000  0.2514379214259385  0.2751521296962458   T   T   T
  0.3750000000000000  0.7520235490419930  0.2722225191883398   T   T   T
  0.8750000000000000  0.7519051710481490  0.2741936886959128   T   T   T
  0.1255531820479827  0.2528762762546459  0.3037756182184810   T   T   T
  0.6244468179520176  0.2528762762546459  0.3037756182184810   T   T   T
 -0.0001751733370054  0.0008650033054876  0.0027574994405833   T   T   T
  0.5000158492260441  0.9998551230359525  0.0010781095832477   T   T   T
 -0.0001270289855345  0.5013718552921261  0.0028229037085073   T   T   T
  0.4999865535671024  0.5015213867177991  0.0011595981384858   T   T   T
  0.2499841507739559  0.9998551230359525  0.0010781095832477   T   T   T
  0.7501751733370057  0.0008650033054876  0.0027574994405833   T   T   T
  0.2500134464328975  0.5015213867177991  0.0011595981384858   T   T   T
  0.7501270289855347  0.5013718552921261  0.0028229037085073   T   T   T
  0.1246698089055980  0.2510570799219204  0.0014630999869603   T   T   T
  0.6253301910944018  0.2510570799219204  0.0014630999869603   T   T   T
  0.1249087886509446  0.7509796581555004  0.0022219239132155   T   T   T
  0.6250912113490554  0.7509796581555004  0.0022219239132155   T   T   T
  0.3750000000000000  0.2502883651896775  0.9997906764706851   T   T   T
  0.8750000000000000  0.2511650717514416  0.0026337607788382   T   T   T
  0.3750000000000000  0.7502049446532426  0.0013671338605612   T   T   T
  0.8750000000000000  0.7510836243602539  0.0030598159322877   T   T   T
  0.1260551418563197  0.0006106741226573  0.0939651552392811   T   T   T
  0.6239448581436805  0.0006106741226573  0.0939651552392811   T   T   T
  0.1261027863545323  0.5015574029274874  0.0940457180486881   T   T   T
  0.6238972136454679  0.5015574029274874  0.0940457180486881   T   T   T
  0.3750000000000000 -0.0001995496059058  0.0929205576559810   T   T   T
  0.8750000000000000  0.0010848553222540  0.0949773648361118   T   T   T
  0.3750000000000000  0.4992343270028759  0.0931173703179915   T   T   T
  0.8750000000000000  0.5013889206591553  0.0948752926994603   T   T   T
  0.0000480381211753  0.2511664304505222  0.0943134183209851   T   T   T
  0.4988169227873112  0.2503844825405472  0.0910807187254744   T   T   T
  0.0003290828863666  0.7513135835642892  0.0948425047402089   T   T   T
  0.4993850231801341  0.7506308829556497  0.0943588230691848   T   T   T
  0.2511830772126888  0.2503844825405472  0.0910807187254744   T   T   T
  0.7499519618788245  0.2511664304505222  0.0943134183209851   T   T   T
  0.2506149768198659  0.7506308829556497  0.0943588230691848   T   T   T
  0.7496709171136332  0.7513135835642892  0.0948425047402089   T   T   T
  0.0014537482574006  0.0019692058412239  0.1850988003138073   T   T   T
  0.4981844947710573  0.0078048471845462  0.1863143528265918   T   T   T
  0.0009340935197774  0.5008682605139660  0.1847860935909314   T   T   T
  0.4980542592353573  0.4935251030658140  0.1860219346709055   T   T   T
  0.2518155052289427  0.0078048471845462  0.1863143528265918   T   T   T
  0.7485462517425995  0.0019692058412239  0.1850988003138073   T   T   T
  0.2519457407646427  0.4935251030658140  0.1860219346709055   T   T   T
  0.7490659064802226  0.5008682605139660  0.1847860935909314   T   T   T
  0.1276591427676999  0.2511406738240396  0.1811445602794149   T   T   T
  0.6223408572323004  0.2511406738240396  0.1811445602794149   T   T   T
  0.1266029845654889  0.7515393827803929  0.1839571464813716   T   T   T
  0.6233970154345111  0.7515393827803929  0.1839571464813716   T   T   T
  0.3750000000000000  0.2496448756845120  0.1818756284490172   T   T   T
  0.8750000000000000  0.2512766490458829  0.1841526606240728   T   T   T
  0.3750000000000000  0.7470437423963943  0.1826148215853501   T   T   T
  0.8750000000000000  0.7516423197511503  0.1839778422798441   T   T   T
  0.1290841610094030  0.9900242937815592  0.2784959803108229   T   T   T
  0.6209157885566003  0.9900242937815592  0.2784959803108229   T   T   T
  0.1262429756866109  0.5135330549364674  0.2773441733828641   T   T   T
  0.6237569738793997  0.5135330549364674  0.2773441733828641   T   T   T
  0.3749999747830017  0.9907833674372380  0.2728930084227031   T   T   T
  0.8749999747830017  0.9979515694229232  0.2761214210119217   T   T   T
  0.3749999243470015  0.5153325980779254  0.2793546739612338   T   T   T
  0.8749999747830017  0.5055223027787349  0.2760302451448239   T   T   T
  0.9939220772466179  0.2512271970440217  0.2779839117890420   T   T   T
  0.4700659266108392  0.2819895598790512  0.3104196987565961   T   T   T
  0.9995073817377240  0.7525777161311333  0.2760045658826148   T   T   T
  0.4974502328076569  0.7484518447920655  0.2752128309443854   T   T   T
  0.2799340733891608  0.2819895598790512  0.3104196987565961   T   T   T
  0.7560779227533821  0.2512271970440217  0.2779839117890420   T   T   T
  0.2525497671923431  0.7484518447920655  0.2752128309443854   T   T   T
  0.7504926182622760  0.7525777161311333  0.2760045658826148   T   T   T
  0.3749999243470015  0.3731423981854299  0.3470917507377302   T   T   T
 
  0.00000000E+00  0.00000000E+00  0.00000000E+00
  0.00000000E+00  0.00000000E+00  0.00000000E+00
  0.00000000E+00  0.00000000E+00  0.00000000E+00
  0.00000000E+00  0.00000000E+00  0.00000000E+00
  0.00000000E+00  0.00000000E+00  0.00000000E+00
  0.00000000E+00  0.00000000E+00  0.00000000E+00
  0.00000000E+00  0.00000000E+00  0.00000000E+00
  0.00000000E+00  0.00000000E+00  0.00000000E+00
  0.00000000E+00  0.00000000E+00  0.00000000E+00
  0.00000000E+00  0.00000000E+00  0.00000000E+00
  0.00000000E+00  0.00000000E+00  0.00000000E+00
  0.00000000E+00  0.00000000E+00  0.00000000E+00
  0.00000000E+00  0.00000000E+00  0.00000000E+00
  0.00000000E+00  0.00000000E+00  0.00000000E+00
  0.00000000E+00  0.00000000E+00  0.00000000E+00
  0.00000000E+00  0.00000000E+00  0.00000000E+00
  0.00000000E+00  0.00000000E+00  0.00000000E+00
  0.00000000E+00  0.00000000E+00  0.00000000E+00
  0.00000000E+00  0.00000000E+00  0.00000000E+00
  0.00000000E+00  0.00000000E+00  0.00000000E+00
  0.00000000E+00  0.00000000E+00  0.00000000E+00
  0.00000000E+00  0.00000000E+00  0.00000000E+00
  0.00000000E+00  0.00000000E+00  0.00000000E+00
  0.00000000E+00  0.00000000E+00  0.00000000E+00
  0.00000000E+00  0.00000000E+00  0.00000000E+00
  0.00000000E+00  0.00000000E+00  0.00000000E+00
  0.00000000E+00  0.00000000E+00  0.00000000E+00
  0.00000000E+00  0.00000000E+00  0.00000000E+00
  0.00000000E+00  0.00000000E+00  0.00000000E+00
  0.00000000E+00  0.00000000E+00  0.00000000E+00
  0.00000000E+00  0.00000000E+00  0.00000000E+00
  0.00000000E+00  0.00000000E+00  0.00000000E+00
  0.00000000E+00  0.00000000E+00  0.00000000E+00
  0.00000000E+00  0.00000000E+00  0.00000000E+00
  0.00000000E+00  0.00000000E+00  0.00000000E+00
  0.00000000E+00  0.00000000E+00  0.00000000E+00
  0.00000000E+00  0.00000000E+00  0.00000000E+00
  0.00000000E+00  0.00000000E+00  0.00000000E+00
  0.00000000E+00  0.00000000E+00  0.00000000E+00
  0.00000000E+00  0.00000000E+00  0.00000000E+00
  0.00000000E+00  0.00000000E+00  0.00000000E+00
  0.00000000E+00  0.00000000E+00  0.00000000E+00
  0.00000000E+00  0.00000000E+00  0.00000000E+00
  0.00000000E+00  0.00000000E+00  0.00000000E+00
  0.00000000E+00  0.00000000E+00  0.00000000E+00
  0.00000000E+00  0.00000000E+00  0.00000000E+00
  0.00000000E+00  0.00000000E+00  0.00000000E+00
  0.00000000E+00  0.00000000E+00  0.00000000E+00
  0.00000000E+00  0.00000000E+00  0.00000000E+00
  0.00000000E+00  0.00000000E+00  0.00000000E+00
  0.00000000E+00  0.00000000E+00  0.00000000E+00
  0.00000000E+00  0.00000000E+00  0.00000000E+00
  0.00000000E+00  0.00000000E+00  0.00000000E+00
  0.00000000E+00  0.00000000E+00  0.00000000E+00
  0.00000000E+00  0.00000000E+00  0.00000000E+00
  0.00000000E+00  0.00000000E+00  0.00000000E+00
  0.00000000E+00  0.00000000E+00  0.00000000E+00
  0.00000000E+00  0.00000000E+00  0.00000000E+00
  0.00000000E+00  0.00000000E+00  0.00000000E+00
  0.00000000E+00  0.00000000E+00  0.00000000E+00
  0.00000000E+00  0.00000000E+00  0.00000000E+00
  0.00000000E+00  0.00000000E+00  0.00000000E+00
  0.00000000E+00  0.00000000E+00  0.00000000E+00
  0.00000000E+00  0.00000000E+00  0.00000000E+00
  0.00000000E+00  0.00000000E+00  0.00000000E+00
  0.00000000E+00  0.00000000E+00  0.00000000E+00
  0.00000000E+00  0.00000000E+00  0.00000000E+00
  0.00000000E+00  0.00000000E+00  0.00000000E+00
  0.00000000E+00  0.00000000E+00  0.00000000E+00
  0.00000000E+00  0.00000000E+00  0.00000000E+00
  0.00000000E+00  0.00000000E+00  0.00000000E+00
  0.00000000E+00  0.00000000E+00  0.00000000E+00
  0.00000000E+00  0.00000000E+00  0.00000000E+00
  0.00000000E+00  0.00000000E+00  0.00000000E+00
  0.00000000E+00  0.00000000E+00  0.00000000E+00
  0.00000000E+00  0.00000000E+00  0.00000000E+00
  0.00000000E+00  0.00000000E+00  0.00000000E+00
  0.00000000E+00  0.00000000E+00  0.00000000E+00
  0.00000000E+00  0.00000000E+00  0.00000000E+00
  0.00000000E+00  0.00000000E+00  0.00000000E+00
  0.00000000E+00  0.00000000E+00  0.00000000E+00
  0.00000000E+00  0.00000000E+00  0.00000000E+00
  0.00000000E+00  0.00000000E+00  0.00000000E+00
  0.00000000E+00  0.00000000E+00  0.00000000E+00
  0.00000000E+00  0.00000000E+00  0.00000000E+00
  0.00000000E+00  0.00000000E+00  0.00000000E+00
  0.00000000E+00  0.00000000E+00  0.00000000E+00
  0.00000000E+00  0.00000000E+00  0.00000000E+00
  0.00000000E+00  0.00000000E+00  0.00000000E+00
  0.00000000E+00  0.00000000E+00  0.00000000E+00
  0.00000000E+00  0.00000000E+00  0.00000000E+00
  0.00000000E+00  0.00000000E+00  0.00000000E+00
  0.00000000E+00  0.00000000E+00  0.00000000E+00
  0.00000000E+00  0.00000000E+00  0.00000000E+00
  0.00000000E+00  0.00000000E+00  0.00000000E+00
  0.00000000E+00  0.00000000E+00  0.00000000E+00
  0.00000000E+00  0.00000000E+00  0.00000000E+00
  0.00000000E+00  0.00000000E+00  0.00000000E+00
  0.00000000E+00  0.00000000E+00  0.00000000E+00
  0.00000000E+00  0.00000000E+00  0.00000000E+00
  0.00000000E+00  0.00000000E+00  0.00000000E+00
  0.00000000E+00  0.00000000E+00  0.00000000E+00
  0.00000000E+00  0.00000000E+00  0.00000000E+00
  0.00000000E+00  0.00000000E+00  0.00000000E+00
  0.00000000E+00  0.00000000E+00  0.00000000E+00
  0.00000000E+00  0.00000000E+00  0.00000000E+00
  0.00000000E+00  0.00000000E+00  0.00000000E+00
  0.00000000E+00  0.00000000E+00  0.00000000E+00
  0.00000000E+00  0.00000000E+00  0.00000000E+00
  0.00000000E+00  0.00000000E+00  0.00000000E+00
  0.00000000E+00  0.00000000E+00  0.00000000E+00
  0.00000000E+00  0.00000000E+00  0.00000000E+00
  0.00000000E+00  0.00000000E+00  0.00000000E+00
  0.00000000E+00  0.00000000E+00  0.00000000E+00
  0.00000000E+00  0.00000000E+00  0.00000000E+00
  0.00000000E+00  0.00000000E+00  0.00000000E+00
  0.00000000E+00  0.00000000E+00  0.00000000E+00
  0.00000000E+00  0.00000000E+00  0.00000000E+00
  0.00000000E+00  0.00000000E+00  0.00000000E+00
  0.00000000E+00  0.00000000E+00  0.00000000E+00
  0.00000000E+00  0.00000000E+00  0.00000000E+00
  0.00000000E+00  0.00000000E+00  0.00000000E+00
  0.00000000E+00  0.00000000E+00  0.00000000E+00
  0.00000000E+00  0.00000000E+00  0.00000000E+00
  0.00000000E+00  0.00000000E+00  0.00000000E+00
  0.00000000E+00  0.00000000E+00  0.00000000E+00
  0.00000000E+00  0.00000000E+00  0.00000000E+00
  0.00000000E+00  0.00000000E+00  0.00000000E+00
  0.00000000E+00  0.00000000E+00  0.00000000E+00
