Mg Na O Co                              
   1.00000000000000     
    16.8282433949600012    0.0000000000000000    0.0000000000000000
     0.0000000000000000    8.4141216974800006    0.0000000000000000
     0.0000000000000000    0.0000000000000000   23.4141216974799988
   Mg   Na   O    Co
    62     2    64     1
Selective dynamics
Direct
  0.1239710111188191  0.0002710725445925  0.0043124026865582   T   T   T
  0.6260289888811809  0.0002710725445925  0.0043124026865582   T   T   T
  0.1239954751323865  0.5015439172904297  0.0044342943373002   T   T   T
  0.6260045248676207  0.5015439172904297  0.0044342943373002   T   T   T
  0.3750000000000000  0.9995801437476775  0.0028038228381832   T   T   T
  0.8750000000000000  0.0012650810873744  0.0053320185987731   T   T   T
  0.3750000000000000  0.5008053023986841  0.0030095778925019   T   T   T
  0.8750000000000000  0.5012244522343503  0.0052292757164378   T   T   T
  0.9991504270855953  0.2510767040768883  0.0047481960700477   T   T   T
  0.5008215423268543  0.2507527860616680  0.0024943891286800   T   T   T
  0.9995239595385296  0.7510817842536217  0.0052245149619782   T   T   T
  0.5008696509861682  0.7506840831916202  0.0036740300194662   T   T   T
  0.2491784576731457  0.2507527860616680  0.0024943891286800   T   T   T
  0.7508495729144047  0.2510767040768883  0.0047481960700477   T   T   T
  0.2491303490138320  0.7506840831916202  0.0036740300194662   T   T   T
  0.7504760404614775  0.7510817842536217  0.0052245149619782   T   T   T
  0.0000992693047891  0.0018795226233020  0.0950486072593062   T   T   T
  0.5011097183803382 -0.0005464521905782  0.0920799501500547   T   T   T
  0.9999571623460995  0.5006565641629708  0.0949532443072675   T   T   T
  0.5007851420988489  0.5017760269880756  0.0923955298162823   T   T   T
  0.2488902816196621 -0.0005464521905782  0.0920799501500547   T   T   T
  0.7499007306952108  0.0018795226233020  0.0950486072593062   T   T   T
  0.2492148579011511  0.5017760269880756  0.0923955298162823   T   T   T
  0.7500428376539005  0.5006565641629708  0.0949532443072675   T   T   T
  0.1231842616521129  0.2510741229278967  0.0930549179084006   T   T   T
  0.6268157383478872  0.2510741229278967  0.0930549179084006   T   T   T
  0.1242463284672232  0.7511733660883245  0.0948279628923841   T   T   T
  0.6257536715327767  0.7511733660883245  0.0948279628923841   T   T   T
  0.3750000000000000  0.2501895876048933  0.0904838605006641   T   T   T
  0.8750000000000000  0.2514265152631911  0.0953058175642203   T   T   T
  0.3750000000000000  0.7486517142043767  0.0924668498007677   T   T   T
  0.8750000000000000  0.7513448599091035  0.0948498077156563   T   T   T
  0.1248145563082959  0.0068110499961520  0.1873254914461451   T   T   T
  0.6251854436917040  0.0068110499961520  0.1873254914461451   T   T   T
  0.1241232872328907  0.4960617939964948  0.1872582759635750   T   T   T
  0.6258767127671023  0.4960617939964948  0.1872582759635750   T   T   T
  0.3750000000000000  0.9920908342293181  0.1807537453346457   T   T   T
  0.8750000000000000  0.0028786131233245  0.1855611479137984   T   T   T
  0.3750000000000000  0.4999041431726141  0.1835680997940649   T   T   T
  0.8750000000000000  0.5005264387244071  0.1854665422716663   T   T   T
  0.0022259823529950  0.2515377982121066  0.1875855355245022   T   T   T
  0.5036708916901877  0.2513593606131519  0.1769291910085550   T   T   T
 -0.0000400449395082  0.7517193223738844  0.1853240049476416   T   T   T
  0.5013236987984165  0.7486394468230445  0.1845394978240278   T   T   T
  0.2463291083098121  0.2513593606131519  0.1769291910085550   T   T   T
  0.7477740176470049  0.2515377982121066  0.1875855355245022   T   T   T
  0.2486763012015835  0.7486394468230445  0.1845394978240278   T   T   T
  0.7500400449395082  0.7517193223738844  0.1853240049476416   T   T   T
  0.9996550706041254  0.0050720046548253  0.2747314293331104   T   T   T
  0.5023921413738206  0.9843712163704709  0.2762374559391261   T   T   T
  0.9996999206154604  0.4990154502064039  0.2747342043821567   T   T   T
  0.5048579555698132  0.5088953201327092  0.2762939839397382   T   T   T
  0.2476078586261792  0.9843712163704709  0.2762374559391261   T   T   T
  0.7503449293958746  0.0050720046548253  0.2747314293331104   T   T   T
  0.2451420444301868  0.5088953201327092  0.2762939839397382   T   T   T
  0.7503000793845396  0.4990154502064039  0.2747342043821567   T   T   T
  0.1215271159322014  0.7514789802714567  0.2743912408133763   T   T   T
  0.6284728840677986  0.7514789802714567  0.2743912408133763   T   T   T
  0.3750000000000000  0.2126416878469269  0.2635253453885965   T   T   T
  0.8750000000000000  0.2518078301144711  0.2747962925271767   T   T   T
  0.3750000000000000  0.7530180540894924  0.2723115664907403   T   T   T
  0.8750000000000000  0.7523061361418096  0.2740100431655910   T   T   T
  0.1251819266196151  0.2527894680895440  0.3032916770629669   T   T   T
  0.6248180733803849  0.2527894680895440  0.3032916770629669   T   T   T
  0.0000223599968015  0.0008377517447057  0.0026813191345122   T   T   T
  0.4998651992736955 -0.0001849287665301  0.0013153405322809   T   T   T
 -0.0000035450910479  0.5013686234373407  0.0026616240079982   T   T   T
  0.4997891300895582  0.5015663858533533  0.0015125264171282   T   T   T
  0.2501348007263045 -0.0001849287665301  0.0013153405322809   T   T   T
  0.7499776400031984  0.0008377517447057  0.0026813191345122   T   T   T
  0.2502108699104418  0.5015663858533533  0.0015125264171282   T   T   T
  0.7500035450910481  0.5013686234373407  0.0026616240079982   T   T   T
  0.1249617526121053  0.2509676557107461  0.0015842303578441   T   T   T
  0.6250382473878947  0.2509676557107461  0.0015842303578441   T   T   T
  0.1251369294863033  0.7508981812412784  0.0023601689530605   T   T   T
  0.6248630705136966  0.7508981812412784  0.0023601689530605   T   T   T
  0.3750000000000000  0.2503688508036989  0.0002422599602099   T   T   T
  0.8750000000000000  0.2512362930267547  0.0023596925662027   T   T   T
  0.3750000000000000  0.7501110689566518  0.0017706351685783   T   T   T
  0.8750000000000000  0.7511960729355796  0.0027846644716941   T   T   T
  0.1261403912454377  0.0006420825827172  0.0940618226652996   T   T   T
  0.6238596087545623  0.0006420825827172  0.0940618226652996   T   T   T
  0.1261682663398893  0.5015762135071419  0.0941544636766245   T   T   T
  0.6238317336601109  0.5015762135071419  0.0941544636766245   T   T   T
  0.3750000000000000  0.9999441341551517  0.0931310990070005   T   T   T
  0.8750000000000000  0.0011389702151759  0.0947363006954801   T   T   T
  0.3750000000000000  0.4991892044305119  0.0937073880535579   T   T   T
  0.8750000000000000  0.5015831510962006  0.0945421698402762   T   T   T
  0.0000671097131253  0.2512692566665812  0.0941707542929889   T   T   T
  0.4987567698429625  0.2504716516841894  0.0915489982361311   T   T   T
  0.0003812522248732  0.7513113699378378  0.0946990722857389   T   T   T
  0.4993302422259022  0.7506937127607144  0.0947002188061501   T   T   T
  0.2512432301570375  0.2504716516841894  0.0915489982361311   T   T   T
  0.7499328902868748  0.2512692566665812  0.0941707542929889   T   T   T
  0.2506697577740978  0.7506937127607144  0.0947002188061501   T   T   T
  0.7496187477751268  0.7513113699378378  0.0946990722857389   T   T   T
  0.0013471327635000  0.0020852161125380  0.1848344142365314   T   T   T
  0.4982859665025527  0.0076450454346867  0.1865374633989184   T   T   T
  0.0008161126102853  0.5011354808597112  0.1846567109491974   T   T   T
  0.4982239285306355  0.4935824865551155  0.1866518496323670   T   T   T
  0.2517140334974473  0.0076450454346867  0.1865374633989184   T   T   T
  0.7486528672364997  0.0020852161125380  0.1848344142365314   T   T   T
  0.2517760714693645  0.4935824865551155  0.1866518496323670   T   T   T
  0.7491838873897075  0.5011354808597112  0.1846567109491974   T   T   T
  0.1275695850282680  0.2513427936387545  0.1812322556497208   T   T   T
  0.6224304149717319  0.2513427936387545  0.1812322556497208   T   T   T
  0.1264385602367440  0.7515815033763569  0.1840171815748367   T   T   T
  0.6235614397632561  0.7515815033763569  0.1840171815748367   T   T   T
  0.3750000000000000  0.2492671352875760  0.1825610207378978   T   T   T
  0.8750000000000000  0.2515586080610177  0.1838569351961324   T   T   T
  0.3750000000000000  0.7470446888964551  0.1829144930292257   T   T   T
  0.8750000000000000  0.7517753886425883  0.1837833070990551   T   T   T
  0.1282620502820545  0.9902042223944266  0.2783522652406953   T   T   T
  0.6217378992839490  0.9902042223944266  0.2783522652406953   T   T   T
  0.1254514808487055  0.5140284022605601  0.2776423987694568   T   T   T
  0.6245484687172979  0.5140284022605601  0.2776423987694568   T   T   T
  0.3749999747830017  0.9885292743582337  0.2733101711184774   T   T   T
  0.8749999747830017  0.9985589239405412  0.2757808279820153   T   T   T
  0.3749999243470015  0.5187199915685394  0.2794042972909274   T   T   T
  0.8749999747830017  0.5055885764377608  0.2758928311793505   T   T   T
  0.9937462597159953  0.2514763770506954  0.2776651216934409   T   T   T
  0.4725870624597251  0.2795597365376874  0.3089073472098596   T   T   T
  0.9990453961349338  0.7530858601994433  0.2758240094284449   T   T   T
  0.4979761761515095  0.7488770845993412  0.2756320847101102   T   T   T
  0.2774129375402749  0.2795597365376874  0.3089073472098596   T   T   T
  0.7562537402840047  0.2514763770506954  0.2776651216934409   T   T   T
  0.2520238238484905  0.7488770845993412  0.2756320847101102   T   T   T
  0.7509546038650662  0.7530858601994433  0.2758240094284449   T   T   T
  0.3749999243470015  0.3669160654276839  0.3404609155794836   T   T   T
 
  0.00000000E+00  0.00000000E+00  0.00000000E+00
  0.00000000E+00  0.00000000E+00  0.00000000E+00
  0.00000000E+00  0.00000000E+00  0.00000000E+00
  0.00000000E+00  0.00000000E+00  0.00000000E+00
  0.00000000E+00  0.00000000E+00  0.00000000E+00
  0.00000000E+00  0.00000000E+00  0.00000000E+00
  0.00000000E+00  0.00000000E+00  0.00000000E+00
  0.00000000E+00  0.00000000E+00  0.00000000E+00
  0.00000000E+00  0.00000000E+00  0.00000000E+00
  0.00000000E+00  0.00000000E+00  0.00000000E+00
  0.00000000E+00  0.00000000E+00  0.00000000E+00
  0.00000000E+00  0.00000000E+00  0.00000000E+00
  0.00000000E+00  0.00000000E+00  0.00000000E+00
  0.00000000E+00  0.00000000E+00  0.00000000E+00
  0.00000000E+00  0.00000000E+00  0.00000000E+00
  0.00000000E+00  0.00000000E+00  0.00000000E+00
  0.00000000E+00  0.00000000E+00  0.00000000E+00
  0.00000000E+00  0.00000000E+00  0.00000000E+00
  0.00000000E+00  0.00000000E+00  0.00000000E+00
  0.00000000E+00  0.00000000E+00  0.00000000E+00
  0.00000000E+00  0.00000000E+00  0.00000000E+00
  0.00000000E+00  0.00000000E+00  0.00000000E+00
  0.00000000E+00  0.00000000E+00  0.00000000E+00
  0.00000000E+00  0.00000000E+00  0.00000000E+00
  0.00000000E+00  0.00000000E+00  0.00000000E+00
  0.00000000E+00  0.00000000E+00  0.00000000E+00
  0.00000000E+00  0.00000000E+00  0.00000000E+00
  0.00000000E+00  0.00000000E+00  0.00000000E+00
  0.00000000E+00  0.00000000E+00  0.00000000E+00
  0.00000000E+00  0.00000000E+00  0.00000000E+00
  0.00000000E+00  0.00000000E+00  0.00000000E+00
  0.00000000E+00  0.00000000E+00  0.00000000E+00
  0.00000000E+00  0.00000000E+00  0.00000000E+00
  0.00000000E+00  0.00000000E+00  0.00000000E+00
  0.00000000E+00  0.00000000E+00  0.00000000E+00
  0.00000000E+00  0.00000000E+00  0.00000000E+00
  0.00000000E+00  0.00000000E+00  0.00000000E+00
  0.00000000E+00  0.00000000E+00  0.00000000E+00
  0.00000000E+00  0.00000000E+00  0.00000000E+00
  0.00000000E+00  0.00000000E+00  0.00000000E+00
  0.00000000E+00  0.00000000E+00  0.00000000E+00
  0.00000000E+00  0.00000000E+00  0.00000000E+00
  0.00000000E+00  0.00000000E+00  0.00000000E+00
  0.00000000E+00  0.00000000E+00  0.00000000E+00
  0.00000000E+00  0.00000000E+00  0.00000000E+00
  0.00000000E+00  0.00000000E+00  0.00000000E+00
  0.00000000E+00  0.00000000E+00  0.00000000E+00
  0.00000000E+00  0.00000000E+00  0.00000000E+00
  0.00000000E+00  0.00000000E+00  0.00000000E+00
  0.00000000E+00  0.00000000E+00  0.00000000E+00
  0.00000000E+00  0.00000000E+00  0.00000000E+00
  0.00000000E+00  0.00000000E+00  0.00000000E+00
  0.00000000E+00  0.00000000E+00  0.00000000E+00
  0.00000000E+00  0.00000000E+00  0.00000000E+00
  0.00000000E+00  0.00000000E+00  0.00000000E+00
  0.00000000E+00  0.00000000E+00  0.00000000E+00
  0.00000000E+00  0.00000000E+00  0.00000000E+00
  0.00000000E+00  0.00000000E+00  0.00000000E+00
  0.00000000E+00  0.00000000E+00  0.00000000E+00
  0.00000000E+00  0.00000000E+00  0.00000000E+00
  0.00000000E+00  0.00000000E+00  0.00000000E+00
  0.00000000E+00  0.00000000E+00  0.00000000E+00
  0.00000000E+00  0.00000000E+00  0.00000000E+00
  0.00000000E+00  0.00000000E+00  0.00000000E+00
  0.00000000E+00  0.00000000E+00  0.00000000E+00
  0.00000000E+00  0.00000000E+00  0.00000000E+00
  0.00000000E+00  0.00000000E+00  0.00000000E+00
  0.00000000E+00  0.00000000E+00  0.00000000E+00
  0.00000000E+00  0.00000000E+00  0.00000000E+00
  0.00000000E+00  0.00000000E+00  0.00000000E+00
  0.00000000E+00  0.00000000E+00  0.00000000E+00
  0.00000000E+00  0.00000000E+00  0.00000000E+00
  0.00000000E+00  0.00000000E+00  0.00000000E+00
  0.00000000E+00  0.00000000E+00  0.00000000E+00
  0.00000000E+00  0.00000000E+00  0.00000000E+00
  0.00000000E+00  0.00000000E+00  0.00000000E+00
  0.00000000E+00  0.00000000E+00  0.00000000E+00
  0.00000000E+00  0.00000000E+00  0.00000000E+00
  0.00000000E+00  0.00000000E+00  0.00000000E+00
  0.00000000E+00  0.00000000E+00  0.00000000E+00
  0.00000000E+00  0.00000000E+00  0.00000000E+00
  0.00000000E+00  0.00000000E+00  0.00000000E+00
  0.00000000E+00  0.00000000E+00  0.00000000E+00
  0.00000000E+00  0.00000000E+00  0.00000000E+00
  0.00000000E+00  0.00000000E+00  0.00000000E+00
  0.00000000E+00  0.00000000E+00  0.00000000E+00
  0.00000000E+00  0.00000000E+00  0.00000000E+00
  0.00000000E+00  0.00000000E+00  0.00000000E+00
  0.00000000E+00  0.00000000E+00  0.00000000E+00
  0.00000000E+00  0.00000000E+00  0.00000000E+00
  0.00000000E+00  0.00000000E+00  0.00000000E+00
  0.00000000E+00  0.00000000E+00  0.00000000E+00
  0.00000000E+00  0.00000000E+00  0.00000000E+00
  0.00000000E+00  0.00000000E+00  0.00000000E+00
  0.00000000E+00  0.00000000E+00  0.00000000E+00
  0.00000000E+00  0.00000000E+00  0.00000000E+00
  0.00000000E+00  0.00000000E+00  0.00000000E+00
  0.00000000E+00  0.00000000E+00  0.00000000E+00
  0.00000000E+00  0.00000000E+00  0.00000000E+00
  0.00000000E+00  0.00000000E+00  0.00000000E+00
  0.00000000E+00  0.00000000E+00  0.00000000E+00
  0.00000000E+00  0.00000000E+00  0.00000000E+00
  0.00000000E+00  0.00000000E+00  0.00000000E+00
  0.00000000E+00  0.00000000E+00  0.00000000E+00
  0.00000000E+00  0.00000000E+00  0.00000000E+00
  0.00000000E+00  0.00000000E+00  0.00000000E+00
  0.00000000E+00  0.00000000E+00  0.00000000E+00
  0.00000000E+00  0.00000000E+00  0.00000000E+00
  0.00000000E+00  0.00000000E+00  0.00000000E+00
  0.00000000E+00  0.00000000E+00  0.00000000E+00
  0.00000000E+00  0.00000000E+00  0.00000000E+00
  0.00000000E+00  0.00000000E+00  0.00000000E+00
  0.00000000E+00  0.00000000E+00  0.00000000E+00
  0.00000000E+00  0.00000000E+00  0.00000000E+00
  0.00000000E+00  0.00000000E+00  0.00000000E+00
  0.00000000E+00  0.00000000E+00  0.00000000E+00
  0.00000000E+00  0.00000000E+00  0.00000000E+00
  0.00000000E+00  0.00000000E+00  0.00000000E+00
  0.00000000E+00  0.00000000E+00  0.00000000E+00
  0.00000000E+00  0.00000000E+00  0.00000000E+00
  0.00000000E+00  0.00000000E+00  0.00000000E+00
  0.00000000E+00  0.00000000E+00  0.00000000E+00
  0.00000000E+00  0.00000000E+00  0.00000000E+00
  0.00000000E+00  0.00000000E+00  0.00000000E+00
  0.00000000E+00  0.00000000E+00  0.00000000E+00
  0.00000000E+00  0.00000000E+00  0.00000000E+00
  0.00000000E+00  0.00000000E+00  0.00000000E+00
  0.00000000E+00  0.00000000E+00  0.00000000E+00
  0.00000000E+00  0.00000000E+00  0.00000000E+00
