Mg Na O Fe                              
   1.00000000000000     
    16.8282433949600012    0.0000000000000000    0.0000000000000000
     0.0000000000000000    8.4141216974800006    0.0000000000000000
     0.0000000000000000    0.0000000000000000   23.4141216974799988
   Mg   Na   O    Fe
    62     2    64     1
Selective dynamics
Direct
  0.1238631061615238  0.0003937956413644  0.0044037013679547   T   T   T
  0.6261368938384760  0.0003937956413644  0.0044037013679547   T   T   T
  0.1239763512248466  0.5016214452496496  0.0044860650140710   T   T   T
  0.6260236487751605  0.5016214452496496  0.0044860650140710   T   T   T
  0.3750000000000000 -0.0001845066432979  0.0030866015344417   T   T   T
  0.8750000000000000  0.0010290998515499  0.0050738585140128   T   T   T
  0.3750000000000000  0.5008792808626890  0.0030986524850295   T   T   T
  0.8750000000000000  0.5011430708745908  0.0050496862896458   T   T   T
 -0.0009138287724346  0.2510285880115199  0.0045868497402095   T   T   T
  0.5009103065215217  0.2507271024572918  0.0026850064541739   T   T   T
 -0.0005127410564245  0.7511122108460857  0.0050577931216855   T   T   T
  0.5008862021338972  0.7506579209342346  0.0038222625528941   T   T   T
  0.2490896934784783  0.2507271024572918  0.0026850064541739   T   T   T
  0.7509138287724346  0.2510285880115199  0.0045868497402095   T   T   T
  0.2491137978661026  0.7506579209342346  0.0038222625528941   T   T   T
  0.7505127410564241  0.7511122108460857  0.0050577931216855   T   T   T
  0.0000111050264405  0.0019396255303756  0.0949186266956174   T   T   T
  0.5011993432122255 -0.0003624102440589  0.0924629921851881   T   T   T
 -0.0001289265957308  0.5005680132160444  0.0948347515273077   T   T   T
  0.5008939150885130  0.5017075527031706  0.0924396723300331   T   T   T
  0.2488006567877745 -0.0003624102440589  0.0924629921851881   T   T   T
  0.7499888949735594  0.0019396255303756  0.0949186266956174   T   T   T
  0.2491060849114871  0.5017075527031706  0.0924396723300331   T   T   T
  0.7501289265957307  0.5005680132160444  0.0948347515273077   T   T   T
  0.1232137977048908  0.2509414712712290  0.0931659607297782   T   T   T
  0.6267862022951092  0.2509414712712290  0.0931659607297782   T   T   T
  0.1241531445604598  0.7511676393854052  0.0948456530122999   T   T   T
  0.6258468554395401  0.7511676393854052  0.0948456530122999   T   T   T
  0.3750000000000000  0.2502368568434582  0.0906149202091361   T   T   T
  0.8750000000000000  0.2512538204289753  0.0951510875647342   T   T   T
  0.3750000000000000  0.7489117494760313  0.0926161451061504   T   T   T
  0.8750000000000000  0.7513813207451390  0.0946261264481927   T   T   T
  0.1246627727171002  0.0066803859680733  0.1873927512015740   T   T   T
  0.6253372272828996  0.0066803859680733  0.1873927512015740   T   T   T
  0.1237948460016628  0.4961063927963857  0.1871477743664916   T   T   T
  0.6262051539983371  0.4961063927963857  0.1871477743664916   T   T   T
  0.3750000000000000  0.9915930316290613  0.1808735470816764   T   T   T
  0.8750000000000000  0.0029141965116211  0.1854120354359862   T   T   T
  0.3750000000000000  0.5006449527861137  0.1826162236664074   T   T   T
  0.8750000000000000  0.5002203709659696  0.1853779036514129   T   T   T
  0.0020566717204648  0.2514395068312598  0.1875384116212758   T   T   T
  0.5037688104759511  0.2513138389592567  0.1773951007873486   T   T   T
 -0.0001914009227839  0.7516673026448621  0.1852403580556415   T   T   T
  0.5015141422722000  0.7492631370919518  0.1848201455129192   T   T   T
  0.2462311895240417  0.2513138389592567  0.1773951007873486   T   T   T
  0.7479433282795352  0.2514395068312598  0.1875384116212758   T   T   T
  0.2484858577277999  0.7492631370919518  0.1848201455129192   T   T   T
  0.7501914009227841  0.7516673026448621  0.1852403580556415   T   T   T
  0.9997039329227747  0.0047953289956378  0.2747651852473830   T   T   T
  0.5023930892929246  0.9865243684790702  0.2766661415069162   T   T   T
  0.9995506791082374  0.4991350309973672  0.2746330547096720   T   T   T
  0.5055921895133018  0.5082241791685017  0.2761962883131808   T   T   T
  0.2476069107070755  0.9865243684790702  0.2766661415069162   T   T   T
  0.7502960670772253  0.0047953289956378  0.2747651852473830   T   T   T
  0.2444078104866981  0.5082241791685017  0.2761962883131808   T   T   T
  0.7504493208917626  0.4991350309973672  0.2746330547096720   T   T   T
  0.1216302218372496  0.7515370698692334  0.2744053360430204   T   T   T
  0.6283697781627500  0.7515370698692334  0.2744053360430204   T   T   T
  0.3750000000000000  0.2124501512209900  0.2629690569553171   T   T   T
  0.8750000000000000  0.2514995150065167  0.2747862885797764   T   T   T
  0.3750000000000000  0.7544376542882264  0.2724672848060050   T   T   T
  0.8750000000000000  0.7521882354982308  0.2739200274457063   T   T   T
  0.1250799206937304  0.2523732538852304  0.3028640801711390   T   T   T
  0.6249200793062695  0.2523732538852304  0.3028640801711390   T   T   T
 -0.0000304396265320  0.0008442045003288  0.0024580353087898   T   T   T
  0.4999170099518933 -0.0000644855859882  0.0015698525028347   T   T   T
  0.0000414882222129  0.5013517135472362  0.0025415952934903   T   T   T
  0.4998644353752545  0.5014817714165587  0.0015748142108950   T   T   T
  0.2500829900481067 -0.0000644855859882  0.0015698525028347   T   T   T
  0.7500304396265323  0.0008442045003288  0.0024580353087898   T   T   T
  0.2501355646247455  0.5014817714165587  0.0015748142108950   T   T   T
  0.7499585117777868  0.5013517135472362  0.0025415952934903   T   T   T
  0.1249237611061843  0.2510350202112515  0.0016579618470723   T   T   T
  0.6250762388938158  0.2510350202112515  0.0016579618470723   T   T   T
  0.1251546375573161  0.7509372133899039  0.0023895436024017   T   T   T
  0.6248453624426840  0.7509372133899039  0.0023895436024017   T   T   T
  0.3750000000000000  0.2503719252993193  0.0003389321466907   T   T   T
  0.8750000000000000  0.2511391991252069  0.0021014487924343   T   T   T
  0.3750000000000000  0.7503417773726734  0.0018608981865858   T   T   T
  0.8750000000000000  0.7510537199213142  0.0025979171117198   T   T   T
  0.1259705953764024  0.0005898939054960  0.0940525076973836   T   T   T
  0.6240294046235977  0.0005898939054960  0.0940525076973836   T   T   T
  0.1260999468367332  0.5015645279917995  0.0942208722191106   T   T   T
  0.6239000531632740  0.5015645279917995  0.0942208722191106   T   T   T
  0.3750000000000000 -0.0001138772874354  0.0934196951439422   T   T   T
  0.8750000000000000  0.0011729149908460  0.0944884569096104   T   T   T
  0.3750000000000000  0.4994942359685455  0.0936022847127510   T   T   T
  0.8750000000000000  0.5014426529889829  0.0943945197181987   T   T   T
  0.0000517585749141  0.2511861383267709  0.0940010996540219   T   T   T
  0.4987731517156581  0.2507797374496536  0.0917892271555652   T   T   T
  0.0002679297936970  0.7513369354538777  0.0945213843128853   T   T   T
  0.4993577418633949  0.7505218978480134  0.0948625099018321   T   T   T
  0.2512268482843419  0.2507797374496536  0.0917892271555652   T   T   T
  0.7499482414250860  0.2511861383267709  0.0940010996540219   T   T   T
  0.2506422581366051  0.7505218978480134  0.0948625099018321   T   T   T
  0.7497320702063027  0.7513369354538777  0.0945213843128853   T   T   T
  0.0011595659459974  0.0020615790433842  0.1847571478321574   T   T   T
  0.4983294017829299  0.0076440617750666  0.1865544668304609   T   T   T
  0.0006707195882354  0.5010577571951155  0.1844837894246453   T   T   T
  0.4978556847073514  0.4938892560506445  0.1870240532912398   T   T   T
  0.2516705982170701  0.0076440617750666  0.1865544668304609   T   T   T
  0.7488404340540028  0.0020615790433842  0.1847571478321574   T   T   T
  0.2521443152926486  0.4938892560506445  0.1870240532912398   T   T   T
  0.7493292804117646  0.5010577571951155  0.1844837894246453   T   T   T
  0.1273837393297440  0.2514254136520274  0.1813003734419767   T   T   T
  0.6226162606702561  0.2514254136520274  0.1813003734419767   T   T   T
  0.1262776833887838  0.7513947660775243  0.1840008823369256   T   T   T
  0.6237223166112161  0.7513947660775243  0.1840008823369256   T   T   T
  0.3750000000000000  0.2504624683786988  0.1823581771354198   T   T   T
  0.8750000000000000  0.2513889674147420  0.1837032310057921   T   T   T
  0.3750000000000000  0.7466722617687490  0.1831704450524800   T   T   T
  0.8750000000000000  0.7518319274562149  0.1835817080753283   T   T   T
  0.1281391203961510  0.9899297118039105  0.2783441920828927   T   T   T
  0.6218608291698524  0.9899297118039105  0.2783441920828927   T   T   T
  0.1252342519815716  0.5141513072343955  0.2775192195325212   T   T   T
  0.6247656975844319  0.5141513072343955  0.2775192195325212   T   T   T
  0.3749999747830017  0.9888029447925607  0.2731273982260253   T   T   T
  0.8749999747830017  0.9983390064472496  0.2757756585968386   T   T   T
  0.3749999243470015  0.5207195406846076  0.2822478970104301   T   T   T
  0.8749999747830017  0.5056446037477167  0.2757090802837615   T   T   T
  0.9936280591444788  0.2515313393114995  0.2775905359156509   T   T   T
  0.4737382485242210  0.2748729694604242  0.3074334631652427   T   T   T
  0.9990167200028711  0.7527471448557845  0.2757747171732234   T   T   T
  0.4979434726391110  0.7491428964827038  0.2757163606777229   T   T   T
  0.2762617514757790  0.2748729694604242  0.3074334631652427   T   T   T
  0.7563719408555212  0.2515313393114995  0.2775905359156509   T   T   T
  0.2520565273608890  0.7491428964827038  0.2757163606777229   T   T   T
  0.7509832799971289  0.7527471448557845  0.2757747171732234   T   T   T
  0.3749999243470015  0.3694674288201105  0.3412578324138661   T   T   T
 
  0.00000000E+00  0.00000000E+00  0.00000000E+00
  0.00000000E+00  0.00000000E+00  0.00000000E+00
  0.00000000E+00  0.00000000E+00  0.00000000E+00
  0.00000000E+00  0.00000000E+00  0.00000000E+00
  0.00000000E+00  0.00000000E+00  0.00000000E+00
  0.00000000E+00  0.00000000E+00  0.00000000E+00
  0.00000000E+00  0.00000000E+00  0.00000000E+00
  0.00000000E+00  0.00000000E+00  0.00000000E+00
  0.00000000E+00  0.00000000E+00  0.00000000E+00
  0.00000000E+00  0.00000000E+00  0.00000000E+00
  0.00000000E+00  0.00000000E+00  0.00000000E+00
  0.00000000E+00  0.00000000E+00  0.00000000E+00
  0.00000000E+00  0.00000000E+00  0.00000000E+00
  0.00000000E+00  0.00000000E+00  0.00000000E+00
  0.00000000E+00  0.00000000E+00  0.00000000E+00
  0.00000000E+00  0.00000000E+00  0.00000000E+00
  0.00000000E+00  0.00000000E+00  0.00000000E+00
  0.00000000E+00  0.00000000E+00  0.00000000E+00
  0.00000000E+00  0.00000000E+00  0.00000000E+00
  0.00000000E+00  0.00000000E+00  0.00000000E+00
  0.00000000E+00  0.00000000E+00  0.00000000E+00
  0.00000000E+00  0.00000000E+00  0.00000000E+00
  0.00000000E+00  0.00000000E+00  0.00000000E+00
  0.00000000E+00  0.00000000E+00  0.00000000E+00
  0.00000000E+00  0.00000000E+00  0.00000000E+00
  0.00000000E+00  0.00000000E+00  0.00000000E+00
  0.00000000E+00  0.00000000E+00  0.00000000E+00
  0.00000000E+00  0.00000000E+00  0.00000000E+00
  0.00000000E+00  0.00000000E+00  0.00000000E+00
  0.00000000E+00  0.00000000E+00  0.00000000E+00
  0.00000000E+00  0.00000000E+00  0.00000000E+00
  0.00000000E+00  0.00000000E+00  0.00000000E+00
  0.00000000E+00  0.00000000E+00  0.00000000E+00
  0.00000000E+00  0.00000000E+00  0.00000000E+00
  0.00000000E+00  0.00000000E+00  0.00000000E+00
  0.00000000E+00  0.00000000E+00  0.00000000E+00
  0.00000000E+00  0.00000000E+00  0.00000000E+00
  0.00000000E+00  0.00000000E+00  0.00000000E+00
  0.00000000E+00  0.00000000E+00  0.00000000E+00
  0.00000000E+00  0.00000000E+00  0.00000000E+00
  0.00000000E+00  0.00000000E+00  0.00000000E+00
  0.00000000E+00  0.00000000E+00  0.00000000E+00
  0.00000000E+00  0.00000000E+00  0.00000000E+00
  0.00000000E+00  0.00000000E+00  0.00000000E+00
  0.00000000E+00  0.00000000E+00  0.00000000E+00
  0.00000000E+00  0.00000000E+00  0.00000000E+00
  0.00000000E+00  0.00000000E+00  0.00000000E+00
  0.00000000E+00  0.00000000E+00  0.00000000E+00
  0.00000000E+00  0.00000000E+00  0.00000000E+00
  0.00000000E+00  0.00000000E+00  0.00000000E+00
  0.00000000E+00  0.00000000E+00  0.00000000E+00
  0.00000000E+00  0.00000000E+00  0.00000000E+00
  0.00000000E+00  0.00000000E+00  0.00000000E+00
  0.00000000E+00  0.00000000E+00  0.00000000E+00
  0.00000000E+00  0.00000000E+00  0.00000000E+00
  0.00000000E+00  0.00000000E+00  0.00000000E+00
  0.00000000E+00  0.00000000E+00  0.00000000E+00
  0.00000000E+00  0.00000000E+00  0.00000000E+00
  0.00000000E+00  0.00000000E+00  0.00000000E+00
  0.00000000E+00  0.00000000E+00  0.00000000E+00
  0.00000000E+00  0.00000000E+00  0.00000000E+00
  0.00000000E+00  0.00000000E+00  0.00000000E+00
  0.00000000E+00  0.00000000E+00  0.00000000E+00
  0.00000000E+00  0.00000000E+00  0.00000000E+00
  0.00000000E+00  0.00000000E+00  0.00000000E+00
  0.00000000E+00  0.00000000E+00  0.00000000E+00
  0.00000000E+00  0.00000000E+00  0.00000000E+00
  0.00000000E+00  0.00000000E+00  0.00000000E+00
  0.00000000E+00  0.00000000E+00  0.00000000E+00
  0.00000000E+00  0.00000000E+00  0.00000000E+00
  0.00000000E+00  0.00000000E+00  0.00000000E+00
  0.00000000E+00  0.00000000E+00  0.00000000E+00
  0.00000000E+00  0.00000000E+00  0.00000000E+00
  0.00000000E+00  0.00000000E+00  0.00000000E+00
  0.00000000E+00  0.00000000E+00  0.00000000E+00
  0.00000000E+00  0.00000000E+00  0.00000000E+00
  0.00000000E+00  0.00000000E+00  0.00000000E+00
  0.00000000E+00  0.00000000E+00  0.00000000E+00
  0.00000000E+00  0.00000000E+00  0.00000000E+00
  0.00000000E+00  0.00000000E+00  0.00000000E+00
  0.00000000E+00  0.00000000E+00  0.00000000E+00
  0.00000000E+00  0.00000000E+00  0.00000000E+00
  0.00000000E+00  0.00000000E+00  0.00000000E+00
  0.00000000E+00  0.00000000E+00  0.00000000E+00
  0.00000000E+00  0.00000000E+00  0.00000000E+00
  0.00000000E+00  0.00000000E+00  0.00000000E+00
  0.00000000E+00  0.00000000E+00  0.00000000E+00
  0.00000000E+00  0.00000000E+00  0.00000000E+00
  0.00000000E+00  0.00000000E+00  0.00000000E+00
  0.00000000E+00  0.00000000E+00  0.00000000E+00
  0.00000000E+00  0.00000000E+00  0.00000000E+00
  0.00000000E+00  0.00000000E+00  0.00000000E+00
  0.00000000E+00  0.00000000E+00  0.00000000E+00
  0.00000000E+00  0.00000000E+00  0.00000000E+00
  0.00000000E+00  0.00000000E+00  0.00000000E+00
  0.00000000E+00  0.00000000E+00  0.00000000E+00
  0.00000000E+00  0.00000000E+00  0.00000000E+00
  0.00000000E+00  0.00000000E+00  0.00000000E+00
  0.00000000E+00  0.00000000E+00  0.00000000E+00
  0.00000000E+00  0.00000000E+00  0.00000000E+00
  0.00000000E+00  0.00000000E+00  0.00000000E+00
  0.00000000E+00  0.00000000E+00  0.00000000E+00
  0.00000000E+00  0.00000000E+00  0.00000000E+00
  0.00000000E+00  0.00000000E+00  0.00000000E+00
  0.00000000E+00  0.00000000E+00  0.00000000E+00
  0.00000000E+00  0.00000000E+00  0.00000000E+00
  0.00000000E+00  0.00000000E+00  0.00000000E+00
  0.00000000E+00  0.00000000E+00  0.00000000E+00
  0.00000000E+00  0.00000000E+00  0.00000000E+00
  0.00000000E+00  0.00000000E+00  0.00000000E+00
  0.00000000E+00  0.00000000E+00  0.00000000E+00
  0.00000000E+00  0.00000000E+00  0.00000000E+00
  0.00000000E+00  0.00000000E+00  0.00000000E+00
  0.00000000E+00  0.00000000E+00  0.00000000E+00
  0.00000000E+00  0.00000000E+00  0.00000000E+00
  0.00000000E+00  0.00000000E+00  0.00000000E+00
  0.00000000E+00  0.00000000E+00  0.00000000E+00
  0.00000000E+00  0.00000000E+00  0.00000000E+00
  0.00000000E+00  0.00000000E+00  0.00000000E+00
  0.00000000E+00  0.00000000E+00  0.00000000E+00
  0.00000000E+00  0.00000000E+00  0.00000000E+00
  0.00000000E+00  0.00000000E+00  0.00000000E+00
  0.00000000E+00  0.00000000E+00  0.00000000E+00
  0.00000000E+00  0.00000000E+00  0.00000000E+00
  0.00000000E+00  0.00000000E+00  0.00000000E+00
  0.00000000E+00  0.00000000E+00  0.00000000E+00
  0.00000000E+00  0.00000000E+00  0.00000000E+00
  0.00000000E+00  0.00000000E+00  0.00000000E+00
  0.00000000E+00  0.00000000E+00  0.00000000E+00
