Mg Na O                                 
   1.00000000000000     
    16.8282433949600012    0.0000000000000000    0.0000000000000000
     0.0000000000000000    8.4141216974800006    0.0000000000000000
     0.0000000000000000    0.0000000000000000   23.4141216974799988
   Mg   Na   O 
    62     2    64
Selective dynamics
Direct
  0.1250000000000000  0.9997889132759994  0.0048079380050012   T   T   T
  0.6250000000000000  0.9997889132759994  0.0048079380050012   T   T   T
  0.1250000000000000  0.5002110867240006  0.0048079380050012   T   T   T
  0.6250000000000000  0.5002110867240006  0.0048079380050012   T   T   T
  0.3750000000000000  0.0000546325480002  0.0049667349319975   T   T   T
  0.8750000000000000  0.0000546325480002  0.0049667349319975   T   T   T
  0.3750000000000000  0.4999453674519998  0.0049667349319975   T   T   T
  0.8750000000000000  0.4999453674519998  0.0049667349319975   T   T   T
  0.9998903038650013  0.2500000000000000  0.0048119303069996   T   T   T
  0.4998903038650013  0.2500000000000000  0.0048119303069996   T   T   T
  0.0000195920129968  0.7500000000000000  0.0049687371050027   T   T   T
  0.5000195920129968  0.7500000000000000  0.0049687371050027   T   T   T
  0.2501096961349987  0.2500000000000000  0.0048119303069996   T   T   T
  0.7501096961349987  0.2500000000000000  0.0048119303069996   T   T   T
  0.2499804079870032  0.7500000000000000  0.0049687371050027   T   T   T
  0.7499804079870032  0.7500000000000000  0.0049687371050027   T   T   T
  0.0002852244830009  0.0005758527710000  0.0944999033630012   T   T   T
  0.5002852244830009  0.0005758527710000  0.0944999033630012   T   T   T
  0.0002852244830009  0.4994241472290000  0.0944999033630012   T   T   T
  0.5002852244830009  0.4994241472290000  0.0944999033630012   T   T   T
  0.2497147755169991  0.0005758527710000  0.0944999033630012   T   T   T
  0.7497147755169991  0.0005758527710000  0.0944999033630012   T   T   T
  0.2497147755169991  0.4994241472290000  0.0944999033630012   T   T   T
  0.7497147755169991  0.4994241472290000  0.0944999033630012   T   T   T
  0.1250000000000000  0.2500000000000000  0.0938991885349978   T   T   T
  0.6250000000000000  0.2500000000000000  0.0938991885349978   T   T   T
  0.1250000000000000  0.7500000000000000  0.0946513296339972   T   T   T
  0.6250000000000000  0.7500000000000000  0.0946513296339972   T   T   T
  0.3750000000000000  0.2500000000000000  0.0946562417200028   T   T   T
  0.8750000000000000  0.2500000000000000  0.0946562417200028   T   T   T
  0.3750000000000000  0.7500000000000000  0.0943081414240012   T   T   T
  0.8750000000000000  0.7500000000000000  0.0943081414240012   T   T   T
  0.1250000000000000  0.0045198931570027  0.1863579818610006   T   T   T
  0.6250000000000000  0.0045198931570027  0.1863579818610006   T   T   T
  0.1250000000000000  0.4954801068429973  0.1863579818610006   T   T   T
  0.6250000000000000  0.4954801068429973  0.1863579818610006   T   T   T
  0.3750000000000000  0.0007865074679998  0.1847091125319977   T   T   T
  0.8750000000000000  0.0007865074679998  0.1847091125319977   T   T   T
  0.3750000000000000  0.4992134925320002  0.1847091125319977   T   T   T
  0.8750000000000000  0.4992134925320002  0.1847091125319977   T   T   T
  0.0022416187790029  0.2500000000000000  0.1863130363820034   T   T   T
  0.5022416187790029  0.2500000000000000  0.1863130363820034   T   T   T
  0.0003796504409976  0.7500000000000000  0.1846535604479982   T   T   T
  0.5003796504409976  0.7500000000000000  0.1846535604479982   T   T   T
  0.2477583812209971  0.2500000000000000  0.1863130363820034   T   T   T
  0.7477583812209971  0.2500000000000000  0.1863130363820034   T   T   T
  0.2496203495590024  0.7500000000000000  0.1846535604479982   T   T   T
  0.7496203495590024  0.7500000000000000  0.1846535604479982   T   T   T
  0.0006339520409995  0.0012345446049977  0.2740277174999974   T   T   T
  0.5006339520409995  0.0012345446049977  0.2740277174999974   T   T   T
  0.0006339520409995  0.4987654553950023  0.2740277174999974   T   T   T
  0.5006339520409995  0.4987654553950023  0.2740277174999974   T   T   T
  0.2493660479590005  0.0012345446049977  0.2740277174999974   T   T   T
  0.7493660479590005  0.0012345446049977  0.2740277174999974   T   T   T
  0.2493660479590005  0.4987654553950023  0.2740277174999974   T   T   T
  0.7493660479590005  0.4987654553950023  0.2740277174999974   T   T   T
  0.1250000000000000  0.7500000000000000  0.2741157075760015   T   T   T
  0.6250000000000000  0.7500000000000000  0.2741157075760015   T   T   T
  0.3750000000000000  0.2500000000000000  0.2741552573279975   T   T   T
  0.8750000000000000  0.2500000000000000  0.2741552573279975   T   T   T
  0.3750000000000000  0.7500000000000000  0.2735277779789982   T   T   T
  0.8750000000000000  0.7500000000000000  0.2735277779789982   T   T   T
  0.1250000000000000  0.2500000000000000  0.3005559539530012   T   T   T
  0.6250000000000000  0.2500000000000000  0.3005559539530012   T   T   T
  0.9999430005079972  0.9998874576370014  0.0026151375739971   T   T   T
  0.4999430005079972  0.9998874576370014  0.0026151375739971   T   T   T
  0.9999430005079972  0.5001125423629986  0.0026151375739971   T   T   T
  0.4999430005079972  0.5001125423629986  0.0026151375739971   T   T   T
  0.2500569994920028  0.9998874576370014  0.0026151375739971   T   T   T
  0.7500569994920028  0.9998874576370014  0.0026151375739971   T   T   T
  0.2500569994920028  0.5001125423629986  0.0026151375739971   T   T   T
  0.7500569994920028  0.5001125423629986  0.0026151375739971   T   T   T
  0.1250000000000000  0.2500000000000000  0.0024013660359969   T   T   T
  0.6250000000000000  0.2500000000000000  0.0024013660359969   T   T   T
  0.1250000000000000  0.7500000000000000  0.0025085341589985   T   T   T
  0.6250000000000000  0.7500000000000000  0.0025085341589985   T   T   T
  0.3750000000000000  0.2500000000000000  0.0025038686610017   T   T   T
  0.8750000000000000  0.2500000000000000  0.0025038686610017   T   T   T
  0.3750000000000000  0.7500000000000000  0.0026850688219966   T   T   T
  0.8750000000000000  0.7500000000000000  0.0026850688219966   T   T   T
  0.1250000000000000  0.9992521581780025  0.0942569546480030   T   T   T
  0.6250000000000000  0.9992521581780025  0.0942569546480030   T   T   T
  0.1250000000000000  0.5007478418219975  0.0942569546480030   T   T   T
  0.6250000000000000  0.5007478418219975  0.0942569546480030   T   T   T
  0.3750000000000000  0.9998631982150030  0.0945858459269999   T   T   T
  0.8750000000000000  0.9998631982150030  0.0945858459269999   T   T   T
  0.3750000000000000  0.5001368017849970  0.0945858459269999   T   T   T
  0.8750000000000000  0.5001368017849970  0.0945858459269999   T   T   T
  0.9996241776550008  0.2500000000000000  0.0942507137529986   T   T   T
  0.4996241776550008  0.2500000000000000  0.0942507137529986   T   T   T
  0.9999255103680014  0.7500000000000000  0.0945554420960022   T   T   T
  0.4999255103680014  0.7500000000000000  0.0945554420960022   T   T   T
  0.2503758223449992  0.2500000000000000  0.0942507137529986   T   T   T
  0.7503758223449992  0.2500000000000000  0.0942507137529986   T   T   T
  0.2500744896319986  0.7500000000000000  0.0945554420960022   T   T   T
  0.7500744896319986  0.7500000000000000  0.0945554420960022   T   T   T
  0.0001626857949972  0.0003309715539999  0.1847212910110017   T   T   T
  0.5001626857949972  0.0003309715539999  0.1847212910110017   T   T   T
  0.0001626857949972  0.4996690284460001  0.1847212910110017   T   T   T
  0.5001626857949972  0.4996690284460001  0.1847212910110017   T   T   T
  0.2498373142050028  0.0003309715539999  0.1847212910110017   T   T   T
  0.7498373142050028  0.0003309715539999  0.1847212910110017   T   T   T
  0.2498373142050028  0.4996690284460001  0.1847212910110017   T   T   T
  0.7498373142050028  0.4996690284460001  0.1847212910110017   T   T   T
  0.1250000000000000  0.2500000000000000  0.1813537024589991   T   T   T
  0.6250000000000000  0.2500000000000000  0.1813537024589991   T   T   T
  0.1250000000000000  0.7500000000000000  0.1840598941729965   T   T   T
  0.6250000000000000  0.7500000000000000  0.1840598941729965   T   T   T
  0.3750000000000000  0.2500000000000000  0.1840859376309965   T   T   T
  0.8750000000000000  0.2500000000000000  0.1840859376309965   T   T   T
  0.3750000000000000  0.7500000000000000  0.1839044208569973   T   T   T
  0.8750000000000000  0.7500000000000000  0.1839044208569973   T   T   T
  0.1249999747830017  0.9867211232309998  0.2773507074760033   T   T   T
  0.6249999747830017  0.9867211232309998  0.2773507074760033   T   T   T
  0.1249999747830017  0.5132788767690002  0.2773507074760033   T   T   T
  0.6249999747830017  0.5132788767690002  0.2773507074760033   T   T   T
  0.3749999747830017  0.9972172893349978  0.2758456999739991   T   T   T
  0.8749999747830017  0.9972172893349978  0.2758456999739991   T   T   T
  0.3749999747830017  0.5027827106650022  0.2758456999739991   T   T   T
  0.8749999747830017  0.5027827106650022  0.2758456999739991   T   T   T
  0.9933895453159991  0.2500000000000000  0.2773462255250010   T   T   T
  0.4933895453159991  0.2500000000000000  0.2773462255250010   T   T   T
  0.9985921692410002  0.7500000000000000  0.2758141683139996   T   T   T
  0.4985921692410002  0.7500000000000000  0.2758141683139996   T   T   T
  0.2566104546840009  0.2500000000000000  0.2773462255250010   T   T   T
  0.7566104546840009  0.2500000000000000  0.2773462255250010   T   T   T
  0.2514078307589998  0.7500000000000000  0.2758141683139996   T   T   T
  0.7514078307589998  0.7500000000000000  0.2758141683139996   T   T   T
 
  0.00000000E+00  0.00000000E+00  0.00000000E+00
  0.00000000E+00  0.00000000E+00  0.00000000E+00
  0.00000000E+00  0.00000000E+00  0.00000000E+00
  0.00000000E+00  0.00000000E+00  0.00000000E+00
  0.00000000E+00  0.00000000E+00  0.00000000E+00
  0.00000000E+00  0.00000000E+00  0.00000000E+00
  0.00000000E+00  0.00000000E+00  0.00000000E+00
  0.00000000E+00  0.00000000E+00  0.00000000E+00
  0.00000000E+00  0.00000000E+00  0.00000000E+00
  0.00000000E+00  0.00000000E+00  0.00000000E+00
  0.00000000E+00  0.00000000E+00  0.00000000E+00
  0.00000000E+00  0.00000000E+00  0.00000000E+00
  0.00000000E+00  0.00000000E+00  0.00000000E+00
  0.00000000E+00  0.00000000E+00  0.00000000E+00
  0.00000000E+00  0.00000000E+00  0.00000000E+00
  0.00000000E+00  0.00000000E+00  0.00000000E+00
  0.00000000E+00  0.00000000E+00  0.00000000E+00
  0.00000000E+00  0.00000000E+00  0.00000000E+00
  0.00000000E+00  0.00000000E+00  0.00000000E+00
  0.00000000E+00  0.00000000E+00  0.00000000E+00
  0.00000000E+00  0.00000000E+00  0.00000000E+00
  0.00000000E+00  0.00000000E+00  0.00000000E+00
  0.00000000E+00  0.00000000E+00  0.00000000E+00
  0.00000000E+00  0.00000000E+00  0.00000000E+00
  0.00000000E+00  0.00000000E+00  0.00000000E+00
  0.00000000E+00  0.00000000E+00  0.00000000E+00
  0.00000000E+00  0.00000000E+00  0.00000000E+00
  0.00000000E+00  0.00000000E+00  0.00000000E+00
  0.00000000E+00  0.00000000E+00  0.00000000E+00
  0.00000000E+00  0.00000000E+00  0.00000000E+00
  0.00000000E+00  0.00000000E+00  0.00000000E+00
  0.00000000E+00  0.00000000E+00  0.00000000E+00
  0.00000000E+00  0.00000000E+00  0.00000000E+00
  0.00000000E+00  0.00000000E+00  0.00000000E+00
  0.00000000E+00  0.00000000E+00  0.00000000E+00
  0.00000000E+00  0.00000000E+00  0.00000000E+00
  0.00000000E+00  0.00000000E+00  0.00000000E+00
  0.00000000E+00  0.00000000E+00  0.00000000E+00
  0.00000000E+00  0.00000000E+00  0.00000000E+00
  0.00000000E+00  0.00000000E+00  0.00000000E+00
  0.00000000E+00  0.00000000E+00  0.00000000E+00
  0.00000000E+00  0.00000000E+00  0.00000000E+00
  0.00000000E+00  0.00000000E+00  0.00000000E+00
  0.00000000E+00  0.00000000E+00  0.00000000E+00
  0.00000000E+00  0.00000000E+00  0.00000000E+00
  0.00000000E+00  0.00000000E+00  0.00000000E+00
  0.00000000E+00  0.00000000E+00  0.00000000E+00
  0.00000000E+00  0.00000000E+00  0.00000000E+00
  0.00000000E+00  0.00000000E+00  0.00000000E+00
  0.00000000E+00  0.00000000E+00  0.00000000E+00
  0.00000000E+00  0.00000000E+00  0.00000000E+00
  0.00000000E+00  0.00000000E+00  0.00000000E+00
  0.00000000E+00  0.00000000E+00  0.00000000E+00
  0.00000000E+00  0.00000000E+00  0.00000000E+00
  0.00000000E+00  0.00000000E+00  0.00000000E+00
  0.00000000E+00  0.00000000E+00  0.00000000E+00
  0.00000000E+00  0.00000000E+00  0.00000000E+00
  0.00000000E+00  0.00000000E+00  0.00000000E+00
  0.00000000E+00  0.00000000E+00  0.00000000E+00
  0.00000000E+00  0.00000000E+00  0.00000000E+00
  0.00000000E+00  0.00000000E+00  0.00000000E+00
  0.00000000E+00  0.00000000E+00  0.00000000E+00
  0.00000000E+00  0.00000000E+00  0.00000000E+00
  0.00000000E+00  0.00000000E+00  0.00000000E+00
  0.00000000E+00  0.00000000E+00  0.00000000E+00
  0.00000000E+00  0.00000000E+00  0.00000000E+00
  0.00000000E+00  0.00000000E+00  0.00000000E+00
  0.00000000E+00  0.00000000E+00  0.00000000E+00
  0.00000000E+00  0.00000000E+00  0.00000000E+00
  0.00000000E+00  0.00000000E+00  0.00000000E+00
  0.00000000E+00  0.00000000E+00  0.00000000E+00
  0.00000000E+00  0.00000000E+00  0.00000000E+00
  0.00000000E+00  0.00000000E+00  0.00000000E+00
  0.00000000E+00  0.00000000E+00  0.00000000E+00
  0.00000000E+00  0.00000000E+00  0.00000000E+00
  0.00000000E+00  0.00000000E+00  0.00000000E+00
  0.00000000E+00  0.00000000E+00  0.00000000E+00
  0.00000000E+00  0.00000000E+00  0.00000000E+00
  0.00000000E+00  0.00000000E+00  0.00000000E+00
  0.00000000E+00  0.00000000E+00  0.00000000E+00
  0.00000000E+00  0.00000000E+00  0.00000000E+00
  0.00000000E+00  0.00000000E+00  0.00000000E+00
  0.00000000E+00  0.00000000E+00  0.00000000E+00
  0.00000000E+00  0.00000000E+00  0.00000000E+00
  0.00000000E+00  0.00000000E+00  0.00000000E+00
  0.00000000E+00  0.00000000E+00  0.00000000E+00
  0.00000000E+00  0.00000000E+00  0.00000000E+00
  0.00000000E+00  0.00000000E+00  0.00000000E+00
  0.00000000E+00  0.00000000E+00  0.00000000E+00
  0.00000000E+00  0.00000000E+00  0.00000000E+00
  0.00000000E+00  0.00000000E+00  0.00000000E+00
  0.00000000E+00  0.00000000E+00  0.00000000E+00
  0.00000000E+00  0.00000000E+00  0.00000000E+00
  0.00000000E+00  0.00000000E+00  0.00000000E+00
  0.00000000E+00  0.00000000E+00  0.00000000E+00
  0.00000000E+00  0.00000000E+00  0.00000000E+00
  0.00000000E+00  0.00000000E+00  0.00000000E+00
  0.00000000E+00  0.00000000E+00  0.00000000E+00
  0.00000000E+00  0.00000000E+00  0.00000000E+00
  0.00000000E+00  0.00000000E+00  0.00000000E+00
  0.00000000E+00  0.00000000E+00  0.00000000E+00
  0.00000000E+00  0.00000000E+00  0.00000000E+00
  0.00000000E+00  0.00000000E+00  0.00000000E+00
  0.00000000E+00  0.00000000E+00  0.00000000E+00
  0.00000000E+00  0.00000000E+00  0.00000000E+00
  0.00000000E+00  0.00000000E+00  0.00000000E+00
  0.00000000E+00  0.00000000E+00  0.00000000E+00
  0.00000000E+00  0.00000000E+00  0.00000000E+00
  0.00000000E+00  0.00000000E+00  0.00000000E+00
  0.00000000E+00  0.00000000E+00  0.00000000E+00
  0.00000000E+00  0.00000000E+00  0.00000000E+00
  0.00000000E+00  0.00000000E+00  0.00000000E+00
  0.00000000E+00  0.00000000E+00  0.00000000E+00
  0.00000000E+00  0.00000000E+00  0.00000000E+00
  0.00000000E+00  0.00000000E+00  0.00000000E+00
  0.00000000E+00  0.00000000E+00  0.00000000E+00
  0.00000000E+00  0.00000000E+00  0.00000000E+00
  0.00000000E+00  0.00000000E+00  0.00000000E+00
  0.00000000E+00  0.00000000E+00  0.00000000E+00
  0.00000000E+00  0.00000000E+00  0.00000000E+00
  0.00000000E+00  0.00000000E+00  0.00000000E+00
  0.00000000E+00  0.00000000E+00  0.00000000E+00
  0.00000000E+00  0.00000000E+00  0.00000000E+00
  0.00000000E+00  0.00000000E+00  0.00000000E+00
  0.00000000E+00  0.00000000E+00  0.00000000E+00
  0.00000000E+00  0.00000000E+00  0.00000000E+00
  0.00000000E+00  0.00000000E+00  0.00000000E+00
  0.00000000E+00  0.00000000E+00  0.00000000E+00
