Mg Na O Ag                              
   1.00000000000000     
    16.8282433949600012    0.0000000000000000    0.0000000000000000
     0.0000000000000000    8.4141216974800006    0.0000000000000000
     0.0000000000000000    0.0000000000000000   23.4141216974799988
   Mg   Na   O    Ag
    62     2    64     1
Selective dynamics
Direct
  0.1247987467573149  0.9998315859984578  0.0047449535894065   T   T   T
  0.6252012532426851  0.9998315859984578  0.0047449535894065   T   T   T
  0.1247480602199124  0.5002466841254700  0.0045680845343316   T   T   T
  0.6252519397800874  0.5002466841254700  0.0045680845343316   T   T   T
  0.3750000000000000  0.0000233975992256  0.0045869317296478   T   T   T
  0.8750000000000000  0.0001018301205499  0.0047992800988044   T   T   T
  0.3750000000000000  0.4999007453373360  0.0043429664374914   T   T   T
  0.8750000000000000  0.4999762030609922  0.0047447112945598   T   T   T
  0.9997858218518036  0.2500180193619760  0.0046712423512797   T   T   T
  0.5000411981925198  0.2499175813683439  0.0045411085348808   T   T   T
 -0.0001143145321745  0.7500840600009526  0.0047690010399917   T   T   T
  0.5002168032277594  0.7500781570179615  0.0046937152758062   T   T   T
  0.2499588018074801  0.2499175813683439  0.0045411085348808   T   T   T
  0.7502141781481964  0.2500180193619760  0.0046712423512797   T   T   T
  0.2497831967722407  0.7500781570179615  0.0046937152758062   T   T   T
  0.7501143145321746  0.7500840600009526  0.0047690010399917   T   T   T
  0.0001773195361097  0.0007132048073299  0.0943935747566595   T   T   T
  0.5005642772841642  0.0007002262354139  0.0943148287375627   T   T   T
  0.0000901988363143  0.4995202744423433  0.0942682590347788   T   T   T
  0.5006616907389777  0.4994345697485642  0.0937924097146092   T   T   T
  0.2494357227158358  0.0007002262354139  0.0943148287375627   T   T   T
  0.7498226804638903  0.0007132048073299  0.0943935747566595   T   T   T
  0.2493383092610222  0.4994345697485642  0.0937924097146092   T   T   T
  0.7499098011636854  0.4995202744423433  0.0942682590347788   T   T   T
  0.1248654657801077  0.2499738343894040  0.0939817288585168   T   T   T
  0.6251345342198923  0.2499738343894040  0.0939817288585168   T   T   T
  0.1248002899052669  0.7502313643401657  0.0945608795696278   T   T   T
  0.6251997100947331  0.7502313643401657  0.0945608795696278   T   T   T
  0.3750000000000000  0.2496738974643230  0.0939388023480342   T   T   T
  0.8750000000000000  0.2501476398039647  0.0945292066063154   T   T   T
  0.3750000000000000  0.7502231890365261  0.0936137065299740   T   T   T
  0.8750000000000000  0.7500775712247693  0.0941536282853524   T   T   T
  0.1247490147851259  0.0046558847149870  0.1864096007576685   T   T   T
  0.6252509852148742  0.0046558847149870  0.1864096007576685   T   T   T
  0.1240065817979550  0.4958204790716081  0.1859353392099444   T   T   T
  0.6259934182020449  0.4958204790716081  0.1859353392099444   T   T   T
  0.3750000000000000  0.0006107692050526  0.1841624982505871   T   T   T
  0.8750000000000000  0.0009526966224284  0.1846205546801184   T   T   T
  0.3750000000000000  0.4989947744887505  0.1817205810738503   T   T   T
  0.8750000000000000  0.4993172472512161  0.1845513054007273   T   T   T
  0.0021497723230169  0.2500508915791571  0.1862546993033675   T   T   T
  0.5025091196109468  0.2499580777922734  0.1861787974138271   T   T   T
  0.0001400758974784  0.7502890772030880  0.1846387917158198   T   T   T
  0.5008249255190613  0.7503122461462609  0.1846952413257662   T   T   T
  0.2474908803890533  0.2499580777922734  0.1861787974138271   T   T   T
  0.7478502276769829  0.2500508915791571  0.1862546993033675   T   T   T
  0.2491750744809388  0.7503122461462609  0.1846952413257662   T   T   T
  0.7498599241025216  0.7502890772030880  0.1846387917158198   T   T   T
  0.0005962156022058  0.0015439328256873  0.2739584639081619   T   T   T
  0.5018239965066548  0.0011520147998843  0.2744510849078480   T   T   T
  0.0002413686753682  0.4989193165356131  0.2739707141056775   T   T   T
  0.5058937790949010  0.4988408390221409  0.2730379136992614   T   T   T
  0.2481760034933453  0.0011520147998843  0.2744510849078480   T   T   T
  0.7494037843977941  0.0015439328256873  0.2739584639081619   T   T   T
  0.2441062209050987  0.4988408390221409  0.2730379136992614   T   T   T
  0.7497586313246317  0.4989193165356131  0.2739707141056775   T   T   T
  0.1239208279587423  0.7506556251430698  0.2741495515581012   T   T   T
  0.6260791720412577  0.7506556251430698  0.2741495515581012   T   T   T
  0.3750000000000000  0.2396571142030843  0.2725615180409934   T   T   T
  0.8750000000000000  0.2500447509942396  0.2739145412196010   T   T   T
  0.3750000000000000  0.7577464047934476  0.2724468626193511   T   T   T
  0.8750000000000000  0.7503132689360168  0.2733749399066482   T   T   T
  0.1245225529084667  0.2496062968505921  0.2989166118102889   T   T   T
  0.6254774470915334  0.2496062968505921  0.2989166118102889   T   T   T
 -0.0000361318122870  0.9999533406060835  0.0024595471035743   T   T   T
  0.4999246930240970  0.9998664168488572  0.0025717223779807   T   T   T
 -0.0000465620305710  0.5001422807253495  0.0024100377740643   T   T   T
  0.5000195207195991  0.5001766575067050  0.0022873487037270   T   T   T
  0.2500753069759030  0.9998664168488572  0.0025717223779807   T   T   T
  0.7500361318122868  0.9999533406060835  0.0024595471035743   T   T   T
  0.2499804792804008  0.5001766575067050  0.0022873487037270   T   T   T
  0.7500465620305710  0.5001422807253495  0.0024100377740643   T   T   T
  0.1250375401707519  0.2499974399601554  0.0023417347489406   T   T   T
  0.6249624598292480  0.2499974399601554  0.0023417347489406   T   T   T
  0.1250155776704489  0.7501002168398986  0.0024225824604555   T   T   T
  0.6249844223295509  0.7501002168398986  0.0024225824604555   T   T   T
  0.3750000000000000  0.2497455561239164  0.0022245761724645   T   T   T
  0.8750000000000000  0.2501150872137051  0.0022690235161792   T   T   T
  0.3750000000000000  0.7501835009674606  0.0024827815132603   T   T   T
  0.8750000000000000  0.7499689766954676  0.0024307965324148   T   T   T
  0.1251391900959305  0.9993369482921104  0.0942575625571610   T   T   T
  0.6248608099040694  0.9993369482921104  0.0942575625571610   T   T   T
  0.1252551587803855  0.5008451783436876  0.0942426466928379   T   T   T
  0.6247448412196145  0.5008451783436876  0.0942426466928379   T   T   T
  0.3750000000000000  0.9997737344935655  0.0947006857571304   T   T   T
  0.8750000000000000  0.0000108201950770  0.0943993926001005   T   T   T
  0.3750000000000000  0.5001435389600951  0.0939906731894415   T   T   T
  0.8750000000000000  0.5001971750701331  0.0943058260732806   T   T   T
  0.9997224158891753  0.2501225062250673  0.0940867419514515   T   T   T
  0.4994005844973022  0.2502351437860708  0.0942784159817554   T   T   T
  0.0000139550244875  0.7501011399717796  0.0944204915638414   T   T   T
  0.4996956136714237  0.7499009135302023  0.0946507075109191   T   T   T
  0.2505994155026978  0.2502351437860708  0.0942784159817554   T   T   T
  0.7502775841108247  0.2501225062250673  0.0940867419514515   T   T   T
  0.2503043863285763  0.7499009135302023  0.0946507075109191   T   T   T
  0.7499860449755126  0.7501011399717796  0.0944204915638414   T   T   T
  0.0001461061430716  0.0004854406189222  0.1845560085026429   T   T   T
  0.4997164177388429  0.0006481572506692  0.1851222143690813   T   T   T
 -0.0000557024552301  0.4998842729154390  0.1845091914114690   T   T   T
  0.4989180950078780  0.4996400799717408  0.1853869113989550   T   T   T
  0.2502835822611571  0.0006481572506692  0.1851222143690813   T   T   T
  0.7498538938569284  0.0004854406189222  0.1845560085026429   T   T   T
  0.2510819049921220  0.4996400799717408  0.1853869113989550   T   T   T
  0.7500557024552301  0.4998842729154390  0.1845091914114690   T   T   T
  0.1253045654195602  0.2505503467317368  0.1814867271428483   T   T   T
  0.6246954345804396  0.2505503467317368  0.1814867271428483   T   T   T
  0.1252344182156890  0.7497177963720695  0.1840052469687930   T   T   T
  0.6247655817843109  0.7497177963720695  0.1840052469687930   T   T   T
  0.3750000000000000  0.2522866157035359  0.1844947106727567   T   T   T
  0.8750000000000000  0.2501019546832426  0.1838605511817339   T   T   T
  0.3750000000000000  0.7472457720551769  0.1844005513075158   T   T   T
  0.8750000000000000  0.7501901565942676  0.1836749515049398   T   T   T
  0.1249386087925454  0.9864668616217982  0.2774579731179770   T   T   T
  0.6250613407734581  0.9864668616217982  0.2774579731179770   T   T   T
  0.1236672118210356  0.5141263413320025  0.2774341193184801   T   T   T
  0.6263327377449680  0.5141263413320025  0.2774341193184801   T   T   T
  0.3749999747830017  0.9970468473593426  0.2758698838976309   T   T   T
  0.8749999747830017  0.9977037856570868  0.2758795981444850   T   T   T
  0.3749999243470015  0.5061546482787925  0.2824907516263123   T   T   T
  0.8749999747830017  0.5027869541167154  0.2757413590334185   T   T   T
  0.9931676830411568  0.2500906038173504  0.2772785598142801   T   T   T
  0.4921984138405306  0.2527441074023776  0.2791022557098130   T   T   T
  0.9980911337849855  0.7504883702311244  0.2757838189303965   T   T   T
  0.4980741824914370  0.7485704259749593  0.2766874985314133   T   T   T
  0.2578015861594694  0.2527441074023776  0.2791022557098130   T   T   T
  0.7568323169588432  0.2500906038173504  0.2772785598142801   T   T   T
  0.2519258175085630  0.7485704259749593  0.2766874985314133   T   T   T
  0.7519088662150145  0.7504883702311244  0.2757838189303965   T   T   T
  0.3749999243470015  0.4878744573056911  0.3717486936957698   T   T   T
 
  0.00000000E+00  0.00000000E+00  0.00000000E+00
  0.00000000E+00  0.00000000E+00  0.00000000E+00
  0.00000000E+00  0.00000000E+00  0.00000000E+00
  0.00000000E+00  0.00000000E+00  0.00000000E+00
  0.00000000E+00  0.00000000E+00  0.00000000E+00
  0.00000000E+00  0.00000000E+00  0.00000000E+00
  0.00000000E+00  0.00000000E+00  0.00000000E+00
  0.00000000E+00  0.00000000E+00  0.00000000E+00
  0.00000000E+00  0.00000000E+00  0.00000000E+00
  0.00000000E+00  0.00000000E+00  0.00000000E+00
  0.00000000E+00  0.00000000E+00  0.00000000E+00
  0.00000000E+00  0.00000000E+00  0.00000000E+00
  0.00000000E+00  0.00000000E+00  0.00000000E+00
  0.00000000E+00  0.00000000E+00  0.00000000E+00
  0.00000000E+00  0.00000000E+00  0.00000000E+00
  0.00000000E+00  0.00000000E+00  0.00000000E+00
  0.00000000E+00  0.00000000E+00  0.00000000E+00
  0.00000000E+00  0.00000000E+00  0.00000000E+00
  0.00000000E+00  0.00000000E+00  0.00000000E+00
  0.00000000E+00  0.00000000E+00  0.00000000E+00
  0.00000000E+00  0.00000000E+00  0.00000000E+00
  0.00000000E+00  0.00000000E+00  0.00000000E+00
  0.00000000E+00  0.00000000E+00  0.00000000E+00
  0.00000000E+00  0.00000000E+00  0.00000000E+00
  0.00000000E+00  0.00000000E+00  0.00000000E+00
  0.00000000E+00  0.00000000E+00  0.00000000E+00
  0.00000000E+00  0.00000000E+00  0.00000000E+00
  0.00000000E+00  0.00000000E+00  0.00000000E+00
  0.00000000E+00  0.00000000E+00  0.00000000E+00
  0.00000000E+00  0.00000000E+00  0.00000000E+00
  0.00000000E+00  0.00000000E+00  0.00000000E+00
  0.00000000E+00  0.00000000E+00  0.00000000E+00
  0.00000000E+00  0.00000000E+00  0.00000000E+00
  0.00000000E+00  0.00000000E+00  0.00000000E+00
  0.00000000E+00  0.00000000E+00  0.00000000E+00
  0.00000000E+00  0.00000000E+00  0.00000000E+00
  0.00000000E+00  0.00000000E+00  0.00000000E+00
  0.00000000E+00  0.00000000E+00  0.00000000E+00
  0.00000000E+00  0.00000000E+00  0.00000000E+00
  0.00000000E+00  0.00000000E+00  0.00000000E+00
  0.00000000E+00  0.00000000E+00  0.00000000E+00
  0.00000000E+00  0.00000000E+00  0.00000000E+00
  0.00000000E+00  0.00000000E+00  0.00000000E+00
  0.00000000E+00  0.00000000E+00  0.00000000E+00
  0.00000000E+00  0.00000000E+00  0.00000000E+00
  0.00000000E+00  0.00000000E+00  0.00000000E+00
  0.00000000E+00  0.00000000E+00  0.00000000E+00
  0.00000000E+00  0.00000000E+00  0.00000000E+00
  0.00000000E+00  0.00000000E+00  0.00000000E+00
  0.00000000E+00  0.00000000E+00  0.00000000E+00
  0.00000000E+00  0.00000000E+00  0.00000000E+00
  0.00000000E+00  0.00000000E+00  0.00000000E+00
  0.00000000E+00  0.00000000E+00  0.00000000E+00
  0.00000000E+00  0.00000000E+00  0.00000000E+00
  0.00000000E+00  0.00000000E+00  0.00000000E+00
  0.00000000E+00  0.00000000E+00  0.00000000E+00
  0.00000000E+00  0.00000000E+00  0.00000000E+00
  0.00000000E+00  0.00000000E+00  0.00000000E+00
  0.00000000E+00  0.00000000E+00  0.00000000E+00
  0.00000000E+00  0.00000000E+00  0.00000000E+00
  0.00000000E+00  0.00000000E+00  0.00000000E+00
  0.00000000E+00  0.00000000E+00  0.00000000E+00
  0.00000000E+00  0.00000000E+00  0.00000000E+00
  0.00000000E+00  0.00000000E+00  0.00000000E+00
  0.00000000E+00  0.00000000E+00  0.00000000E+00
  0.00000000E+00  0.00000000E+00  0.00000000E+00
  0.00000000E+00  0.00000000E+00  0.00000000E+00
  0.00000000E+00  0.00000000E+00  0.00000000E+00
  0.00000000E+00  0.00000000E+00  0.00000000E+00
  0.00000000E+00  0.00000000E+00  0.00000000E+00
  0.00000000E+00  0.00000000E+00  0.00000000E+00
  0.00000000E+00  0.00000000E+00  0.00000000E+00
  0.00000000E+00  0.00000000E+00  0.00000000E+00
  0.00000000E+00  0.00000000E+00  0.00000000E+00
  0.00000000E+00  0.00000000E+00  0.00000000E+00
  0.00000000E+00  0.00000000E+00  0.00000000E+00
  0.00000000E+00  0.00000000E+00  0.00000000E+00
  0.00000000E+00  0.00000000E+00  0.00000000E+00
  0.00000000E+00  0.00000000E+00  0.00000000E+00
  0.00000000E+00  0.00000000E+00  0.00000000E+00
  0.00000000E+00  0.00000000E+00  0.00000000E+00
  0.00000000E+00  0.00000000E+00  0.00000000E+00
  0.00000000E+00  0.00000000E+00  0.00000000E+00
  0.00000000E+00  0.00000000E+00  0.00000000E+00
  0.00000000E+00  0.00000000E+00  0.00000000E+00
  0.00000000E+00  0.00000000E+00  0.00000000E+00
  0.00000000E+00  0.00000000E+00  0.00000000E+00
  0.00000000E+00  0.00000000E+00  0.00000000E+00
  0.00000000E+00  0.00000000E+00  0.00000000E+00
  0.00000000E+00  0.00000000E+00  0.00000000E+00
  0.00000000E+00  0.00000000E+00  0.00000000E+00
  0.00000000E+00  0.00000000E+00  0.00000000E+00
  0.00000000E+00  0.00000000E+00  0.00000000E+00
  0.00000000E+00  0.00000000E+00  0.00000000E+00
  0.00000000E+00  0.00000000E+00  0.00000000E+00
  0.00000000E+00  0.00000000E+00  0.00000000E+00
  0.00000000E+00  0.00000000E+00  0.00000000E+00
  0.00000000E+00  0.00000000E+00  0.00000000E+00
  0.00000000E+00  0.00000000E+00  0.00000000E+00
  0.00000000E+00  0.00000000E+00  0.00000000E+00
  0.00000000E+00  0.00000000E+00  0.00000000E+00
  0.00000000E+00  0.00000000E+00  0.00000000E+00
  0.00000000E+00  0.00000000E+00  0.00000000E+00
  0.00000000E+00  0.00000000E+00  0.00000000E+00
  0.00000000E+00  0.00000000E+00  0.00000000E+00
  0.00000000E+00  0.00000000E+00  0.00000000E+00
  0.00000000E+00  0.00000000E+00  0.00000000E+00
  0.00000000E+00  0.00000000E+00  0.00000000E+00
  0.00000000E+00  0.00000000E+00  0.00000000E+00
  0.00000000E+00  0.00000000E+00  0.00000000E+00
  0.00000000E+00  0.00000000E+00  0.00000000E+00
  0.00000000E+00  0.00000000E+00  0.00000000E+00
  0.00000000E+00  0.00000000E+00  0.00000000E+00
  0.00000000E+00  0.00000000E+00  0.00000000E+00
  0.00000000E+00  0.00000000E+00  0.00000000E+00
  0.00000000E+00  0.00000000E+00  0.00000000E+00
  0.00000000E+00  0.00000000E+00  0.00000000E+00
  0.00000000E+00  0.00000000E+00  0.00000000E+00
  0.00000000E+00  0.00000000E+00  0.00000000E+00
  0.00000000E+00  0.00000000E+00  0.00000000E+00
  0.00000000E+00  0.00000000E+00  0.00000000E+00
  0.00000000E+00  0.00000000E+00  0.00000000E+00
  0.00000000E+00  0.00000000E+00  0.00000000E+00
  0.00000000E+00  0.00000000E+00  0.00000000E+00
  0.00000000E+00  0.00000000E+00  0.00000000E+00
  0.00000000E+00  0.00000000E+00  0.00000000E+00
  0.00000000E+00  0.00000000E+00  0.00000000E+00
  0.00000000E+00  0.00000000E+00  0.00000000E+00
  0.00000000E+00  0.00000000E+00  0.00000000E+00
