Mg Na O Au                              
   1.00000000000000     
    16.8282433949600012    0.0000000000000000    0.0000000000000000
     0.0000000000000000    8.4141216974800006    0.0000000000000000
     0.0000000000000000    0.0000000000000000   23.4141216974799988
   Mg   Na   O    Au
    62     2    64     1
Selective dynamics
Direct
  0.1247806653294612  0.9997989464411434  0.0048145901729752   T   T   T
  0.6252193346705388  0.9997989464411434  0.0048145901729752   T   T   T
  0.1247748812096256  0.5002326123826121  0.0046176890745694   T   T   T
  0.6252251187903741  0.5002326123826121  0.0046176890745694   T   T   T
  0.3750000000000000 -0.0000051714642161  0.0045238187453622   T   T   T
  0.8750000000000000  0.0000360340318737  0.0049112511597615   T   T   T
  0.3750000000000000  0.4998991419079831  0.0040245585460899   T   T   T
  0.8750000000000000  0.4999477623692121  0.0047821420047299   T   T   T
  0.9997854851495117  0.2498179598984064  0.0047902974642954   T   T   T
  0.5001577581159450  0.2498817679032172  0.0045744734644714   T   T   T
 -0.0000730927596212  0.7501721790393935  0.0049304797190768   T   T   T
  0.5002880654361993  0.7501085194451811  0.0047026619368587   T   T   T
  0.2498422418840550  0.2498817679032172  0.0045744734644714   T   T   T
  0.7502145148504883  0.2498179598984064  0.0047902974642954   T   T   T
  0.2497119345638007  0.7501085194451811  0.0047026619368587   T   T   T
  0.7500730927596212  0.7501721790393935  0.0049304797190768   T   T   T
  0.0002278553744689  0.0006281018528758  0.0944826229866610   T   T   T
  0.5006100810669678  0.0006110351015459  0.0944343175069881   T   T   T
 -0.0000004283219035  0.4994234843355924  0.0943214103801039   T   T   T
  0.5008911619844125  0.4993781018883744  0.0936718955268958   T   T   T
  0.2493899189330323  0.0006110351015459  0.0944343175069881   T   T   T
  0.7497721446255312  0.0006281018528758  0.0944826229866610   T   T   T
  0.2491088380155875  0.4993781018883744  0.0936718955268958   T   T   T
  0.7500004283219035  0.4994234843355924  0.0943214103801039   T   T   T
  0.1247675189000122  0.2498007521149025  0.0940050401022334   T   T   T
  0.6252324810999879  0.2498007521149025  0.0940050401022334   T   T   T
  0.1247320604115562  0.7503096804384093  0.0946289790182839   T   T   T
  0.6252679395884438  0.7503096804384093  0.0946289790182839   T   T   T
  0.3750000000000000  0.2493056671760209  0.0937821756667446   T   T   T
  0.8750000000000000  0.2498276552734848  0.0946268730558914   T   T   T
  0.3750000000000000  0.7503825792551936  0.0934611768403069   T   T   T
  0.8750000000000000  0.7501681029847178  0.0942289385719565   T   T   T
  0.1247513456336957  0.0047725657861758  0.1865674168569639   T   T   T
  0.6252486543663042  0.0047725657861758  0.1865674168569639   T   T   T
  0.1235468702168549  0.4957295685370493  0.1859138549455480   T   T   T
  0.6264531297831450  0.4957295685370493  0.1859138549455480   T   T   T
  0.3750000000000000  0.0007906602833905  0.1840871835596595   T   T   T
  0.8750000000000000  0.0009789207171786  0.1847059675082056   T   T   T
  0.3750000000000000  0.4986625748220574  0.1802735673709537   T   T   T
  0.8750000000000000  0.4991701020484485  0.1845048568493617   T   T   T
  0.0021465657599466  0.2499132235519711  0.1863489971253239   T   T   T
  0.5025779501144553  0.2499938534319336  0.1863508797032571   T   T   T
  0.0000009956919223  0.7502905586200386  0.1846838551751017   T   T   T
  0.5010206504739003  0.7500172897641842  0.1848175735978927   T   T   T
  0.2474220498855448  0.2499938534319336  0.1863508797032571   T   T   T
  0.7478534342400532  0.2499132235519711  0.1863489971253239   T   T   T
  0.2489793495260997  0.7500172897641842  0.1848175735978927   T   T   T
  0.7499990043080774  0.7502905586200386  0.1846838551751017   T   T   T
  0.0006393053888770  0.0015824174255898  0.2741316724852024   T   T   T
  0.5020220957542427  0.0011721607471057  0.2742642265954790   T   T   T
 -0.0002311948909441  0.4987158468142225  0.2739688044663875   T   T   T
  0.5077893986890523  0.4981705634595170  0.2734961876560871   T   T   T
  0.2479779042457574  0.0011721607471057  0.2742642265954790   T   T   T
  0.7493606946111230  0.0015824174255898  0.2741316724852024   T   T   T
  0.2422106013109477  0.4981705634595170  0.2734961876560871   T   T   T
  0.7502311948909440  0.4987158468142225  0.2739688044663875   T   T   T
  0.1234857040746258  0.7505937315567374  0.2742703013606430   T   T   T
  0.6265142959253742  0.7505937315567374  0.2742703013606430   T   T   T
  0.3750000000000000  0.2376176445513038  0.2731434202355272   T   T   T
  0.8750000000000000  0.2497136150249969  0.2740326750493916   T   T   T
  0.3750000000000000  0.7600466420677767  0.2726017817899161   T   T   T
  0.8750000000000000  0.7505916015345772  0.2735224013914260   T   T   T
  0.1243201244544855  0.2492661233835604  0.3000572738625849   T   T   T
  0.6256798755455145  0.2492661233835604  0.3000572738625849   T   T   T
  0.0000323241294412  0.9998624668984519  0.0025472192352758   T   T   T
  0.4998955827619697  0.9998408255597868  0.0026481903606415   T   T   T
  0.0000510934195820  0.5001547151704199  0.0025028097296451   T   T   T
  0.5000012228830429  0.5001327702188550  0.0022597649112179   T   T   T
  0.2501044172380303  0.9998408255597868  0.0026481903606415   T   T   T
  0.7499676758705587  0.9998624668984519  0.0025472192352758   T   T   T
  0.2499987771169570  0.5001327702188550  0.0022597649112179   T   T   T
  0.7499489065804184  0.5001547151704199  0.0025028097296451   T   T   T
  0.1250537022751607  0.2499583285424437  0.0024075186468289   T   T   T
  0.6249462977248395  0.2499583285424437  0.0024075186468289   T   T   T
  0.1250643456051005  0.7500693641787105  0.0024841918232955   T   T   T
  0.6249356543948997  0.7500693641787105  0.0024841918232955   T   T   T
  0.3750000000000000  0.2496707949496831  0.0021073669108477   T   T   T
  0.8750000000000000  0.2499615658438467  0.0023812160477116   T   T   T
  0.3750000000000000  0.7502325953848826  0.0023288548168091   T   T   T
  0.8750000000000000  0.7500382344879637  0.0026132137673500   T   T   T
  0.1251649201848442  0.9992817491247282  0.0942907854299252   T   T   T
  0.6248350798151557  0.9992817491247282  0.0942907854299252   T   T   T
  0.1252093136921067  0.5008499848901260  0.0942974677304411   T   T   T
  0.6247906863078934  0.5008499848901260  0.0942974677304411   T   T   T
  0.3750000000000000  0.9996255288601218  0.0947823736792024   T   T   T
  0.8750000000000000  0.9998478441941803  0.0944706684527675   T   T   T
  0.3750000000000000  0.5000864808954640  0.0935609232013445   T   T   T
  0.8750000000000000  0.5001480997760036  0.0943152802671395   T   T   T
  0.9996678689218080  0.2500202336539512  0.0941590004177620   T   T   T
  0.4993218055969506  0.2504311007677460  0.0942860999965905   T   T   T
 -0.0000487621753521  0.7500542592096652  0.0944737225842235   T   T   T
  0.4996192710181314  0.7495132263304241  0.0946916862718005   T   T   T
  0.2506781944030494  0.2504311007677460  0.0942860999965905   T   T   T
  0.7503321310781920  0.2500202336539512  0.0941590004177620   T   T   T
  0.2503807289818686  0.7495132263304241  0.0946916862718005   T   T   T
  0.7500487621753523  0.7500542592096652  0.0944737225842235   T   T   T
  0.0002129963611641  0.0004256209350943  0.1846596268401856   T   T   T
  0.4997702188625971  0.0004036869103775  0.1849381631916909   T   T   T
 -0.0002855979347114  0.4997613755523559  0.1844707516604591   T   T   T
  0.4987453292218531  0.4996044084878534  0.1854821711342120   T   T   T
  0.2502297811374029  0.0004036869103775  0.1849381631916909   T   T   T
  0.7497870036388361  0.0004256209350943  0.1846596268401856   T   T   T
  0.2512546707781469  0.4996044084878534  0.1854821711342120   T   T   T
  0.7502855979347113  0.4997613755523559  0.1844707516604591   T   T   T
  0.1251964707542221  0.2505935972184762  0.1813781608086665   T   T   T
  0.6248035292457780  0.2505935972184762  0.1813781608086665   T   T   T
  0.1249920229638214  0.7496275683737893  0.1840259002560143   T   T   T
  0.6250079770361786  0.7496275683737893  0.1840259002560143   T   T   T
  0.3750000000000000  0.2530405884563391  0.1844155515812407   T   T   T
  0.8750000000000000  0.2498879576483707  0.1839052621324473   T   T   T
  0.3750000000000000  0.7461143475352936  0.1844750576099397   T   T   T
  0.8750000000000000  0.7503159297031272  0.1837276684780370   T   T   T
  0.1249387606095761  0.9863872914812093  0.2775939709438718   T   T   T
  0.6250611889564273  0.9863872914812093  0.2775939709438718   T   T   T
  0.1225909789010746  0.5137939303480786  0.2771612505675881   T   T   T
  0.6274089706649287  0.5137939303480786  0.2771612505675881   T   T   T
  0.3749999747830017  0.9971461503332872  0.2752608571423596   T   T   T
  0.8749999747830017  0.9977427747695626  0.2757911568997690   T   T   T
  0.3749999243470015  0.5064609208203084  0.2828927222329616   T   T   T
  0.8749999747830017  0.5026851972254985  0.2758364598792539   T   T   T
  0.9931250364374195  0.2497280522627970  0.2773069677082355   T   T   T
  0.4924265525846170  0.2528651134350387  0.2781715804418121   T   T   T
  0.9979289199600186  0.7505628155761443  0.2758168567711009   T   T   T
  0.4981800339881751  0.7479440638197815  0.2760880683418917   T   T   T
  0.2575734474153830  0.2528651134350387  0.2781715804418121   T   T   T
  0.7568749635625805  0.2497280522627970  0.2773069677082355   T   T   T
  0.2518199660118249  0.7479440638197815  0.2760880683418917   T   T   T
  0.7520710800399814  0.7505628155761443  0.2758168567711009   T   T   T
  0.3749999243470015  0.4981478132089765  0.3692478862339886   T   T   T
 
  0.00000000E+00  0.00000000E+00  0.00000000E+00
  0.00000000E+00  0.00000000E+00  0.00000000E+00
  0.00000000E+00  0.00000000E+00  0.00000000E+00
  0.00000000E+00  0.00000000E+00  0.00000000E+00
  0.00000000E+00  0.00000000E+00  0.00000000E+00
  0.00000000E+00  0.00000000E+00  0.00000000E+00
  0.00000000E+00  0.00000000E+00  0.00000000E+00
  0.00000000E+00  0.00000000E+00  0.00000000E+00
  0.00000000E+00  0.00000000E+00  0.00000000E+00
  0.00000000E+00  0.00000000E+00  0.00000000E+00
  0.00000000E+00  0.00000000E+00  0.00000000E+00
  0.00000000E+00  0.00000000E+00  0.00000000E+00
  0.00000000E+00  0.00000000E+00  0.00000000E+00
  0.00000000E+00  0.00000000E+00  0.00000000E+00
  0.00000000E+00  0.00000000E+00  0.00000000E+00
  0.00000000E+00  0.00000000E+00  0.00000000E+00
  0.00000000E+00  0.00000000E+00  0.00000000E+00
  0.00000000E+00  0.00000000E+00  0.00000000E+00
  0.00000000E+00  0.00000000E+00  0.00000000E+00
  0.00000000E+00  0.00000000E+00  0.00000000E+00
  0.00000000E+00  0.00000000E+00  0.00000000E+00
  0.00000000E+00  0.00000000E+00  0.00000000E+00
  0.00000000E+00  0.00000000E+00  0.00000000E+00
  0.00000000E+00  0.00000000E+00  0.00000000E+00
  0.00000000E+00  0.00000000E+00  0.00000000E+00
  0.00000000E+00  0.00000000E+00  0.00000000E+00
  0.00000000E+00  0.00000000E+00  0.00000000E+00
  0.00000000E+00  0.00000000E+00  0.00000000E+00
  0.00000000E+00  0.00000000E+00  0.00000000E+00
  0.00000000E+00  0.00000000E+00  0.00000000E+00
  0.00000000E+00  0.00000000E+00  0.00000000E+00
  0.00000000E+00  0.00000000E+00  0.00000000E+00
  0.00000000E+00  0.00000000E+00  0.00000000E+00
  0.00000000E+00  0.00000000E+00  0.00000000E+00
  0.00000000E+00  0.00000000E+00  0.00000000E+00
  0.00000000E+00  0.00000000E+00  0.00000000E+00
  0.00000000E+00  0.00000000E+00  0.00000000E+00
  0.00000000E+00  0.00000000E+00  0.00000000E+00
  0.00000000E+00  0.00000000E+00  0.00000000E+00
  0.00000000E+00  0.00000000E+00  0.00000000E+00
  0.00000000E+00  0.00000000E+00  0.00000000E+00
  0.00000000E+00  0.00000000E+00  0.00000000E+00
  0.00000000E+00  0.00000000E+00  0.00000000E+00
  0.00000000E+00  0.00000000E+00  0.00000000E+00
  0.00000000E+00  0.00000000E+00  0.00000000E+00
  0.00000000E+00  0.00000000E+00  0.00000000E+00
  0.00000000E+00  0.00000000E+00  0.00000000E+00
  0.00000000E+00  0.00000000E+00  0.00000000E+00
  0.00000000E+00  0.00000000E+00  0.00000000E+00
  0.00000000E+00  0.00000000E+00  0.00000000E+00
  0.00000000E+00  0.00000000E+00  0.00000000E+00
  0.00000000E+00  0.00000000E+00  0.00000000E+00
  0.00000000E+00  0.00000000E+00  0.00000000E+00
  0.00000000E+00  0.00000000E+00  0.00000000E+00
  0.00000000E+00  0.00000000E+00  0.00000000E+00
  0.00000000E+00  0.00000000E+00  0.00000000E+00
  0.00000000E+00  0.00000000E+00  0.00000000E+00
  0.00000000E+00  0.00000000E+00  0.00000000E+00
  0.00000000E+00  0.00000000E+00  0.00000000E+00
  0.00000000E+00  0.00000000E+00  0.00000000E+00
  0.00000000E+00  0.00000000E+00  0.00000000E+00
  0.00000000E+00  0.00000000E+00  0.00000000E+00
  0.00000000E+00  0.00000000E+00  0.00000000E+00
  0.00000000E+00  0.00000000E+00  0.00000000E+00
  0.00000000E+00  0.00000000E+00  0.00000000E+00
  0.00000000E+00  0.00000000E+00  0.00000000E+00
  0.00000000E+00  0.00000000E+00  0.00000000E+00
  0.00000000E+00  0.00000000E+00  0.00000000E+00
  0.00000000E+00  0.00000000E+00  0.00000000E+00
  0.00000000E+00  0.00000000E+00  0.00000000E+00
  0.00000000E+00  0.00000000E+00  0.00000000E+00
  0.00000000E+00  0.00000000E+00  0.00000000E+00
  0.00000000E+00  0.00000000E+00  0.00000000E+00
  0.00000000E+00  0.00000000E+00  0.00000000E+00
  0.00000000E+00  0.00000000E+00  0.00000000E+00
  0.00000000E+00  0.00000000E+00  0.00000000E+00
  0.00000000E+00  0.00000000E+00  0.00000000E+00
  0.00000000E+00  0.00000000E+00  0.00000000E+00
  0.00000000E+00  0.00000000E+00  0.00000000E+00
  0.00000000E+00  0.00000000E+00  0.00000000E+00
  0.00000000E+00  0.00000000E+00  0.00000000E+00
  0.00000000E+00  0.00000000E+00  0.00000000E+00
  0.00000000E+00  0.00000000E+00  0.00000000E+00
  0.00000000E+00  0.00000000E+00  0.00000000E+00
  0.00000000E+00  0.00000000E+00  0.00000000E+00
  0.00000000E+00  0.00000000E+00  0.00000000E+00
  0.00000000E+00  0.00000000E+00  0.00000000E+00
  0.00000000E+00  0.00000000E+00  0.00000000E+00
  0.00000000E+00  0.00000000E+00  0.00000000E+00
  0.00000000E+00  0.00000000E+00  0.00000000E+00
  0.00000000E+00  0.00000000E+00  0.00000000E+00
  0.00000000E+00  0.00000000E+00  0.00000000E+00
  0.00000000E+00  0.00000000E+00  0.00000000E+00
  0.00000000E+00  0.00000000E+00  0.00000000E+00
  0.00000000E+00  0.00000000E+00  0.00000000E+00
  0.00000000E+00  0.00000000E+00  0.00000000E+00
  0.00000000E+00  0.00000000E+00  0.00000000E+00
  0.00000000E+00  0.00000000E+00  0.00000000E+00
  0.00000000E+00  0.00000000E+00  0.00000000E+00
  0.00000000E+00  0.00000000E+00  0.00000000E+00
  0.00000000E+00  0.00000000E+00  0.00000000E+00
  0.00000000E+00  0.00000000E+00  0.00000000E+00
  0.00000000E+00  0.00000000E+00  0.00000000E+00
  0.00000000E+00  0.00000000E+00  0.00000000E+00
  0.00000000E+00  0.00000000E+00  0.00000000E+00
  0.00000000E+00  0.00000000E+00  0.00000000E+00
  0.00000000E+00  0.00000000E+00  0.00000000E+00
  0.00000000E+00  0.00000000E+00  0.00000000E+00
  0.00000000E+00  0.00000000E+00  0.00000000E+00
  0.00000000E+00  0.00000000E+00  0.00000000E+00
  0.00000000E+00  0.00000000E+00  0.00000000E+00
  0.00000000E+00  0.00000000E+00  0.00000000E+00
  0.00000000E+00  0.00000000E+00  0.00000000E+00
  0.00000000E+00  0.00000000E+00  0.00000000E+00
  0.00000000E+00  0.00000000E+00  0.00000000E+00
  0.00000000E+00  0.00000000E+00  0.00000000E+00
  0.00000000E+00  0.00000000E+00  0.00000000E+00
  0.00000000E+00  0.00000000E+00  0.00000000E+00
  0.00000000E+00  0.00000000E+00  0.00000000E+00
  0.00000000E+00  0.00000000E+00  0.00000000E+00
  0.00000000E+00  0.00000000E+00  0.00000000E+00
  0.00000000E+00  0.00000000E+00  0.00000000E+00
  0.00000000E+00  0.00000000E+00  0.00000000E+00
  0.00000000E+00  0.00000000E+00  0.00000000E+00
  0.00000000E+00  0.00000000E+00  0.00000000E+00
  0.00000000E+00  0.00000000E+00  0.00000000E+00
  0.00000000E+00  0.00000000E+00  0.00000000E+00
  0.00000000E+00  0.00000000E+00  0.00000000E+00
  0.00000000E+00  0.00000000E+00  0.00000000E+00
