Mg Na O Cu                              
   1.00000000000000     
    16.8282433949600012    0.0000000000000000    0.0000000000000000
     0.0000000000000000    8.4141216974800006    0.0000000000000000
     0.0000000000000000    0.0000000000000000   23.4141216974799988
   Mg   Na   O    Cu
    62     2    64     1
Selective dynamics
Direct
  0.1248588778751519  0.9998338525885715  0.0048337247510200   T   T   T
  0.6251411221248482  0.9998338525885715  0.0048337247510200   T   T   T
  0.1247753855661582  0.5002410835245000  0.0046173908489962   T   T   T
  0.6252246144338417  0.5002410835245000  0.0046173908489962   T   T   T
  0.3750000000000000 -0.0000775952986828  0.0047785245361993   T   T   T
  0.8750000000000000  0.0001754847923580  0.0047475365887201   T   T   T
  0.3750000000000000  0.4998706161952069  0.0044368254810300   T   T   T
  0.8750000000000000  0.4999661094802205  0.0046843636451151   T   T   T
  0.9998524488457829  0.2499768052981259  0.0046457140458152   T   T   T
  0.5000311559693540  0.2498047809766795  0.0046856614119522   T   T   T
 -0.0000402896925981  0.7501846854920479  0.0047266674011731   T   T   T
  0.5001975505073279  0.7501359222325850  0.0048441114157937   T   T   T
  0.2499688440306459  0.2498047809766795  0.0046856614119522   T   T   T
  0.7501475511542171  0.2499768052981259  0.0046457140458152   T   T   T
  0.2498024494926720  0.7501359222325850  0.0048441114157937   T   T   T
  0.7500402896925983  0.7501846854920479  0.0047266674011731   T   T   T
  0.0001835860819974  0.0007737261794618  0.0943675966312043   T   T   T
  0.5006281407918692  0.0006644130942025  0.0945259610444276   T   T   T
  0.0000238927162377  0.4995519597688310  0.0942100769450644   T   T   T
  0.5008002805916618  0.4994333494345420  0.0939168972704410   T   T   T
  0.2493718592081305  0.0006644130942025  0.0945259610444276   T   T   T
  0.7498164139180027  0.0007737261794618  0.0943675966312043   T   T   T
  0.2491997194083379  0.4994333494345420  0.0939168972704410   T   T   T
  0.7499761072837622  0.4995519597688310  0.0942100769450644   T   T   T
  0.1248726442354299  0.2499213081001297  0.0940603799710237   T   T   T
  0.6251273557645699  0.2499213081001297  0.0940603799710237   T   T   T
  0.1248032386507360  0.7503073238277760  0.0946396056168223   T   T   T
  0.6251967613492638  0.7503073238277760  0.0946396056168223   T   T   T
  0.3750000000000000  0.2493817317416298  0.0940961553039187   T   T   T
  0.8750000000000000  0.2503010683924833  0.0944173491675886   T   T   T
  0.3750000000000000  0.7503722865965704  0.0937437790767362   T   T   T
  0.8750000000000000  0.7500664462564895  0.0940715817338322   T   T   T
  0.1246652353896883  0.0047562545482778  0.1864751774438782   T   T   T
  0.6253347646103116  0.0047562545482778  0.1864751774438782   T   T   T
  0.1238159080806169  0.4959255741176888  0.1859317567823804   T   T   T
  0.6261840919193833  0.4959255741176888  0.1859317567823804   T   T   T
  0.3750000000000000  0.0005383568927406  0.1843422208678921   T   T   T
  0.8750000000000000  0.0010570295371752  0.1844886848401750   T   T   T
  0.3750000000000000  0.4988419214818136  0.1811311330035215   T   T   T
  0.8750000000000000  0.4994137556317934  0.1844091322527426   T   T   T
  0.0020746965973070  0.2501208741511423  0.1861834236697784   T   T   T
  0.5025385329125643  0.2500805445238535  0.1865171316754990   T   T   T
  0.0000604198888227  0.7503682486419875  0.1845995106516525   T   T   T
  0.5008854842294960  0.7502231230241715  0.1850272983228616   T   T   T
  0.2474614670874356  0.2500805445238535  0.1865171316754990   T   T   T
  0.7479253034026929  0.2501208741511423  0.1861834236697784   T   T   T
  0.2491145157705041  0.7502231230241715  0.1850272983228616   T   T   T
  0.7499395801111773  0.7503682486419875  0.1845995106516525   T   T   T
  0.0004867912178749  0.0016708023452301  0.2739260346405298   T   T   T
  0.5022058257757613  0.0011194077421852  0.2745779177060513   T   T   T
 -0.0000018109489092  0.4990230584373008  0.2739403051275450   T   T   T
  0.5070018209636877  0.4988373875357167  0.2736581329308295   T   T   T
  0.2477941742242385  0.0011194077421852  0.2745779177060513   T   T   T
  0.7495132087821252  0.0016708023452301  0.2739260346405298   T   T   T
  0.2429981790363124  0.4988373875357167  0.2736581329308295   T   T   T
  0.7500018109489092  0.4990230584373008  0.2739403051275450   T   T   T
  0.1235943887035605  0.7508819577860962  0.2742036333623858   T   T   T
  0.6264056112964395  0.7508819577860962  0.2742036333623858   T   T   T
  0.3750000000000000  0.2379079425334801  0.2731250488293680   T   T   T
  0.8750000000000000  0.2500938608025150  0.2737908259431605   T   T   T
  0.3750000000000000  0.7589076006954217  0.2731398918190111   T   T   T
  0.8750000000000000  0.7504682513971812  0.2733028323441091   T   T   T
  0.1243171750768413  0.2495674680426931  0.2990540697855575   T   T   T
  0.6256828249231585  0.2495674680426931  0.2990540697855575   T   T   T
  0.0000407112862484  0.9999757327405150  0.0024760425779317   T   T   T
  0.4998524167030157  0.9998732145702185  0.0027650488866309   T   T   T
  0.0000067132504646  0.5001401050089697  0.0023813864989733   T   T   T
  0.4999430491679084  0.5001440674018723  0.0024224620636015   T   T   T
  0.2501475832969843  0.9998732145702185  0.0027650488866309   T   T   T
  0.7499592887137515  0.9999757327405150  0.0024760425779317   T   T   T
  0.2500569508320916  0.5001440674018723  0.0024224620636015   T   T   T
  0.7499932867495354  0.5001401050089697  0.0023813864989733   T   T   T
  0.1251643548129322  0.2500479922020359  0.0024302205982167   T   T   T
  0.6248356451870677  0.2500479922020359  0.0024302205982167   T   T   T
  0.1251304898066751  0.7500435968928038  0.0025010728305137   T   T   T
  0.6248695101933250  0.7500435968928038  0.0025010728305137   T   T   T
  0.3750000000000000  0.2497272030294366  0.0024012044433548   T   T   T
  0.8750000000000000  0.2501866931024671  0.0021978671350436   T   T   T
  0.3750000000000000  0.7500788152489904  0.0026607090509522   T   T   T
  0.8750000000000000  0.7499649650352019  0.0023464994873090   T   T   T
  0.1251549516772011  0.9993436181668460  0.0943782347689564   T   T   T
  0.6248450483227989  0.9993436181668460  0.0943782347689564   T   T   T
  0.1252456210906324  0.5008685929228479  0.0943276273379926   T   T   T
  0.6247543789093676  0.5008685929228479  0.0943276273379926   T   T   T
  0.3750000000000000  0.9997251994020547  0.0948968525914107   T   T   T
  0.8750000000000000  0.0000478211936242  0.0943417999154474   T   T   T
  0.3750000000000000  0.5000827835101924  0.0939752210451171   T   T   T
  0.8750000000000000  0.5003228487341155  0.0941452994254654   T   T   T
  0.9997480261253339  0.2502343312616943  0.0940443704181564   T   T   T
  0.4993312933568149  0.2503060377910509  0.0944514482798683   T   T   T
  0.0000077995566466  0.7500726396137307  0.0943939284371607   T   T   T
  0.4996571407128407  0.7497841286668540  0.0948710547568143   T   T   T
  0.2506687066431851  0.2503060377910509  0.0944514482798683   T   T   T
  0.7502519738746661  0.2502343312616943  0.0940443704181564   T   T   T
  0.2503428592871593  0.7497841286668540  0.0948710547568143   T   T   T
  0.7499922004433530  0.7500726396137307  0.0943939284371607   T   T   T
  0.0001319015866339  0.0005606730491080  0.1844976648564977   T   T   T
  0.4997426886801488  0.0006832482445444  0.1852558885011151   T   T   T
 -0.0001840819888275  0.4999510795420609  0.1844190001090674   T   T   T
  0.4987369341177688  0.4996144430599478  0.1858237322879465   T   T   T
  0.2502573113198512  0.0006832482445444  0.1852558885011151   T   T   T
  0.7498680984133661  0.0005606730491080  0.1844976648564977   T   T   T
  0.2512630658822312  0.4996144430599478  0.1858237322879465   T   T   T
  0.7501840819888276  0.4999510795420609  0.1844190001090674   T   T   T
  0.1252827982290623  0.2506130457227428  0.1815616201974917   T   T   T
  0.6247172017709378  0.2506130457227428  0.1815616201974917   T   T   T
  0.1251580783963023  0.7497812848470186  0.1840445303437875   T   T   T
  0.6248419216036977  0.7497812848470186  0.1840445303437875   T   T   T
  0.3750000000000000  0.2527861387007488  0.1848424828273485   T   T   T
  0.8750000000000000  0.2502182306513401  0.1837084551873887   T   T   T
  0.3750000000000000  0.7465517908694019  0.1847876358601658   T   T   T
  0.8750000000000000  0.7502418952260631  0.1835770994448271   T   T   T
  0.1246543603128037  0.9866572831722685  0.2775299175937890   T   T   T
  0.6253455892531997  0.9866572831722685  0.2775299175937890   T   T   T
  0.1231415531348047  0.5142756916778521  0.2774398961417321   T   T   T
  0.6268583964311988  0.5142756916778521  0.2774398961417321   T   T   T
  0.3749999747830017  0.9969182160618026  0.2760328692064682   T   T   T
  0.8749999747830017  0.9979425822725284  0.2757391144757572   T   T   T
  0.3749999243470015  0.5072303862704276  0.2847330444740196   T   T   T
  0.8749999747830017  0.5028056581117342  0.2756525109377589   T   T   T
  0.9931011114065027  0.2501023790654929  0.2771595870911509   T   T   T
  0.4921867078233247  0.2528989576291647  0.2790501454109047   T   T   T
  0.9978991427290917  0.7507631438395990  0.2757165713501744   T   T   T
  0.4983023549285497  0.7484475854509828  0.2765942967863285   T   T   T
  0.2578132921766753  0.2528989576291647  0.2790501454109047   T   T   T
  0.7568988885934973  0.2501023790654929  0.2771595870911509   T   T   T
  0.2516976450714503  0.7484475854509828  0.2765942967863285   T   T   T
  0.7521008572709083  0.7507631438395990  0.2757165713501744   T   T   T
  0.3749999243470015  0.4834918799524368  0.3611477555570506   T   T   T
 
  0.00000000E+00  0.00000000E+00  0.00000000E+00
  0.00000000E+00  0.00000000E+00  0.00000000E+00
  0.00000000E+00  0.00000000E+00  0.00000000E+00
  0.00000000E+00  0.00000000E+00  0.00000000E+00
  0.00000000E+00  0.00000000E+00  0.00000000E+00
  0.00000000E+00  0.00000000E+00  0.00000000E+00
  0.00000000E+00  0.00000000E+00  0.00000000E+00
  0.00000000E+00  0.00000000E+00  0.00000000E+00
  0.00000000E+00  0.00000000E+00  0.00000000E+00
  0.00000000E+00  0.00000000E+00  0.00000000E+00
  0.00000000E+00  0.00000000E+00  0.00000000E+00
  0.00000000E+00  0.00000000E+00  0.00000000E+00
  0.00000000E+00  0.00000000E+00  0.00000000E+00
  0.00000000E+00  0.00000000E+00  0.00000000E+00
  0.00000000E+00  0.00000000E+00  0.00000000E+00
  0.00000000E+00  0.00000000E+00  0.00000000E+00
  0.00000000E+00  0.00000000E+00  0.00000000E+00
  0.00000000E+00  0.00000000E+00  0.00000000E+00
  0.00000000E+00  0.00000000E+00  0.00000000E+00
  0.00000000E+00  0.00000000E+00  0.00000000E+00
  0.00000000E+00  0.00000000E+00  0.00000000E+00
  0.00000000E+00  0.00000000E+00  0.00000000E+00
  0.00000000E+00  0.00000000E+00  0.00000000E+00
  0.00000000E+00  0.00000000E+00  0.00000000E+00
  0.00000000E+00  0.00000000E+00  0.00000000E+00
  0.00000000E+00  0.00000000E+00  0.00000000E+00
  0.00000000E+00  0.00000000E+00  0.00000000E+00
  0.00000000E+00  0.00000000E+00  0.00000000E+00
  0.00000000E+00  0.00000000E+00  0.00000000E+00
  0.00000000E+00  0.00000000E+00  0.00000000E+00
  0.00000000E+00  0.00000000E+00  0.00000000E+00
  0.00000000E+00  0.00000000E+00  0.00000000E+00
  0.00000000E+00  0.00000000E+00  0.00000000E+00
  0.00000000E+00  0.00000000E+00  0.00000000E+00
  0.00000000E+00  0.00000000E+00  0.00000000E+00
  0.00000000E+00  0.00000000E+00  0.00000000E+00
  0.00000000E+00  0.00000000E+00  0.00000000E+00
  0.00000000E+00  0.00000000E+00  0.00000000E+00
  0.00000000E+00  0.00000000E+00  0.00000000E+00
  0.00000000E+00  0.00000000E+00  0.00000000E+00
  0.00000000E+00  0.00000000E+00  0.00000000E+00
  0.00000000E+00  0.00000000E+00  0.00000000E+00
  0.00000000E+00  0.00000000E+00  0.00000000E+00
  0.00000000E+00  0.00000000E+00  0.00000000E+00
  0.00000000E+00  0.00000000E+00  0.00000000E+00
  0.00000000E+00  0.00000000E+00  0.00000000E+00
  0.00000000E+00  0.00000000E+00  0.00000000E+00
  0.00000000E+00  0.00000000E+00  0.00000000E+00
  0.00000000E+00  0.00000000E+00  0.00000000E+00
  0.00000000E+00  0.00000000E+00  0.00000000E+00
  0.00000000E+00  0.00000000E+00  0.00000000E+00
  0.00000000E+00  0.00000000E+00  0.00000000E+00
  0.00000000E+00  0.00000000E+00  0.00000000E+00
  0.00000000E+00  0.00000000E+00  0.00000000E+00
  0.00000000E+00  0.00000000E+00  0.00000000E+00
  0.00000000E+00  0.00000000E+00  0.00000000E+00
  0.00000000E+00  0.00000000E+00  0.00000000E+00
  0.00000000E+00  0.00000000E+00  0.00000000E+00
  0.00000000E+00  0.00000000E+00  0.00000000E+00
  0.00000000E+00  0.00000000E+00  0.00000000E+00
  0.00000000E+00  0.00000000E+00  0.00000000E+00
  0.00000000E+00  0.00000000E+00  0.00000000E+00
  0.00000000E+00  0.00000000E+00  0.00000000E+00
  0.00000000E+00  0.00000000E+00  0.00000000E+00
  0.00000000E+00  0.00000000E+00  0.00000000E+00
  0.00000000E+00  0.00000000E+00  0.00000000E+00
  0.00000000E+00  0.00000000E+00  0.00000000E+00
  0.00000000E+00  0.00000000E+00  0.00000000E+00
  0.00000000E+00  0.00000000E+00  0.00000000E+00
  0.00000000E+00  0.00000000E+00  0.00000000E+00
  0.00000000E+00  0.00000000E+00  0.00000000E+00
  0.00000000E+00  0.00000000E+00  0.00000000E+00
  0.00000000E+00  0.00000000E+00  0.00000000E+00
  0.00000000E+00  0.00000000E+00  0.00000000E+00
  0.00000000E+00  0.00000000E+00  0.00000000E+00
  0.00000000E+00  0.00000000E+00  0.00000000E+00
  0.00000000E+00  0.00000000E+00  0.00000000E+00
  0.00000000E+00  0.00000000E+00  0.00000000E+00
  0.00000000E+00  0.00000000E+00  0.00000000E+00
  0.00000000E+00  0.00000000E+00  0.00000000E+00
  0.00000000E+00  0.00000000E+00  0.00000000E+00
  0.00000000E+00  0.00000000E+00  0.00000000E+00
  0.00000000E+00  0.00000000E+00  0.00000000E+00
  0.00000000E+00  0.00000000E+00  0.00000000E+00
  0.00000000E+00  0.00000000E+00  0.00000000E+00
  0.00000000E+00  0.00000000E+00  0.00000000E+00
  0.00000000E+00  0.00000000E+00  0.00000000E+00
  0.00000000E+00  0.00000000E+00  0.00000000E+00
  0.00000000E+00  0.00000000E+00  0.00000000E+00
  0.00000000E+00  0.00000000E+00  0.00000000E+00
  0.00000000E+00  0.00000000E+00  0.00000000E+00
  0.00000000E+00  0.00000000E+00  0.00000000E+00
  0.00000000E+00  0.00000000E+00  0.00000000E+00
  0.00000000E+00  0.00000000E+00  0.00000000E+00
  0.00000000E+00  0.00000000E+00  0.00000000E+00
  0.00000000E+00  0.00000000E+00  0.00000000E+00
  0.00000000E+00  0.00000000E+00  0.00000000E+00
  0.00000000E+00  0.00000000E+00  0.00000000E+00
  0.00000000E+00  0.00000000E+00  0.00000000E+00
  0.00000000E+00  0.00000000E+00  0.00000000E+00
  0.00000000E+00  0.00000000E+00  0.00000000E+00
  0.00000000E+00  0.00000000E+00  0.00000000E+00
  0.00000000E+00  0.00000000E+00  0.00000000E+00
  0.00000000E+00  0.00000000E+00  0.00000000E+00
  0.00000000E+00  0.00000000E+00  0.00000000E+00
  0.00000000E+00  0.00000000E+00  0.00000000E+00
  0.00000000E+00  0.00000000E+00  0.00000000E+00
  0.00000000E+00  0.00000000E+00  0.00000000E+00
  0.00000000E+00  0.00000000E+00  0.00000000E+00
  0.00000000E+00  0.00000000E+00  0.00000000E+00
  0.00000000E+00  0.00000000E+00  0.00000000E+00
  0.00000000E+00  0.00000000E+00  0.00000000E+00
  0.00000000E+00  0.00000000E+00  0.00000000E+00
  0.00000000E+00  0.00000000E+00  0.00000000E+00
  0.00000000E+00  0.00000000E+00  0.00000000E+00
  0.00000000E+00  0.00000000E+00  0.00000000E+00
  0.00000000E+00  0.00000000E+00  0.00000000E+00
  0.00000000E+00  0.00000000E+00  0.00000000E+00
  0.00000000E+00  0.00000000E+00  0.00000000E+00
  0.00000000E+00  0.00000000E+00  0.00000000E+00
  0.00000000E+00  0.00000000E+00  0.00000000E+00
  0.00000000E+00  0.00000000E+00  0.00000000E+00
  0.00000000E+00  0.00000000E+00  0.00000000E+00
  0.00000000E+00  0.00000000E+00  0.00000000E+00
  0.00000000E+00  0.00000000E+00  0.00000000E+00
  0.00000000E+00  0.00000000E+00  0.00000000E+00
  0.00000000E+00  0.00000000E+00  0.00000000E+00
  0.00000000E+00  0.00000000E+00  0.00000000E+00
  0.00000000E+00  0.00000000E+00  0.00000000E+00
