Mg Na O Ru                              
   1.00000000000000     
    16.8282433949600012    0.0000000000000000    0.0000000000000000
     0.0000000000000000    8.4141216974800006    0.0000000000000000
     0.0000000000000000    0.0000000000000000   23.4141216974799988
   Mg   Na   O    Ru
    62     2    64     1
Selective dynamics
Direct
  0.1242412549696914  0.0004031166699582  0.0046679535279572   T   T   T
  0.6257587450303085  0.0004031166699582  0.0046679535279572   T   T   T
  0.1242014745530844  0.5012302752032055  0.0045839022105859   T   T   T
  0.6257985254469158  0.5012302752032055  0.0045839022105859   T   T   T
  0.3750000000000000 -0.0002031821079650  0.0035580899609561   T   T   T
  0.8750000000000000  0.0011451795391967  0.0050040984738000   T   T   T
  0.3750000000000000  0.5007588942615271  0.0033855969089413   T   T   T
  0.8750000000000000  0.5008803986071735  0.0048826592359100   T   T   T
  0.9993966868439429  0.2508764169300929  0.0046936268631316   T   T   T
  0.5007196012936045  0.2506111605874309  0.0033641189280771   T   T   T
 -0.0003196845973737  0.7509875746111065  0.0049808731826291   T   T   T
  0.5007403469059363  0.7507408959823696  0.0041436800953416   T   T   T
  0.2492803987063956  0.2506111605874309  0.0033641189280771   T   T   T
  0.7506033131560571  0.2508764169300929  0.0046936268631316   T   T   T
  0.2492596530940638  0.7507408959823696  0.0041436800953416   T   T   T
  0.7503196845973737  0.7509875746111065  0.0049808731826291   T   T   T
 -0.0000127320940650  0.0018143621328883  0.0948086684525712   T   T   T
  0.5011586235376506  0.0001801274387300  0.0929687071242795   T   T   T
  0.9997991299689325  0.5004560825877642  0.0946289895992842   T   T   T
  0.5009523920199507  0.5015729091464433  0.0927114117586677   T   T   T
  0.2488413764623492  0.0001801274387300  0.0929687071242795   T   T   T
  0.7500127320940653  0.0018143621328883  0.0948086684525712   T   T   T
  0.2490476079800495  0.5015729091464433  0.0927114117586677   T   T   T
  0.7502008700310675  0.5004560825877642  0.0946289895992842   T   T   T
  0.1234302933751418  0.2509364333186430  0.0935329413998219   T   T   T
  0.6265697066248582  0.2509364333186430  0.0935329413998219   T   T   T
  0.1242153498557288  0.7512066805240785  0.0948325205183774   T   T   T
  0.6257846501442712  0.7512066805240785  0.0948325205183774   T   T   T
  0.3750000000000000  0.2501448245331157  0.0912591260771445   T   T   T
  0.8750000000000000  0.2511687779177284  0.0949332067395952   T   T   T
  0.3750000000000000  0.7490889640592668  0.0926518254850770   T   T   T
  0.8750000000000000  0.7511863944162795  0.0944160810685033   T   T   T
  0.1243809624206693  0.0065475155548829  0.1872507110395026   T   T   T
  0.6256190375793306  0.0065475155548829  0.1872507110395026   T   T   T
  0.1231608467840666  0.4967742776028354  0.1867888591696688   T   T   T
  0.6268391532159334  0.4967742776028354  0.1867888591696688   T   T   T
  0.3750000000000000  0.9916272946290829  0.1811400998480342   T   T   T
  0.8750000000000000  0.0026614451368686  0.1851489226142619   T   T   T
  0.3750000000000000  0.5006949108566593  0.1816997126207476   T   T   T
  0.8750000000000000  0.5002833613821535  0.1850223523155505   T   T   T
  0.0016931277599345  0.2513474805868978  0.1872966574836850   T   T   T
  0.5036522539936775  0.2517251006794652  0.1790693287214075   T   T   T
  0.9996250143320964  0.7516790372703650  0.1850075746632921   T   T   T
  0.5015247490406596  0.7502224963715743  0.1850811442454494   T   T   T
  0.2463477460063224  0.2517251006794652  0.1790693287214075   T   T   T
  0.7483068722400655  0.2513474805868978  0.1872966574836850   T   T   T
  0.2484752509593404  0.7502224963715743  0.1850811442454494   T   T   T
  0.7503749856679036  0.7516790372703650  0.1850075746632921   T   T   T
  0.9992627513604868  0.0045761166462337  0.2745123691458382   T   T   T
  0.5028142557861323  0.9908868995342495  0.2766045160839245   T   T   T
  0.9989628641669829  0.4993978752243847  0.2744112903953635   T   T   T
  0.5081152781196061  0.5081865410829219  0.2754811912159727   T   T   T
  0.2471857442138676  0.9908868995342495  0.2766045160839245   T   T   T
  0.7507372486395132  0.0045761166462337  0.2745123691458382   T   T   T
  0.2418847218803938  0.5081865410829219  0.2754811912159727   T   T   T
  0.7510371358330171  0.4993978752243847  0.2744112903953635   T   T   T
  0.1208731071495520  0.7524191008210597  0.2743670159069518   T   T   T
  0.6291268928504482  0.7524191008210597  0.2743670159069518   T   T   T
  0.3750000000000000  0.2130851183987434  0.2627821979341477   T   T   T
  0.8750000000000000  0.2515958948744682  0.2744504618366320   T   T   T
  0.3750000000000000  0.7558971196122876  0.2732624846406819   T   T   T
  0.8750000000000000  0.7521638809390934  0.2736044139664958   T   T   T
  0.1237907558587649  0.2522468365690284  0.3011397304200153   T   T   T
  0.6262092441412350  0.2522468365690284  0.3011397304200153   T   T   T
  0.0002155476720265  0.0007781234650067  0.0025157376102319   T   T   T
  0.4997181368709791  0.0000843042670642  0.0020546456098317   T   T   T
  0.0002141646248209  0.5011227180776959  0.0024278896099504   T   T   T
  0.4997437287548800  0.5013029184211381  0.0019265283499398   T   T   T
  0.2502818631290209  0.0000843042670642  0.0020546456098317   T   T   T
  0.7497844523279734  0.0007781234650067  0.0025157376102319   T   T   T
  0.2502562712451200  0.5013029184211381  0.0019265283499398   T   T   T
  0.7497858353751790  0.5011227180776959  0.0024278896099504   T   T   T
  0.1252565238251419  0.2508413100835623  0.0019861385336620   T   T   T
  0.6247434761748579  0.2508413100835623  0.0019861385336620   T   T   T
  0.1253605283055396  0.7508241806079534  0.0024941782710959   T   T   T
  0.6246394716944603  0.7508241806079534  0.0024941782710959   T   T   T
  0.3750000000000000  0.2503036864903285  0.0010543732975424   T   T   T
  0.8750000000000000  0.2509319241742947  0.0021403998110337   T   T   T
  0.3750000000000000  0.7502737908587059  0.0021275513729226   T   T   T
  0.8750000000000000  0.7510764880025411  0.0023814159344193   T   T   T
  0.1260026462567327  0.0005953395068667  0.0943052375869881   T   T   T
  0.6239973537432674  0.0005953395068667  0.0943052375869881   T   T   T
  0.1260973002083016  0.5015966108458361  0.0943602593143183   T   T   T
  0.6239026997916985  0.5015966108458361  0.0943602593143183   T   T   T
  0.3750000000000000  0.9995672013285098  0.0937256345886169   T   T   T
  0.8750000000000000  0.0009352077543967  0.0942933040958876   T   T   T
  0.3750000000000000  0.4999926002088442  0.0936658397644941   T   T   T
  0.8750000000000000  0.5014122613289510  0.0941247088233587   T   T   T
  0.0001199127994058  0.2511647819337943  0.0940126113426250   T   T   T
  0.4989050594824478  0.2510943338160108  0.0925877508172480   T   T   T
  0.0003087641835234  0.7511373885686046  0.0943707923861994   T   T   T
  0.4992829623032766  0.7505991477380660  0.0950704888748734   T   T   T
  0.2510949405175522  0.2510943338160108  0.0925877508172480   T   T   T
  0.7498800872005943  0.2511647819337943  0.0940126113426250   T   T   T
  0.2507170376967234  0.7505991477380660  0.0950704888748734   T   T   T
  0.7496912358164838  0.7511373885686046  0.0943707923861994   T   T   T
  0.0009772602241269  0.0019237800630141  0.1845536985966795   T   T   T
  0.4983957104496291  0.0069027922990252  0.1865216244795325   T   T   T
  0.0003592797536931  0.5011003707196008  0.1842858194266354   T   T   T
  0.4977198325092631  0.4954646593061585  0.1872315639071264   T   T   T
  0.2516042895503709  0.0069027922990252  0.1865216244795325   T   T   T
  0.7490227397758733  0.0019237800630141  0.1845536985966795   T   T   T
  0.2522801674907369  0.4954646593061585  0.1872315639071264   T   T   T
  0.7496407202463067  0.5011003707196008  0.1842858194266354   T   T   T
  0.1271116440651269  0.2518308300125326  0.1816442264197012   T   T   T
  0.6228883559348731  0.2518308300125326  0.1816442264197012   T   T   T
  0.1261530281228018  0.7513087959222247  0.1840055519713283   T   T   T
  0.6238469718771982  0.7513087959222247  0.1840055519713283   T   T   T
  0.3750000000000000  0.2513942797028796  0.1822192548693500   T   T   T
  0.8750000000000000  0.2513786558353122  0.1834497854563466   T   T   T
  0.3750000000000000  0.7461537220757470  0.1837778082167331   T   T   T
  0.8750000000000000  0.7515729999768010  0.1833032953572354   T   T   T
  0.1270960620473608  0.9895297765901363  0.2781289663913197   T   T   T
  0.6229038875186428  0.9895297765901363  0.2781289663913197   T   T   T
  0.1238219865211996  0.5152336033675997  0.2774941918108710   T   T   T
  0.6261779630448037  0.5152336033675997  0.2774941918108710   T   T   T
  0.3749999747830017  0.9891957523168260  0.2739471947842184   T   T   T
  0.8749999747830017  0.9983158628858045  0.2755266253785656   T   T   T
  0.3749999243470015  0.5206220412771412  0.2852726919100709   T   T   T
  0.8749999747830017  0.5055678551552811  0.2755172015583540   T   T   T
  0.9932029539571615  0.2514803531050081  0.2773462593752925   T   T   T
  0.4796571347488086  0.2673207164681196  0.2993104248461320   T   T   T
  0.9984433532492522  0.7529105801689584  0.2755750822062369   T   T   T
  0.4980185386987870  0.7494459615447333  0.2761421395784343   T   T   T
  0.2703428652511914  0.2673207164681196  0.2993104248461320   T   T   T
  0.7567970460428385  0.2514803531050081  0.2773462593752925   T   T   T
  0.2519814613012130  0.7494459615447333  0.2761421395784343   T   T   T
  0.7515566467507478  0.7529105801689584  0.2755750822062369   T   T   T
  0.3749999243470015  0.3666705560302981  0.3490125677711746   T   T   T
 
  0.00000000E+00  0.00000000E+00  0.00000000E+00
  0.00000000E+00  0.00000000E+00  0.00000000E+00
  0.00000000E+00  0.00000000E+00  0.00000000E+00
  0.00000000E+00  0.00000000E+00  0.00000000E+00
  0.00000000E+00  0.00000000E+00  0.00000000E+00
  0.00000000E+00  0.00000000E+00  0.00000000E+00
  0.00000000E+00  0.00000000E+00  0.00000000E+00
  0.00000000E+00  0.00000000E+00  0.00000000E+00
  0.00000000E+00  0.00000000E+00  0.00000000E+00
  0.00000000E+00  0.00000000E+00  0.00000000E+00
  0.00000000E+00  0.00000000E+00  0.00000000E+00
  0.00000000E+00  0.00000000E+00  0.00000000E+00
  0.00000000E+00  0.00000000E+00  0.00000000E+00
  0.00000000E+00  0.00000000E+00  0.00000000E+00
  0.00000000E+00  0.00000000E+00  0.00000000E+00
  0.00000000E+00  0.00000000E+00  0.00000000E+00
  0.00000000E+00  0.00000000E+00  0.00000000E+00
  0.00000000E+00  0.00000000E+00  0.00000000E+00
  0.00000000E+00  0.00000000E+00  0.00000000E+00
  0.00000000E+00  0.00000000E+00  0.00000000E+00
  0.00000000E+00  0.00000000E+00  0.00000000E+00
  0.00000000E+00  0.00000000E+00  0.00000000E+00
  0.00000000E+00  0.00000000E+00  0.00000000E+00
  0.00000000E+00  0.00000000E+00  0.00000000E+00
  0.00000000E+00  0.00000000E+00  0.00000000E+00
  0.00000000E+00  0.00000000E+00  0.00000000E+00
  0.00000000E+00  0.00000000E+00  0.00000000E+00
  0.00000000E+00  0.00000000E+00  0.00000000E+00
  0.00000000E+00  0.00000000E+00  0.00000000E+00
  0.00000000E+00  0.00000000E+00  0.00000000E+00
  0.00000000E+00  0.00000000E+00  0.00000000E+00
  0.00000000E+00  0.00000000E+00  0.00000000E+00
  0.00000000E+00  0.00000000E+00  0.00000000E+00
  0.00000000E+00  0.00000000E+00  0.00000000E+00
  0.00000000E+00  0.00000000E+00  0.00000000E+00
  0.00000000E+00  0.00000000E+00  0.00000000E+00
  0.00000000E+00  0.00000000E+00  0.00000000E+00
  0.00000000E+00  0.00000000E+00  0.00000000E+00
  0.00000000E+00  0.00000000E+00  0.00000000E+00
  0.00000000E+00  0.00000000E+00  0.00000000E+00
  0.00000000E+00  0.00000000E+00  0.00000000E+00
  0.00000000E+00  0.00000000E+00  0.00000000E+00
  0.00000000E+00  0.00000000E+00  0.00000000E+00
  0.00000000E+00  0.00000000E+00  0.00000000E+00
  0.00000000E+00  0.00000000E+00  0.00000000E+00
  0.00000000E+00  0.00000000E+00  0.00000000E+00
  0.00000000E+00  0.00000000E+00  0.00000000E+00
  0.00000000E+00  0.00000000E+00  0.00000000E+00
  0.00000000E+00  0.00000000E+00  0.00000000E+00
  0.00000000E+00  0.00000000E+00  0.00000000E+00
  0.00000000E+00  0.00000000E+00  0.00000000E+00
  0.00000000E+00  0.00000000E+00  0.00000000E+00
  0.00000000E+00  0.00000000E+00  0.00000000E+00
  0.00000000E+00  0.00000000E+00  0.00000000E+00
  0.00000000E+00  0.00000000E+00  0.00000000E+00
  0.00000000E+00  0.00000000E+00  0.00000000E+00
  0.00000000E+00  0.00000000E+00  0.00000000E+00
  0.00000000E+00  0.00000000E+00  0.00000000E+00
  0.00000000E+00  0.00000000E+00  0.00000000E+00
  0.00000000E+00  0.00000000E+00  0.00000000E+00
  0.00000000E+00  0.00000000E+00  0.00000000E+00
  0.00000000E+00  0.00000000E+00  0.00000000E+00
  0.00000000E+00  0.00000000E+00  0.00000000E+00
  0.00000000E+00  0.00000000E+00  0.00000000E+00
  0.00000000E+00  0.00000000E+00  0.00000000E+00
  0.00000000E+00  0.00000000E+00  0.00000000E+00
  0.00000000E+00  0.00000000E+00  0.00000000E+00
  0.00000000E+00  0.00000000E+00  0.00000000E+00
  0.00000000E+00  0.00000000E+00  0.00000000E+00
  0.00000000E+00  0.00000000E+00  0.00000000E+00
  0.00000000E+00  0.00000000E+00  0.00000000E+00
  0.00000000E+00  0.00000000E+00  0.00000000E+00
  0.00000000E+00  0.00000000E+00  0.00000000E+00
  0.00000000E+00  0.00000000E+00  0.00000000E+00
  0.00000000E+00  0.00000000E+00  0.00000000E+00
  0.00000000E+00  0.00000000E+00  0.00000000E+00
  0.00000000E+00  0.00000000E+00  0.00000000E+00
  0.00000000E+00  0.00000000E+00  0.00000000E+00
  0.00000000E+00  0.00000000E+00  0.00000000E+00
  0.00000000E+00  0.00000000E+00  0.00000000E+00
  0.00000000E+00  0.00000000E+00  0.00000000E+00
  0.00000000E+00  0.00000000E+00  0.00000000E+00
  0.00000000E+00  0.00000000E+00  0.00000000E+00
  0.00000000E+00  0.00000000E+00  0.00000000E+00
  0.00000000E+00  0.00000000E+00  0.00000000E+00
  0.00000000E+00  0.00000000E+00  0.00000000E+00
  0.00000000E+00  0.00000000E+00  0.00000000E+00
  0.00000000E+00  0.00000000E+00  0.00000000E+00
  0.00000000E+00  0.00000000E+00  0.00000000E+00
  0.00000000E+00  0.00000000E+00  0.00000000E+00
  0.00000000E+00  0.00000000E+00  0.00000000E+00
  0.00000000E+00  0.00000000E+00  0.00000000E+00
  0.00000000E+00  0.00000000E+00  0.00000000E+00
  0.00000000E+00  0.00000000E+00  0.00000000E+00
  0.00000000E+00  0.00000000E+00  0.00000000E+00
  0.00000000E+00  0.00000000E+00  0.00000000E+00
  0.00000000E+00  0.00000000E+00  0.00000000E+00
  0.00000000E+00  0.00000000E+00  0.00000000E+00
  0.00000000E+00  0.00000000E+00  0.00000000E+00
  0.00000000E+00  0.00000000E+00  0.00000000E+00
  0.00000000E+00  0.00000000E+00  0.00000000E+00
  0.00000000E+00  0.00000000E+00  0.00000000E+00
  0.00000000E+00  0.00000000E+00  0.00000000E+00
  0.00000000E+00  0.00000000E+00  0.00000000E+00
  0.00000000E+00  0.00000000E+00  0.00000000E+00
  0.00000000E+00  0.00000000E+00  0.00000000E+00
  0.00000000E+00  0.00000000E+00  0.00000000E+00
  0.00000000E+00  0.00000000E+00  0.00000000E+00
  0.00000000E+00  0.00000000E+00  0.00000000E+00
  0.00000000E+00  0.00000000E+00  0.00000000E+00
  0.00000000E+00  0.00000000E+00  0.00000000E+00
  0.00000000E+00  0.00000000E+00  0.00000000E+00
  0.00000000E+00  0.00000000E+00  0.00000000E+00
  0.00000000E+00  0.00000000E+00  0.00000000E+00
  0.00000000E+00  0.00000000E+00  0.00000000E+00
  0.00000000E+00  0.00000000E+00  0.00000000E+00
  0.00000000E+00  0.00000000E+00  0.00000000E+00
  0.00000000E+00  0.00000000E+00  0.00000000E+00
  0.00000000E+00  0.00000000E+00  0.00000000E+00
  0.00000000E+00  0.00000000E+00  0.00000000E+00
  0.00000000E+00  0.00000000E+00  0.00000000E+00
  0.00000000E+00  0.00000000E+00  0.00000000E+00
  0.00000000E+00  0.00000000E+00  0.00000000E+00
  0.00000000E+00  0.00000000E+00  0.00000000E+00
  0.00000000E+00  0.00000000E+00  0.00000000E+00
  0.00000000E+00  0.00000000E+00  0.00000000E+00
  0.00000000E+00  0.00000000E+00  0.00000000E+00
  0.00000000E+00  0.00000000E+00  0.00000000E+00
  0.00000000E+00  0.00000000E+00  0.00000000E+00
