Mg Na O Pt                              
   1.00000000000000     
    16.8282433949600012    0.0000000000000000    0.0000000000000000
     0.0000000000000000    8.4141216974800006    0.0000000000000000
     0.0000000000000000    0.0000000000000000   23.4141216974799988
   Mg   Na   O    Pt
    62     2    64     1
Selective dynamics
Direct
  0.1249185464678878  0.9997574240236865  0.0047768507882759   T   T   T
  0.6250814535321123  0.9997574240236865  0.0047768507882759   T   T   T
  0.1249243378886812  0.5002795756295052  0.0046794256783693   T   T   T
  0.6250756621113188  0.5002795756295052  0.0046794256783693   T   T   T
  0.3750000000000000 -0.0000259824987846  0.0047602653077573   T   T   T
  0.8750000000000000  0.0000280171108491  0.0049133162876039   T   T   T
  0.3750000000000000  0.4999465106156410  0.0044934200900703   T   T   T
  0.8750000000000000  0.4999554798477380  0.0048788406525581   T   T   T
  0.9998459158947325  0.2499350687070931  0.0047559092294035   T   T   T
  0.4999581318773894  0.2499692003193076  0.0046856583277811   T   T   T
  0.9999903605851619  0.7500672841662895  0.0049357572634278   T   T   T
  0.5001035434357105  0.7500035977051849  0.0048653025032112   T   T   T
  0.2500418681226106  0.2499692003193076  0.0046856583277811   T   T   T
  0.7501540841052675  0.2499350687070931  0.0047559092294035   T   T   T
  0.2498964565642895  0.7500035977051849  0.0048653025032112   T   T   T
  0.7500096394148381  0.7500672841662895  0.0049357572634278   T   T   T
  0.0002713657997692  0.0006193232831395  0.0944689975255281   T   T   T
  0.5004952476281929  0.0005707533988843  0.0945018486674455   T   T   T
  0.0001179203115833  0.4994241718967751  0.0944100785613242   T   T   T
  0.5007015606433914  0.4994079298234984  0.0940751763686043   T   T   T
  0.2495047523718072  0.0005707533988843  0.0945018486674455   T   T   T
  0.7497286342002306  0.0006193232831395  0.0944689975255281   T   T   T
  0.2492984393566084  0.4994079298234984  0.0940751763686043   T   T   T
  0.7498820796884166  0.4994241718967751  0.0944100785613242   T   T   T
  0.1249261539464243  0.2498965559219353  0.0938548872882070   T   T   T
  0.6250738460535757  0.2498965559219353  0.0938548872882070   T   T   T
  0.1248831282377502  0.7502157218185918  0.0946910279102402   T   T   T
  0.6251168717622498  0.7502157218185918  0.0946910279102402   T   T   T
  0.3750000000000000  0.2494112304984956  0.0942380737869663   T   T   T
  0.8750000000000000  0.2499435654294642  0.0946514657042525   T   T   T
  0.3750000000000000  0.7503622992483615  0.0939656328932214   T   T   T
  0.8750000000000000  0.7500528640659984  0.0942635788255226   T   T   T
  0.1249055217022677  0.0045229024558909  0.1863479913660047   T   T   T
  0.6250944782977323  0.0045229024558909  0.1863479913660047   T   T   T
  0.1239677776481734  0.4957776918358165  0.1860972792926074   T   T   T
  0.6260322223518267  0.4957776918358165  0.1860972792926074   T   T   T
  0.3750000000000000  0.0007131497661908  0.1843310806937332   T   T   T
  0.8750000000000000  0.0008649029176413  0.1846772230920974   T   T   T
  0.3750000000000000  0.4987829347647368  0.1814943279429550   T   T   T
  0.8750000000000000  0.4992054741179676  0.1845774738895672   T   T   T
  0.0021527789568274  0.2499890694212562  0.1863446960784876   T   T   T
  0.5022376698930211  0.2502340884222390  0.1863701201991501   T   T   T
  0.0001207697641108  0.7501503912683488  0.1846870245785020   T   T   T
  0.5006144440960006  0.7496852137040847  0.1849988407436305   T   T   T
  0.2477623301069788  0.2502340884222390  0.1863701201991501   T   T   T
  0.7478472210431725  0.2499890694212562  0.1863446960784876   T   T   T
  0.2493855559039993  0.7496852137040847  0.1849988407436305   T   T   T
  0.7498792302358892  0.7501503912683488  0.1846870245785020   T   T   T
  0.0004200022560896  0.0013584245583906  0.2740224068556149   T   T   T
  0.5018126253466602  0.0010165191056480  0.2739951602548536   T   T   T
  0.0000051233231208  0.4988246860217816  0.2740408349962237   T   T   T
  0.5082707875133136  0.4980261678582791  0.2748023987247318   T   T   T
  0.2481873746533398  0.0010165191056480  0.2739951602548536   T   T   T
  0.7495799977439104  0.0013584245583906  0.2740224068556149   T   T   T
  0.2417292124866864  0.4980261678582791  0.2748023987247318   T   T   T
  0.7499948766768793  0.4988246860217816  0.2740408349962237   T   T   T
  0.1236632402482993  0.7503964586728684  0.2741965124957595   T   T   T
  0.6263367597517007  0.7503964586728684  0.2741965124957595   T   T   T
  0.3750000000000000  0.2370636158482134  0.2746655474291630   T   T   T
  0.8750000000000000  0.2496720526203619  0.2740616952885913   T   T   T
  0.3750000000000000  0.7610524317662085  0.2743244529898503   T   T   T
  0.8750000000000000  0.7504664589270968  0.2735381060211592   T   T   T
  0.1243553334616094  0.2493511371053092  0.3010418293332746   T   T   T
  0.6256446665383905  0.2493511371053092  0.3010418293332746   T   T   T
  0.0000347443154060  0.9998923816709371  0.0025399029834567   T   T   T
  0.4998556707854219  0.9998588501345067  0.0027016162068531   T   T   T
  0.0000640568281902  0.5001195242436677  0.0025539671646980   T   T   T
  0.4999442607729157  0.5001280951347773  0.0024857286267907   T   T   T
  0.2501443292145781  0.9998588501345067  0.0027016162068531   T   T   T
  0.7499652556845939  0.9998923816709371  0.0025399029834567   T   T   T
  0.2500557392270843  0.5001280951347773  0.0024857286267907   T   T   T
  0.7499359431718099  0.5001195242436677  0.0025539671646980   T   T   T
  0.1251001715813982  0.2500166195014067  0.0023734736597290   T   T   T
  0.6248998284186019  0.2500166195014067  0.0023734736597290   T   T   T
  0.1251014608884452  0.7500213975487867  0.0025309927327041   T   T   T
  0.6248985391115549  0.7500213975487867  0.0025309927327041   T   T   T
  0.3750000000000000  0.2497576068758910  0.0023992888683750   T   T   T
  0.8750000000000000  0.2499904194260945  0.0024400019543552   T   T   T
  0.3750000000000000  0.7501579560993905  0.0026207866054924   T   T   T
  0.8750000000000000  0.7500009676628240  0.0026310548232493   T   T   T
  0.1251551911616013  0.9993625481540007  0.0942533625788980   T   T   T
  0.6248448088383987  0.9993625481540007  0.0942533625788980   T   T   T
  0.1252306658387259  0.5007603570387176  0.0943668629337747   T   T   T
  0.6247693341612741  0.5007603570387176  0.0943668629337747   T   T   T
  0.3750000000000000  0.9996457665453361  0.0948407048109409   T   T   T
  0.8750000000000000  0.9998814759527579  0.0944920657737314   T   T   T
  0.3750000000000000  0.5001423597926560  0.0940322495521215   T   T   T
  0.8750000000000000  0.5001225821374294  0.0944075077857108   T   T   T
  0.9997426115369529  0.2500240808272906  0.0941756245972749   T   T   T
  0.4994060908242999  0.2503748260226951  0.0943556325252206   T   T   T
 -0.0000066492116208  0.7500359428320248  0.0944935883337006   T   T   T
  0.4996681293066152  0.7495801265880718  0.0947687295148688   T   T   T
  0.2505939091757001  0.2503748260226951  0.0943556325252206   T   T   T
  0.7502573884630471  0.2500240808272906  0.0941756245972749   T   T   T
  0.2503318706933848  0.7495801265880718  0.0947687295148688   T   T   T
  0.7500066492116207  0.7500359428320248  0.0944935883337006   T   T   T
  0.0002442156695247  0.0004232631512932  0.1846524070798177   T   T   T
  0.4998340675299817  0.0003270080994823  0.1847971188757657   T   T   T
  0.9998227473884195  0.4996970748296895  0.1845173718209508   T   T   T
  0.4990885377211515  0.4996627528203912  0.1856978530811691   T   T   T
  0.2501659324700183  0.0003270080994823  0.1847971188757657   T   T   T
  0.7497557843304753  0.0004232631512932  0.1846524070798177   T   T   T
  0.2509114622788485  0.4996627528203912  0.1856978530811691   T   T   T
  0.7501772526115805  0.4996970748296895  0.1845173718209508   T   T   T
  0.1251660392390657  0.2504016276192156  0.1813678759240177   T   T   T
  0.6248339607609342  0.2504016276192156  0.1813678759240177   T   T   T
  0.1249810346112936  0.7498442268896519  0.1840217084763471   T   T   T
  0.6250189653887064  0.7498442268896519  0.1840217084763471   T   T   T
  0.3750000000000000  0.2523324143337988  0.1846400759127577   T   T   T
  0.8750000000000000  0.2499487180507624  0.1839587411857281   T   T   T
  0.3750000000000000  0.7469788522393271  0.1848398792565460   T   T   T
  0.8750000000000000  0.7501578862069195  0.1837719047477307   T   T   T
  0.1250950424693860  0.9866656549785745  0.2774344919861959   T   T   T
  0.6249049070966175  0.9866656549785745  0.2774344919861959   T   T   T
  0.1225296942622431  0.5137308486045571  0.2772883140626462   T   T   T
  0.6274702553037603  0.5137308486045571  0.2772883140626462   T   T   T
  0.3749999747830017  0.9975646006381635  0.2756411812969752   T   T   T
  0.8749999747830017  0.9976414249164322  0.2758021308600007   T   T   T
  0.3749999243470015  0.5037897749764952  0.2790207750940181   T   T   T
  0.8749999747830017  0.5025544089868923  0.2758499154024077   T   T   T
  0.9932922601413139  0.2495015371078493  0.2772966945807823   T   T   T
  0.4933066535897618  0.2516720269920602  0.2769901290808685   T   T   T
  0.9980936228611941  0.7508414354891150  0.2757726662932229   T   T   T
  0.4985784233349752  0.7488433272785253  0.2754627881809260   T   T   T
  0.2566933464102382  0.2516720269920602  0.2769901290808685   T   T   T
  0.7567077398586861  0.2495015371078493  0.2772966945807823   T   T   T
  0.2514215766650248  0.7488433272785253  0.2754627881809260   T   T   T
  0.7519063771388059  0.7508414354891150  0.2757726662932229   T   T   T
  0.3749999243470015  0.5020895411595616  0.3609875641650619   T   T   T
 
  0.00000000E+00  0.00000000E+00  0.00000000E+00
  0.00000000E+00  0.00000000E+00  0.00000000E+00
  0.00000000E+00  0.00000000E+00  0.00000000E+00
  0.00000000E+00  0.00000000E+00  0.00000000E+00
  0.00000000E+00  0.00000000E+00  0.00000000E+00
  0.00000000E+00  0.00000000E+00  0.00000000E+00
  0.00000000E+00  0.00000000E+00  0.00000000E+00
  0.00000000E+00  0.00000000E+00  0.00000000E+00
  0.00000000E+00  0.00000000E+00  0.00000000E+00
  0.00000000E+00  0.00000000E+00  0.00000000E+00
  0.00000000E+00  0.00000000E+00  0.00000000E+00
  0.00000000E+00  0.00000000E+00  0.00000000E+00
  0.00000000E+00  0.00000000E+00  0.00000000E+00
  0.00000000E+00  0.00000000E+00  0.00000000E+00
  0.00000000E+00  0.00000000E+00  0.00000000E+00
  0.00000000E+00  0.00000000E+00  0.00000000E+00
  0.00000000E+00  0.00000000E+00  0.00000000E+00
  0.00000000E+00  0.00000000E+00  0.00000000E+00
  0.00000000E+00  0.00000000E+00  0.00000000E+00
  0.00000000E+00  0.00000000E+00  0.00000000E+00
  0.00000000E+00  0.00000000E+00  0.00000000E+00
  0.00000000E+00  0.00000000E+00  0.00000000E+00
  0.00000000E+00  0.00000000E+00  0.00000000E+00
  0.00000000E+00  0.00000000E+00  0.00000000E+00
  0.00000000E+00  0.00000000E+00  0.00000000E+00
  0.00000000E+00  0.00000000E+00  0.00000000E+00
  0.00000000E+00  0.00000000E+00  0.00000000E+00
  0.00000000E+00  0.00000000E+00  0.00000000E+00
  0.00000000E+00  0.00000000E+00  0.00000000E+00
  0.00000000E+00  0.00000000E+00  0.00000000E+00
  0.00000000E+00  0.00000000E+00  0.00000000E+00
  0.00000000E+00  0.00000000E+00  0.00000000E+00
  0.00000000E+00  0.00000000E+00  0.00000000E+00
  0.00000000E+00  0.00000000E+00  0.00000000E+00
  0.00000000E+00  0.00000000E+00  0.00000000E+00
  0.00000000E+00  0.00000000E+00  0.00000000E+00
  0.00000000E+00  0.00000000E+00  0.00000000E+00
  0.00000000E+00  0.00000000E+00  0.00000000E+00
  0.00000000E+00  0.00000000E+00  0.00000000E+00
  0.00000000E+00  0.00000000E+00  0.00000000E+00
  0.00000000E+00  0.00000000E+00  0.00000000E+00
  0.00000000E+00  0.00000000E+00  0.00000000E+00
  0.00000000E+00  0.00000000E+00  0.00000000E+00
  0.00000000E+00  0.00000000E+00  0.00000000E+00
  0.00000000E+00  0.00000000E+00  0.00000000E+00
  0.00000000E+00  0.00000000E+00  0.00000000E+00
  0.00000000E+00  0.00000000E+00  0.00000000E+00
  0.00000000E+00  0.00000000E+00  0.00000000E+00
  0.00000000E+00  0.00000000E+00  0.00000000E+00
  0.00000000E+00  0.00000000E+00  0.00000000E+00
  0.00000000E+00  0.00000000E+00  0.00000000E+00
  0.00000000E+00  0.00000000E+00  0.00000000E+00
  0.00000000E+00  0.00000000E+00  0.00000000E+00
  0.00000000E+00  0.00000000E+00  0.00000000E+00
  0.00000000E+00  0.00000000E+00  0.00000000E+00
  0.00000000E+00  0.00000000E+00  0.00000000E+00
  0.00000000E+00  0.00000000E+00  0.00000000E+00
  0.00000000E+00  0.00000000E+00  0.00000000E+00
  0.00000000E+00  0.00000000E+00  0.00000000E+00
  0.00000000E+00  0.00000000E+00  0.00000000E+00
  0.00000000E+00  0.00000000E+00  0.00000000E+00
  0.00000000E+00  0.00000000E+00  0.00000000E+00
  0.00000000E+00  0.00000000E+00  0.00000000E+00
  0.00000000E+00  0.00000000E+00  0.00000000E+00
  0.00000000E+00  0.00000000E+00  0.00000000E+00
  0.00000000E+00  0.00000000E+00  0.00000000E+00
  0.00000000E+00  0.00000000E+00  0.00000000E+00
  0.00000000E+00  0.00000000E+00  0.00000000E+00
  0.00000000E+00  0.00000000E+00  0.00000000E+00
  0.00000000E+00  0.00000000E+00  0.00000000E+00
  0.00000000E+00  0.00000000E+00  0.00000000E+00
  0.00000000E+00  0.00000000E+00  0.00000000E+00
  0.00000000E+00  0.00000000E+00  0.00000000E+00
  0.00000000E+00  0.00000000E+00  0.00000000E+00
  0.00000000E+00  0.00000000E+00  0.00000000E+00
  0.00000000E+00  0.00000000E+00  0.00000000E+00
  0.00000000E+00  0.00000000E+00  0.00000000E+00
  0.00000000E+00  0.00000000E+00  0.00000000E+00
  0.00000000E+00  0.00000000E+00  0.00000000E+00
  0.00000000E+00  0.00000000E+00  0.00000000E+00
  0.00000000E+00  0.00000000E+00  0.00000000E+00
  0.00000000E+00  0.00000000E+00  0.00000000E+00
  0.00000000E+00  0.00000000E+00  0.00000000E+00
  0.00000000E+00  0.00000000E+00  0.00000000E+00
  0.00000000E+00  0.00000000E+00  0.00000000E+00
  0.00000000E+00  0.00000000E+00  0.00000000E+00
  0.00000000E+00  0.00000000E+00  0.00000000E+00
  0.00000000E+00  0.00000000E+00  0.00000000E+00
  0.00000000E+00  0.00000000E+00  0.00000000E+00
  0.00000000E+00  0.00000000E+00  0.00000000E+00
  0.00000000E+00  0.00000000E+00  0.00000000E+00
  0.00000000E+00  0.00000000E+00  0.00000000E+00
  0.00000000E+00  0.00000000E+00  0.00000000E+00
  0.00000000E+00  0.00000000E+00  0.00000000E+00
  0.00000000E+00  0.00000000E+00  0.00000000E+00
  0.00000000E+00  0.00000000E+00  0.00000000E+00
  0.00000000E+00  0.00000000E+00  0.00000000E+00
  0.00000000E+00  0.00000000E+00  0.00000000E+00
  0.00000000E+00  0.00000000E+00  0.00000000E+00
  0.00000000E+00  0.00000000E+00  0.00000000E+00
  0.00000000E+00  0.00000000E+00  0.00000000E+00
  0.00000000E+00  0.00000000E+00  0.00000000E+00
  0.00000000E+00  0.00000000E+00  0.00000000E+00
  0.00000000E+00  0.00000000E+00  0.00000000E+00
  0.00000000E+00  0.00000000E+00  0.00000000E+00
  0.00000000E+00  0.00000000E+00  0.00000000E+00
  0.00000000E+00  0.00000000E+00  0.00000000E+00
  0.00000000E+00  0.00000000E+00  0.00000000E+00
  0.00000000E+00  0.00000000E+00  0.00000000E+00
  0.00000000E+00  0.00000000E+00  0.00000000E+00
  0.00000000E+00  0.00000000E+00  0.00000000E+00
  0.00000000E+00  0.00000000E+00  0.00000000E+00
  0.00000000E+00  0.00000000E+00  0.00000000E+00
  0.00000000E+00  0.00000000E+00  0.00000000E+00
  0.00000000E+00  0.00000000E+00  0.00000000E+00
  0.00000000E+00  0.00000000E+00  0.00000000E+00
  0.00000000E+00  0.00000000E+00  0.00000000E+00
  0.00000000E+00  0.00000000E+00  0.00000000E+00
  0.00000000E+00  0.00000000E+00  0.00000000E+00
  0.00000000E+00  0.00000000E+00  0.00000000E+00
  0.00000000E+00  0.00000000E+00  0.00000000E+00
  0.00000000E+00  0.00000000E+00  0.00000000E+00
  0.00000000E+00  0.00000000E+00  0.00000000E+00
  0.00000000E+00  0.00000000E+00  0.00000000E+00
  0.00000000E+00  0.00000000E+00  0.00000000E+00
  0.00000000E+00  0.00000000E+00  0.00000000E+00
  0.00000000E+00  0.00000000E+00  0.00000000E+00
  0.00000000E+00  0.00000000E+00  0.00000000E+00
  0.00000000E+00  0.00000000E+00  0.00000000E+00
