Al Ba O Ru                              
   1.00000000000000     
    11.1568587867069997    0.0000000000000000    0.0000000000000000
     0.0000000000000000   11.1568587867069997    0.0000000000000000
     0.0000000000000000    0.0000000000000000   26.1568587867070015
   Al   Ba   O    Ru
     1    31    32     1
Selective dynamics
Direct
  0.2500000000000000  0.2037621877114423  0.3932560004957742   T   T   T
  0.2500000000000000  0.9986566485395129  0.1065323401790354   T   T   T
  0.7500000000000000  0.9990551323694773  0.1068241668428891   T   T   T
  0.0002187020429836  0.2491689542111336  0.1082659356284373   T   T   T
  0.4997812979570164  0.2491689542111336  0.1082659356284373   T   T   T
  0.2500000000000000  0.4987223156102993  0.1072117563680669   T   T   T
  0.7500000000000000  0.4996294780385750  0.1086371649468731   T   T   T
  0.9993988985879103  0.7491897558526941  0.1068273421896683   T   T   T
  0.5006011014120897  0.7491897558526941  0.1068273421896683   T   T   T
  0.9971414275969377  0.9962863779212109  0.2127142742935877   T   T   T
  0.5028585724030623  0.9962863779212109  0.2127142742935877   T   T   T
  0.2500000000000000  0.2488289758432094  0.2128083436028043   T   T   T
  0.7500000000000000  0.2483717880076899  0.2134370072944805   T   T   T
  0.0004681375431330  0.5019775482016963  0.2135819024902885   T   T   T
  0.4995318624568671  0.5019775482016963  0.2135819024902885   T   T   T
  0.2500000000000000  0.7449652436517102  0.2119540678920275   T   T   T
  0.7500000000000000  0.7506157703799144  0.2138987008548619   T   T   T
  0.2500000000000000  0.9842816465681202  0.3110384934350076   T   T   T
  0.7500000000000000 -0.0012544216780656  0.3243432173878399   T   T   T
  0.0008287010715399  0.2503560465641214  0.3181335280737727   T   T   T
  0.4991712989284601  0.2503560465641214  0.3181335280737727   T   T   T
  0.2500000000000000  0.5009621668720029  0.3235128048449423   T   T   T
  0.7500000000000000  0.5005678276972455  0.3219164142018100   T   T   T
  0.9952921762570807  0.7452268582707655  0.3251791258703190   T   T   T
  0.5047078237429193  0.7452268582707655  0.3251791258703190   T   T   T
  0.0071667231442814  0.0111064689814137  0.4245439378915131   T   T   T
  0.4928332768557186  0.0111064689814137  0.4245439378915131   T   T   T
  0.7500000000000000  0.2514905038795323  0.4318742505945955   T   T   T
  0.0349467238856310  0.4797989467180007  0.4321415293987740   T   T   T
  0.4650532761143689  0.4797989467180007  0.4321415293987740   T   T   T
  0.2500000000000000  0.7679110340329461  0.4264384301318111   T   T   T
  0.7500000000000000  0.7563904678570321  0.4344522781021644   T   T   T
  0.9988618477632327  0.9999887181281157  0.1126716332961604   T   T   T
  0.5011381522367673  0.9999887181281157  0.1126716332961604   T   T   T
  0.2500000000000000  0.2491255863851591  0.1134281114108001   T   T   T
  0.7500000000000000  0.2498957640164529  0.1149613418471446   T   T   T
 -0.0002170095257504  0.4983490018938134  0.1141239669593002   T   T   T
  0.5002170095257507  0.4983490018938134  0.1141239669593002   T   T   T
  0.2500000000000000  0.7466930814389351  0.1122752247772544   T   T   T
  0.7500000000000000  0.7484267305191854  0.1138868232423696   T   T   T
  0.2500000000000000  0.0000514870352986  0.2059227998291440   T   T   T
  0.7500000000000000  0.0005242210288108  0.2075226759403577   T   T   T
  0.0006994772754251  0.2505758245281744  0.2104825922985888   T   T   T
  0.4993005227245748  0.2505758245281744  0.2104825922985888   T   T   T
  0.2500000000000000  0.4990473886229282  0.2091167051030552   T   T   T
  0.7500000000000000  0.4990027315288857  0.2103548946353636   T   T   T
  0.9997253692261374  0.7498371192153334  0.2071443786150300   T   T   T
  0.5002746307738626  0.7498371192153334  0.2071443786150300   T   T   T
  0.9981706020199711  0.0028297737159518  0.3231226426086353   T   T   T
  0.5018293979800289  0.0028297737159518  0.3231226426086353   T   T   T
  0.2500000000000000  0.2276393960862449  0.3224236492366315   T   T   T
  0.7500000000000000  0.2506757983740749  0.3306971503434379   T   T   T
  0.0023928736717405  0.4952461219964691  0.3271255935247736   T   T   T
  0.4976071263282594  0.4952461219964691  0.3271255935247736   T   T   T
  0.2500000000000000  0.7451806724826611  0.3224617629237842   T   T   T
  0.7500000000000000  0.7496680320843534  0.3265756826810310   T   T   T
  0.2500000000000000  0.0430231530305161  0.4069987992770595   T   T   T
  0.7500000000000000  0.0154064655526865  0.4235267872318272   T   T   T
  0.1029708944601996  0.2590704578072711  0.4107806912285154   T   T   T
  0.3970291055398005  0.2590704578072711  0.4107806912285154   T   T   T
  0.2500000000000000  0.5489247944406669  0.4213528165393030   T   T   T
  0.7499996334070005  0.5019316097612520  0.4190484939575141   T   T   T
  0.0054739030465781  0.7833577842923984  0.4204242258028800   T   T   T
  0.4945260969534219  0.7833577842923984  0.4204242258028800   T   T   T
  0.7499996334070005  0.4820471186051002  0.4905376896614574   T   T   T
 
  0.00000000E+00  0.00000000E+00  0.00000000E+00
  0.00000000E+00  0.00000000E+00  0.00000000E+00
  0.00000000E+00  0.00000000E+00  0.00000000E+00
  0.00000000E+00  0.00000000E+00  0.00000000E+00
  0.00000000E+00  0.00000000E+00  0.00000000E+00
  0.00000000E+00  0.00000000E+00  0.00000000E+00
  0.00000000E+00  0.00000000E+00  0.00000000E+00
  0.00000000E+00  0.00000000E+00  0.00000000E+00
  0.00000000E+00  0.00000000E+00  0.00000000E+00
  0.00000000E+00  0.00000000E+00  0.00000000E+00
  0.00000000E+00  0.00000000E+00  0.00000000E+00
  0.00000000E+00  0.00000000E+00  0.00000000E+00
  0.00000000E+00  0.00000000E+00  0.00000000E+00
  0.00000000E+00  0.00000000E+00  0.00000000E+00
  0.00000000E+00  0.00000000E+00  0.00000000E+00
  0.00000000E+00  0.00000000E+00  0.00000000E+00
  0.00000000E+00  0.00000000E+00  0.00000000E+00
  0.00000000E+00  0.00000000E+00  0.00000000E+00
  0.00000000E+00  0.00000000E+00  0.00000000E+00
  0.00000000E+00  0.00000000E+00  0.00000000E+00
  0.00000000E+00  0.00000000E+00  0.00000000E+00
  0.00000000E+00  0.00000000E+00  0.00000000E+00
  0.00000000E+00  0.00000000E+00  0.00000000E+00
  0.00000000E+00  0.00000000E+00  0.00000000E+00
  0.00000000E+00  0.00000000E+00  0.00000000E+00
  0.00000000E+00  0.00000000E+00  0.00000000E+00
  0.00000000E+00  0.00000000E+00  0.00000000E+00
  0.00000000E+00  0.00000000E+00  0.00000000E+00
  0.00000000E+00  0.00000000E+00  0.00000000E+00
  0.00000000E+00  0.00000000E+00  0.00000000E+00
  0.00000000E+00  0.00000000E+00  0.00000000E+00
  0.00000000E+00  0.00000000E+00  0.00000000E+00
  0.00000000E+00  0.00000000E+00  0.00000000E+00
  0.00000000E+00  0.00000000E+00  0.00000000E+00
  0.00000000E+00  0.00000000E+00  0.00000000E+00
  0.00000000E+00  0.00000000E+00  0.00000000E+00
  0.00000000E+00  0.00000000E+00  0.00000000E+00
  0.00000000E+00  0.00000000E+00  0.00000000E+00
  0.00000000E+00  0.00000000E+00  0.00000000E+00
  0.00000000E+00  0.00000000E+00  0.00000000E+00
  0.00000000E+00  0.00000000E+00  0.00000000E+00
  0.00000000E+00  0.00000000E+00  0.00000000E+00
  0.00000000E+00  0.00000000E+00  0.00000000E+00
  0.00000000E+00  0.00000000E+00  0.00000000E+00
  0.00000000E+00  0.00000000E+00  0.00000000E+00
  0.00000000E+00  0.00000000E+00  0.00000000E+00
  0.00000000E+00  0.00000000E+00  0.00000000E+00
  0.00000000E+00  0.00000000E+00  0.00000000E+00
  0.00000000E+00  0.00000000E+00  0.00000000E+00
  0.00000000E+00  0.00000000E+00  0.00000000E+00
  0.00000000E+00  0.00000000E+00  0.00000000E+00
  0.00000000E+00  0.00000000E+00  0.00000000E+00
  0.00000000E+00  0.00000000E+00  0.00000000E+00
  0.00000000E+00  0.00000000E+00  0.00000000E+00
  0.00000000E+00  0.00000000E+00  0.00000000E+00
  0.00000000E+00  0.00000000E+00  0.00000000E+00
  0.00000000E+00  0.00000000E+00  0.00000000E+00
  0.00000000E+00  0.00000000E+00  0.00000000E+00
  0.00000000E+00  0.00000000E+00  0.00000000E+00
  0.00000000E+00  0.00000000E+00  0.00000000E+00
  0.00000000E+00  0.00000000E+00  0.00000000E+00
  0.00000000E+00  0.00000000E+00  0.00000000E+00
  0.00000000E+00  0.00000000E+00  0.00000000E+00
  0.00000000E+00  0.00000000E+00  0.00000000E+00
  0.00000000E+00  0.00000000E+00  0.00000000E+00
