Al Ba O Pd                              
   1.00000000000000     
    11.1568587867069997    0.0000000000000000    0.0000000000000000
     0.0000000000000000   11.1568587867069997    0.0000000000000000
     0.0000000000000000    0.0000000000000000   26.1568587867070015
   Al   Ba   O    Pd
     1    31    32     1
Selective dynamics
Direct
  0.2500000000000000  0.2043764873390049  0.3936796281423108   T   T   T
  0.2500000000000000  0.9985657905304194  0.1063931432867834   T   T   T
  0.7500000000000000  0.9990027821457997  0.1066781402170192   T   T   T
  0.0003410600579421  0.2493214436932037  0.1081295473935163   T   T   T
  0.4996589399420578  0.2493214436932037  0.1081295473935163   T   T   T
  0.2500000000000000  0.4988283093693211  0.1070664627320938   T   T   T
  0.7500000000000000  0.4997786773694473  0.1079623354079608   T   T   T
  0.9994549034497452  0.7489971713053019  0.1067641353836932   T   T   T
  0.5005450965502548  0.7489971713053019  0.1067641353836932   T   T   T
  0.9971783473817676  0.9963281790856658  0.2125401645664155   T   T   T
  0.5028216526182324  0.9963281790856658  0.2125401645664155   T   T   T
  0.2500000000000000  0.2489278172579596  0.2125643737690988   T   T   T
  0.7500000000000000  0.2489631207627403  0.2129281797836902   T   T   T
  0.9996460470399665  0.5017548008430219  0.2134466477531748   T   T   T
  0.5003539529600335  0.5017548008430219  0.2134466477531748   T   T   T
  0.2500000000000000  0.7449895109527548  0.2118550027582374   T   T   T
  0.7500000000000000  0.7499203849224568  0.2137153280793242   T   T   T
  0.2500000000000000  0.9844284244828537  0.3111831569102093   T   T   T
  0.7500000000000000 -0.0012665101515251  0.3245126412673139   T   T   T
  0.0013864255670242  0.2503804965323679  0.3181142526812980   T   T   T
  0.4986135744329758  0.2503804965323679  0.3181142526812980   T   T   T
  0.2500000000000000  0.5006768323371559  0.3233266583385885   T   T   T
  0.7500000000000000  0.4996711656596368  0.3227708673696741   T   T   T
  0.9956557070109509  0.7446341234086712  0.3245632476514217   T   T   T
  0.5043442929890491  0.7446341234086712  0.3245632476514217   T   T   T
  0.0064547583498456  0.0097911410307517  0.4244398306613869   T   T   T
  0.4935452416501545  0.0097911410307517  0.4244398306613869   T   T   T
  0.7500000000000000  0.2559513242131079  0.4313382016806147   T   T   T
  0.0329663513867308  0.4812047198321912  0.4317282700681321   T   T   T
  0.4670336486132691  0.4812047198321912  0.4317282700681321   T   T   T
  0.2500000000000000  0.7670404172239244  0.4265109116031703   T   T   T
  0.7500000000000000  0.7447269772753781  0.4330512129645483   T   T   T
  0.9989288150286805  0.9999085522075363  0.1126733218135600   T   T   T
  0.5010711849713195  0.9999085522075363  0.1126733218135600   T   T   T
  0.2500000000000000  0.2489445587295451  0.1133805483912542   T   T   T
  0.7500000000000000  0.2495315265037784  0.1148970207033233   T   T   T
  0.0001307182336984  0.4983708630922610  0.1139275403877814   T   T   T
  0.4998692817663015  0.4983708630922610  0.1139275403877814   T   T   T
  0.2500000000000000  0.7470356133033945  0.1123841410346685   T   T   T
  0.7500000000000000  0.7489329266625241  0.1139808086506760   T   T   T
  0.2500000000000000  0.0000740995423011  0.2059006091914781   T   T   T
  0.7500000000000000  0.0008242928687400  0.2075550107573517   T   T   T
  0.0007018270790483  0.2503622943195224  0.2104091469372732   T   T   T
  0.4992981729209516  0.2503622943195224  0.2104091469372732   T   T   T
  0.2500000000000000  0.4992823660905179  0.2087283508829546   T   T   T
  0.7500000000000000  0.4993653641801749  0.2085127538956103   T   T   T
  0.9996802332215236  0.7499491282789911  0.2072462025674165   T   T   T
  0.5003197667784764  0.7499491282789911  0.2072462025674165   T   T   T
  0.9980230313437217  0.0021350815002568  0.3233452619955392   T   T   T
  0.5019769686562783  0.0021350815002568  0.3233452619955392   T   T   T
  0.2500000000000000  0.2279736278567857  0.3227369637712941   T   T   T
  0.7500000000000000  0.2520069848951402  0.3323327316729013   T   T   T
  0.0037437008267946  0.4951421466687301  0.3266747952295348   T   T   T
  0.4962562991732055  0.4951421466687301  0.3266747952295348   T   T   T
  0.2500000000000000  0.7462329730610787  0.3226571588652472   T   T   T
  0.7500000000000000  0.7493349662103931  0.3275482659526707   T   T   T
  0.2500000000000000  0.0434704281557214  0.4072789409395173   T   T   T
  0.7500000000000000  0.0250358534521937  0.4227006609862724   T   T   T
  0.1024420986284591  0.2597171999439065  0.4109978203663361   T   T   T
  0.3975579013715409  0.2597171999439065  0.4109978203663361   T   T   T
  0.2500000000000000  0.5478030224354944  0.4207832066175444   T   T   T
  0.7499996334070005  0.5024602993904438  0.4173966134621592   T   T   T
  0.0045303812045210  0.7802125927649958  0.4205197103333112   T   T   T
  0.4954696187954790  0.7802125927649958  0.4205197103333112   T   T   T
  0.7499996334070005  0.4856420289275689  0.4984036244878643   T   T   T
 
  0.00000000E+00  0.00000000E+00  0.00000000E+00
  0.00000000E+00  0.00000000E+00  0.00000000E+00
  0.00000000E+00  0.00000000E+00  0.00000000E+00
  0.00000000E+00  0.00000000E+00  0.00000000E+00
  0.00000000E+00  0.00000000E+00  0.00000000E+00
  0.00000000E+00  0.00000000E+00  0.00000000E+00
  0.00000000E+00  0.00000000E+00  0.00000000E+00
  0.00000000E+00  0.00000000E+00  0.00000000E+00
  0.00000000E+00  0.00000000E+00  0.00000000E+00
  0.00000000E+00  0.00000000E+00  0.00000000E+00
  0.00000000E+00  0.00000000E+00  0.00000000E+00
  0.00000000E+00  0.00000000E+00  0.00000000E+00
  0.00000000E+00  0.00000000E+00  0.00000000E+00
  0.00000000E+00  0.00000000E+00  0.00000000E+00
  0.00000000E+00  0.00000000E+00  0.00000000E+00
  0.00000000E+00  0.00000000E+00  0.00000000E+00
  0.00000000E+00  0.00000000E+00  0.00000000E+00
  0.00000000E+00  0.00000000E+00  0.00000000E+00
  0.00000000E+00  0.00000000E+00  0.00000000E+00
  0.00000000E+00  0.00000000E+00  0.00000000E+00
  0.00000000E+00  0.00000000E+00  0.00000000E+00
  0.00000000E+00  0.00000000E+00  0.00000000E+00
  0.00000000E+00  0.00000000E+00  0.00000000E+00
  0.00000000E+00  0.00000000E+00  0.00000000E+00
  0.00000000E+00  0.00000000E+00  0.00000000E+00
  0.00000000E+00  0.00000000E+00  0.00000000E+00
  0.00000000E+00  0.00000000E+00  0.00000000E+00
  0.00000000E+00  0.00000000E+00  0.00000000E+00
  0.00000000E+00  0.00000000E+00  0.00000000E+00
  0.00000000E+00  0.00000000E+00  0.00000000E+00
  0.00000000E+00  0.00000000E+00  0.00000000E+00
  0.00000000E+00  0.00000000E+00  0.00000000E+00
  0.00000000E+00  0.00000000E+00  0.00000000E+00
  0.00000000E+00  0.00000000E+00  0.00000000E+00
  0.00000000E+00  0.00000000E+00  0.00000000E+00
  0.00000000E+00  0.00000000E+00  0.00000000E+00
  0.00000000E+00  0.00000000E+00  0.00000000E+00
  0.00000000E+00  0.00000000E+00  0.00000000E+00
  0.00000000E+00  0.00000000E+00  0.00000000E+00
  0.00000000E+00  0.00000000E+00  0.00000000E+00
  0.00000000E+00  0.00000000E+00  0.00000000E+00
  0.00000000E+00  0.00000000E+00  0.00000000E+00
  0.00000000E+00  0.00000000E+00  0.00000000E+00
  0.00000000E+00  0.00000000E+00  0.00000000E+00
  0.00000000E+00  0.00000000E+00  0.00000000E+00
  0.00000000E+00  0.00000000E+00  0.00000000E+00
  0.00000000E+00  0.00000000E+00  0.00000000E+00
  0.00000000E+00  0.00000000E+00  0.00000000E+00
  0.00000000E+00  0.00000000E+00  0.00000000E+00
  0.00000000E+00  0.00000000E+00  0.00000000E+00
  0.00000000E+00  0.00000000E+00  0.00000000E+00
  0.00000000E+00  0.00000000E+00  0.00000000E+00
  0.00000000E+00  0.00000000E+00  0.00000000E+00
  0.00000000E+00  0.00000000E+00  0.00000000E+00
  0.00000000E+00  0.00000000E+00  0.00000000E+00
  0.00000000E+00  0.00000000E+00  0.00000000E+00
  0.00000000E+00  0.00000000E+00  0.00000000E+00
  0.00000000E+00  0.00000000E+00  0.00000000E+00
  0.00000000E+00  0.00000000E+00  0.00000000E+00
  0.00000000E+00  0.00000000E+00  0.00000000E+00
  0.00000000E+00  0.00000000E+00  0.00000000E+00
  0.00000000E+00  0.00000000E+00  0.00000000E+00
  0.00000000E+00  0.00000000E+00  0.00000000E+00
  0.00000000E+00  0.00000000E+00  0.00000000E+00
  0.00000000E+00  0.00000000E+00  0.00000000E+00
