Al Ba O Cu                              
   1.00000000000000     
    11.1568587867069997    0.0000000000000000    0.0000000000000000
     0.0000000000000000   11.1568587867069997    0.0000000000000000
     0.0000000000000000    0.0000000000000000   26.1568587867070015
   Al   Ba   O    Cu
     1    31    32     1
Selective dynamics
Direct
  0.2500000000000000  0.2044232310858522  0.3934248870444139   T   T   T
  0.2500000000000000  0.9986284055638429  0.1063237932373975   T   T   T
  0.7500000000000000  0.9990788164747391  0.1066246616496498   T   T   T
  0.0003902920068611  0.2492606369653497  0.1079694458397371   T   T   T
  0.4996097079931389  0.2492606369653497  0.1079694458397371   T   T   T
  0.2500000000000000  0.4987599043626215  0.1069596890736865   T   T   T
  0.7500000000000000  0.4997374066877171  0.1075873088165599   T   T   T
  0.9995143825700658  0.7490788268096646  0.1066455271435915   T   T   T
  0.5004856174299342  0.7490788268096646  0.1066455271435915   T   T   T
  0.9972219188354178  0.9962931660225532  0.2124191464025924   T   T   T
  0.5027780811645822  0.9962931660225532  0.2124191464025924   T   T   T
  0.2500000000000000  0.2490511680463086  0.2124404986213214   T   T   T
  0.7500000000000000  0.2495887768125087  0.2128308599378588   T   T   T
  0.9992041247806940  0.5018193928265081  0.2133663759769563   T   T   T
  0.5007958752193060  0.5018193928265081  0.2133663759769563   T   T   T
  0.2500000000000000  0.7449271002957935  0.2116779168215395   T   T   T
  0.7500000000000000  0.7493666587128879  0.2135378396363106   T   T   T
  0.2500000000000000  0.9847315637940603  0.3110704817581759   T   T   T
  0.7500000000000000 -0.0013355997778103  0.3235444369061779   T   T   T
  0.0018482171047380  0.2502427064357036  0.3178109099565432   T   T   T
  0.4981517828952620  0.2502427064357036  0.3178109099565432   T   T   T
  0.2500000000000000  0.5008019939153677  0.3228695638326720   T   T   T
  0.7500000000000000  0.4995422038447304  0.3243667550458648   T   T   T
  0.9964625324333736  0.7449156998955330  0.3245739028795417   T   T   T
  0.5035374675666264  0.7449156998955330  0.3245739028795417   T   T   T
  0.0072567963746856  0.0101428306986513  0.4245440537440891   T   T   T
  0.4927432036253144  0.0101428306986513  0.4245440537440891   T   T   T
  0.7500000000000000  0.2519622499245598  0.4311896690703485   T   T   T
  0.0347346285946217  0.4793451466240697  0.4320879347563039   T   T   T
  0.4652653714053783  0.4793451466240697  0.4320879347563039   T   T   T
  0.2500000000000000  0.7670196493110334  0.4267246571218465   T   T   T
  0.7500000000000000  0.7481608439397300  0.4322974494829975   T   T   T
  0.9989955948104942  0.9999818313258034  0.1127364162367589   T   T   T
  0.5010044051895058  0.9999818313258034  0.1127364162367589   T   T   T
  0.2500000000000000  0.2489177811753616  0.1134665475733324   T   T   T
  0.7500000000000000  0.2493896678840586  0.1149886681899586   T   T   T
  0.0002827368635424  0.4984062873956115  0.1139642379554776   T   T   T
  0.4997172631364576  0.4984062873956115  0.1139642379554776   T   T   T
  0.2500000000000000  0.7471115076802239  0.1124249995451260   T   T   T
  0.7500000000000000  0.7491540756698032  0.1140459516003290   T   T   T
  0.2500000000000000  0.0001017055897632  0.2059250218685817   T   T   T
  0.7500000000000000  0.0008575725123663  0.2077116088654302   T   T   T
  0.0006780535351215  0.2504268831686415  0.2104741511761639   T   T   T
  0.4993219464648785  0.2504268831686415  0.2104741511761639   T   T   T
  0.2500000000000000  0.4992613981976878  0.2088758716123015   T   T   T
  0.7500000000000000  0.4994965154600011  0.2080612716491707   T   T   T
  0.9996808010315764  0.7499756711371259  0.2073264614918556   T   T   T
  0.5003191989684236  0.7499756711371259  0.2073264614918556   T   T   T
  0.9984405507500974  0.0025606076515647  0.3232117178032093   T   T   T
  0.5015594492499026  0.0025606076515647  0.3232117178032093   T   T   T
  0.2500000000000000  0.2280586462036876  0.3225246145353818   T   T   T
  0.7500000000000000  0.2521468121046591  0.3328512082114654   T   T   T
  0.0035498699874822  0.4950516127058673  0.3270595718997393   T   T   T
  0.4964501300125178  0.4950516127058673  0.3270595718997393   T   T   T
  0.2500000000000000  0.7460222232032363  0.3228368877841547   T   T   T
  0.7500000000000000  0.7497662560399945  0.3282394179449957   T   T   T
  0.2500000000000000  0.0434475853335876  0.4071718254705642   T   T   T
  0.7500000000000000  0.0233182913257512  0.4218105380168301   T   T   T
  0.1028945833087659  0.2600513582670201  0.4107791193960087   T   T   T
  0.3971054166912342  0.2600513582670201  0.4107791193960087   T   T   T
  0.2500000000000000  0.5477745127563384  0.4207031023964472   T   T   T
  0.7499996334070005  0.5034805175946383  0.4203120540332083   T   T   T
  0.0045246402074066  0.7811202670336146  0.4204418534681486   T   T   T
  0.4954753597925933  0.7811202670336146  0.4204418534681486   T   T   T
  0.7499996334070005  0.4848570213192873  0.4975117365454664   T   T   T
 
  0.00000000E+00  0.00000000E+00  0.00000000E+00
  0.00000000E+00  0.00000000E+00  0.00000000E+00
  0.00000000E+00  0.00000000E+00  0.00000000E+00
  0.00000000E+00  0.00000000E+00  0.00000000E+00
  0.00000000E+00  0.00000000E+00  0.00000000E+00
  0.00000000E+00  0.00000000E+00  0.00000000E+00
  0.00000000E+00  0.00000000E+00  0.00000000E+00
  0.00000000E+00  0.00000000E+00  0.00000000E+00
  0.00000000E+00  0.00000000E+00  0.00000000E+00
  0.00000000E+00  0.00000000E+00  0.00000000E+00
  0.00000000E+00  0.00000000E+00  0.00000000E+00
  0.00000000E+00  0.00000000E+00  0.00000000E+00
  0.00000000E+00  0.00000000E+00  0.00000000E+00
  0.00000000E+00  0.00000000E+00  0.00000000E+00
  0.00000000E+00  0.00000000E+00  0.00000000E+00
  0.00000000E+00  0.00000000E+00  0.00000000E+00
  0.00000000E+00  0.00000000E+00  0.00000000E+00
  0.00000000E+00  0.00000000E+00  0.00000000E+00
  0.00000000E+00  0.00000000E+00  0.00000000E+00
  0.00000000E+00  0.00000000E+00  0.00000000E+00
  0.00000000E+00  0.00000000E+00  0.00000000E+00
  0.00000000E+00  0.00000000E+00  0.00000000E+00
  0.00000000E+00  0.00000000E+00  0.00000000E+00
  0.00000000E+00  0.00000000E+00  0.00000000E+00
  0.00000000E+00  0.00000000E+00  0.00000000E+00
  0.00000000E+00  0.00000000E+00  0.00000000E+00
  0.00000000E+00  0.00000000E+00  0.00000000E+00
  0.00000000E+00  0.00000000E+00  0.00000000E+00
  0.00000000E+00  0.00000000E+00  0.00000000E+00
  0.00000000E+00  0.00000000E+00  0.00000000E+00
  0.00000000E+00  0.00000000E+00  0.00000000E+00
  0.00000000E+00  0.00000000E+00  0.00000000E+00
  0.00000000E+00  0.00000000E+00  0.00000000E+00
  0.00000000E+00  0.00000000E+00  0.00000000E+00
  0.00000000E+00  0.00000000E+00  0.00000000E+00
  0.00000000E+00  0.00000000E+00  0.00000000E+00
  0.00000000E+00  0.00000000E+00  0.00000000E+00
  0.00000000E+00  0.00000000E+00  0.00000000E+00
  0.00000000E+00  0.00000000E+00  0.00000000E+00
  0.00000000E+00  0.00000000E+00  0.00000000E+00
  0.00000000E+00  0.00000000E+00  0.00000000E+00
  0.00000000E+00  0.00000000E+00  0.00000000E+00
  0.00000000E+00  0.00000000E+00  0.00000000E+00
  0.00000000E+00  0.00000000E+00  0.00000000E+00
  0.00000000E+00  0.00000000E+00  0.00000000E+00
  0.00000000E+00  0.00000000E+00  0.00000000E+00
  0.00000000E+00  0.00000000E+00  0.00000000E+00
  0.00000000E+00  0.00000000E+00  0.00000000E+00
  0.00000000E+00  0.00000000E+00  0.00000000E+00
  0.00000000E+00  0.00000000E+00  0.00000000E+00
  0.00000000E+00  0.00000000E+00  0.00000000E+00
  0.00000000E+00  0.00000000E+00  0.00000000E+00
  0.00000000E+00  0.00000000E+00  0.00000000E+00
  0.00000000E+00  0.00000000E+00  0.00000000E+00
  0.00000000E+00  0.00000000E+00  0.00000000E+00
  0.00000000E+00  0.00000000E+00  0.00000000E+00
  0.00000000E+00  0.00000000E+00  0.00000000E+00
  0.00000000E+00  0.00000000E+00  0.00000000E+00
  0.00000000E+00  0.00000000E+00  0.00000000E+00
  0.00000000E+00  0.00000000E+00  0.00000000E+00
  0.00000000E+00  0.00000000E+00  0.00000000E+00
  0.00000000E+00  0.00000000E+00  0.00000000E+00
  0.00000000E+00  0.00000000E+00  0.00000000E+00
  0.00000000E+00  0.00000000E+00  0.00000000E+00
  0.00000000E+00  0.00000000E+00  0.00000000E+00
