Al Ba O Co                              
   1.00000000000000     
    11.1568587867069997    0.0000000000000000    0.0000000000000000
     0.0000000000000000   11.1568587867069997    0.0000000000000000
     0.0000000000000000    0.0000000000000000   26.1568587867070015
   Al   Ba   O    Co
     1    31    32     1
Selective dynamics
Direct
  0.2500000000000000  0.2040142297770786  0.3932316073182732   T   T   T
  0.2500000000000000  0.9987161325085561  0.1060576957017974   T   T   T
  0.7500000000000000  0.9990693252363847  0.1064488611602469   T   T   T
  0.0005042844269770  0.2491637634024022  0.1076158798101716   T   T   T
  0.4994957155730231  0.2491637634024022  0.1076158798101716   T   T   T
  0.2500000000000000  0.4987402112733578  0.1067455311147668   T   T   T
  0.7500000000000000  0.4996894175755514  0.1079225838925661   T   T   T
  0.9996471330060327  0.7492544085531716  0.1063857864229143   T   T   T
  0.5003528669939673  0.7492544085531716  0.1063857864229143   T   T   T
  0.9974124595193503  0.9963089687845723  0.2123270080448575   T   T   T
  0.5025875404806497  0.9963089687845723  0.2123270080448575   T   T   T
  0.2500000000000000  0.2491344696188155  0.2123800552786144   T   T   T
  0.7500000000000000  0.2491331771050998  0.2127267925064045   T   T   T
  0.9999869841333641  0.5019626076570758  0.2132785676450287   T   T   T
  0.5000130158666359  0.5019626076570758  0.2132785676450287   T   T   T
  0.2500000000000000  0.7449292245685689  0.2115864703217587   T   T   T
  0.7500000000000000  0.7497752665599015  0.2133457033338358   T   T   T
  0.2500000000000000  0.9847345106973687  0.3107371699433508   T   T   T
  0.7500000000000000 -0.0010489920347381  0.3226839606201823   T   T   T
  0.0018515424154502  0.2501751115009937  0.3177909691545229   T   T   T
  0.4981484575845498  0.2501751115009937  0.3177909691545229   T   T   T
  0.2500000000000000  0.5012917938847320  0.3229021906948430   T   T   T
  0.7500000000000000  0.5001543675572676  0.3232992297043998   T   T   T
  0.9963398457056828  0.7453478730517332  0.3248600948830366   T   T   T
  0.5036601542943172  0.7453478730517332  0.3248600948830366   T   T   T
  0.0089715506427308  0.0111718613376980  0.4245019477151414   T   T   T
  0.4910284493572693  0.0111718613376980  0.4245019477151414   T   T   T
  0.7500000000000000  0.2451682337959579  0.4314911628455657   T   T   T
  0.0349252974219872  0.4786296057325554  0.4322082995660826   T   T   T
  0.4650747025780128  0.4786296057325554  0.4322082995660826   T   T   T
  0.2500000000000000  0.7670123929138604  0.4266065507189178   T   T   T
  0.7500000000000000  0.7591255434047440  0.4328349296197446   T   T   T
  0.9986834709810252  0.0000759289088141  0.1129247535554513   T   T   T
  0.5013165290189748  0.0000759289088141  0.1129247535554513   T   T   T
  0.2500000000000000  0.2493114764807006  0.1135986096467421   T   T   T
  0.7500000000000000  0.2498344182501856  0.1153477534282903   T   T   T
 -0.0001608228030768  0.4983672820576183  0.1144421653787316   T   T   T
  0.5001608228030767  0.4983672820576183  0.1144421653787316   T   T   T
  0.2500000000000000  0.7466724829479743  0.1125463923488955   T   T   T
  0.7500000000000000  0.7485790871928338  0.1144599025783766   T   T   T
  0.2500000000000000 -0.0000199167057542  0.2058472169744938   T   T   T
  0.7500000000000000  0.0006013909660237  0.2081469530782841   T   T   T
  0.0005155192223417  0.2506446982540421  0.2106883764143294   T   T   T
  0.4994844807776583  0.2506446982540421  0.2106883764143294   T   T   T
  0.2500000000000000  0.4991273822366074  0.2094564527191753   T   T   T
  0.7500000000000000  0.4993254699218366  0.2102086075161646   T   T   T
  0.9995808755859967  0.7498447316884802  0.2074435633550319   T   T   T
  0.5004191244140033  0.7498447316884802  0.2074435633550319   T   T   T
  0.9984925029700118  0.0032502092244887  0.3234162324391769   T   T   T
  0.5015074970299882  0.0032502092244887  0.3234162324391769   T   T   T
  0.2500000000000000  0.2280335267275125  0.3225386061327065   T   T   T
  0.7500000000000000  0.2514303117803516  0.3333311918781945   T   T   T
  0.0025947086581032  0.4951629824821767  0.3283423275654790   T   T   T
  0.4974052913418969  0.4951629824821767  0.3283423275654790   T   T   T
  0.2500000000000000  0.7459807479671992  0.3230792597010886   T   T   T
  0.7500000000000000  0.7507180859722754  0.3289052306642710   T   T   T
  0.2500000000000000  0.0430982962180443  0.4069591719033426   T   T   T
  0.7500000000000000  0.0153447607815315  0.4223454662784632   T   T   T
  0.1029545943536818  0.2590716008949766  0.4108144559440222   T   T   T
  0.3970454056463182  0.2590716008949766  0.4108144559440222   T   T   T
  0.2500000000000000  0.5476472106555011  0.4208987765057778   T   T   T
  0.7499996334070005  0.5054933470173910  0.4211463853053724   T   T   T
  0.0054781498506037  0.7832306677802415  0.4204429711620374   T   T   T
  0.4945218501493964  0.7832306677802415  0.4204429711620374   T   T   T
  0.7499996334070005  0.4808103274961802  0.4889701766060691   T   T   T
 
  0.00000000E+00  0.00000000E+00  0.00000000E+00
  0.00000000E+00  0.00000000E+00  0.00000000E+00
  0.00000000E+00  0.00000000E+00  0.00000000E+00
  0.00000000E+00  0.00000000E+00  0.00000000E+00
  0.00000000E+00  0.00000000E+00  0.00000000E+00
  0.00000000E+00  0.00000000E+00  0.00000000E+00
  0.00000000E+00  0.00000000E+00  0.00000000E+00
  0.00000000E+00  0.00000000E+00  0.00000000E+00
  0.00000000E+00  0.00000000E+00  0.00000000E+00
  0.00000000E+00  0.00000000E+00  0.00000000E+00
  0.00000000E+00  0.00000000E+00  0.00000000E+00
  0.00000000E+00  0.00000000E+00  0.00000000E+00
  0.00000000E+00  0.00000000E+00  0.00000000E+00
  0.00000000E+00  0.00000000E+00  0.00000000E+00
  0.00000000E+00  0.00000000E+00  0.00000000E+00
  0.00000000E+00  0.00000000E+00  0.00000000E+00
  0.00000000E+00  0.00000000E+00  0.00000000E+00
  0.00000000E+00  0.00000000E+00  0.00000000E+00
  0.00000000E+00  0.00000000E+00  0.00000000E+00
  0.00000000E+00  0.00000000E+00  0.00000000E+00
  0.00000000E+00  0.00000000E+00  0.00000000E+00
  0.00000000E+00  0.00000000E+00  0.00000000E+00
  0.00000000E+00  0.00000000E+00  0.00000000E+00
  0.00000000E+00  0.00000000E+00  0.00000000E+00
  0.00000000E+00  0.00000000E+00  0.00000000E+00
  0.00000000E+00  0.00000000E+00  0.00000000E+00
  0.00000000E+00  0.00000000E+00  0.00000000E+00
  0.00000000E+00  0.00000000E+00  0.00000000E+00
  0.00000000E+00  0.00000000E+00  0.00000000E+00
  0.00000000E+00  0.00000000E+00  0.00000000E+00
  0.00000000E+00  0.00000000E+00  0.00000000E+00
  0.00000000E+00  0.00000000E+00  0.00000000E+00
  0.00000000E+00  0.00000000E+00  0.00000000E+00
  0.00000000E+00  0.00000000E+00  0.00000000E+00
  0.00000000E+00  0.00000000E+00  0.00000000E+00
  0.00000000E+00  0.00000000E+00  0.00000000E+00
  0.00000000E+00  0.00000000E+00  0.00000000E+00
  0.00000000E+00  0.00000000E+00  0.00000000E+00
  0.00000000E+00  0.00000000E+00  0.00000000E+00
  0.00000000E+00  0.00000000E+00  0.00000000E+00
  0.00000000E+00  0.00000000E+00  0.00000000E+00
  0.00000000E+00  0.00000000E+00  0.00000000E+00
  0.00000000E+00  0.00000000E+00  0.00000000E+00
  0.00000000E+00  0.00000000E+00  0.00000000E+00
  0.00000000E+00  0.00000000E+00  0.00000000E+00
  0.00000000E+00  0.00000000E+00  0.00000000E+00
  0.00000000E+00  0.00000000E+00  0.00000000E+00
  0.00000000E+00  0.00000000E+00  0.00000000E+00
  0.00000000E+00  0.00000000E+00  0.00000000E+00
  0.00000000E+00  0.00000000E+00  0.00000000E+00
  0.00000000E+00  0.00000000E+00  0.00000000E+00
  0.00000000E+00  0.00000000E+00  0.00000000E+00
  0.00000000E+00  0.00000000E+00  0.00000000E+00
  0.00000000E+00  0.00000000E+00  0.00000000E+00
  0.00000000E+00  0.00000000E+00  0.00000000E+00
  0.00000000E+00  0.00000000E+00  0.00000000E+00
  0.00000000E+00  0.00000000E+00  0.00000000E+00
  0.00000000E+00  0.00000000E+00  0.00000000E+00
  0.00000000E+00  0.00000000E+00  0.00000000E+00
  0.00000000E+00  0.00000000E+00  0.00000000E+00
  0.00000000E+00  0.00000000E+00  0.00000000E+00
  0.00000000E+00  0.00000000E+00  0.00000000E+00
  0.00000000E+00  0.00000000E+00  0.00000000E+00
  0.00000000E+00  0.00000000E+00  0.00000000E+00
  0.00000000E+00  0.00000000E+00  0.00000000E+00
