Al Ba O Ag                              
   1.00000000000000     
    11.1568587867069997    0.0000000000000000    0.0000000000000000
     0.0000000000000000   11.1568587867069997    0.0000000000000000
     0.0000000000000000    0.0000000000000000   26.1568587867070015
   Al   Ba   O    Ag
     1    31    32     1
Selective dynamics
Direct
  0.2500000000000000  0.2049224565821582  0.3940446423543614   T   T   T
  0.2500000000000000  0.9990131254328650  0.1066022820951323   T   T   T
  0.7500000000000000  0.9993025773307584  0.1060686793223719   T   T   T
  0.0004045319782097  0.2492469733735914  0.1077585306179285   T   T   T
  0.4995954680217903  0.2492469733735914  0.1077585306179285   T   T   T
  0.2500000000000000  0.4989928409992033  0.1065040560760297   T   T   T
  0.7500000000000000  0.4997412954685166  0.1064146181394443   T   T   T
  0.9996910197962916  0.7493417804031619  0.1063005368772025   T   T   T
  0.5003089802037084  0.7493417804031619  0.1063005368772025   T   T   T
  0.9969332137367730  0.9964988500247101  0.2123499659042712   T   T   T
  0.5030667862632270  0.9964988500247101  0.2123499659042712   T   T   T
  0.2500000000000000  0.2492895517056643  0.2124175747928820   T   T   T
  0.7500000000000000  0.2488600951302427  0.2123469275747374   T   T   T
 -0.0004541769326040  0.5016309129108960  0.2124322537973201   T   T   T
  0.5004541769326042  0.5016309129108960  0.2124322537973201   T   T   T
  0.2500000000000000  0.7455903616735674  0.2116164031258524   T   T   T
  0.7500000000000000  0.7503692937172937  0.2126582136980208   T   T   T
  0.2500000000000000  0.9856563529616147  0.3116132803987046   T   T   T
  0.7500000000000000  0.0007319437453232  0.3247686406785519   T   T   T
  0.0014869849894748  0.2501462713011416  0.3182576566983327   T   T   T
  0.4985130150105250  0.2501462713011416  0.3182576566983327   T   T   T
  0.2500000000000000  0.5013898877930729  0.3219391457946978   T   T   T
  0.7500000000000000  0.4984250711623996  0.3195100851956394   T   T   T
  0.9946213893888797  0.7450226716911850  0.3241238945372366   T   T   T
  0.5053786106111203  0.7450226716911850  0.3241238945372366   T   T   T
  0.0020792669381377  0.0077605622324907  0.4246858783332223   T   T   T
  0.4979207330618623  0.0077605622324907  0.4246858783332223   T   T   T
  0.7500000000000000  0.2701590778126673  0.4311118004225531   T   T   T
  0.0338905340843928  0.4833306814924057  0.4308228679256729   T   T   T
  0.4661094659156071  0.4833306814924057  0.4308228679256729   T   T   T
  0.2500000000000000  0.7686356756189481  0.4256066945519500   T   T   T
  0.7500000000000000  0.7258148296353618  0.4326246391016976   T   T   T
  0.9993606747903563  0.0000332127202703  0.1124952707747437   T   T   T
  0.5006393252096437  0.0000332127202703  0.1124952707747437   T   T   T
  0.2500000000000000  0.2490161186684637  0.1132167851595738   T   T   T
  0.7500000000000000  0.2493533858556787  0.1137902975217994   T   T   T
  0.0008456050626752  0.4982042467754189  0.1129897004430694   T   T   T
  0.4991543949373248  0.4982042467754189  0.1129897004430694   T   T   T
  0.2500000000000000  0.7475737667871385  0.1120599263366137   T   T   T
  0.7500000000000000  0.7496280461772226  0.1128468543824318   T   T   T
  0.2500000000000000  0.0004105308061169  0.2059455170775530   T   T   T
  0.7500000000000000  0.0012332217074402  0.2064927609375343   T   T   T
  0.0008229230621749  0.2504058485091437  0.2100825869237906   T   T   T
  0.4991770769378250  0.2504058485091437  0.2100825869237906   T   T   T
  0.2500000000000000  0.4996099826373795  0.2080855627514903   T   T   T
  0.7500000000000000  0.4999413588304331  0.2055798716200109   T   T   T
  0.9996338356910556  0.7499209635264450  0.2065938150219136   T   T   T
  0.5003661643089444  0.7499209635264450  0.2065938150219136   T   T   T
  0.9978728547442063  0.0012084252721624  0.3239279203257241   T   T   T
  0.5021271452557937  0.0012084252721624  0.3239279203257241   T   T   T
  0.2500000000000000  0.2286152159224926  0.3230101576787572   T   T   T
  0.7500000000000000  0.2547314110491183  0.3296252948795656   T   T   T
  0.0056477666817156  0.4954153686852691  0.3260660597576235   T   T   T
  0.4943522333182843  0.4954153686852691  0.3260660597576235   T   T   T
  0.2500000000000000  0.7476931540174721  0.3228190143020929   T   T   T
  0.7500000000000000  0.7494214779882438  0.3265463729470687   T   T   T
  0.2500000000000000  0.0440916630342074  0.4078965643568853   T   T   T
  0.7500000000000000  0.0393768347442299  0.4212027731380661   T   T   T
  0.1021193667426139  0.2614278847946059  0.4110766953794741   T   T   T
  0.3978806332573861  0.2614278847946059  0.4110766953794741   T   T   T
  0.2500000000000000  0.5488802232319334  0.4197574532703806   T   T   T
  0.7499996334070005  0.5010097681766008  0.4132993966910780   T   T   T
  0.0021407409285159  0.7753887035978467  0.4206903328866536   T   T   T
  0.4978592590714840  0.7753887035978467  0.4206903328866536   T   T   T
  0.7499996334070005  0.4675050019456671  0.5344232273711211   T   T   T
 
  0.00000000E+00  0.00000000E+00  0.00000000E+00
  0.00000000E+00  0.00000000E+00  0.00000000E+00
  0.00000000E+00  0.00000000E+00  0.00000000E+00
  0.00000000E+00  0.00000000E+00  0.00000000E+00
  0.00000000E+00  0.00000000E+00  0.00000000E+00
  0.00000000E+00  0.00000000E+00  0.00000000E+00
  0.00000000E+00  0.00000000E+00  0.00000000E+00
  0.00000000E+00  0.00000000E+00  0.00000000E+00
  0.00000000E+00  0.00000000E+00  0.00000000E+00
  0.00000000E+00  0.00000000E+00  0.00000000E+00
  0.00000000E+00  0.00000000E+00  0.00000000E+00
  0.00000000E+00  0.00000000E+00  0.00000000E+00
  0.00000000E+00  0.00000000E+00  0.00000000E+00
  0.00000000E+00  0.00000000E+00  0.00000000E+00
  0.00000000E+00  0.00000000E+00  0.00000000E+00
  0.00000000E+00  0.00000000E+00  0.00000000E+00
  0.00000000E+00  0.00000000E+00  0.00000000E+00
  0.00000000E+00  0.00000000E+00  0.00000000E+00
  0.00000000E+00  0.00000000E+00  0.00000000E+00
  0.00000000E+00  0.00000000E+00  0.00000000E+00
  0.00000000E+00  0.00000000E+00  0.00000000E+00
  0.00000000E+00  0.00000000E+00  0.00000000E+00
  0.00000000E+00  0.00000000E+00  0.00000000E+00
  0.00000000E+00  0.00000000E+00  0.00000000E+00
  0.00000000E+00  0.00000000E+00  0.00000000E+00
  0.00000000E+00  0.00000000E+00  0.00000000E+00
  0.00000000E+00  0.00000000E+00  0.00000000E+00
  0.00000000E+00  0.00000000E+00  0.00000000E+00
  0.00000000E+00  0.00000000E+00  0.00000000E+00
  0.00000000E+00  0.00000000E+00  0.00000000E+00
  0.00000000E+00  0.00000000E+00  0.00000000E+00
  0.00000000E+00  0.00000000E+00  0.00000000E+00
  0.00000000E+00  0.00000000E+00  0.00000000E+00
  0.00000000E+00  0.00000000E+00  0.00000000E+00
  0.00000000E+00  0.00000000E+00  0.00000000E+00
  0.00000000E+00  0.00000000E+00  0.00000000E+00
  0.00000000E+00  0.00000000E+00  0.00000000E+00
  0.00000000E+00  0.00000000E+00  0.00000000E+00
  0.00000000E+00  0.00000000E+00  0.00000000E+00
  0.00000000E+00  0.00000000E+00  0.00000000E+00
  0.00000000E+00  0.00000000E+00  0.00000000E+00
  0.00000000E+00  0.00000000E+00  0.00000000E+00
  0.00000000E+00  0.00000000E+00  0.00000000E+00
  0.00000000E+00  0.00000000E+00  0.00000000E+00
  0.00000000E+00  0.00000000E+00  0.00000000E+00
  0.00000000E+00  0.00000000E+00  0.00000000E+00
  0.00000000E+00  0.00000000E+00  0.00000000E+00
  0.00000000E+00  0.00000000E+00  0.00000000E+00
  0.00000000E+00  0.00000000E+00  0.00000000E+00
  0.00000000E+00  0.00000000E+00  0.00000000E+00
  0.00000000E+00  0.00000000E+00  0.00000000E+00
  0.00000000E+00  0.00000000E+00  0.00000000E+00
  0.00000000E+00  0.00000000E+00  0.00000000E+00
  0.00000000E+00  0.00000000E+00  0.00000000E+00
  0.00000000E+00  0.00000000E+00  0.00000000E+00
  0.00000000E+00  0.00000000E+00  0.00000000E+00
  0.00000000E+00  0.00000000E+00  0.00000000E+00
  0.00000000E+00  0.00000000E+00  0.00000000E+00
  0.00000000E+00  0.00000000E+00  0.00000000E+00
  0.00000000E+00  0.00000000E+00  0.00000000E+00
  0.00000000E+00  0.00000000E+00  0.00000000E+00
  0.00000000E+00  0.00000000E+00  0.00000000E+00
  0.00000000E+00  0.00000000E+00  0.00000000E+00
  0.00000000E+00  0.00000000E+00  0.00000000E+00
  0.00000000E+00  0.00000000E+00  0.00000000E+00
