Al Ba O Ir                              
   1.00000000000000     
    11.1568587867069997    0.0000000000000000    0.0000000000000000
     0.0000000000000000   11.1568587867069997    0.0000000000000000
     0.0000000000000000    0.0000000000000000   26.1568587867070015
   Al   Ba   O    Ir
     1    31    32     1
Selective dynamics
Direct
  0.2500000000000000  0.2047830347969066  0.3938454983849982   T   T   T
  0.2500000000000000  0.9986224351958856  0.1066945399553163   T   T   T
  0.7500000000000000  0.9990338846372169  0.1068938941810406   T   T   T
  0.0002483200168109  0.2493009373614915  0.1083837823663123   T   T   T
  0.4997516799831890  0.2493009373614915  0.1083837823663123   T   T   T
  0.2500000000000000  0.4987585585558352  0.1071642463414616   T   T   T
  0.7500000000000000  0.4996545370359469  0.1087003207508223   T   T   T
  0.9995220786807854  0.7490702425928724  0.1069598501470299   T   T   T
  0.5004779213192146  0.7490702425928724  0.1069598501470299   T   T   T
  0.9972247478401196  0.9963309019836178  0.2127626274010993   T   T   T
  0.5027752521598804  0.9963309019836178  0.2127626274010993   T   T   T
  0.2500000000000000  0.2492299827444981  0.2128007291184916   T   T   T
  0.7500000000000000  0.2483611522625485  0.2134236899216541   T   T   T
  0.0006998865927047  0.5019842516571545  0.2137085340069072   T   T   T
  0.4993001134072953  0.5019842516571545  0.2137085340069072   T   T   T
  0.2500000000000000  0.7446221288867279  0.2121605998690002   T   T   T
  0.7500000000000000  0.7505625106485128  0.2138383790584659   T   T   T
  0.2500000000000000  0.9848395472937893  0.3112412290822896   T   T   T
  0.7500000000000000 -0.0018889568155946  0.3244837749242935   T   T   T
  0.0013681417853997  0.2509433217473799  0.3182783286453527   T   T   T
  0.4986318582146002  0.2509433217473799  0.3182783286453527   T   T   T
  0.2500000000000000  0.5001373022813816  0.3246616918542871   T   T   T
  0.7500000000000000  0.5005159517212421  0.3212063066681398   T   T   T
  0.9955382239728796  0.7446056869174175  0.3249475261234613   T   T   T
  0.5044617760271204  0.7446056869174175  0.3249475261234613   T   T   T
  0.0070153664605637  0.0096809829286350  0.4244578367855182   T   T   T
  0.4929846335394364  0.0096809829286350  0.4244578367855182   T   T   T
  0.7500000000000000  0.2531508281242402  0.4308521075736530   T   T   T
  0.0306480127575872  0.4819962536410435  0.4327017593878328   T   T   T
  0.4693519872424128  0.4819962536410435  0.4327017593878328   T   T   T
  0.2500000000000000  0.7668685710021358  0.4265636265625452   T   T   T
  0.7500000000000000  0.7500965031142485  0.4340206338696341   T   T   T
  0.9988073059880000  0.9999532320914978  0.1127029077374730   T   T   T
  0.5011926940120000  0.9999532320914978  0.1127029077374730   T   T   T
  0.2500000000000000  0.2490325798376664  0.1135391030445840   T   T   T
  0.7500000000000000  0.2496648469908499  0.1149678394443134   T   T   T
 -0.0001299820054115  0.4983388077067878  0.1139444273514442   T   T   T
  0.5001299820054116  0.4983388077067878  0.1139444273514442   T   T   T
  0.2500000000000000  0.7469207314394897  0.1123751975466309   T   T   T
  0.7500000000000000  0.7486815648157873  0.1138715528101942   T   T   T
  0.2500000000000000  0.0001490400501204  0.2060741979041398   T   T   T
  0.7500000000000000  0.0005738933876614  0.2076388842120539   T   T   T
  0.0007972447751088  0.2504141151727071  0.2105750426819057   T   T   T
  0.4992027552248913  0.2504141151727071  0.2105750426819057   T   T   T
  0.2500000000000000  0.4989825718002522  0.2086341703641202   T   T   T
  0.7500000000000000  0.4989726338901233  0.2098810359514230   T   T   T
  0.9997304428802664  0.7499702063199454  0.2072785950885898   T   T   T
  0.5002695571197336  0.7499702063199454  0.2072785950885898   T   T   T
  0.9982476160140979  0.0025467023638699  0.3233683334084084   T   T   T
  0.5017523839859021  0.0025467023638699  0.3233683334084084   T   T   T
  0.2500000000000000  0.2283692348618687  0.3229207866390497   T   T   T
  0.7500000000000000  0.2503108598000669  0.3309766222429816   T   T   T
  0.0035950641173431  0.4955174022699235  0.3262526852511649   T   T   T
  0.4964049358826569  0.4955174022699235  0.3262526852511649   T   T   T
  0.2500000000000000  0.7459113803948033  0.3228422306697839   T   T   T
  0.7500000000000000  0.7498636356240846  0.3265583610087584   T   T   T
  0.2500000000000000  0.0435015725684111  0.4073417317072436   T   T   T
  0.7500000000000000  0.0186129200498588  0.4235186823847217   T   T   T
  0.1022713821751398  0.2597450340738092  0.4111696175003507   T   T   T
  0.3977286178248601  0.2597450340738092  0.4111696175003507   T   T   T
  0.2500000000000000  0.5484984189508160  0.4219332017955031   T   T   T
  0.7499996334070005  0.5022141880763619  0.4158866511215343   T   T   T
  0.0047197404824182  0.7811741975161266  0.4206748562377602   T   T   T
  0.4952802595175817  0.7811741975161266  0.4206748562377602   T   T   T
  0.7499996334070005  0.4841997162586812  0.4899085089486567   T   T   T
 
  0.00000000E+00  0.00000000E+00  0.00000000E+00
  0.00000000E+00  0.00000000E+00  0.00000000E+00
  0.00000000E+00  0.00000000E+00  0.00000000E+00
  0.00000000E+00  0.00000000E+00  0.00000000E+00
  0.00000000E+00  0.00000000E+00  0.00000000E+00
  0.00000000E+00  0.00000000E+00  0.00000000E+00
  0.00000000E+00  0.00000000E+00  0.00000000E+00
  0.00000000E+00  0.00000000E+00  0.00000000E+00
  0.00000000E+00  0.00000000E+00  0.00000000E+00
  0.00000000E+00  0.00000000E+00  0.00000000E+00
  0.00000000E+00  0.00000000E+00  0.00000000E+00
  0.00000000E+00  0.00000000E+00  0.00000000E+00
  0.00000000E+00  0.00000000E+00  0.00000000E+00
  0.00000000E+00  0.00000000E+00  0.00000000E+00
  0.00000000E+00  0.00000000E+00  0.00000000E+00
  0.00000000E+00  0.00000000E+00  0.00000000E+00
  0.00000000E+00  0.00000000E+00  0.00000000E+00
  0.00000000E+00  0.00000000E+00  0.00000000E+00
  0.00000000E+00  0.00000000E+00  0.00000000E+00
  0.00000000E+00  0.00000000E+00  0.00000000E+00
  0.00000000E+00  0.00000000E+00  0.00000000E+00
  0.00000000E+00  0.00000000E+00  0.00000000E+00
  0.00000000E+00  0.00000000E+00  0.00000000E+00
  0.00000000E+00  0.00000000E+00  0.00000000E+00
  0.00000000E+00  0.00000000E+00  0.00000000E+00
  0.00000000E+00  0.00000000E+00  0.00000000E+00
  0.00000000E+00  0.00000000E+00  0.00000000E+00
  0.00000000E+00  0.00000000E+00  0.00000000E+00
  0.00000000E+00  0.00000000E+00  0.00000000E+00
  0.00000000E+00  0.00000000E+00  0.00000000E+00
  0.00000000E+00  0.00000000E+00  0.00000000E+00
  0.00000000E+00  0.00000000E+00  0.00000000E+00
  0.00000000E+00  0.00000000E+00  0.00000000E+00
  0.00000000E+00  0.00000000E+00  0.00000000E+00
  0.00000000E+00  0.00000000E+00  0.00000000E+00
  0.00000000E+00  0.00000000E+00  0.00000000E+00
  0.00000000E+00  0.00000000E+00  0.00000000E+00
  0.00000000E+00  0.00000000E+00  0.00000000E+00
  0.00000000E+00  0.00000000E+00  0.00000000E+00
  0.00000000E+00  0.00000000E+00  0.00000000E+00
  0.00000000E+00  0.00000000E+00  0.00000000E+00
  0.00000000E+00  0.00000000E+00  0.00000000E+00
  0.00000000E+00  0.00000000E+00  0.00000000E+00
  0.00000000E+00  0.00000000E+00  0.00000000E+00
  0.00000000E+00  0.00000000E+00  0.00000000E+00
  0.00000000E+00  0.00000000E+00  0.00000000E+00
  0.00000000E+00  0.00000000E+00  0.00000000E+00
  0.00000000E+00  0.00000000E+00  0.00000000E+00
  0.00000000E+00  0.00000000E+00  0.00000000E+00
  0.00000000E+00  0.00000000E+00  0.00000000E+00
  0.00000000E+00  0.00000000E+00  0.00000000E+00
  0.00000000E+00  0.00000000E+00  0.00000000E+00
  0.00000000E+00  0.00000000E+00  0.00000000E+00
  0.00000000E+00  0.00000000E+00  0.00000000E+00
  0.00000000E+00  0.00000000E+00  0.00000000E+00
  0.00000000E+00  0.00000000E+00  0.00000000E+00
  0.00000000E+00  0.00000000E+00  0.00000000E+00
  0.00000000E+00  0.00000000E+00  0.00000000E+00
  0.00000000E+00  0.00000000E+00  0.00000000E+00
  0.00000000E+00  0.00000000E+00  0.00000000E+00
  0.00000000E+00  0.00000000E+00  0.00000000E+00
  0.00000000E+00  0.00000000E+00  0.00000000E+00
  0.00000000E+00  0.00000000E+00  0.00000000E+00
  0.00000000E+00  0.00000000E+00  0.00000000E+00
  0.00000000E+00  0.00000000E+00  0.00000000E+00
