Al Ba O                                 
   1.00000000000000     
    11.1568587867069997    0.0000000000000000    0.0000000000000000
     0.0000000000000000   11.1568587867069997    0.0000000000000000
     0.0000000000000000    0.0000000000000000   26.1568587867070015
   Al   Ba   O 
     1    31    32
Selective dynamics
Direct
  0.2500000000000000  0.2038220559806921  0.3929221250333993   T   T   T
  0.2500000000000000  0.9987945590727727  0.1060561218644826   T   T   T
  0.7500000000000000  0.9991696784780201  0.1064611832225578   T   T   T
  0.0002858920738623  0.2493611206013958  0.1077627425310764   T   T   T
  0.4997141079261377  0.2493611206013958  0.1077627425310764   T   T   T
  0.2500000000000000  0.4986760693594156  0.1070020399654592   T   T   T
  0.7500000000000000  0.4995063635761622  0.1074324168565750   T   T   T
  0.9994363879275595  0.7489290422650884  0.1065921788242891   T   T   T
  0.5005636120724405  0.7489290422650884  0.1065921788242891   T   T   T
  0.9971779939973952  0.9964304939864467  0.2122180752401117   T   T   T
  0.5028220060026048  0.9964304939864467  0.2122180752401117   T   T   T
  0.2500000000000000  0.2487405909864189  0.2123815012478352   T   T   T
  0.7500000000000000  0.2497875446678523  0.2127877968876962   T   T   T
 -0.0015085749823667  0.5015820500719615  0.2133570525764217   T   T   T
  0.5015085749823667  0.5015820500719615  0.2133570525764217   T   T   T
  0.2500000000000000  0.7453570069076573  0.2114850629474856   T   T   T
  0.7500000000000000  0.7489801409177824  0.2134786511514321   T   T   T
  0.2500000000000000  0.9848417054809028  0.3110761074118861   T   T   T
  0.7500000000000000  0.0001677416222450  0.3240825762981308   T   T   T
  0.0014167076183306  0.2485118559207602  0.3179259880695780   T   T   T
  0.4985832923816695  0.2485118559207602  0.3179259880695780   T   T   T
  0.2500000000000000  0.5009080797292262  0.3215426025272542   T   T   T
  0.7500000000000000  0.4979942011051824  0.3255940540892890   T   T   T
  0.9964260214424002  0.7463889294687318  0.3244911171522294   T   T   T
  0.5035739785575998  0.7463889294687318  0.3244911171522294   T   T   T
  0.0048917840120902  0.0100022835184095  0.4250681757365246   T   T   T
  0.4951082159879097  0.0100022835184095  0.4250681757365246   T   T   T
  0.7500000000000000  0.2591798273784938  0.4322783501782143   T   T   T
  0.0340203161289697  0.4792929493449796  0.4294364515088070   T   T   T
  0.4659796838710302  0.4792929493449796  0.4294364515088070   T   T   T
  0.2500000000000000  0.7672595896084577  0.4260222225621949   T   T   T
  0.7500000000000000  0.7395872980967604  0.4308387027674522   T   T   T
  0.9990160313655553  0.9995121291199818  0.1128239522856139   T   T   T
  0.5009839686344447  0.9995121291199818  0.1128239522856139   T   T   T
  0.2500000000000000  0.2490090645697683  0.1134048768422519   T   T   T
  0.7500000000000000  0.2497588446738557  0.1151386188725317   T   T   T
  0.0001132404746513  0.4983557688888132  0.1143424570772989   T   T   T
  0.4998867595253487  0.4983557688888132  0.1143424570772989   T   T   T
  0.2500000000000000  0.7468559078842096  0.1125432121530286   T   T   T
  0.7500000000000000  0.7486843792040188  0.1144411827473835   T   T   T
  0.2500000000000000  0.9999120925234150  0.2058382935962720   T   T   T
  0.7500000000000000  0.0009156180143860  0.2073705153078468   T   T   T
  0.0004753233977684  0.2503537474246752  0.2104184606662324   T   T   T
  0.4995246766022317  0.2503537474246752  0.2104184606662324   T   T   T
  0.2500000000000000  0.4994783364427121  0.2092203780608976   T   T   T
  0.7500000000000000  0.4994777639646345  0.2081634613761270   T   T   T
  0.9994953874824156  0.7496794634538592  0.2076956081231858   T   T   T
  0.5005046125175844  0.7496794634538592  0.2076956081231858   T   T   T
  0.9983149206137664  0.0010391037815562  0.3234399346830982   T   T   T
  0.5016850793862336  0.0010391037815562  0.3234399346830982   T   T   T
  0.2500000000000000  0.2264832765398845  0.3219077236800418   T   T   T
  0.7500000000000000  0.2529962457205834  0.3333779598400143   T   T   T
  0.0039669726765277  0.4952788193801318  0.3278897951284416   T   T   T
  0.4960330273234723  0.4952788193801318  0.3278897951284416   T   T   T
  0.2500000000000000  0.7462107097058982  0.3230837321441792   T   T   T
  0.7500000000000000  0.7481120264270372  0.3296722855860997   T   T   T
  0.2500000000000000  0.0428988457429561  0.4071942043579120   T   T   T
  0.7500000000000000  0.0275947129846885  0.4207791029332699   T   T   T
  0.1036749408011690  0.2606032418496204  0.4099380821361280   T   T   T
  0.3963250591988310  0.2606032418496204  0.4099380821361280   T   T   T
  0.2500000000000000  0.5477617693712273  0.4195179496697111   T   T   T
  0.7499996334070005  0.4996498567997903  0.4223985290352795   T   T   T
  0.0026392603853457  0.7780445367320493  0.4213004398603716   T   T   T
  0.4973607396146543  0.7780445367320493  0.4213004398603716   T   T   T
 
  0.00000000E+00  0.00000000E+00  0.00000000E+00
  0.00000000E+00  0.00000000E+00  0.00000000E+00
  0.00000000E+00  0.00000000E+00  0.00000000E+00
  0.00000000E+00  0.00000000E+00  0.00000000E+00
  0.00000000E+00  0.00000000E+00  0.00000000E+00
  0.00000000E+00  0.00000000E+00  0.00000000E+00
  0.00000000E+00  0.00000000E+00  0.00000000E+00
  0.00000000E+00  0.00000000E+00  0.00000000E+00
  0.00000000E+00  0.00000000E+00  0.00000000E+00
  0.00000000E+00  0.00000000E+00  0.00000000E+00
  0.00000000E+00  0.00000000E+00  0.00000000E+00
  0.00000000E+00  0.00000000E+00  0.00000000E+00
  0.00000000E+00  0.00000000E+00  0.00000000E+00
  0.00000000E+00  0.00000000E+00  0.00000000E+00
  0.00000000E+00  0.00000000E+00  0.00000000E+00
  0.00000000E+00  0.00000000E+00  0.00000000E+00
  0.00000000E+00  0.00000000E+00  0.00000000E+00
  0.00000000E+00  0.00000000E+00  0.00000000E+00
  0.00000000E+00  0.00000000E+00  0.00000000E+00
  0.00000000E+00  0.00000000E+00  0.00000000E+00
  0.00000000E+00  0.00000000E+00  0.00000000E+00
  0.00000000E+00  0.00000000E+00  0.00000000E+00
  0.00000000E+00  0.00000000E+00  0.00000000E+00
  0.00000000E+00  0.00000000E+00  0.00000000E+00
  0.00000000E+00  0.00000000E+00  0.00000000E+00
  0.00000000E+00  0.00000000E+00  0.00000000E+00
  0.00000000E+00  0.00000000E+00  0.00000000E+00
  0.00000000E+00  0.00000000E+00  0.00000000E+00
  0.00000000E+00  0.00000000E+00  0.00000000E+00
  0.00000000E+00  0.00000000E+00  0.00000000E+00
  0.00000000E+00  0.00000000E+00  0.00000000E+00
  0.00000000E+00  0.00000000E+00  0.00000000E+00
  0.00000000E+00  0.00000000E+00  0.00000000E+00
  0.00000000E+00  0.00000000E+00  0.00000000E+00
  0.00000000E+00  0.00000000E+00  0.00000000E+00
  0.00000000E+00  0.00000000E+00  0.00000000E+00
  0.00000000E+00  0.00000000E+00  0.00000000E+00
  0.00000000E+00  0.00000000E+00  0.00000000E+00
  0.00000000E+00  0.00000000E+00  0.00000000E+00
  0.00000000E+00  0.00000000E+00  0.00000000E+00
  0.00000000E+00  0.00000000E+00  0.00000000E+00
  0.00000000E+00  0.00000000E+00  0.00000000E+00
  0.00000000E+00  0.00000000E+00  0.00000000E+00
  0.00000000E+00  0.00000000E+00  0.00000000E+00
  0.00000000E+00  0.00000000E+00  0.00000000E+00
  0.00000000E+00  0.00000000E+00  0.00000000E+00
  0.00000000E+00  0.00000000E+00  0.00000000E+00
  0.00000000E+00  0.00000000E+00  0.00000000E+00
  0.00000000E+00  0.00000000E+00  0.00000000E+00
  0.00000000E+00  0.00000000E+00  0.00000000E+00
  0.00000000E+00  0.00000000E+00  0.00000000E+00
  0.00000000E+00  0.00000000E+00  0.00000000E+00
  0.00000000E+00  0.00000000E+00  0.00000000E+00
  0.00000000E+00  0.00000000E+00  0.00000000E+00
  0.00000000E+00  0.00000000E+00  0.00000000E+00
  0.00000000E+00  0.00000000E+00  0.00000000E+00
  0.00000000E+00  0.00000000E+00  0.00000000E+00
  0.00000000E+00  0.00000000E+00  0.00000000E+00
  0.00000000E+00  0.00000000E+00  0.00000000E+00
  0.00000000E+00  0.00000000E+00  0.00000000E+00
  0.00000000E+00  0.00000000E+00  0.00000000E+00
  0.00000000E+00  0.00000000E+00  0.00000000E+00
  0.00000000E+00  0.00000000E+00  0.00000000E+00
  0.00000000E+00  0.00000000E+00  0.00000000E+00
