Al Ba O V                               
   1.00000000000000     
    11.1568587867069997    0.0000000000000000    0.0000000000000000
     0.0000000000000000   11.1568587867069997    0.0000000000000000
     0.0000000000000000    0.0000000000000000   26.1568587867070015
   Al   Ba   O    V 
     1    31    32     1
Selective dynamics
Direct
  0.2500000000000000  0.2033749588866842  0.3917216047209457   T   T   T
  0.2500000000000000  0.9987910490357326  0.1054694494659457   T   T   T
  0.7500000000000000  0.9990274164145628  0.1064816198935254   T   T   T
  0.0004910956649160  0.2495158056816400  0.1073559822269244   T   T   T
  0.4995089043350839  0.2495158056816400  0.1073559822269244   T   T   T
  0.2500000000000000  0.4986820636832746  0.1066264878923904   T   T   T
  0.7500000000000000  0.4997364010283425  0.1080284195429968   T   T   T
  0.9995693147678634  0.7489765742788280  0.1060740572401347   T   T   T
  0.5004306852321366  0.7489765742788280  0.1060740572401347   T   T   T
  0.9982665772484605  0.9961422183076132  0.2118323981079933   T   T   T
  0.5017334227515395  0.9961422183076132  0.2118323981079933   T   T   T
  0.2500000000000000  0.2489772756911130  0.2120663733959725   T   T   T
  0.7500000000000000  0.2497494413111196  0.2126426004277177   T   T   T
  0.9997554393742913  0.5023117900873870  0.2135633208396019   T   T   T
  0.5002445606257087  0.5023117900873870  0.2135633208396019   T   T   T
  0.2500000000000000  0.7448222613263352  0.2112370385248130   T   T   T
  0.7500000000000000  0.7489227533925299  0.2134939914594625   T   T   T
  0.2500000000000000  0.9831697094829683  0.3099738596539057   T   T   T
  0.7500000000000000  0.9976566784032647  0.3206015728370009   T   T   T
  0.0012909586024739  0.2504876291313319  0.3169398871577935   T   T   T
  0.4987090413975261  0.2504876291313319  0.3169398871577935   T   T   T
  0.2500000000000000  0.5017880024970975  0.3224403660127100   T   T   T
  0.7500000000000000  0.5006334057560761  0.3253855474646017   T   T   T
  0.9970141250823302  0.7451804910508650  0.3251914821156875   T   T   T
  0.5029858749176698  0.7451804910508650  0.3251914821156875   T   T   T
  0.0125525931731640  0.0138521311859183  0.4238685848577394   T   T   T
  0.4874474068268360  0.0138521311859183  0.4238685848577394   T   T   T
  0.7500000000000000  0.2339156723739917  0.4312767196607754   T   T   T
  0.0396285552484856  0.4738485868416056  0.4329470849753351   T   T   T
  0.4603714447515144  0.4738485868416056  0.4329470849753351   T   T   T
  0.2500000000000000  0.7666801886592760  0.4274194727547104   T   T   T
  0.7500000000000000  0.7711858644405658  0.4329580755137435   T   T   T
  0.9985099930942699  0.0001863219089530  0.1126325460311537   T   T   T
  0.5014900069057301  0.0001863219089530  0.1126325460311537   T   T   T
  0.2500000000000000  0.2494081447602783  0.1132482641796714   T   T   T
  0.7500000000000000  0.2504870499037015  0.1155615940468008   T   T   T
  0.9990831343286313  0.4985576940130090  0.1147094199427659   T   T   T
  0.5009168656713687  0.4985576940130090  0.1147094199427659   T   T   T
  0.2500000000000000  0.7463936665979837  0.1123568577419853   T   T   T
  0.7500000000000000  0.7477531551212410  0.1147055093986974   T   T   T
  0.2500000000000000  0.9997742083291460  0.2053732512488037   T   T   T
  0.7500000000000000  0.0004588289290626  0.2086218929439151   T   T   T
  0.0004150885581024  0.2508823142208556  0.2102836493644849   T   T   T
  0.4995849114418976  0.2508823142208556  0.2102836493644849   T   T   T
  0.2500000000000000  0.4991634538322930  0.2096598757583593   T   T   T
  0.7500000000000000  0.4991572889857983  0.2124207353106720   T   T   T
  0.9996424277645971  0.7501081671689027  0.2071859688962089   T   T   T
  0.5003575722354029  0.7501081671689027  0.2071859688962089   T   T   T
  0.9981832739713753  0.0045689900348008  0.3225127246596358   T   T   T
  0.5018167260286247  0.0045689900348008  0.3225127246596358   T   T   T
  0.2500000000000000  0.2270362088383896  0.3212922857368095   T   T   T
  0.7500000000000000  0.2510105577107077  0.3341002764236826   T   T   T
  0.0008243173789882  0.4954506670296632  0.3283856111692418   T   T   T
  0.4991756826210118  0.4954506670296632  0.3283856111692418   T   T   T
  0.2500000000000000  0.7446980975774331  0.3225856789563122   T   T   T
  0.7500000000000000  0.7495383130190708  0.3294124626793508   T   T   T
  0.2500000000000000  0.0425078950395088  0.4059959681962169   T   T   T
  0.7500000000000000  0.0109502240464337  0.4213727026169879   T   T   T
  0.1042360937306046  0.2578353018791789  0.4096277079490543   T   T   T
  0.3957639062693954  0.2578353018791789  0.4096277079490543   T   T   T
  0.2500000000000000  0.5474382664410971  0.4207221995974067   T   T   T
  0.7499996334070005  0.5031105058542978  0.4275530928603227   T   T   T
  0.0076647418347855  0.7881907391672330  0.4197036834340435   T   T   T
  0.4923352581652146  0.7881907391672330  0.4197036834340435   T   T   T
  0.7499996334070005  0.4867624616260285  0.4953193813002276   T   T   T
 
  0.00000000E+00  0.00000000E+00  0.00000000E+00
  0.00000000E+00  0.00000000E+00  0.00000000E+00
  0.00000000E+00  0.00000000E+00  0.00000000E+00
  0.00000000E+00  0.00000000E+00  0.00000000E+00
  0.00000000E+00  0.00000000E+00  0.00000000E+00
  0.00000000E+00  0.00000000E+00  0.00000000E+00
  0.00000000E+00  0.00000000E+00  0.00000000E+00
  0.00000000E+00  0.00000000E+00  0.00000000E+00
  0.00000000E+00  0.00000000E+00  0.00000000E+00
  0.00000000E+00  0.00000000E+00  0.00000000E+00
  0.00000000E+00  0.00000000E+00  0.00000000E+00
  0.00000000E+00  0.00000000E+00  0.00000000E+00
  0.00000000E+00  0.00000000E+00  0.00000000E+00
  0.00000000E+00  0.00000000E+00  0.00000000E+00
  0.00000000E+00  0.00000000E+00  0.00000000E+00
  0.00000000E+00  0.00000000E+00  0.00000000E+00
  0.00000000E+00  0.00000000E+00  0.00000000E+00
  0.00000000E+00  0.00000000E+00  0.00000000E+00
  0.00000000E+00  0.00000000E+00  0.00000000E+00
  0.00000000E+00  0.00000000E+00  0.00000000E+00
  0.00000000E+00  0.00000000E+00  0.00000000E+00
  0.00000000E+00  0.00000000E+00  0.00000000E+00
  0.00000000E+00  0.00000000E+00  0.00000000E+00
  0.00000000E+00  0.00000000E+00  0.00000000E+00
  0.00000000E+00  0.00000000E+00  0.00000000E+00
  0.00000000E+00  0.00000000E+00  0.00000000E+00
  0.00000000E+00  0.00000000E+00  0.00000000E+00
  0.00000000E+00  0.00000000E+00  0.00000000E+00
  0.00000000E+00  0.00000000E+00  0.00000000E+00
  0.00000000E+00  0.00000000E+00  0.00000000E+00
  0.00000000E+00  0.00000000E+00  0.00000000E+00
  0.00000000E+00  0.00000000E+00  0.00000000E+00
  0.00000000E+00  0.00000000E+00  0.00000000E+00
  0.00000000E+00  0.00000000E+00  0.00000000E+00
  0.00000000E+00  0.00000000E+00  0.00000000E+00
  0.00000000E+00  0.00000000E+00  0.00000000E+00
  0.00000000E+00  0.00000000E+00  0.00000000E+00
  0.00000000E+00  0.00000000E+00  0.00000000E+00
  0.00000000E+00  0.00000000E+00  0.00000000E+00
  0.00000000E+00  0.00000000E+00  0.00000000E+00
  0.00000000E+00  0.00000000E+00  0.00000000E+00
  0.00000000E+00  0.00000000E+00  0.00000000E+00
  0.00000000E+00  0.00000000E+00  0.00000000E+00
  0.00000000E+00  0.00000000E+00  0.00000000E+00
  0.00000000E+00  0.00000000E+00  0.00000000E+00
  0.00000000E+00  0.00000000E+00  0.00000000E+00
  0.00000000E+00  0.00000000E+00  0.00000000E+00
  0.00000000E+00  0.00000000E+00  0.00000000E+00
  0.00000000E+00  0.00000000E+00  0.00000000E+00
  0.00000000E+00  0.00000000E+00  0.00000000E+00
  0.00000000E+00  0.00000000E+00  0.00000000E+00
  0.00000000E+00  0.00000000E+00  0.00000000E+00
  0.00000000E+00  0.00000000E+00  0.00000000E+00
  0.00000000E+00  0.00000000E+00  0.00000000E+00
  0.00000000E+00  0.00000000E+00  0.00000000E+00
  0.00000000E+00  0.00000000E+00  0.00000000E+00
  0.00000000E+00  0.00000000E+00  0.00000000E+00
  0.00000000E+00  0.00000000E+00  0.00000000E+00
  0.00000000E+00  0.00000000E+00  0.00000000E+00
  0.00000000E+00  0.00000000E+00  0.00000000E+00
  0.00000000E+00  0.00000000E+00  0.00000000E+00
  0.00000000E+00  0.00000000E+00  0.00000000E+00
  0.00000000E+00  0.00000000E+00  0.00000000E+00
  0.00000000E+00  0.00000000E+00  0.00000000E+00
  0.00000000E+00  0.00000000E+00  0.00000000E+00
