Al Ba O Au                              
   1.00000000000000     
    11.1568587867069997    0.0000000000000000    0.0000000000000000
     0.0000000000000000   11.1568587867069997    0.0000000000000000
     0.0000000000000000    0.0000000000000000   26.1568587867070015
   Al   Ba   O    Au
     1    31    32     1
Selective dynamics
Direct
  0.2500000000000000  0.2050178013869142  0.3946830795578633   T   T   T
  0.2500000000000000  0.9992588295838772  0.1068363454520062   T   T   T
  0.7500000000000000  0.9998394862983845  0.1059241385100732   T   T   T
  0.0003766906775378  0.2492780067160132  0.1078892429342671   T   T   T
  0.4996233093224622  0.2492780067160132  0.1078892429342671   T   T   T
  0.2500000000000000  0.4991591950244620  0.1065374616996845   T   T   T
  0.7500000000000000  0.4999281383393924  0.1059372444005191   T   T   T
  0.9998352539133594  0.7497326550979688  0.1061818679829056   T   T   T
  0.5001647460866406  0.7497326550979688  0.1061818679829056   T   T   T
  0.9966474362776246  0.9966448108903430  0.2125679110089750   T   T   T
  0.5033525637223754  0.9966448108903430  0.2125679110089750   T   T   T
  0.2500000000000000  0.2496564136652451  0.2125182495336684   T   T   T
  0.7500000000000000  0.2490235492586602  0.2121920679122152   T   T   T
  0.9993774445238774  0.5021109186981618  0.2123142707510916   T   T   T
  0.5006225554761226  0.5021109186981618  0.2123142707510916   T   T   T
  0.2500000000000000  0.7459152443677364  0.2116990355603522   T   T   T
  0.7500000000000000  0.7509234034743868  0.2124362441264431   T   T   T
  0.2500000000000000  0.9867042096079304  0.3119341321748326   T   T   T
  0.7500000000000000  0.0023173880876285  0.3253356214222820   T   T   T
  0.0021856140971226  0.2506704911701666  0.3185179287980640   T   T   T
  0.4978143859028774  0.2506704911701666  0.3185179287980640   T   T   T
  0.2500000000000000  0.5027387159454532  0.3217253619057240   T   T   T
  0.7500000000000000  0.4984940601903382  0.3186853076247627   T   T   T
  0.9936892347450960  0.7458061217025679  0.3244945551401749   T   T   T
  0.5063107652549040  0.7458061217025679  0.3244945551401749   T   T   T
  0.0016544159325653  0.0079056944619275  0.4254703256388007   T   T   T
  0.4983455840674347  0.0079056944619275  0.4254703256388007   T   T   T
  0.7500000000000000  0.2718876653787555  0.4308221481791862   T   T   T
  0.0331886929560201  0.4839308000601855  0.4306082684251585   T   T   T
  0.4668113070439799  0.4839308000601855  0.4306082684251585   T   T   T
  0.2500000000000000  0.7693285894729809  0.4253432181382505   T   T   T
  0.7500000000000000  0.7252969795794770  0.4324639455082452   T   T   T
  0.9994036001448889  0.0001330985074186  0.1128339758900843   T   T   T
  0.5005963998551111  0.0001330985074186  0.1128339758900843   T   T   T
  0.2500000000000000  0.2492175552084147  0.1134805774237004   T   T   T
  0.7500000000000000  0.2493761237908942  0.1134597544863631   T   T   T
  0.0010444691103522  0.4979533400700280  0.1128295952703248   T   T   T
  0.4989555308896478  0.4979533400700280  0.1128295952703248   T   T   T
  0.2500000000000000  0.7479019789475965  0.1120769825575268   T   T   T
  0.7500000000000000  0.7502737259834613  0.1124867333271957   T   T   T
  0.2500000000000000  0.0007881245266024  0.2061486611790161   T   T   T
  0.7500000000000000  0.0017177407512916  0.2063757976035937   T   T   T
  0.0008802545764618  0.2502942215911561  0.2102539769518759   T   T   T
  0.4991197454235383  0.2502942215911561  0.2102539769518759   T   T   T
  0.2500000000000000  0.5000587550046502  0.2081029941219086   T   T   T
  0.7500000000000000  0.5005525224661853  0.2049563967057541   T   T   T
  0.9995943059387408  0.7499548467772325  0.2065216349070920   T   T   T
  0.5004056940612592  0.7499548467772325  0.2065216349070920   T   T   T
  0.9981989738397720  0.0006598280240800  0.3246355601951399   T   T   T
  0.5018010261602280  0.0006598280240800  0.3246355601951399   T   T   T
  0.2500000000000000  0.2289843567581529  0.3236681940724763   T   T   T
  0.7500000000000000  0.2554852766526455  0.3285911947893948   T   T   T
  0.0059206255936147  0.4949957022108896  0.3260816735263153   T   T   T
  0.4940793744063853  0.4949957022108896  0.3260816735263153   T   T   T
  0.2500000000000000  0.7482919697279278  0.3227168085100333   T   T   T
  0.7500000000000000  0.7514175200121724  0.3264197969721651   T   T   T
  0.2500000000000000  0.0439602829087172  0.4082520993833276   T   T   T
  0.7500000000000000  0.0403774394150950  0.4217650689108410   T   T   T
  0.1018263595239502  0.2608626853989306  0.4117488188823422   T   T   T
  0.3981736404760498  0.2608626853989306  0.4117488188823422   T   T   T
  0.2500000000000000  0.5497727803889224  0.4195638332944844   T   T   T
  0.7499996334070005  0.5039693031653536  0.4117626599007304   T   T   T
  0.0012282321119370  0.7746156959108574  0.4213355662320757   T   T   T
  0.4987717678880630  0.7746156959108574  0.4213355662320757   T   T   T
  0.7499996334070005  0.4462193530254583  0.5302819461389904   T   T   T
 
  0.00000000E+00  0.00000000E+00  0.00000000E+00
  0.00000000E+00  0.00000000E+00  0.00000000E+00
  0.00000000E+00  0.00000000E+00  0.00000000E+00
  0.00000000E+00  0.00000000E+00  0.00000000E+00
  0.00000000E+00  0.00000000E+00  0.00000000E+00
  0.00000000E+00  0.00000000E+00  0.00000000E+00
  0.00000000E+00  0.00000000E+00  0.00000000E+00
  0.00000000E+00  0.00000000E+00  0.00000000E+00
  0.00000000E+00  0.00000000E+00  0.00000000E+00
  0.00000000E+00  0.00000000E+00  0.00000000E+00
  0.00000000E+00  0.00000000E+00  0.00000000E+00
  0.00000000E+00  0.00000000E+00  0.00000000E+00
  0.00000000E+00  0.00000000E+00  0.00000000E+00
  0.00000000E+00  0.00000000E+00  0.00000000E+00
  0.00000000E+00  0.00000000E+00  0.00000000E+00
  0.00000000E+00  0.00000000E+00  0.00000000E+00
  0.00000000E+00  0.00000000E+00  0.00000000E+00
  0.00000000E+00  0.00000000E+00  0.00000000E+00
  0.00000000E+00  0.00000000E+00  0.00000000E+00
  0.00000000E+00  0.00000000E+00  0.00000000E+00
  0.00000000E+00  0.00000000E+00  0.00000000E+00
  0.00000000E+00  0.00000000E+00  0.00000000E+00
  0.00000000E+00  0.00000000E+00  0.00000000E+00
  0.00000000E+00  0.00000000E+00  0.00000000E+00
  0.00000000E+00  0.00000000E+00  0.00000000E+00
  0.00000000E+00  0.00000000E+00  0.00000000E+00
  0.00000000E+00  0.00000000E+00  0.00000000E+00
  0.00000000E+00  0.00000000E+00  0.00000000E+00
  0.00000000E+00  0.00000000E+00  0.00000000E+00
  0.00000000E+00  0.00000000E+00  0.00000000E+00
  0.00000000E+00  0.00000000E+00  0.00000000E+00
  0.00000000E+00  0.00000000E+00  0.00000000E+00
  0.00000000E+00  0.00000000E+00  0.00000000E+00
  0.00000000E+00  0.00000000E+00  0.00000000E+00
  0.00000000E+00  0.00000000E+00  0.00000000E+00
  0.00000000E+00  0.00000000E+00  0.00000000E+00
  0.00000000E+00  0.00000000E+00  0.00000000E+00
  0.00000000E+00  0.00000000E+00  0.00000000E+00
  0.00000000E+00  0.00000000E+00  0.00000000E+00
  0.00000000E+00  0.00000000E+00  0.00000000E+00
  0.00000000E+00  0.00000000E+00  0.00000000E+00
  0.00000000E+00  0.00000000E+00  0.00000000E+00
  0.00000000E+00  0.00000000E+00  0.00000000E+00
  0.00000000E+00  0.00000000E+00  0.00000000E+00
  0.00000000E+00  0.00000000E+00  0.00000000E+00
  0.00000000E+00  0.00000000E+00  0.00000000E+00
  0.00000000E+00  0.00000000E+00  0.00000000E+00
  0.00000000E+00  0.00000000E+00  0.00000000E+00
  0.00000000E+00  0.00000000E+00  0.00000000E+00
  0.00000000E+00  0.00000000E+00  0.00000000E+00
  0.00000000E+00  0.00000000E+00  0.00000000E+00
  0.00000000E+00  0.00000000E+00  0.00000000E+00
  0.00000000E+00  0.00000000E+00  0.00000000E+00
  0.00000000E+00  0.00000000E+00  0.00000000E+00
  0.00000000E+00  0.00000000E+00  0.00000000E+00
  0.00000000E+00  0.00000000E+00  0.00000000E+00
  0.00000000E+00  0.00000000E+00  0.00000000E+00
  0.00000000E+00  0.00000000E+00  0.00000000E+00
  0.00000000E+00  0.00000000E+00  0.00000000E+00
  0.00000000E+00  0.00000000E+00  0.00000000E+00
  0.00000000E+00  0.00000000E+00  0.00000000E+00
  0.00000000E+00  0.00000000E+00  0.00000000E+00
  0.00000000E+00  0.00000000E+00  0.00000000E+00
  0.00000000E+00  0.00000000E+00  0.00000000E+00
  0.00000000E+00  0.00000000E+00  0.00000000E+00
