Al Ba O Fe                              
   1.00000000000000     
    11.1568587867069997    0.0000000000000000    0.0000000000000000
     0.0000000000000000   11.1568587867069997    0.0000000000000000
     0.0000000000000000    0.0000000000000000   26.1568587867070015
   Al   Ba   O    Fe
     1    31    32     1
Selective dynamics
Direct
  0.2500000000000000  0.2039934263716469  0.3931069238828730   T   T   T
  0.2500000000000000  0.9987240456086950  0.1056908198303706   T   T   T
  0.7500000000000000  0.9990669716112073  0.1060977142515369   T   T   T
  0.0005776535321522  0.2492250404612316  0.1071375297218310   T   T   T
  0.4994223464678478  0.2492250404612316  0.1071375297218310   T   T   T
  0.2500000000000000  0.4987382418875853  0.1063373829375417   T   T   T
  0.7500000000000000  0.4996509726334449  0.1075806702754304   T   T   T
  0.9997071700338739  0.7491229791505098  0.1060541021329950   T   T   T
  0.5002928299661261  0.7491229791505098  0.1060541021329950   T   T   T
  0.9977392619923346  0.9963955866553268  0.2120132790213009   T   T   T
  0.5022607380076654  0.9963955866553268  0.2120132790213009   T   T   T
  0.2500000000000000  0.2490333080082452  0.2121223317510516   T   T   T
  0.7500000000000000  0.2494889914640734  0.2124566168781805   T   T   T
  0.9996452152326716  0.5017993341713152  0.2131701084464532   T   T   T
  0.5003547847673284  0.5017993341713152  0.2131701084464532   T   T   T
  0.2500000000000000  0.7451171442629414  0.2113484614328580   T   T   T
  0.7500000000000000  0.7494248090898992  0.2131960531662086   T   T   T
  0.2500000000000000  0.9845226707154549  0.3104871036450852   T   T   T
  0.7500000000000000  0.9989185712788131  0.3217848814563504   T   T   T
  0.0019222101706981  0.2502858676721160  0.3175821520589411   T   T   T
  0.4980777898293019  0.2502858676721160  0.3175821520589411   T   T   T
  0.2500000000000000  0.5016363045628701  0.3222290056945069   T   T   T
  0.7500000000000000  0.5003412591595320  0.3243634747281980   T   T   T
  0.9965608071502680  0.7452829884543273  0.3244954942858386   T   T   T
  0.5034391928497320  0.7452829884543273  0.3244954942858386   T   T   T
  0.0102064623219204  0.0113913011907462  0.4240983310392769   T   T   T
  0.4897935376780796  0.0113913011907462  0.4240983310392769   T   T   T
  0.7500000000000000  0.2415903369818476  0.4313119951245185   T   T   T
  0.0363717528307398  0.4783558067928820  0.4317566910701916   T   T   T
  0.4636282471692602  0.4783558067928820  0.4317566910701916   T   T   T
  0.2500000000000000  0.7669341141986049  0.4263933230417395   T   T   T
  0.7500000000000000  0.7635149065358775  0.4321604938474261   T   T   T
  0.9985596574060926  0.9999691247359793  0.1129791009513084   T   T   T
  0.5014403425939074  0.9999691247359793  0.1129791009513084   T   T   T
  0.2500000000000000  0.2493758210933581  0.1135307116357668   T   T   T
  0.7500000000000000  0.2500627668344934  0.1153863770479236   T   T   T
  0.9996027143748215  0.4983733788988676  0.1145135910790719   T   T   T
  0.5003972856251785  0.4983733788988676  0.1145135910790719   T   T   T
  0.2500000000000000  0.7465930409312728  0.1126103550834627   T   T   T
  0.7500000000000000  0.7483712669439028  0.1145847652386259   T   T   T
  0.2500000000000000  0.9998583357832975  0.2057661983557017   T   T   T
  0.7500000000000000  0.0006695883466462  0.2087071603694029   T   T   T
  0.0005325718614876  0.2504706266312431  0.2106831037066368   T   T   T
  0.4994674281385124  0.2504706266312431  0.2106831037066368   T   T   T
  0.2500000000000000  0.4992743949810874  0.2098708542634769   T   T   T
  0.7500000000000000  0.4993918565557292  0.2113266260844845   T   T   T
  0.9996719002199764  0.7499182821956336  0.2076182732167068   T   T   T
  0.5003280997800236  0.7499182821956336  0.2076182732167068   T   T   T
  0.9979811218441578  0.0031950183836420  0.3235828537132674   T   T   T
  0.5020188781558422  0.0031950183836420  0.3235828537132674   T   T   T
  0.2500000000000000  0.2277734267565777  0.3223558309773079   T   T   T
  0.7500000000000000  0.2523083942394718  0.3343936624648040   T   T   T
  0.0020150066853923  0.4950071708597139  0.3286436464993502   T   T   T
  0.4979849933146077  0.4950071708597139  0.3286436464993502   T   T   T
  0.2500000000000000  0.7461163183903797  0.3231898890640261   T   T   T
  0.7500000000000000  0.7502876455461143  0.3295224667998916   T   T   T
  0.2500000000000000  0.0427995369596899  0.4068303740219440   T   T   T
  0.7500000000000000  0.0142306052374041  0.4221785622919138   T   T   T
  0.1030946023211170  0.2587002656521613  0.4107024922199990   T   T   T
  0.3969053976788831  0.2587002656521613  0.4107024922199990   T   T   T
  0.2500000000000000  0.5476495757952408  0.4203975130889542   T   T   T
  0.7499996334070005  0.5063986743065412  0.4238081980828126   T   T   T
  0.0057855607822556  0.7835903068910853  0.4201134489662235   T   T   T
  0.4942144392177444  0.7835903068910853  0.4201134489662235   T   T   T
  0.7499996334070005  0.4809288323054963  0.4923382530798477   T   T   T
 
  0.00000000E+00  0.00000000E+00  0.00000000E+00
  0.00000000E+00  0.00000000E+00  0.00000000E+00
  0.00000000E+00  0.00000000E+00  0.00000000E+00
  0.00000000E+00  0.00000000E+00  0.00000000E+00
  0.00000000E+00  0.00000000E+00  0.00000000E+00
  0.00000000E+00  0.00000000E+00  0.00000000E+00
  0.00000000E+00  0.00000000E+00  0.00000000E+00
  0.00000000E+00  0.00000000E+00  0.00000000E+00
  0.00000000E+00  0.00000000E+00  0.00000000E+00
  0.00000000E+00  0.00000000E+00  0.00000000E+00
  0.00000000E+00  0.00000000E+00  0.00000000E+00
  0.00000000E+00  0.00000000E+00  0.00000000E+00
  0.00000000E+00  0.00000000E+00  0.00000000E+00
  0.00000000E+00  0.00000000E+00  0.00000000E+00
  0.00000000E+00  0.00000000E+00  0.00000000E+00
  0.00000000E+00  0.00000000E+00  0.00000000E+00
  0.00000000E+00  0.00000000E+00  0.00000000E+00
  0.00000000E+00  0.00000000E+00  0.00000000E+00
  0.00000000E+00  0.00000000E+00  0.00000000E+00
  0.00000000E+00  0.00000000E+00  0.00000000E+00
  0.00000000E+00  0.00000000E+00  0.00000000E+00
  0.00000000E+00  0.00000000E+00  0.00000000E+00
  0.00000000E+00  0.00000000E+00  0.00000000E+00
  0.00000000E+00  0.00000000E+00  0.00000000E+00
  0.00000000E+00  0.00000000E+00  0.00000000E+00
  0.00000000E+00  0.00000000E+00  0.00000000E+00
  0.00000000E+00  0.00000000E+00  0.00000000E+00
  0.00000000E+00  0.00000000E+00  0.00000000E+00
  0.00000000E+00  0.00000000E+00  0.00000000E+00
  0.00000000E+00  0.00000000E+00  0.00000000E+00
  0.00000000E+00  0.00000000E+00  0.00000000E+00
  0.00000000E+00  0.00000000E+00  0.00000000E+00
  0.00000000E+00  0.00000000E+00  0.00000000E+00
  0.00000000E+00  0.00000000E+00  0.00000000E+00
  0.00000000E+00  0.00000000E+00  0.00000000E+00
  0.00000000E+00  0.00000000E+00  0.00000000E+00
  0.00000000E+00  0.00000000E+00  0.00000000E+00
  0.00000000E+00  0.00000000E+00  0.00000000E+00
  0.00000000E+00  0.00000000E+00  0.00000000E+00
  0.00000000E+00  0.00000000E+00  0.00000000E+00
  0.00000000E+00  0.00000000E+00  0.00000000E+00
  0.00000000E+00  0.00000000E+00  0.00000000E+00
  0.00000000E+00  0.00000000E+00  0.00000000E+00
  0.00000000E+00  0.00000000E+00  0.00000000E+00
  0.00000000E+00  0.00000000E+00  0.00000000E+00
  0.00000000E+00  0.00000000E+00  0.00000000E+00
  0.00000000E+00  0.00000000E+00  0.00000000E+00
  0.00000000E+00  0.00000000E+00  0.00000000E+00
  0.00000000E+00  0.00000000E+00  0.00000000E+00
  0.00000000E+00  0.00000000E+00  0.00000000E+00
  0.00000000E+00  0.00000000E+00  0.00000000E+00
  0.00000000E+00  0.00000000E+00  0.00000000E+00
  0.00000000E+00  0.00000000E+00  0.00000000E+00
  0.00000000E+00  0.00000000E+00  0.00000000E+00
  0.00000000E+00  0.00000000E+00  0.00000000E+00
  0.00000000E+00  0.00000000E+00  0.00000000E+00
  0.00000000E+00  0.00000000E+00  0.00000000E+00
  0.00000000E+00  0.00000000E+00  0.00000000E+00
  0.00000000E+00  0.00000000E+00  0.00000000E+00
  0.00000000E+00  0.00000000E+00  0.00000000E+00
  0.00000000E+00  0.00000000E+00  0.00000000E+00
  0.00000000E+00  0.00000000E+00  0.00000000E+00
  0.00000000E+00  0.00000000E+00  0.00000000E+00
  0.00000000E+00  0.00000000E+00  0.00000000E+00
  0.00000000E+00  0.00000000E+00  0.00000000E+00
