Al Ba O Rh                              
   1.00000000000000     
    11.1568587867069997    0.0000000000000000    0.0000000000000000
     0.0000000000000000   11.1568587867069997    0.0000000000000000
     0.0000000000000000    0.0000000000000000   26.1568587867070015
   Al   Ba   O    Rh
     1    31    32     1
Selective dynamics
Direct
  0.2500000000000000  0.2044257016553169  0.3937621948967505   T   T   T
  0.2500000000000000  0.9986156841900198  0.1065975541978032   T   T   T
  0.7500000000000000  0.9989974374501580  0.1069093375189890   T   T   T
  0.0002479252147796  0.2493378097890355  0.1083208381443502   T   T   T
  0.4997520747852204  0.2493378097890355  0.1083208381443502   T   T   T
  0.2500000000000000  0.4987641873462613  0.1072274240209960   T   T   T
  0.7500000000000000  0.4997193918334427  0.1084483193868431   T   T   T
  0.9994692366041426  0.7490131552144312  0.1069264417547273   T   T   T
  0.5005307633958574  0.7490131552144312  0.1069264417547273   T   T   T
  0.9970938081195594  0.9963072809256448  0.2126647461421936   T   T   T
  0.5029061918804406  0.9963072809256448  0.2126647461421936   T   T   T
  0.2500000000000000  0.2491348609097501  0.2127248405365484   T   T   T
  0.7500000000000000  0.2486661131843741  0.2133461160755499   T   T   T
  0.0001621157172298  0.5019103536735298  0.2136792946522180   T   T   T
  0.4998378842827701  0.5019103536735298  0.2136792946522180   T   T   T
  0.2500000000000000  0.7447234056046143  0.2120360585020213   T   T   T
  0.7500000000000000  0.7502558916139616  0.2139074247035533   T   T   T
  0.2500000000000000  0.9846933861708406  0.3111550927930870   T   T   T
  0.7500000000000000 -0.0014724560526389  0.3247245237679051   T   T   T
  0.0012006605084787  0.2507379581288823  0.3182356210272173   T   T   T
  0.4987993394915213  0.2507379581288823  0.3182356210272173   T   T   T
  0.2500000000000000  0.5003637141911713  0.3241176118735460   T   T   T
  0.7500000000000000  0.5002563132842439  0.3223442432916557   T   T   T
  0.9954980483563142  0.7447535213777630  0.3247954568410146   T   T   T
  0.5045019516436858  0.7447535213777630  0.3247954568410146   T   T   T
  0.0065464668839888  0.0098502815211941  0.4243500717532731   T   T   T
  0.4934535331160113  0.0098502815211941  0.4243500717532731   T   T   T
  0.7500000000000000  0.2553449318149781  0.4312106014173422   T   T   T
  0.0314355924935956  0.4818592033895252  0.4319761798694235   T   T   T
  0.4685644075064044  0.4818592033895252  0.4319761798694235   T   T   T
  0.2500000000000000  0.7671721535986902  0.4263888114442500   T   T   T
  0.7500000000000000  0.7478191321045518  0.4336405549333578   T   T   T
  0.9988440217013087  0.9998956711939966  0.1126624226602559   T   T   T
  0.5011559782986913  0.9998956711939966  0.1126624226602559   T   T   T
  0.2500000000000000  0.2489976492991237  0.1134932586215614   T   T   T
  0.7500000000000000  0.2496940484635577  0.1149938183555134   T   T   T
 -0.0001075097979713  0.4983170954348908  0.1139709781021950   T   T   T
  0.5001075097979713  0.4983170954348908  0.1139709781021950   T   T   T
  0.2500000000000000  0.7469379154429475  0.1123314222727467   T   T   T
  0.7500000000000000  0.7486983490688638  0.1139248893126000   T   T   T
  0.2500000000000000  0.0001593787803059  0.2060572041769294   T   T   T
  0.7500000000000000  0.0007062478854057  0.2076394426227449   T   T   T
  0.0007304864814018  0.2504081835217161  0.2105509960161373   T   T   T
  0.4992695135185982  0.2504081835217161  0.2105509960161373   T   T   T
  0.2500000000000000  0.4990351543759293  0.2087672331798584   T   T   T
  0.7500000000000000  0.4990714456337308  0.2094108237024693   T   T   T
  0.9996631051701296  0.7499073251487339  0.2073042065312581   T   T   T
  0.5003368948298704  0.7499073251487339  0.2073042065312581   T   T   T
  0.9979918553248753  0.0023680453742638  0.3232923051118179   T   T   T
  0.5020081446751247  0.0023680453742638  0.3232923051118179   T   T   T
  0.2500000000000000  0.2281139228188332  0.3227999745923498   T   T   T
  0.7500000000000000  0.2510598004506489  0.3313593688625647   T   T   T
  0.0036631354612573  0.4953854753039675  0.3263481959896361   T   T   T
  0.4963368645387427  0.4953854753039675  0.3263481959896361   T   T   T
  0.2500000000000000  0.7458987031619352  0.3226823556523535   T   T   T
  0.7500000000000000  0.7495558284681529  0.3269240353001259   T   T   T
  0.2500000000000000  0.0433445549622418  0.4073075169756083   T   T   T
  0.7500000000000000  0.0211542427821968  0.4234677881209403   T   T   T
  0.1023309001958813  0.2595574807516415  0.4110626349932452   T   T   T
  0.3976690998041186  0.2595574807516415  0.4110626349932452   T   T   T
  0.2500000000000000  0.5486589192638307  0.4215303327041230   T   T   T
  0.7499996334070005  0.5018009758936772  0.4172844197900774   T   T   T
  0.0046535991298633  0.7810387473322775  0.4205748433973805   T   T   T
  0.4953464008701368  0.7810387473322775  0.4205748433973805   T   T   T
  0.7499996334070005  0.4832901511568795  0.4918083865775549   T   T   T
 
  0.00000000E+00  0.00000000E+00  0.00000000E+00
  0.00000000E+00  0.00000000E+00  0.00000000E+00
  0.00000000E+00  0.00000000E+00  0.00000000E+00
  0.00000000E+00  0.00000000E+00  0.00000000E+00
  0.00000000E+00  0.00000000E+00  0.00000000E+00
  0.00000000E+00  0.00000000E+00  0.00000000E+00
  0.00000000E+00  0.00000000E+00  0.00000000E+00
  0.00000000E+00  0.00000000E+00  0.00000000E+00
  0.00000000E+00  0.00000000E+00  0.00000000E+00
  0.00000000E+00  0.00000000E+00  0.00000000E+00
  0.00000000E+00  0.00000000E+00  0.00000000E+00
  0.00000000E+00  0.00000000E+00  0.00000000E+00
  0.00000000E+00  0.00000000E+00  0.00000000E+00
  0.00000000E+00  0.00000000E+00  0.00000000E+00
  0.00000000E+00  0.00000000E+00  0.00000000E+00
  0.00000000E+00  0.00000000E+00  0.00000000E+00
  0.00000000E+00  0.00000000E+00  0.00000000E+00
  0.00000000E+00  0.00000000E+00  0.00000000E+00
  0.00000000E+00  0.00000000E+00  0.00000000E+00
  0.00000000E+00  0.00000000E+00  0.00000000E+00
  0.00000000E+00  0.00000000E+00  0.00000000E+00
  0.00000000E+00  0.00000000E+00  0.00000000E+00
  0.00000000E+00  0.00000000E+00  0.00000000E+00
  0.00000000E+00  0.00000000E+00  0.00000000E+00
  0.00000000E+00  0.00000000E+00  0.00000000E+00
  0.00000000E+00  0.00000000E+00  0.00000000E+00
  0.00000000E+00  0.00000000E+00  0.00000000E+00
  0.00000000E+00  0.00000000E+00  0.00000000E+00
  0.00000000E+00  0.00000000E+00  0.00000000E+00
  0.00000000E+00  0.00000000E+00  0.00000000E+00
  0.00000000E+00  0.00000000E+00  0.00000000E+00
  0.00000000E+00  0.00000000E+00  0.00000000E+00
  0.00000000E+00  0.00000000E+00  0.00000000E+00
  0.00000000E+00  0.00000000E+00  0.00000000E+00
  0.00000000E+00  0.00000000E+00  0.00000000E+00
  0.00000000E+00  0.00000000E+00  0.00000000E+00
  0.00000000E+00  0.00000000E+00  0.00000000E+00
  0.00000000E+00  0.00000000E+00  0.00000000E+00
  0.00000000E+00  0.00000000E+00  0.00000000E+00
  0.00000000E+00  0.00000000E+00  0.00000000E+00
  0.00000000E+00  0.00000000E+00  0.00000000E+00
  0.00000000E+00  0.00000000E+00  0.00000000E+00
  0.00000000E+00  0.00000000E+00  0.00000000E+00
  0.00000000E+00  0.00000000E+00  0.00000000E+00
  0.00000000E+00  0.00000000E+00  0.00000000E+00
  0.00000000E+00  0.00000000E+00  0.00000000E+00
  0.00000000E+00  0.00000000E+00  0.00000000E+00
  0.00000000E+00  0.00000000E+00  0.00000000E+00
  0.00000000E+00  0.00000000E+00  0.00000000E+00
  0.00000000E+00  0.00000000E+00  0.00000000E+00
  0.00000000E+00  0.00000000E+00  0.00000000E+00
  0.00000000E+00  0.00000000E+00  0.00000000E+00
  0.00000000E+00  0.00000000E+00  0.00000000E+00
  0.00000000E+00  0.00000000E+00  0.00000000E+00
  0.00000000E+00  0.00000000E+00  0.00000000E+00
  0.00000000E+00  0.00000000E+00  0.00000000E+00
  0.00000000E+00  0.00000000E+00  0.00000000E+00
  0.00000000E+00  0.00000000E+00  0.00000000E+00
  0.00000000E+00  0.00000000E+00  0.00000000E+00
  0.00000000E+00  0.00000000E+00  0.00000000E+00
  0.00000000E+00  0.00000000E+00  0.00000000E+00
  0.00000000E+00  0.00000000E+00  0.00000000E+00
  0.00000000E+00  0.00000000E+00  0.00000000E+00
  0.00000000E+00  0.00000000E+00  0.00000000E+00
  0.00000000E+00  0.00000000E+00  0.00000000E+00
