Al Ba O Ni                              
   1.00000000000000     
    11.1568587867069997    0.0000000000000000    0.0000000000000000
     0.0000000000000000   11.1568587867069997    0.0000000000000000
     0.0000000000000000    0.0000000000000000   26.1568587867070015
   Al   Ba   O    Ni
     1    31    32     1
Selective dynamics
Direct
  0.2500000000000000  0.2044755783816980  0.3934104237142673   T   T   T
  0.2500000000000000  0.9986289931439722  0.1063813001655200   T   T   T
  0.7500000000000000  0.9990600494822932  0.1067784261332622   T   T   T
  0.0004512314738717  0.2492726235536007  0.1079803547140860   T   T   T
  0.4995487685261283  0.2492726235536007  0.1079803547140860   T   T   T
  0.2500000000000000  0.4987873428901334  0.1071084804327796   T   T   T
  0.7500000000000000  0.4997334034736765  0.1079910760462261   T   T   T
  0.9995372264362770  0.7490954125473482  0.1067092400185739   T   T   T
  0.5004627735637230  0.7490954125473482  0.1067092400185739   T   T   T
  0.9972076799248174  0.9962858274266806  0.2125508184973448   T   T   T
  0.5027923200751826  0.9962858274266806  0.2125508184973448   T   T   T
  0.2500000000000000  0.2491742724353963  0.2125731807510658   T   T   T
  0.7500000000000000  0.2490775694564126  0.2129541442066170   T   T   T
  0.9998711469260115  0.5019496625465351  0.2134851940033914   T   T   T
  0.5001288530739885  0.5019496625465351  0.2134851940033914   T   T   T
  0.2500000000000000  0.7448121678097257  0.2118010140538974   T   T   T
  0.7500000000000000  0.7498981663243681  0.2135858864189174   T   T   T
  0.2500000000000000  0.9848619805803319  0.3109009181144977   T   T   T
  0.7500000000000000 -0.0011331364104055  0.3236182144929911   T   T   T
  0.0017506057312309  0.2502638968824832  0.3180500871889028   T   T   T
  0.4982493942687691  0.2502638968824832  0.3180500871889028   T   T   T
  0.2500000000000000  0.5009378241530053  0.3232638585396017   T   T   T
  0.7500000000000000  0.5001483173473167  0.3236799043512568   T   T   T
  0.9962804845861840  0.7450340515676849  0.3249553055706526   T   T   T
  0.5037195154138160  0.7450340515676849  0.3249553055706526   T   T   T
  0.0076494816717883  0.0102923688743613  0.4245888878456294   T   T   T
  0.4923505183282116  0.0102923688743613  0.4245888878456294   T   T   T
  0.7500000000000000  0.2491365303919979  0.4315329497086258   T   T   T
  0.0338146131080211  0.4797908122385467  0.4322842190668219   T   T   T
  0.4661853868919789  0.4797908122385467  0.4322842190668219   T   T   T
  0.2500000000000000  0.7669852504712880  0.4265285092870963   T   T   T
  0.7500000000000000  0.7532116744014311  0.4326356201319299   T   T   T
  0.9987676713929704  0.0000030729744895  0.1127629293650031   T   T   T
  0.5012323286070296  0.0000030729744895  0.1127629293650031   T   T   T
  0.2500000000000000  0.2491062996764725  0.1135231024771203   T   T   T
  0.7500000000000000  0.2496453680862848  0.1152759744533758   T   T   T
 -0.0000761594140434  0.4983875320649507  0.1141959399277132   T   T   T
  0.5000761594140436  0.4983875320649507  0.1141959399277132   T   T   T
  0.2500000000000000  0.7469211466116427  0.1124291563330545   T   T   T
  0.7500000000000000  0.7487592421348187  0.1142939083718572   T   T   T
  0.2500000000000000  0.0000913161754431  0.2059292159889013   T   T   T
  0.7500000000000000  0.0007763365827983  0.2078780602757052   T   T   T
  0.0004670045715771  0.2505654328376668  0.2106207063504623   T   T   T
  0.4995329954284229  0.2505654328376668  0.2106207063504623   T   T   T
  0.2500000000000000  0.4991554661026438  0.2090504765752292   T   T   T
  0.7500000000000000  0.4992264993481443  0.2092988723136771   T   T   T
  0.9994843506665091  0.7498385777684372  0.2074089124035892   T   T   T
  0.5005156493334909  0.7498385777684372  0.2074089124035892   T   T   T
  0.9984767067287866  0.0027677908001579  0.3233428952537971   T   T   T
  0.5015232932712134  0.0027677908001579  0.3233428952537971   T   T   T
  0.2500000000000000  0.2279525622466148  0.3226768197489193   T   T   T
  0.7500000000000000  0.2513833139956489  0.3331574769826240   T   T   T
  0.0035876762939554  0.4950144246167156  0.3272899043554949   T   T   T
  0.4964123237060445  0.4950144246167156  0.3272899043554949   T   T   T
  0.2500000000000000  0.7461717670380797  0.3229512699653713   T   T   T
  0.7500000000000000  0.7504280202690883  0.3284340889572391   T   T   T
  0.2500000000000000  0.0433542424237362  0.4070569948811642   T   T   T
  0.7500000000000000  0.0191224081422141  0.4224888341148442   T   T   T
  0.1028271190859830  0.2596129952085813  0.4108300230738799   T   T   T
  0.3971728809140170  0.2596129952085813  0.4108300230738799   T   T   T
  0.2500000000000000  0.5480746555172020  0.4210139216712251   T   T   T
  0.7499996334070005  0.5051644222341495  0.4197931818933784   T   T   T
  0.0048550260472918  0.7818825537634445  0.4205112996533026   T   T   T
  0.4951449739527082  0.7818825537634445  0.4205112996533026   T   T   T
  0.7499996334070005  0.4817091907099909  0.4886247500234782   T   T   T
 
  0.00000000E+00  0.00000000E+00  0.00000000E+00
  0.00000000E+00  0.00000000E+00  0.00000000E+00
  0.00000000E+00  0.00000000E+00  0.00000000E+00
  0.00000000E+00  0.00000000E+00  0.00000000E+00
  0.00000000E+00  0.00000000E+00  0.00000000E+00
  0.00000000E+00  0.00000000E+00  0.00000000E+00
  0.00000000E+00  0.00000000E+00  0.00000000E+00
  0.00000000E+00  0.00000000E+00  0.00000000E+00
  0.00000000E+00  0.00000000E+00  0.00000000E+00
  0.00000000E+00  0.00000000E+00  0.00000000E+00
  0.00000000E+00  0.00000000E+00  0.00000000E+00
  0.00000000E+00  0.00000000E+00  0.00000000E+00
  0.00000000E+00  0.00000000E+00  0.00000000E+00
  0.00000000E+00  0.00000000E+00  0.00000000E+00
  0.00000000E+00  0.00000000E+00  0.00000000E+00
  0.00000000E+00  0.00000000E+00  0.00000000E+00
  0.00000000E+00  0.00000000E+00  0.00000000E+00
  0.00000000E+00  0.00000000E+00  0.00000000E+00
  0.00000000E+00  0.00000000E+00  0.00000000E+00
  0.00000000E+00  0.00000000E+00  0.00000000E+00
  0.00000000E+00  0.00000000E+00  0.00000000E+00
  0.00000000E+00  0.00000000E+00  0.00000000E+00
  0.00000000E+00  0.00000000E+00  0.00000000E+00
  0.00000000E+00  0.00000000E+00  0.00000000E+00
  0.00000000E+00  0.00000000E+00  0.00000000E+00
  0.00000000E+00  0.00000000E+00  0.00000000E+00
  0.00000000E+00  0.00000000E+00  0.00000000E+00
  0.00000000E+00  0.00000000E+00  0.00000000E+00
  0.00000000E+00  0.00000000E+00  0.00000000E+00
  0.00000000E+00  0.00000000E+00  0.00000000E+00
  0.00000000E+00  0.00000000E+00  0.00000000E+00
  0.00000000E+00  0.00000000E+00  0.00000000E+00
  0.00000000E+00  0.00000000E+00  0.00000000E+00
  0.00000000E+00  0.00000000E+00  0.00000000E+00
  0.00000000E+00  0.00000000E+00  0.00000000E+00
  0.00000000E+00  0.00000000E+00  0.00000000E+00
  0.00000000E+00  0.00000000E+00  0.00000000E+00
  0.00000000E+00  0.00000000E+00  0.00000000E+00
  0.00000000E+00  0.00000000E+00  0.00000000E+00
  0.00000000E+00  0.00000000E+00  0.00000000E+00
  0.00000000E+00  0.00000000E+00  0.00000000E+00
  0.00000000E+00  0.00000000E+00  0.00000000E+00
  0.00000000E+00  0.00000000E+00  0.00000000E+00
  0.00000000E+00  0.00000000E+00  0.00000000E+00
  0.00000000E+00  0.00000000E+00  0.00000000E+00
  0.00000000E+00  0.00000000E+00  0.00000000E+00
  0.00000000E+00  0.00000000E+00  0.00000000E+00
  0.00000000E+00  0.00000000E+00  0.00000000E+00
  0.00000000E+00  0.00000000E+00  0.00000000E+00
  0.00000000E+00  0.00000000E+00  0.00000000E+00
  0.00000000E+00  0.00000000E+00  0.00000000E+00
  0.00000000E+00  0.00000000E+00  0.00000000E+00
  0.00000000E+00  0.00000000E+00  0.00000000E+00
  0.00000000E+00  0.00000000E+00  0.00000000E+00
  0.00000000E+00  0.00000000E+00  0.00000000E+00
  0.00000000E+00  0.00000000E+00  0.00000000E+00
  0.00000000E+00  0.00000000E+00  0.00000000E+00
  0.00000000E+00  0.00000000E+00  0.00000000E+00
  0.00000000E+00  0.00000000E+00  0.00000000E+00
  0.00000000E+00  0.00000000E+00  0.00000000E+00
  0.00000000E+00  0.00000000E+00  0.00000000E+00
  0.00000000E+00  0.00000000E+00  0.00000000E+00
  0.00000000E+00  0.00000000E+00  0.00000000E+00
  0.00000000E+00  0.00000000E+00  0.00000000E+00
  0.00000000E+00  0.00000000E+00  0.00000000E+00
