Al Ba O Mn                              
   1.00000000000000     
    11.1568587867069997    0.0000000000000000    0.0000000000000000
     0.0000000000000000   11.1568587867069997    0.0000000000000000
     0.0000000000000000    0.0000000000000000   26.1568587867070015
   Al   Ba   O    Mn
     1    31    32     1
Selective dynamics
Direct
  0.2500000000000000  0.2036928734392597  0.3928645431289486   T   T   T
  0.2500000000000000  0.9987094080718231  0.1056836372244277   T   T   T
  0.7500000000000000  0.9991334755048082  0.1062026290496682   T   T   T
  0.0005659439867238  0.2492184993257321  0.1071750590813940   T   T   T
  0.4994340560132763  0.2492184993257321  0.1071750590813940   T   T   T
  0.2500000000000000  0.4986964930756748  0.1064728421460220   T   T   T
  0.7500000000000000  0.4995536881514230  0.1075208673201451   T   T   T
  0.9996599822550079  0.7489826887581273  0.1061053989307284   T   T   T
  0.5003400177449921  0.7489826887581273  0.1061053989307284   T   T   T
  0.9978039386051634  0.9962024118357465  0.2119023341546700   T   T   T
  0.5021960613948366  0.9962024118357465  0.2119023341546700   T   T   T
  0.2500000000000000  0.2490160431502482  0.2120304128505010   T   T   T
  0.7500000000000000  0.2500331894006115  0.2125355354935384   T   T   T
  0.9992732680961953  0.5017739455876030  0.2132585463561688   T   T   T
  0.5007267319038047  0.5017739455876030  0.2132585463561688   T   T   T
  0.2500000000000000  0.7450495884636028  0.2112381236663670   T   T   T
  0.7500000000000000  0.7489746573554226  0.2132017371981994   T   T   T
  0.2500000000000000  0.9842178362242873  0.3104419460113362   T   T   T
  0.7500000000000000 -0.0010891079191719  0.3210972634635705   T   T   T
  0.0020709076848362  0.2499101461641833  0.3172219979079779   T   T   T
  0.4979290923151639  0.2499101461641833  0.3172219979079779   T   T   T
  0.2500000000000000  0.5016770127029748  0.3219704695913047   T   T   T
  0.7500000000000000  0.5011129160298292  0.3261621729562673   T   T   T
  0.9971105289274662  0.7454434642827014  0.3243700101403039   T   T   T
  0.5028894710725338  0.7454434642827014  0.3243700101403039   T   T   T
  0.0102331956970047  0.0117431445588432  0.4240894340460146   T   T   T
  0.4897668043029954  0.0117431445588432  0.4240894340460146   T   T   T
  0.7500000000000000  0.2403826414049428  0.4302149919051884   T   T   T
  0.0368601012049025  0.4772905450944871  0.4315717601941527   T   T   T
  0.4631398987950974  0.4772905450944871  0.4315717601941527   T   T   T
  0.2500000000000000  0.7665325013592377  0.4265543293552775   T   T   T
  0.7500000000000000  0.7656058959251104  0.4313095999453941   T   T   T
  0.9986254446405541  0.9998039866211500  0.1129252020133467   T   T   T
  0.5013745553594459  0.9998039866211500  0.1129252020133467   T   T   T
  0.2500000000000000  0.2492832753528292  0.1134851679612509   T   T   T
  0.7500000000000000  0.2500444238410588  0.1152424707962171   T   T   T
 -0.0003437940201513  0.4983109586277705  0.1144116629959091   T   T   T
  0.5003437940201514  0.4983109586277705  0.1144116629959091   T   T   T
  0.2500000000000000  0.7466978467626721  0.1125686245077932   T   T   T
  0.7500000000000000  0.7484960553800520  0.1144753086614535   T   T   T
  0.2500000000000000  0.9998234628741431  0.2057765795593933   T   T   T
  0.7500000000000000  0.0007210344448465  0.2087280961780671   T   T   T
  0.0005997834635412  0.2502264627546757  0.2105285292519779   T   T   T
  0.4994002165364589  0.2502264627546757  0.2105285292519779   T   T   T
  0.2500000000000000  0.4992872081898196  0.2098540478089480   T   T   T
  0.7500000000000000  0.4994581185102197  0.2108799126005967   T   T   T
  0.9997038346176471  0.7498667450095924  0.2076252055622076   T   T   T
  0.5002961653823529  0.7498667450095924  0.2076252055622076   T   T   T
  0.9979941036815569  0.0029124306135733  0.3235203376792351   T   T   T
  0.5020058963184431  0.0029124306135733  0.3235203376792351   T   T   T
  0.2500000000000000  0.2272531428722176  0.3222141612286579   T   T   T
  0.7500000000000000  0.2527262680655068  0.3334205335594718   T   T   T
  0.0018615937633409  0.4944653975652662  0.3282303212525366   T   T   T
  0.4981384062366592  0.4944653975652662  0.3282303212525366   T   T   T
  0.2500000000000000  0.7459324545200161  0.3231783689648454   T   T   T
  0.7500000000000000  0.7507995169780700  0.3291932045116692   T   T   T
  0.2500000000000000  0.0424920008820787  0.4068123138590576   T   T   T
  0.7500000000000000  0.0143524284093093  0.4216950919354961   T   T   T
  0.1029255858095752  0.2583253604106033  0.4103796368761941   T   T   T
  0.3970744141904248  0.2583253604106033  0.4103796368761941   T   T   T
  0.2500000000000000  0.5473323065274273  0.4201931771090378   T   T   T
  0.7499996334070005  0.5050991383862607  0.4261099038204923   T   T   T
  0.0059754129330331  0.7840073605204332  0.4198413577749474   T   T   T
  0.4940245870669668  0.7840073605204332  0.4198413577749474   T   T   T
  0.7499996334070005  0.4868874231733950  0.4981117933488741   T   T   T
 
  0.00000000E+00  0.00000000E+00  0.00000000E+00
  0.00000000E+00  0.00000000E+00  0.00000000E+00
  0.00000000E+00  0.00000000E+00  0.00000000E+00
  0.00000000E+00  0.00000000E+00  0.00000000E+00
  0.00000000E+00  0.00000000E+00  0.00000000E+00
  0.00000000E+00  0.00000000E+00  0.00000000E+00
  0.00000000E+00  0.00000000E+00  0.00000000E+00
  0.00000000E+00  0.00000000E+00  0.00000000E+00
  0.00000000E+00  0.00000000E+00  0.00000000E+00
  0.00000000E+00  0.00000000E+00  0.00000000E+00
  0.00000000E+00  0.00000000E+00  0.00000000E+00
  0.00000000E+00  0.00000000E+00  0.00000000E+00
  0.00000000E+00  0.00000000E+00  0.00000000E+00
  0.00000000E+00  0.00000000E+00  0.00000000E+00
  0.00000000E+00  0.00000000E+00  0.00000000E+00
  0.00000000E+00  0.00000000E+00  0.00000000E+00
  0.00000000E+00  0.00000000E+00  0.00000000E+00
  0.00000000E+00  0.00000000E+00  0.00000000E+00
  0.00000000E+00  0.00000000E+00  0.00000000E+00
  0.00000000E+00  0.00000000E+00  0.00000000E+00
  0.00000000E+00  0.00000000E+00  0.00000000E+00
  0.00000000E+00  0.00000000E+00  0.00000000E+00
  0.00000000E+00  0.00000000E+00  0.00000000E+00
  0.00000000E+00  0.00000000E+00  0.00000000E+00
  0.00000000E+00  0.00000000E+00  0.00000000E+00
  0.00000000E+00  0.00000000E+00  0.00000000E+00
  0.00000000E+00  0.00000000E+00  0.00000000E+00
  0.00000000E+00  0.00000000E+00  0.00000000E+00
  0.00000000E+00  0.00000000E+00  0.00000000E+00
  0.00000000E+00  0.00000000E+00  0.00000000E+00
  0.00000000E+00  0.00000000E+00  0.00000000E+00
  0.00000000E+00  0.00000000E+00  0.00000000E+00
  0.00000000E+00  0.00000000E+00  0.00000000E+00
  0.00000000E+00  0.00000000E+00  0.00000000E+00
  0.00000000E+00  0.00000000E+00  0.00000000E+00
  0.00000000E+00  0.00000000E+00  0.00000000E+00
  0.00000000E+00  0.00000000E+00  0.00000000E+00
  0.00000000E+00  0.00000000E+00  0.00000000E+00
  0.00000000E+00  0.00000000E+00  0.00000000E+00
  0.00000000E+00  0.00000000E+00  0.00000000E+00
  0.00000000E+00  0.00000000E+00  0.00000000E+00
  0.00000000E+00  0.00000000E+00  0.00000000E+00
  0.00000000E+00  0.00000000E+00  0.00000000E+00
  0.00000000E+00  0.00000000E+00  0.00000000E+00
  0.00000000E+00  0.00000000E+00  0.00000000E+00
  0.00000000E+00  0.00000000E+00  0.00000000E+00
  0.00000000E+00  0.00000000E+00  0.00000000E+00
  0.00000000E+00  0.00000000E+00  0.00000000E+00
  0.00000000E+00  0.00000000E+00  0.00000000E+00
  0.00000000E+00  0.00000000E+00  0.00000000E+00
  0.00000000E+00  0.00000000E+00  0.00000000E+00
  0.00000000E+00  0.00000000E+00  0.00000000E+00
  0.00000000E+00  0.00000000E+00  0.00000000E+00
  0.00000000E+00  0.00000000E+00  0.00000000E+00
  0.00000000E+00  0.00000000E+00  0.00000000E+00
  0.00000000E+00  0.00000000E+00  0.00000000E+00
  0.00000000E+00  0.00000000E+00  0.00000000E+00
  0.00000000E+00  0.00000000E+00  0.00000000E+00
  0.00000000E+00  0.00000000E+00  0.00000000E+00
  0.00000000E+00  0.00000000E+00  0.00000000E+00
  0.00000000E+00  0.00000000E+00  0.00000000E+00
  0.00000000E+00  0.00000000E+00  0.00000000E+00
  0.00000000E+00  0.00000000E+00  0.00000000E+00
  0.00000000E+00  0.00000000E+00  0.00000000E+00
  0.00000000E+00  0.00000000E+00  0.00000000E+00
