Al Ba O Pt                              
   1.00000000000000     
    11.1568587867069997    0.0000000000000000    0.0000000000000000
     0.0000000000000000   11.1568587867069997    0.0000000000000000
     0.0000000000000000    0.0000000000000000   26.1568587867070015
   Al   Ba   O    Pt
     1    31    32     1
Selective dynamics
Direct
  0.2500000000000000  0.2048931333098169  0.3940584311222728   T   T   T
  0.2500000000000000  0.9986101830130014  0.1067461886976135   T   T   T
  0.7500000000000000  0.9990826075522716  0.1066699497447422   T   T   T
  0.0002848419995394  0.2492126904659842  0.1083004437773373   T   T   T
  0.4997151580004606  0.2492126904659842  0.1083004437773373   T   T   T
  0.2500000000000000  0.4988026883755772  0.1069827466067746   T   T   T
  0.7500000000000000  0.4997478350615939  0.1080935195286249   T   T   T
  0.9995591805738252  0.7491615707307657  0.1068544546224979   T   T   T
  0.5004408194261748  0.7491615707307657  0.1068544546224979   T   T   T
  0.9971568414828804  0.9963027115671766  0.2127102241664571   T   T   T
  0.5028431585171196  0.9963027115671766  0.2127102241664571   T   T   T
  0.2500000000000000  0.2492278638258254  0.2127210528167516   T   T   T
  0.7500000000000000  0.2485777604292044  0.2131660742641784   T   T   T
  0.0002984370568466  0.5019290487683612  0.2134407532064109   T   T   T
  0.4997015629431535  0.5019290487683612  0.2134407532064109   T   T   T
  0.2500000000000000  0.7447925250030867  0.2120924924731366   T   T   T
  0.7500000000000000  0.7503335205201404  0.2136374589698919   T   T   T
  0.2500000000000000  0.9852021073232916  0.3115470090232114   T   T   T
  0.7500000000000000 -0.0017097213947331  0.3246839231117198   T   T   T
  0.0017427100905967  0.2504937023911359  0.3182409877753837   T   T   T
  0.4982572899094033  0.2504937023911359  0.3182409877753837   T   T   T
  0.2500000000000000  0.5002037181069457  0.3241229916572114   T   T   T
  0.7500000000000000  0.4994417623938147  0.3212498031624584   T   T   T
  0.9956685330875018  0.7445748490950728  0.3247216508381144   T   T   T
  0.5043314669124982  0.7445748490950728  0.3247216508381144   T   T   T
  0.0059694261648908  0.0086901054104870  0.4247340383207400   T   T   T
  0.4940305738351092  0.0086901054104870  0.4247340383207400   T   T   T
  0.7500000000000000  0.2571928664444836  0.4306019811579743   T   T   T
  0.0307072736827418  0.4822459168867415  0.4321944610829224   T   T   T
  0.4692927263172582  0.4822459168867415  0.4321944610829224   T   T   T
  0.2500000000000000  0.7667339056971331  0.4267056302909344   T   T   T
  0.7500000000000000  0.7413727322083737  0.4335108962975513   T   T   T
  0.9989920972678253  0.9999835312837074  0.1127331705268142   T   T   T
  0.5010079027321747  0.9999835312837074  0.1127331705268142   T   T   T
  0.2500000000000000  0.2489279837924090  0.1135617682985694   T   T   T
  0.7500000000000000  0.2493273628691106  0.1148302439222298   T   T   T
  0.0002828243330476  0.4982997302689221  0.1137749809535671   T   T   T
  0.4997171756669523  0.4982997302689221  0.1137749809535671   T   T   T
  0.2500000000000000  0.7471447211698706  0.1123881759661691   T   T   T
  0.7500000000000000  0.7491639665616402  0.1136984178523612   T   T   T
  0.2500000000000000  0.0001875797229907  0.2060972119292281   T   T   T
  0.7500000000000000  0.0007963841834504  0.2074000268211330   T   T   T
  0.0007839468260683  0.2503739141703995  0.2105951649806810   T   T   T
  0.4992160531739318  0.2503739141703995  0.2105951649806810   T   T   T
  0.2500000000000000  0.4991127123726395  0.2085214233854757   T   T   T
  0.7500000000000000  0.4992948249622493  0.2083187165008918   T   T   T
  0.9997720930297728  0.7499757142053215  0.2072699937220453   T   T   T
  0.5002279069702272  0.7499757142053215  0.2072699937220453   T   T   T
  0.9982606073987069  0.0022304212777051  0.3235434279697570   T   T   T
  0.5017393926012931  0.0022304212777051  0.3235434279697570   T   T   T
  0.2500000000000000  0.2287580984596780  0.3231066434518091   T   T   T
  0.7500000000000000  0.2516838141430707  0.3311982372404987   T   T   T
  0.0041367714759071  0.4954649760220433  0.3264338496789719   T   T   T
  0.4958632285240929  0.4954649760220433  0.3264338496789719   T   T   T
  0.2500000000000000  0.7462160191328687  0.3229642373823543   T   T   T
  0.7500000000000000  0.7493951115580673  0.3266634443533056   T   T   T
  0.2500000000000000  0.0438600974549360  0.4075813474659766   T   T   T
  0.7500000000000000  0.0257309791806954  0.4226120159477524   T   T   T
  0.1020528168865169  0.2602495546839694  0.4112074001724225   T   T   T
  0.3979471831134830  0.2602495546839694  0.4112074001724225   T   T   T
  0.2500000000000000  0.5482372048792103  0.4214126502772536   T   T   T
  0.7499996334070005  0.5029841944368306  0.4150034012846078   T   T   T
  0.0039635332025286  0.7792139220971042  0.4206992487710494   T   T   T
  0.4960364667974715  0.7792139220971042  0.4206992487710494   T   T   T
  0.7499996334070005  0.4848210515716436  0.4968968340179997   T   T   T
 
  0.00000000E+00  0.00000000E+00  0.00000000E+00
  0.00000000E+00  0.00000000E+00  0.00000000E+00
  0.00000000E+00  0.00000000E+00  0.00000000E+00
  0.00000000E+00  0.00000000E+00  0.00000000E+00
  0.00000000E+00  0.00000000E+00  0.00000000E+00
  0.00000000E+00  0.00000000E+00  0.00000000E+00
  0.00000000E+00  0.00000000E+00  0.00000000E+00
  0.00000000E+00  0.00000000E+00  0.00000000E+00
  0.00000000E+00  0.00000000E+00  0.00000000E+00
  0.00000000E+00  0.00000000E+00  0.00000000E+00
  0.00000000E+00  0.00000000E+00  0.00000000E+00
  0.00000000E+00  0.00000000E+00  0.00000000E+00
  0.00000000E+00  0.00000000E+00  0.00000000E+00
  0.00000000E+00  0.00000000E+00  0.00000000E+00
  0.00000000E+00  0.00000000E+00  0.00000000E+00
  0.00000000E+00  0.00000000E+00  0.00000000E+00
  0.00000000E+00  0.00000000E+00  0.00000000E+00
  0.00000000E+00  0.00000000E+00  0.00000000E+00
  0.00000000E+00  0.00000000E+00  0.00000000E+00
  0.00000000E+00  0.00000000E+00  0.00000000E+00
  0.00000000E+00  0.00000000E+00  0.00000000E+00
  0.00000000E+00  0.00000000E+00  0.00000000E+00
  0.00000000E+00  0.00000000E+00  0.00000000E+00
  0.00000000E+00  0.00000000E+00  0.00000000E+00
  0.00000000E+00  0.00000000E+00  0.00000000E+00
  0.00000000E+00  0.00000000E+00  0.00000000E+00
  0.00000000E+00  0.00000000E+00  0.00000000E+00
  0.00000000E+00  0.00000000E+00  0.00000000E+00
  0.00000000E+00  0.00000000E+00  0.00000000E+00
  0.00000000E+00  0.00000000E+00  0.00000000E+00
  0.00000000E+00  0.00000000E+00  0.00000000E+00
  0.00000000E+00  0.00000000E+00  0.00000000E+00
  0.00000000E+00  0.00000000E+00  0.00000000E+00
  0.00000000E+00  0.00000000E+00  0.00000000E+00
  0.00000000E+00  0.00000000E+00  0.00000000E+00
  0.00000000E+00  0.00000000E+00  0.00000000E+00
  0.00000000E+00  0.00000000E+00  0.00000000E+00
  0.00000000E+00  0.00000000E+00  0.00000000E+00
  0.00000000E+00  0.00000000E+00  0.00000000E+00
  0.00000000E+00  0.00000000E+00  0.00000000E+00
  0.00000000E+00  0.00000000E+00  0.00000000E+00
  0.00000000E+00  0.00000000E+00  0.00000000E+00
  0.00000000E+00  0.00000000E+00  0.00000000E+00
  0.00000000E+00  0.00000000E+00  0.00000000E+00
  0.00000000E+00  0.00000000E+00  0.00000000E+00
  0.00000000E+00  0.00000000E+00  0.00000000E+00
  0.00000000E+00  0.00000000E+00  0.00000000E+00
  0.00000000E+00  0.00000000E+00  0.00000000E+00
  0.00000000E+00  0.00000000E+00  0.00000000E+00
  0.00000000E+00  0.00000000E+00  0.00000000E+00
  0.00000000E+00  0.00000000E+00  0.00000000E+00
  0.00000000E+00  0.00000000E+00  0.00000000E+00
  0.00000000E+00  0.00000000E+00  0.00000000E+00
  0.00000000E+00  0.00000000E+00  0.00000000E+00
  0.00000000E+00  0.00000000E+00  0.00000000E+00
  0.00000000E+00  0.00000000E+00  0.00000000E+00
  0.00000000E+00  0.00000000E+00  0.00000000E+00
  0.00000000E+00  0.00000000E+00  0.00000000E+00
  0.00000000E+00  0.00000000E+00  0.00000000E+00
  0.00000000E+00  0.00000000E+00  0.00000000E+00
  0.00000000E+00  0.00000000E+00  0.00000000E+00
  0.00000000E+00  0.00000000E+00  0.00000000E+00
  0.00000000E+00  0.00000000E+00  0.00000000E+00
  0.00000000E+00  0.00000000E+00  0.00000000E+00
  0.00000000E+00  0.00000000E+00  0.00000000E+00
