Ir Na O Zn                              
   1.00000000000000     
     6.5625568183449996    0.0000000000000000    0.0000000000000000
     0.0000000000000000   10.5156600000000005    0.0000000000000000
     0.0000000000000000    0.0000000000000000   32.0500282661819966
   Ir   Na   O    Zn
     1     1    40    39
Selective dynamics
Direct
  0.7500181972507793  0.7461516439152144  0.4990033828621770   T   T   T
  0.2500206205243081  0.3203869467608632  0.4482704224221779   T   T   T
  0.2500093188834420  0.0014199338906585  0.0879442773333820   T   T   T
  0.2500050744556693  0.5016015131361399  0.0878113646382672   T   T   T
  0.7500091385065916  0.0019228840613706  0.0876942863683395   T   T   T
  0.7500058391207813  0.5013097382022755  0.0875781363493492   T   T   T
  0.0000599994345944  0.2479232070047531  0.1183418784980416   T   T   T
  0.9993897956027278  0.7478842245057575  0.1181472199001516   T   T   T
  0.4999781097288478  0.2479192837529646  0.1183408917604798   T   T   T
  0.5006200044306598  0.7478826034668731  0.1181468760536000   T   T   T
  0.9994263156886976  0.9978086616683814  0.1758712651987353   T   T   T
  0.9990856586761441  0.4978614287633756  0.1757251758669467   T   T   T
  0.5005857019035529  0.9978045622484408  0.1758723226876059   T   T   T
  0.5009375023560039  0.4978652731321089  0.1757254307718704   T   T   T
  0.2500128524463864  0.2466006246411056  0.2068058157730457   T   T   T
  0.2500014896843101  0.7459710461274760  0.2060036862578694   T   T   T
  0.7500077434608308  0.2463779779741567  0.2069415587982494   T   T   T
  0.7500040365715042  0.7465469781918695  0.2072743085841131   T   T   T
  0.2499985687815157  0.9974254855335083  0.2645678420595165   T   T   T
  0.2500126950184779  0.4961897643072521  0.2642942568203267   T   T   T
  0.7499998697803286  0.9963616381904021  0.2651836039336158   T   T   T
  0.7500070330313653  0.4979286472785197  0.2652054479669448   T   T   T
  0.9989139386791579  0.2473661143522690  0.2951551391214118   T   T   T
  0.0038434501560302  0.7459583160329850  0.2947781827127263   T   T   T
  0.5011033931168865  0.2473639863778146  0.2951535469943239   T   T   T
  0.4961405407291536  0.7459626111066344  0.2947807276661521   T   T   T
  0.9998912659998248  0.9951521925147992  0.3534160402145780   T   T   T
  0.0076207910812889  0.4984648714255582  0.3537591818991317   T   T   T
  0.5000622175462278  0.9951500087126419  0.3534172274513211   T   T   T
  0.4923626618809136  0.4984638789674011  0.3537574345222538   T   T   T
  0.2499937309512999  0.2416556837693921  0.3817184363318167   T   T   T
  0.2499597743874817  0.7542531581371437  0.3889334193144160   T   T   T
  0.7499906958499917  0.2567154895692219  0.3843510305088581   T   T   T
  0.7499664894776100  0.7381406231323400  0.3779886633223571   T   T   T
  0.2499141124054658  0.9887474112869646  0.4441321664911714   T   T   T
  0.2500311849466720  0.5338245816308598  0.4459849734691012   T   T   T
  0.7499928305661463  0.0059851407104197  0.4382700515609165   T   T   T
  0.7500062060656447  0.4904450889501541  0.4413051188272803   T   T   T
  0.9881443062291954  0.2443189358730531  0.4797135419244484   T   T   T
  0.0383900068207592  0.7498331295205444  0.4942722766947008   T   T   T
  0.5118345897163052  0.2442479161242261  0.4797142157521697   T   T   T
  0.4616833284487047  0.7500171333838326  0.4942595952042415   T   T   T
  0.2500228938621371  0.3272125329268278  0.0990078421507923   T   T   T
  0.2500062551099175  0.8269552418020706  0.0989983210500417   T   T   T
  0.7500178861901030  0.3270432657916752  0.0989665864621259   T   T   T
  0.7500040729646504  0.8274194895073762  0.0985483518334910   T   T   T
 -0.0001427706318485  0.0584723872825217  0.1138277440259782   T   T   T
  0.9996034909541567  0.5582871434466911  0.1136673740872037   T   T   T
  0.5001578310887593  0.0584678733914905  0.1138282621270047   T   T   T
  0.5004077936109810  0.5582869940258109  0.1136674637307700   T   T   T
 -0.0002852985410057  0.3088091661768869  0.1791160062078962   T   T   T
  0.9985791111386495  0.8089034353767485  0.1788234413441857   T   T   T
  0.5003085207873065  0.3088125700638450  0.1791145941358975   T   T   T
  0.5014281934747874  0.8089006368479970  0.1788240088903106   T   T   T
  0.2500042503307171  0.0559052510970479  0.2047665861367400   T   T   T
  0.2500079616929038  0.5548029627360990  0.2046752516050710   T   T   T
  0.7500037514650331  0.0553171517997628  0.2054180258941030   T   T   T
  0.7500149366802498  0.5554310447492747  0.2052730116923005   T   T   T
  0.2500094970915475  0.3056974677220791  0.2663567369404689   T   T   T
  0.2499964097884036  0.8077618080304232  0.2646318299616680   T   T   T
  0.7500084560678846  0.3072406166525228  0.2662540329478896   T   T   T
  0.7499887702914650  0.8064175193975675  0.2666192971142458   T   T   T
  0.0010082734249970  0.0577064213388943  0.2941183335685071   T   T   T
  0.0022068128309320  0.5550495788010202  0.2941116038791122   T   T   T
  0.4989881352701513  0.0577064890130022  0.2941170088581679   T   T   T
  0.4978153121381599  0.5550584162931484  0.2941111912770300   T   T   T
  0.0047558207548830  0.3056160157038575  0.3553623333048243   T   T   T
  0.0104288753465024  0.8064460381948582  0.3531460581009816   T   T   T
  0.4952253540815899  0.3056150643774465  0.3553604595368703   T   T   T
  0.4895035334275719  0.8064419842269227  0.3531512021340075   T   T   T
  0.2499690219393620  0.0568918869935467  0.3831455150072082   T   T   T
  0.2499920140605906  0.5620048450303594  0.3841205681046874   T   T   T
  0.7499740823163559  0.0717287307345431  0.3787011544082426   T   T   T
  0.7499871897831456  0.5445642992708056  0.3813550190931364   T   T   T
  0.2499598586718738  0.8024967683202943  0.4515004657030537   T   T   T
  0.7499716497499754  0.2984740051134377  0.4512411731494225   T   T   T
  0.7500133095854012  0.8279432286405962  0.4287565049035292   T   T   T
  0.0044695381094761  0.0777154112828084  0.4646514737567211   T   T   T
  0.9854185179659383  0.5697209808865741  0.4683084383931012   T   T   T
  0.4954345118676372  0.0776420564146936  0.4646501256440645   T   T   T
  0.5146200774013912  0.5697985530557277  0.4683020167299301   T   T   T
 
  0.00000000E+00  0.00000000E+00  0.00000000E+00
  0.00000000E+00  0.00000000E+00  0.00000000E+00
  0.00000000E+00  0.00000000E+00  0.00000000E+00
  0.00000000E+00  0.00000000E+00  0.00000000E+00
  0.00000000E+00  0.00000000E+00  0.00000000E+00
  0.00000000E+00  0.00000000E+00  0.00000000E+00
  0.00000000E+00  0.00000000E+00  0.00000000E+00
  0.00000000E+00  0.00000000E+00  0.00000000E+00
  0.00000000E+00  0.00000000E+00  0.00000000E+00
  0.00000000E+00  0.00000000E+00  0.00000000E+00
  0.00000000E+00  0.00000000E+00  0.00000000E+00
  0.00000000E+00  0.00000000E+00  0.00000000E+00
  0.00000000E+00  0.00000000E+00  0.00000000E+00
  0.00000000E+00  0.00000000E+00  0.00000000E+00
  0.00000000E+00  0.00000000E+00  0.00000000E+00
  0.00000000E+00  0.00000000E+00  0.00000000E+00
  0.00000000E+00  0.00000000E+00  0.00000000E+00
  0.00000000E+00  0.00000000E+00  0.00000000E+00
  0.00000000E+00  0.00000000E+00  0.00000000E+00
  0.00000000E+00  0.00000000E+00  0.00000000E+00
  0.00000000E+00  0.00000000E+00  0.00000000E+00
  0.00000000E+00  0.00000000E+00  0.00000000E+00
  0.00000000E+00  0.00000000E+00  0.00000000E+00
  0.00000000E+00  0.00000000E+00  0.00000000E+00
  0.00000000E+00  0.00000000E+00  0.00000000E+00
  0.00000000E+00  0.00000000E+00  0.00000000E+00
  0.00000000E+00  0.00000000E+00  0.00000000E+00
  0.00000000E+00  0.00000000E+00  0.00000000E+00
  0.00000000E+00  0.00000000E+00  0.00000000E+00
  0.00000000E+00  0.00000000E+00  0.00000000E+00
  0.00000000E+00  0.00000000E+00  0.00000000E+00
  0.00000000E+00  0.00000000E+00  0.00000000E+00
  0.00000000E+00  0.00000000E+00  0.00000000E+00
  0.00000000E+00  0.00000000E+00  0.00000000E+00
  0.00000000E+00  0.00000000E+00  0.00000000E+00
  0.00000000E+00  0.00000000E+00  0.00000000E+00
  0.00000000E+00  0.00000000E+00  0.00000000E+00
  0.00000000E+00  0.00000000E+00  0.00000000E+00
  0.00000000E+00  0.00000000E+00  0.00000000E+00
  0.00000000E+00  0.00000000E+00  0.00000000E+00
  0.00000000E+00  0.00000000E+00  0.00000000E+00
  0.00000000E+00  0.00000000E+00  0.00000000E+00
  0.00000000E+00  0.00000000E+00  0.00000000E+00
  0.00000000E+00  0.00000000E+00  0.00000000E+00
  0.00000000E+00  0.00000000E+00  0.00000000E+00
  0.00000000E+00  0.00000000E+00  0.00000000E+00
  0.00000000E+00  0.00000000E+00  0.00000000E+00
  0.00000000E+00  0.00000000E+00  0.00000000E+00
  0.00000000E+00  0.00000000E+00  0.00000000E+00
  0.00000000E+00  0.00000000E+00  0.00000000E+00
  0.00000000E+00  0.00000000E+00  0.00000000E+00
  0.00000000E+00  0.00000000E+00  0.00000000E+00
  0.00000000E+00  0.00000000E+00  0.00000000E+00
  0.00000000E+00  0.00000000E+00  0.00000000E+00
  0.00000000E+00  0.00000000E+00  0.00000000E+00
  0.00000000E+00  0.00000000E+00  0.00000000E+00
  0.00000000E+00  0.00000000E+00  0.00000000E+00
  0.00000000E+00  0.00000000E+00  0.00000000E+00
  0.00000000E+00  0.00000000E+00  0.00000000E+00
  0.00000000E+00  0.00000000E+00  0.00000000E+00
  0.00000000E+00  0.00000000E+00  0.00000000E+00
  0.00000000E+00  0.00000000E+00  0.00000000E+00
  0.00000000E+00  0.00000000E+00  0.00000000E+00
  0.00000000E+00  0.00000000E+00  0.00000000E+00
  0.00000000E+00  0.00000000E+00  0.00000000E+00
  0.00000000E+00  0.00000000E+00  0.00000000E+00
  0.00000000E+00  0.00000000E+00  0.00000000E+00
  0.00000000E+00  0.00000000E+00  0.00000000E+00
  0.00000000E+00  0.00000000E+00  0.00000000E+00
  0.00000000E+00  0.00000000E+00  0.00000000E+00
  0.00000000E+00  0.00000000E+00  0.00000000E+00
  0.00000000E+00  0.00000000E+00  0.00000000E+00
  0.00000000E+00  0.00000000E+00  0.00000000E+00
  0.00000000E+00  0.00000000E+00  0.00000000E+00
  0.00000000E+00  0.00000000E+00  0.00000000E+00
  0.00000000E+00  0.00000000E+00  0.00000000E+00
  0.00000000E+00  0.00000000E+00  0.00000000E+00
  0.00000000E+00  0.00000000E+00  0.00000000E+00
  0.00000000E+00  0.00000000E+00  0.00000000E+00
  0.00000000E+00  0.00000000E+00  0.00000000E+00
  0.00000000E+00  0.00000000E+00  0.00000000E+00
