Na O V Zn                               
   1.00000000000000     
     6.5625568183449996    0.0000000000000000    0.0000000000000000
     0.0000000000000000   10.5156600000000005    0.0000000000000000
     0.0000000000000000    0.0000000000000000   32.0500282661819966
   Na   O    V    Zn
     1    40     1    39
Selective dynamics
Direct
  0.2493272881439394  0.3246150004615342  0.4479244548162726   T   T   T
  0.2501581182592824  0.9999527113130928  0.0880731770423094   T   T   T
  0.2502844293935362  0.4999785727520283  0.0878541037320437   T   T   T
  0.7501609335328833  0.0005604563907115  0.0875682605545899   T   T   T
  0.7502320100822244  0.4998520823006626  0.0872876184954468   T   T   T
  0.9999227416318941  0.2464855902527082  0.1184183323358097   T   T   T
  0.9994174275812571  0.7463258828895295  0.1180993982841231   T   T   T
  0.5004024246389318  0.2464968502903387  0.1184133949146188   T   T   T
  0.5008659200041370  0.7463585065361710  0.1181135223018483   T   T   T
  0.9991148569763992  0.4962893246994632  0.1757019401606617   T   T   T
  0.9995810912723025  0.9961680025911744  0.1759999391218385   T   T   T
  0.5012662607338920  0.4963083504498911  0.1757078627504281   T   T   T
  0.5006360228860200  0.9961882393306155  0.1759998036893993   T   T   T
  0.2501325734083072  0.2448612184813296  0.2068251305809224   T   T   T
  0.2501112028548141  0.7445354313433766  0.2062067013648191   T   T   T
  0.7501149658611052  0.2449568090794665  0.2070285229242452   T   T   T
  0.7501182823577229  0.7448586465098999  0.2071261012051056   T   T   T
  0.2500349233604081  0.4948386220188397  0.2642224101712713   T   T   T
  0.2499989393779120  0.9957011735104859  0.2649084383962819   T   T   T
  0.7500232361105387  0.4966273923893222  0.2654150114992952   T   T   T
  0.7500076281164607  0.9949317520578319  0.2652672731073585   T   T   T
  0.9990503689097728  0.2457847839995914  0.2951290787135802   T   T   T
  0.0025519797230590  0.7444363820873837  0.2948137120858547   T   T   T
  0.5010185855275218  0.2458134792411304  0.2951376697284228   T   T   T
  0.4975318358088008  0.7444116932984171  0.2948031409123863   T   T   T
  0.0084913086406831  0.4970450504730904  0.3539426038006814   T   T   T
 -0.0012927834613563  0.9936490167587094  0.3537504317445320   T   T   T
  0.4912292371606684  0.4970665791296821  0.3539569150408611   T   T   T
  0.5009946725038739  0.9936563451622963  0.3537378886224917   T   T   T
  0.2498803466825364  0.2414886409013262  0.3818856638030945   T   T   T
  0.2499386826981296  0.7517053050239120  0.3870641337747250   T   T   T
  0.7499162690734246  0.2528469918903807  0.3843236158703089   T   T   T
  0.7499097135474037  0.7384364272926711  0.3802732936179313   T   T   T
  0.2494690278201065  0.5420991732652897  0.4484783435492865   T   T   T
  0.2498605672352454  0.9885061907511175  0.4437005831407723   T   T   T
  0.7498206005421252  0.4905559602505059  0.4399643485179572   T   T   T
  0.7495258240129251  0.0022622909770994  0.4406840272454958   T   T   T
  0.9876571985151974  0.2461129305637096  0.4793084987542703   T   T   T
  0.0006495324852758  0.7643498876518922  0.4838810062158712   T   T   T
  0.5116853459963434  0.2465725389476165  0.4792592296646647   T   T   T
  0.4992245957230573  0.7632427935078723  0.4839486567076038   T   T   T
  0.7499957627720129  0.7467616305463010  0.5050970492763240   T   T   T
  0.2501432942095607  0.3256762550145482  0.0991730071487644   T   T   T
  0.2501396831404533  0.8254511697695052  0.0990293001081676   T   T   T
  0.7501682557232634  0.3257096499162412  0.0988892923116253   T   T   T
  0.7501396969877807  0.8261007596625173  0.0985048242102901   T   T   T
  0.9998125818425785  0.0570196868918306  0.1138893637900711   T   T   T
  0.9995318012771887  0.5566728303094866  0.1135870417602758   T   T   T
  0.5005188644913341  0.0570280652780310  0.1138819876918524   T   T   T
  0.5009630488899768  0.5567045797397688  0.1135989256361257   T   T   T
  0.9997903079397018  0.3072705186857267  0.1792121272999269   T   T   T
  0.9989621123431927  0.8072310860681947  0.1788027576013207   T   T   T
  0.5004786415517616  0.3072943879939516  0.1792001200966055   T   T   T
  0.5012618541872802  0.8072642862421896  0.1788194793963941   T   T   T
  0.2501116094178009  0.0541137723208201  0.2050329204019283   T   T   T
  0.2502067737297977  0.5533209615697057  0.2046271307117515   T   T   T
  0.7501149513487588  0.0539613303802846  0.2055240684223936   T   T   T
  0.7502125575973341  0.5537047382697876  0.2054349945051606   T   T   T
  0.2500473680607698  0.3043483877283125  0.2663222219271724   T   T   T
  0.2500290552637999  0.8060179028904699  0.2649209399832929   T   T   T
  0.7500291525608319  0.3059868401349308  0.2662970985058668   T   T   T
  0.7500431633201226  0.8050925543732128  0.2663036353802563   T   T   T
  0.0005097369786732  0.0561690746804542  0.2943690069341927   T   T   T
  0.0028994437165325  0.5534226315097068  0.2943399968415493   T   T   T
  0.4995136290808144  0.0562073744982555  0.2943609120704657   T   T   T
  0.4971430702241050  0.5534048879177934  0.2943533348525176   T   T   T
  0.0040421736976649  0.3043024689235277  0.3552836902417078   T   T   T
  0.0076848235239640  0.8047508337676628  0.3530647304418358   T   T   T
  0.4957279894936729  0.3043230952576679  0.3553029040306721   T   T   T
  0.4921497838539350  0.8047508082943290  0.3530458055243610   T   T   T
  0.2498481678555732  0.0565750529348363  0.3827795028700511   T   T   T
  0.2497930751964891  0.5592336943433510  0.3854662508034516   T   T   T
  0.7498263425701722  0.0674493408074603  0.3799649852175520   T   T   T
  0.7498992701850818  0.5444120768243138  0.3810359721492598   T   T   T
  0.2499920652701301  0.7997510707990272  0.4478476299483526   T   T   T
  0.7498715826766222  0.2987835573291014  0.4500465980090643   T   T   T
  0.7498645743451507  0.8252708316155932  0.4313797119778581   T   T   T
  0.0076438261006725  0.0794861344068052  0.4643405222983227   T   T   T
  0.9795741439078915  0.5592171758369652  0.4727081428723127   T   T   T
  0.4916678622988648  0.0799258611992301  0.4642969043394098   T   T   T
  0.5197464643359390  0.5590562429070358  0.4725155346880088   T   T   T
 
  0.00000000E+00  0.00000000E+00  0.00000000E+00
  0.00000000E+00  0.00000000E+00  0.00000000E+00
  0.00000000E+00  0.00000000E+00  0.00000000E+00
  0.00000000E+00  0.00000000E+00  0.00000000E+00
  0.00000000E+00  0.00000000E+00  0.00000000E+00
  0.00000000E+00  0.00000000E+00  0.00000000E+00
  0.00000000E+00  0.00000000E+00  0.00000000E+00
  0.00000000E+00  0.00000000E+00  0.00000000E+00
  0.00000000E+00  0.00000000E+00  0.00000000E+00
  0.00000000E+00  0.00000000E+00  0.00000000E+00
  0.00000000E+00  0.00000000E+00  0.00000000E+00
  0.00000000E+00  0.00000000E+00  0.00000000E+00
  0.00000000E+00  0.00000000E+00  0.00000000E+00
  0.00000000E+00  0.00000000E+00  0.00000000E+00
  0.00000000E+00  0.00000000E+00  0.00000000E+00
  0.00000000E+00  0.00000000E+00  0.00000000E+00
  0.00000000E+00  0.00000000E+00  0.00000000E+00
  0.00000000E+00  0.00000000E+00  0.00000000E+00
  0.00000000E+00  0.00000000E+00  0.00000000E+00
  0.00000000E+00  0.00000000E+00  0.00000000E+00
  0.00000000E+00  0.00000000E+00  0.00000000E+00
  0.00000000E+00  0.00000000E+00  0.00000000E+00
  0.00000000E+00  0.00000000E+00  0.00000000E+00
  0.00000000E+00  0.00000000E+00  0.00000000E+00
  0.00000000E+00  0.00000000E+00  0.00000000E+00
  0.00000000E+00  0.00000000E+00  0.00000000E+00
  0.00000000E+00  0.00000000E+00  0.00000000E+00
  0.00000000E+00  0.00000000E+00  0.00000000E+00
  0.00000000E+00  0.00000000E+00  0.00000000E+00
  0.00000000E+00  0.00000000E+00  0.00000000E+00
  0.00000000E+00  0.00000000E+00  0.00000000E+00
  0.00000000E+00  0.00000000E+00  0.00000000E+00
  0.00000000E+00  0.00000000E+00  0.00000000E+00
  0.00000000E+00  0.00000000E+00  0.00000000E+00
  0.00000000E+00  0.00000000E+00  0.00000000E+00
  0.00000000E+00  0.00000000E+00  0.00000000E+00
  0.00000000E+00  0.00000000E+00  0.00000000E+00
  0.00000000E+00  0.00000000E+00  0.00000000E+00
  0.00000000E+00  0.00000000E+00  0.00000000E+00
  0.00000000E+00  0.00000000E+00  0.00000000E+00
  0.00000000E+00  0.00000000E+00  0.00000000E+00
  0.00000000E+00  0.00000000E+00  0.00000000E+00
  0.00000000E+00  0.00000000E+00  0.00000000E+00
  0.00000000E+00  0.00000000E+00  0.00000000E+00
  0.00000000E+00  0.00000000E+00  0.00000000E+00
  0.00000000E+00  0.00000000E+00  0.00000000E+00
  0.00000000E+00  0.00000000E+00  0.00000000E+00
  0.00000000E+00  0.00000000E+00  0.00000000E+00
  0.00000000E+00  0.00000000E+00  0.00000000E+00
  0.00000000E+00  0.00000000E+00  0.00000000E+00
  0.00000000E+00  0.00000000E+00  0.00000000E+00
  0.00000000E+00  0.00000000E+00  0.00000000E+00
  0.00000000E+00  0.00000000E+00  0.00000000E+00
  0.00000000E+00  0.00000000E+00  0.00000000E+00
  0.00000000E+00  0.00000000E+00  0.00000000E+00
  0.00000000E+00  0.00000000E+00  0.00000000E+00
  0.00000000E+00  0.00000000E+00  0.00000000E+00
  0.00000000E+00  0.00000000E+00  0.00000000E+00
  0.00000000E+00  0.00000000E+00  0.00000000E+00
  0.00000000E+00  0.00000000E+00  0.00000000E+00
  0.00000000E+00  0.00000000E+00  0.00000000E+00
  0.00000000E+00  0.00000000E+00  0.00000000E+00
  0.00000000E+00  0.00000000E+00  0.00000000E+00
  0.00000000E+00  0.00000000E+00  0.00000000E+00
  0.00000000E+00  0.00000000E+00  0.00000000E+00
  0.00000000E+00  0.00000000E+00  0.00000000E+00
  0.00000000E+00  0.00000000E+00  0.00000000E+00
  0.00000000E+00  0.00000000E+00  0.00000000E+00
  0.00000000E+00  0.00000000E+00  0.00000000E+00
  0.00000000E+00  0.00000000E+00  0.00000000E+00
  0.00000000E+00  0.00000000E+00  0.00000000E+00
  0.00000000E+00  0.00000000E+00  0.00000000E+00
  0.00000000E+00  0.00000000E+00  0.00000000E+00
  0.00000000E+00  0.00000000E+00  0.00000000E+00
  0.00000000E+00  0.00000000E+00  0.00000000E+00
  0.00000000E+00  0.00000000E+00  0.00000000E+00
  0.00000000E+00  0.00000000E+00  0.00000000E+00
  0.00000000E+00  0.00000000E+00  0.00000000E+00
  0.00000000E+00  0.00000000E+00  0.00000000E+00
  0.00000000E+00  0.00000000E+00  0.00000000E+00
  0.00000000E+00  0.00000000E+00  0.00000000E+00
