Pd Na O Zn                              
   1.00000000000000     
     6.5625568183449996    0.0000000000000000    0.0000000000000000
     0.0000000000000000   10.5156600000000005    0.0000000000000000
     0.0000000000000000    0.0000000000000000   32.0500282661819966
   Pd   Na   O    Zn
     1     1    40    39
Selective dynamics
Direct
  0.5040768430299821  0.8796151380863702  0.5221139800213098   T   T   T
  0.2500267374087909  0.3081508473828573  0.4499471030317150   T   T   T
  0.2499914266076984  0.0015337741659163  0.0879386168544726   T   T   T
  0.2499781743539960  0.5018357373316564  0.0879871737684376   T   T   T
  0.7499806634859284  0.0015301845576757  0.0880586567942825   T   T   T
  0.7499678570096464  0.5016442513783046  0.0881255750696647   T   T   T
  0.0002357400331473  0.2480686830708898  0.1186695987507725   T   T   T
  0.0000555743879469  0.7480537836380607  0.1188376987150693   T   T   T
  0.4997359617145516  0.2480650274636138  0.1186669883534922   T   T   T
  0.4998645838787446  0.7480526967120095  0.1188499258363043   T   T   T
  0.0001792215330530  0.9978867952143355  0.1759855034597216   T   T   T
  0.0001296951373433  0.4980002826835039  0.1761060570730922   T   T   T
  0.4997945559726034  0.9978777735291217  0.1760065239347339   T   T   T
  0.4998392293505626  0.4980132201811937  0.1761140059762893   T   T   T
  0.2500086124619803  0.2466121924356547  0.2074757793486776   T   T   T
  0.2499691076898669  0.7464115865279909  0.2075157176074824   T   T   T
  0.7499698505731487  0.2465838899932782  0.2069987335691303   T   T   T
  0.7499959832576699  0.7465276824358157  0.2073479757274952   T   T   T
  0.2497905990872956  0.9969672723527235  0.2649235327819622   T   T   T
  0.2499871526713781  0.4965543858106322  0.2651195463708937   T   T   T
  0.7501573441996999  0.9966389919642404  0.2647351424564025   T   T   T
  0.7500600101365527  0.4974853254567335  0.2650247287594124   T   T   T
  0.9979449481173072  0.2471669151240506  0.2955311466077395   T   T   T
  0.9997992898375976  0.7463166266769298  0.2957817269869978   T   T   T
  0.5020266918531060  0.2472693548808733  0.2955819283514022   T   T   T
  0.5000930359893455  0.7464733750883032  0.2958817833514882   T   T   T
  0.9976605345177488  0.9962796075586584  0.3533968402652325   T   T   T
  0.0011225148541022  0.4971378203162667  0.3539358620763368   T   T   T
  0.5020428006616628  0.9961499787867779  0.3530797143867410   T   T   T
  0.4993334686523199  0.4969854722483948  0.3538450718755263   T   T   T
  0.2496583738356926  0.2449698236956270  0.3818826705675632   T   T   T
  0.2497770886321711  0.7498740251396994  0.3845507487982545   T   T   T
  0.7500973617007666  0.2530546256201761  0.3864878174733876   T   T   T
  0.7495917619330029  0.7432693616657410  0.3847055220836886   T   T   T
  0.2487675432890440  0.0010589085939314  0.4419283060004442   T   T   T
  0.2514885027189575  0.5156437953673753  0.4435425838655501   T   T   T
  0.7505819167563863  0.9975570854777197  0.4400691802002082   T   T   T
  0.7507101284220354  0.4971237301865705  0.4444686459839928   T   T   T
  0.9742735732928332  0.2395339623975187  0.4814688149253518   T   T   T
  0.9972200718235034  0.7568979519933324  0.4749559127017063   T   T   T
  0.5242970046557524  0.2377334545388778  0.4808327807214103   T   T   T
  0.5008064427438331  0.7576522739094077  0.4721210206081288   T   T   T
  0.2499873990063979  0.3274537769410352  0.0992207048534128   T   T   T
  0.2499705812025195  0.8273422450121054  0.0993827915237389   T   T   T
  0.7499928791134602  0.3272534429632435  0.0993928660124055   T   T   T
  0.7499397028609176  0.8273124083786138  0.0994723302017104   T   T   T
  0.0001225660525929  0.0585450500747332  0.1139644539591329   T   T   T
  0.0000606437608401  0.5585694045257302  0.1140536624766816   T   T   T
  0.4998460590999100  0.0585416818590418  0.1139694832276067   T   T   T
  0.4998795706080507  0.5585729362343865  0.1140571425863471   T   T   T
  0.0005409367539391  0.3090234087930374  0.1794838373865661   T   T   T
  0.0002101549045657  0.8090640759549846  0.1796019158885077   T   T   T
  0.4994347294327991  0.3090346247398115  0.1794758450866533   T   T   T
  0.4997606788738734  0.8090493497281523  0.1796138441710593   T   T   T
  0.2499300633412552  0.0557114071222500  0.2052328912861927   T   T   T
  0.2499654357334908  0.5553825644941066  0.2054123277835124   T   T   T
  0.7500446460015588  0.0556569254272636  0.2051339813478032   T   T   T
  0.7500096056907565  0.5556188622114819  0.2052596852180806   T   T   T
  0.2500105395561478  0.3060041657630853  0.2670387813057599   T   T   T
  0.2500812590654583  0.8069856970971064  0.2667552411192742   T   T   T
  0.7499622327243597  0.3072158602674429  0.2662549466639943   T   T   T
  0.7498298193595567  0.8067598468210276  0.2665948784002176   T   T   T
  0.9996345961424217  0.0571081084844809  0.2941505645151878   T   T   T
  0.0002143697320281  0.5559408443417404  0.2943490366725747   T   T   T
  0.5003034199436180  0.0573017855489857  0.2938885905793475   T   T   T
  0.4998388167018221  0.5561568947388366  0.2942941958686544   T   T   T
  0.0013241139117525  0.3050379309033494  0.3555554213994119   T   T   T
  0.9983121958496811  0.8064785707546790  0.3548248824602606   T   T   T
  0.4984388626151328  0.3049370391149814  0.3556657407916063   T   T   T
  0.5012509021106781  0.8064929782172445  0.3551023015159393   T   T   T
  0.2511809888032347  0.0600983125014792  0.3810012325348212   T   T   T
  0.2504068946647235  0.5583439418919847  0.3823433860820613   T   T   T
  0.7484716030104264  0.0639484206038160  0.3811518905621255   T   T   T
  0.7500953112703108  0.5530224551636809  0.3820372748031359   T   T   T
  0.2377794734470258  0.8120432291100702  0.4440404371766457   T   T   T
  0.7492432646584882  0.3027217752031408  0.4496220893010935   T   T   T
  0.7608406206015739  0.8117633672716198  0.4432137183328698   T   T   T
  0.9973799480457762  0.0739807551491140  0.4631888378729875   T   T   T
  0.9981612146563615  0.5813713381623096  0.4631986906849163   T   T   T
  0.5024438319174442  0.0656173931373850  0.4688817177887677   T   T   T
  0.5039389587742580  0.5767246024196454  0.4634654724099747   T   T   T
 
  0.00000000E+00  0.00000000E+00  0.00000000E+00
  0.00000000E+00  0.00000000E+00  0.00000000E+00
  0.00000000E+00  0.00000000E+00  0.00000000E+00
  0.00000000E+00  0.00000000E+00  0.00000000E+00
  0.00000000E+00  0.00000000E+00  0.00000000E+00
  0.00000000E+00  0.00000000E+00  0.00000000E+00
  0.00000000E+00  0.00000000E+00  0.00000000E+00
  0.00000000E+00  0.00000000E+00  0.00000000E+00
  0.00000000E+00  0.00000000E+00  0.00000000E+00
  0.00000000E+00  0.00000000E+00  0.00000000E+00
  0.00000000E+00  0.00000000E+00  0.00000000E+00
  0.00000000E+00  0.00000000E+00  0.00000000E+00
  0.00000000E+00  0.00000000E+00  0.00000000E+00
  0.00000000E+00  0.00000000E+00  0.00000000E+00
  0.00000000E+00  0.00000000E+00  0.00000000E+00
  0.00000000E+00  0.00000000E+00  0.00000000E+00
  0.00000000E+00  0.00000000E+00  0.00000000E+00
  0.00000000E+00  0.00000000E+00  0.00000000E+00
  0.00000000E+00  0.00000000E+00  0.00000000E+00
  0.00000000E+00  0.00000000E+00  0.00000000E+00
  0.00000000E+00  0.00000000E+00  0.00000000E+00
  0.00000000E+00  0.00000000E+00  0.00000000E+00
  0.00000000E+00  0.00000000E+00  0.00000000E+00
  0.00000000E+00  0.00000000E+00  0.00000000E+00
  0.00000000E+00  0.00000000E+00  0.00000000E+00
  0.00000000E+00  0.00000000E+00  0.00000000E+00
  0.00000000E+00  0.00000000E+00  0.00000000E+00
  0.00000000E+00  0.00000000E+00  0.00000000E+00
  0.00000000E+00  0.00000000E+00  0.00000000E+00
  0.00000000E+00  0.00000000E+00  0.00000000E+00
  0.00000000E+00  0.00000000E+00  0.00000000E+00
  0.00000000E+00  0.00000000E+00  0.00000000E+00
  0.00000000E+00  0.00000000E+00  0.00000000E+00
  0.00000000E+00  0.00000000E+00  0.00000000E+00
  0.00000000E+00  0.00000000E+00  0.00000000E+00
  0.00000000E+00  0.00000000E+00  0.00000000E+00
  0.00000000E+00  0.00000000E+00  0.00000000E+00
  0.00000000E+00  0.00000000E+00  0.00000000E+00
  0.00000000E+00  0.00000000E+00  0.00000000E+00
  0.00000000E+00  0.00000000E+00  0.00000000E+00
  0.00000000E+00  0.00000000E+00  0.00000000E+00
  0.00000000E+00  0.00000000E+00  0.00000000E+00
  0.00000000E+00  0.00000000E+00  0.00000000E+00
  0.00000000E+00  0.00000000E+00  0.00000000E+00
  0.00000000E+00  0.00000000E+00  0.00000000E+00
  0.00000000E+00  0.00000000E+00  0.00000000E+00
  0.00000000E+00  0.00000000E+00  0.00000000E+00
  0.00000000E+00  0.00000000E+00  0.00000000E+00
  0.00000000E+00  0.00000000E+00  0.00000000E+00
  0.00000000E+00  0.00000000E+00  0.00000000E+00
  0.00000000E+00  0.00000000E+00  0.00000000E+00
  0.00000000E+00  0.00000000E+00  0.00000000E+00
  0.00000000E+00  0.00000000E+00  0.00000000E+00
  0.00000000E+00  0.00000000E+00  0.00000000E+00
  0.00000000E+00  0.00000000E+00  0.00000000E+00
  0.00000000E+00  0.00000000E+00  0.00000000E+00
  0.00000000E+00  0.00000000E+00  0.00000000E+00
  0.00000000E+00  0.00000000E+00  0.00000000E+00
  0.00000000E+00  0.00000000E+00  0.00000000E+00
  0.00000000E+00  0.00000000E+00  0.00000000E+00
  0.00000000E+00  0.00000000E+00  0.00000000E+00
  0.00000000E+00  0.00000000E+00  0.00000000E+00
  0.00000000E+00  0.00000000E+00  0.00000000E+00
  0.00000000E+00  0.00000000E+00  0.00000000E+00
  0.00000000E+00  0.00000000E+00  0.00000000E+00
  0.00000000E+00  0.00000000E+00  0.00000000E+00
  0.00000000E+00  0.00000000E+00  0.00000000E+00
  0.00000000E+00  0.00000000E+00  0.00000000E+00
  0.00000000E+00  0.00000000E+00  0.00000000E+00
  0.00000000E+00  0.00000000E+00  0.00000000E+00
  0.00000000E+00  0.00000000E+00  0.00000000E+00
  0.00000000E+00  0.00000000E+00  0.00000000E+00
  0.00000000E+00  0.00000000E+00  0.00000000E+00
  0.00000000E+00  0.00000000E+00  0.00000000E+00
  0.00000000E+00  0.00000000E+00  0.00000000E+00
  0.00000000E+00  0.00000000E+00  0.00000000E+00
  0.00000000E+00  0.00000000E+00  0.00000000E+00
  0.00000000E+00  0.00000000E+00  0.00000000E+00
  0.00000000E+00  0.00000000E+00  0.00000000E+00
  0.00000000E+00  0.00000000E+00  0.00000000E+00
  0.00000000E+00  0.00000000E+00  0.00000000E+00
