Na Ni O Zn                              
   1.00000000000000     
     6.5625568183449996    0.0000000000000000    0.0000000000000000
     0.0000000000000000   10.5156600000000005    0.0000000000000000
     0.0000000000000000    0.0000000000000000   32.0500282661819966
   Na   Ni   O    Zn
     1     1    40    39
Selective dynamics
Direct
  0.2500019649914533  0.3146468516213249  0.4491852121005778   T   T   T
  0.7499999128306480  0.7451166029853736  0.5065701204567731   T   T   T
  0.2500057154305018  0.0014891569432247  0.0879835692917338   T   T   T
  0.2499916426834955  0.5017992473006799  0.0879744870467320   T   T   T
  0.7500007774510503  0.0015018229091845  0.0881023700158826   T   T   T
  0.7499941252565093  0.5016121946656162  0.0880976792610394   T   T   T
  0.0002431795329737  0.2480318472758379  0.1186392423350634   T   T   T
  0.0000078076598619  0.7480128400969230  0.1188262234125333   T   T   T
  0.4997631339742968  0.2480325063462529  0.1186391241291652   T   T   T
  0.4999579881551606  0.7480099838719750  0.1188266296107579   T   T   T
  0.0001306901768716  0.9978806825684050  0.1760901519867229   T   T   T
 -0.0000135465931440  0.4979616463399982  0.1760285901462323   T   T   T
  0.4998750098321310  0.9978808003195004  0.1760889827762212   T   T   T
  0.5000095137236982  0.4979589615531156  0.1760294361893814   T   T   T
  0.2500015148608946  0.2465708479213324  0.2073359474625406   T   T   T
  0.2499939060779511  0.7462648583517227  0.2071836284979436   T   T   T
  0.7500030450317626  0.2465480577618238  0.2069609982141529   T   T   T
  0.7499914162249178  0.7465205555149691  0.2074893080486305   T   T   T
  0.2500015820435109  0.9970873439507553  0.2649869178822621   T   T   T
  0.2499992981622018  0.4962671029377905  0.2646784951623889   T   T   T
  0.7500008718466475  0.9965599474412671  0.2649453853256164   T   T   T
  0.7500023182809809  0.4973669513898578  0.2648715418563445   T   T   T
  0.9983347438479764  0.2471386573701494  0.2953617917017139   T   T   T
  0.0013721309889553  0.7461571339342313  0.2956679838998907   T   T   T
  0.5016662121398943  0.2471392565577480  0.2953614162089400   T   T   T
  0.4986236611172424  0.7461584343290748  0.2956675762055455   T   T   T
  0.9986084392693624  0.9951249270479684  0.3534908332594732   T   T   T
  0.0043494169000310  0.4969668350222486  0.3533364405508451   T   T   T
  0.5013931949992061  0.9951251784471643  0.3534916838108254   T   T   T
  0.4956480005302470  0.4969681842286592  0.3533362389573475   T   T   T
  0.2499987017240859  0.2432671788146739  0.3818467777995385   T   T   T
  0.2500000439336060  0.7511284723767184  0.3872396123851891   T   T   T
  0.7499982426829318  0.2534111898190780  0.3857101750135409   T   T   T
  0.7500024504721280  0.7398797419766924  0.3823046507318954   T   T   T
  0.2499974318100548 -0.0054567147874703  0.4433017728031122   T   T   T
  0.2500065510530746  0.5232017192810341  0.4439390432800200   T   T   T
  0.7500027420580870  0.9993824215561691  0.4402550379892849   T   T   T
  0.7499990665228826  0.4941491158453614  0.4419221148970968   T   T   T
  0.9851388437576818  0.2435138761653922  0.4809835321983273   T   T   T
 -0.0055378808567008  0.7530966536064196  0.4774105450451659   T   T   T
  0.5148579775364380  0.2435070175209125  0.4809839847765092   T   T   T
  0.5055393197748808  0.7531064599786713  0.4774106372134476   T   T   T
  0.2500039577714481  0.3274139432086975  0.0991894924481491   T   T   T
  0.2499838702016284  0.8272669862252053  0.0993880552174037   T   T   T
  0.7500044543957909  0.3272437997550153  0.0993627939143319   T   T   T
  0.7499780888694542  0.8272521959697962  0.0994432822644206   T   T   T
  0.0001384299797970  0.0585490404602727  0.1140079341106088   T   T   T
  0.0000607868109977  0.5585368510088913  0.1140260424629084   T   T   T
  0.4998662989301013  0.0585501719268735  0.1140086617477154   T   T   T
  0.4999273106236895  0.5585360770729970  0.1140255251661652   T   T   T
  0.0004716637959459  0.3089873418636047  0.1794524554830397   T   T   T
 -0.0002835739397719  0.8091172425213680  0.1795210062841631   T   T   T
  0.4995336582764105  0.3089852783201497  0.1794517719876008   T   T   T
  0.5002685366305559  0.8091184907448126  0.1795210231825924   T   T   T
  0.2500058806155395  0.0558873396661638  0.2052762688081444   T   T   T
  0.2499977745453954  0.5552498938487720  0.2051715743905639   T   T   T
  0.7500013312541893  0.0556925124724193  0.2052698714181623   T   T   T
  0.7499977283924808  0.5555595717431210  0.2051352813086438   T   T   T
  0.2499993506109570  0.3058697640011589  0.2668944145700571   T   T   T
  0.2499992886664862  0.8074563238817364  0.2661141074588256   T   T   T
  0.7500011502330631  0.3069676065498478  0.2662557460453014   T   T   T
  0.7499989638595954  0.8068542935561762  0.2667255303136856   T   T   T
  0.9999491684466806  0.0574948972650244  0.2941700827294197   T   T   T
  0.0008589830108508  0.5555420747128414  0.2938745778711256   T   T   T
  0.5000536201278621  0.0574952056908779  0.2941711407859675   T   T   T
  0.4991432658265065  0.5555416051426917  0.2938738796713443   T   T   T
  0.0020267102359128  0.3042157772441323  0.3556607513193965   T   T   T
  0.0048856335939824  0.8059734834085858  0.3544104725440765   T   T   T
  0.4979698328480342  0.3042164345638380  0.3556602486497525   T   T   T
  0.4951175373507503  0.8059726393146049  0.3544107311931793   T   T   T
  0.2499993478182970  0.0586586490287069  0.3820463588811104   T   T   T
  0.2499973233202923  0.5590934639629115  0.3826477789996806   T   T   T
  0.7500006564441307  0.0666586641601378  0.3805320955404002   T   T   T
  0.7499992682763340  0.5476461103208671  0.3809058325013526   T   T   T
  0.2499983662707793  0.8087530920731627  0.4477960735100848   T   T   T
  0.7499947718582618  0.3003351989307748  0.4518221501337946   T   T   T
  0.7500065969183403  0.8184690966170860  0.4360390051470059   T   T   T
  0.0014092412272974  0.0783942596459084  0.4640630612535056   T   T   T
  0.9913714566122388  0.5706808301040207  0.4648532630389364   T   T   T
  0.4985917410785664  0.0783867952897755  0.4640631055262619   T   T   T
  0.5086352409926674  0.5706905920771408  0.4648546797087175   T   T   T
 
  0.00000000E+00  0.00000000E+00  0.00000000E+00
  0.00000000E+00  0.00000000E+00  0.00000000E+00
  0.00000000E+00  0.00000000E+00  0.00000000E+00
  0.00000000E+00  0.00000000E+00  0.00000000E+00
  0.00000000E+00  0.00000000E+00  0.00000000E+00
  0.00000000E+00  0.00000000E+00  0.00000000E+00
  0.00000000E+00  0.00000000E+00  0.00000000E+00
  0.00000000E+00  0.00000000E+00  0.00000000E+00
  0.00000000E+00  0.00000000E+00  0.00000000E+00
  0.00000000E+00  0.00000000E+00  0.00000000E+00
  0.00000000E+00  0.00000000E+00  0.00000000E+00
  0.00000000E+00  0.00000000E+00  0.00000000E+00
  0.00000000E+00  0.00000000E+00  0.00000000E+00
  0.00000000E+00  0.00000000E+00  0.00000000E+00
  0.00000000E+00  0.00000000E+00  0.00000000E+00
  0.00000000E+00  0.00000000E+00  0.00000000E+00
  0.00000000E+00  0.00000000E+00  0.00000000E+00
  0.00000000E+00  0.00000000E+00  0.00000000E+00
  0.00000000E+00  0.00000000E+00  0.00000000E+00
  0.00000000E+00  0.00000000E+00  0.00000000E+00
  0.00000000E+00  0.00000000E+00  0.00000000E+00
  0.00000000E+00  0.00000000E+00  0.00000000E+00
  0.00000000E+00  0.00000000E+00  0.00000000E+00
  0.00000000E+00  0.00000000E+00  0.00000000E+00
  0.00000000E+00  0.00000000E+00  0.00000000E+00
  0.00000000E+00  0.00000000E+00  0.00000000E+00
  0.00000000E+00  0.00000000E+00  0.00000000E+00
  0.00000000E+00  0.00000000E+00  0.00000000E+00
  0.00000000E+00  0.00000000E+00  0.00000000E+00
  0.00000000E+00  0.00000000E+00  0.00000000E+00
  0.00000000E+00  0.00000000E+00  0.00000000E+00
  0.00000000E+00  0.00000000E+00  0.00000000E+00
  0.00000000E+00  0.00000000E+00  0.00000000E+00
  0.00000000E+00  0.00000000E+00  0.00000000E+00
  0.00000000E+00  0.00000000E+00  0.00000000E+00
  0.00000000E+00  0.00000000E+00  0.00000000E+00
  0.00000000E+00  0.00000000E+00  0.00000000E+00
  0.00000000E+00  0.00000000E+00  0.00000000E+00
  0.00000000E+00  0.00000000E+00  0.00000000E+00
  0.00000000E+00  0.00000000E+00  0.00000000E+00
  0.00000000E+00  0.00000000E+00  0.00000000E+00
  0.00000000E+00  0.00000000E+00  0.00000000E+00
  0.00000000E+00  0.00000000E+00  0.00000000E+00
  0.00000000E+00  0.00000000E+00  0.00000000E+00
  0.00000000E+00  0.00000000E+00  0.00000000E+00
  0.00000000E+00  0.00000000E+00  0.00000000E+00
  0.00000000E+00  0.00000000E+00  0.00000000E+00
  0.00000000E+00  0.00000000E+00  0.00000000E+00
  0.00000000E+00  0.00000000E+00  0.00000000E+00
  0.00000000E+00  0.00000000E+00  0.00000000E+00
  0.00000000E+00  0.00000000E+00  0.00000000E+00
  0.00000000E+00  0.00000000E+00  0.00000000E+00
  0.00000000E+00  0.00000000E+00  0.00000000E+00
  0.00000000E+00  0.00000000E+00  0.00000000E+00
  0.00000000E+00  0.00000000E+00  0.00000000E+00
  0.00000000E+00  0.00000000E+00  0.00000000E+00
  0.00000000E+00  0.00000000E+00  0.00000000E+00
  0.00000000E+00  0.00000000E+00  0.00000000E+00
  0.00000000E+00  0.00000000E+00  0.00000000E+00
  0.00000000E+00  0.00000000E+00  0.00000000E+00
  0.00000000E+00  0.00000000E+00  0.00000000E+00
  0.00000000E+00  0.00000000E+00  0.00000000E+00
  0.00000000E+00  0.00000000E+00  0.00000000E+00
  0.00000000E+00  0.00000000E+00  0.00000000E+00
  0.00000000E+00  0.00000000E+00  0.00000000E+00
  0.00000000E+00  0.00000000E+00  0.00000000E+00
  0.00000000E+00  0.00000000E+00  0.00000000E+00
  0.00000000E+00  0.00000000E+00  0.00000000E+00
  0.00000000E+00  0.00000000E+00  0.00000000E+00
  0.00000000E+00  0.00000000E+00  0.00000000E+00
  0.00000000E+00  0.00000000E+00  0.00000000E+00
  0.00000000E+00  0.00000000E+00  0.00000000E+00
  0.00000000E+00  0.00000000E+00  0.00000000E+00
  0.00000000E+00  0.00000000E+00  0.00000000E+00
  0.00000000E+00  0.00000000E+00  0.00000000E+00
  0.00000000E+00  0.00000000E+00  0.00000000E+00
  0.00000000E+00  0.00000000E+00  0.00000000E+00
  0.00000000E+00  0.00000000E+00  0.00000000E+00
  0.00000000E+00  0.00000000E+00  0.00000000E+00
  0.00000000E+00  0.00000000E+00  0.00000000E+00
  0.00000000E+00  0.00000000E+00  0.00000000E+00
