Au Na O Zn                              
   1.00000000000000     
     6.5625568183449996    0.0000000000000000    0.0000000000000000
     0.0000000000000000   10.5156600000000005    0.0000000000000000
     0.0000000000000000    0.0000000000000000   32.0500282661819966
   Au   Na   O    Zn
     1     1    40    39
Selective dynamics
Direct
  0.5060943087176617  0.8800124927455422  0.5237835044428287   T   T   T
  0.2487773427131164  0.3095260919788476  0.4494769761133153   T   T   T
  0.2500079836690511  0.0015449142907135  0.0879346185098343   T   T   T
  0.2499851865637787  0.5018113103759131  0.0879874658203364   T   T   T
  0.7499774677640068  0.0015422955724733  0.0880538406932645   T   T   T
  0.7499710328120531  0.5016146255204674  0.0881220348846593   T   T   T
  0.0002448999250132  0.2480488909058620  0.1186471198061414   T   T   T
  0.0000599818413402  0.7480501324108397  0.1188168046475225   T   T   T
  0.4997363940367111  0.2480461271900318  0.1186481107250878   T   T   T
  0.4998744590619074  0.7480496399855214  0.1188303443306351   T   T   T
  0.0001902779892613  0.9978760304991949  0.1759826643109275   T   T   T
  0.0001363848244735  0.4979713991377418  0.1760866229808033   T   T   T
  0.4997881879813827  0.9978815716325221  0.1760210271249928   T   T   T
  0.4998464492287167  0.4979819475890276  0.1760945677602746   T   T   T
  0.2499894303741983  0.2466143524673294  0.2074344157059715   T   T   T
  0.2499737133257846  0.7463663870180819  0.2074687782377717   T   T   T
  0.7499799798403548  0.2465562127346747  0.2069431564638446   T   T   T
  0.7499974707347854  0.7464997761131580  0.2073006028479144   T   T   T
  0.2497048518226587  0.9969911272748453  0.2649830023799372   T   T   T
  0.2500036135882824  0.4965505404134138  0.2651037661263149   T   T   T
  0.7502181373951585  0.9966764074399631  0.2647886319501409   T   T   T
  0.7500583709675163  0.4974526434436296  0.2649914406402097   T   T   T
  0.9978387305419903  0.2471501153295576  0.2954860629509911   T   T   T
  0.9997374454260192  0.7462064421383122  0.2957004959827726   T   T   T
  0.5020471103380959  0.2473040067132678  0.2955007534150852   T   T   T
  0.5001059358227964  0.7463876068035012  0.2957943979082019   T   T   T
  0.9974634786552377  0.9961770886710455  0.3535982655566984   T   T   T
  0.0010703043314415  0.4970256401676712  0.3539175365556698   T   T   T
  0.5021711224327767  0.9962695374857008  0.3531891911311736   T   T   T
  0.4994888706048323  0.4968785502918285  0.3538387608952300   T   T   T
  0.2496263755047487  0.2448921273214333  0.3815951539306283   T   T   T
  0.2499690055572258  0.7496065153983729  0.3842383273778588   T   T   T
  0.7498938852139787  0.2530405458792955  0.3865710517125369   T   T   T
  0.7491133128461276  0.7428273301840204  0.3845281341372280   T   T   T
  0.2498275281852340  0.9995536248556280  0.4420546479839663   T   T   T
  0.2513522513548140  0.5174672078042142  0.4434793276048103   T   T   T
  0.7493719198260929  0.9972219907254780  0.4404954134951554   T   T   T
  0.7517285862804387  0.4969034615120495  0.4445811207180112   T   T   T
  0.9787064352257171  0.2401055619175496  0.4813818122278284   T   T   T
  0.9967684732882759  0.7567309648736298  0.4748657144122682   T   T   T
  0.5197084741557446  0.2402397569178824  0.4806150682437864   T   T   T
  0.5005212846965121  0.7565946814848206  0.4726628042572333   T   T   T
  0.2499944728619792  0.3274613139546573  0.0992127276615025   T   T   T
  0.2499770591064782  0.8273109451670385  0.0993765804918061   T   T   T
  0.7499944014866770  0.3272633481016477  0.0993884911313335   T   T   T
  0.7499484471817751  0.8272818150775904  0.0994619162236245   T   T   T
  0.0001298009558731  0.0585509035421379  0.1139565144647553   T   T   T
  0.0000582477411740  0.5585708988437031  0.1140419444432465   T   T   T
  0.4998546095889906  0.0585462464406060  0.1139708889242286   T   T   T
  0.4998948963783698  0.5585712997106039  0.1140484661600331   T   T   T
  0.0005441098156890  0.3090052974836587  0.1794646928912270   T   T   T
  0.0002267564019225  0.8090623568260572  0.1795675108710315   T   T   T
  0.4994259723599477  0.3090119789067288  0.1794641055109343   T   T   T
  0.4997539045373871  0.8090561917388516  0.1795774465580986   T   T   T
  0.2498984051460564  0.0557228227605056  0.2052581734812728   T   T   T
  0.2499715378042785  0.5553318587223388  0.2053839537991224   T   T   T
  0.7500770887288670  0.0556519011514732  0.2051576306260214   T   T   T
  0.7500123460036405  0.5555839772444109  0.2052246417025050   T   T   T
  0.2499463982724227  0.3059372371635272  0.2670235841205473   T   T   T
  0.2500977421449656  0.8070484500965504  0.2666535448514433   T   T   T
  0.7499547014969468  0.3071363848967679  0.2661951789824548   T   T   T
  0.7497849948012699  0.8068651381238368  0.2664862268437730   T   T   T
  0.9996196293412946  0.0571375250309903  0.2942998614169335   T   T   T
  0.0001605753024049  0.5557183626862886  0.2943049060866327   T   T   T
  0.5003063240059183  0.0573851933271143  0.2939811599188129   T   T   T
  0.4999008080327835  0.5559875490369537  0.2942660193339913   T   T   T
  0.0005470419967524  0.3046299233499459  0.3555875885216421   T   T   T
  0.9980358627769442  0.8066323840374360  0.3545703726373449   T   T   T
  0.4990279816912923  0.3045805062769285  0.3556661075684506   T   T   T
  0.5013256687104458  0.8069433815697230  0.3548386724738664   T   T   T
  0.2512140417028287  0.0601765186909491  0.3813125706738904   T   T   T
  0.2504238752721317  0.5581102353652659  0.3821188278815007   T   T   T
  0.7484377421827515  0.0641777723571607  0.3815440144099427   T   T   T
  0.7501801042439096  0.5522232356010597  0.3820931980267669   T   T   T
  0.2354163062648367  0.8113316352356417  0.4433401319383692   T   T   T
  0.7506299853211703  0.3013599382586024  0.4505482090856521   T   T   T
  0.7627348454663173  0.8117909170276127  0.4425188158079668   T   T   T
  0.9984125182489153  0.0743782489107155  0.4636433296789946   T   T   T
  0.9978177991114673  0.5807196253340057  0.4636934526372224   T   T   T
  0.5013926791485045  0.0691310101934794  0.4685688808943062   T   T   T
  0.5049117316542977  0.5736101795443740  0.4637567058128931   T   T   T
 
  0.00000000E+00  0.00000000E+00  0.00000000E+00
  0.00000000E+00  0.00000000E+00  0.00000000E+00
  0.00000000E+00  0.00000000E+00  0.00000000E+00
  0.00000000E+00  0.00000000E+00  0.00000000E+00
  0.00000000E+00  0.00000000E+00  0.00000000E+00
  0.00000000E+00  0.00000000E+00  0.00000000E+00
  0.00000000E+00  0.00000000E+00  0.00000000E+00
  0.00000000E+00  0.00000000E+00  0.00000000E+00
  0.00000000E+00  0.00000000E+00  0.00000000E+00
  0.00000000E+00  0.00000000E+00  0.00000000E+00
  0.00000000E+00  0.00000000E+00  0.00000000E+00
  0.00000000E+00  0.00000000E+00  0.00000000E+00
  0.00000000E+00  0.00000000E+00  0.00000000E+00
  0.00000000E+00  0.00000000E+00  0.00000000E+00
  0.00000000E+00  0.00000000E+00  0.00000000E+00
  0.00000000E+00  0.00000000E+00  0.00000000E+00
  0.00000000E+00  0.00000000E+00  0.00000000E+00
  0.00000000E+00  0.00000000E+00  0.00000000E+00
  0.00000000E+00  0.00000000E+00  0.00000000E+00
  0.00000000E+00  0.00000000E+00  0.00000000E+00
  0.00000000E+00  0.00000000E+00  0.00000000E+00
  0.00000000E+00  0.00000000E+00  0.00000000E+00
  0.00000000E+00  0.00000000E+00  0.00000000E+00
  0.00000000E+00  0.00000000E+00  0.00000000E+00
  0.00000000E+00  0.00000000E+00  0.00000000E+00
  0.00000000E+00  0.00000000E+00  0.00000000E+00
  0.00000000E+00  0.00000000E+00  0.00000000E+00
  0.00000000E+00  0.00000000E+00  0.00000000E+00
  0.00000000E+00  0.00000000E+00  0.00000000E+00
  0.00000000E+00  0.00000000E+00  0.00000000E+00
  0.00000000E+00  0.00000000E+00  0.00000000E+00
  0.00000000E+00  0.00000000E+00  0.00000000E+00
  0.00000000E+00  0.00000000E+00  0.00000000E+00
  0.00000000E+00  0.00000000E+00  0.00000000E+00
  0.00000000E+00  0.00000000E+00  0.00000000E+00
  0.00000000E+00  0.00000000E+00  0.00000000E+00
  0.00000000E+00  0.00000000E+00  0.00000000E+00
  0.00000000E+00  0.00000000E+00  0.00000000E+00
  0.00000000E+00  0.00000000E+00  0.00000000E+00
  0.00000000E+00  0.00000000E+00  0.00000000E+00
  0.00000000E+00  0.00000000E+00  0.00000000E+00
  0.00000000E+00  0.00000000E+00  0.00000000E+00
  0.00000000E+00  0.00000000E+00  0.00000000E+00
  0.00000000E+00  0.00000000E+00  0.00000000E+00
  0.00000000E+00  0.00000000E+00  0.00000000E+00
  0.00000000E+00  0.00000000E+00  0.00000000E+00
  0.00000000E+00  0.00000000E+00  0.00000000E+00
  0.00000000E+00  0.00000000E+00  0.00000000E+00
  0.00000000E+00  0.00000000E+00  0.00000000E+00
  0.00000000E+00  0.00000000E+00  0.00000000E+00
  0.00000000E+00  0.00000000E+00  0.00000000E+00
  0.00000000E+00  0.00000000E+00  0.00000000E+00
  0.00000000E+00  0.00000000E+00  0.00000000E+00
  0.00000000E+00  0.00000000E+00  0.00000000E+00
  0.00000000E+00  0.00000000E+00  0.00000000E+00
  0.00000000E+00  0.00000000E+00  0.00000000E+00
  0.00000000E+00  0.00000000E+00  0.00000000E+00
  0.00000000E+00  0.00000000E+00  0.00000000E+00
  0.00000000E+00  0.00000000E+00  0.00000000E+00
  0.00000000E+00  0.00000000E+00  0.00000000E+00
  0.00000000E+00  0.00000000E+00  0.00000000E+00
  0.00000000E+00  0.00000000E+00  0.00000000E+00
  0.00000000E+00  0.00000000E+00  0.00000000E+00
  0.00000000E+00  0.00000000E+00  0.00000000E+00
  0.00000000E+00  0.00000000E+00  0.00000000E+00
  0.00000000E+00  0.00000000E+00  0.00000000E+00
  0.00000000E+00  0.00000000E+00  0.00000000E+00
  0.00000000E+00  0.00000000E+00  0.00000000E+00
  0.00000000E+00  0.00000000E+00  0.00000000E+00
  0.00000000E+00  0.00000000E+00  0.00000000E+00
  0.00000000E+00  0.00000000E+00  0.00000000E+00
  0.00000000E+00  0.00000000E+00  0.00000000E+00
  0.00000000E+00  0.00000000E+00  0.00000000E+00
  0.00000000E+00  0.00000000E+00  0.00000000E+00
  0.00000000E+00  0.00000000E+00  0.00000000E+00
  0.00000000E+00  0.00000000E+00  0.00000000E+00
  0.00000000E+00  0.00000000E+00  0.00000000E+00
  0.00000000E+00  0.00000000E+00  0.00000000E+00
  0.00000000E+00  0.00000000E+00  0.00000000E+00
  0.00000000E+00  0.00000000E+00  0.00000000E+00
  0.00000000E+00  0.00000000E+00  0.00000000E+00
