Na O Pt Zn                              
   1.00000000000000     
     6.5625568183449996    0.0000000000000000    0.0000000000000000
     0.0000000000000000   10.5156600000000005    0.0000000000000000
     0.0000000000000000    0.0000000000000000   32.0500282661819966
   Na   O    Pt   Zn
     1    40     1    39
Selective dynamics
Direct
  0.2511891470422013  0.3048801417021751  0.4498764480319479   T   T   T
  0.2500209184782143  0.0014869382635257  0.0877839674983504   T   T   T
  0.2499938495140142  0.5018398858347703  0.0879766780493237   T   T   T
  0.7499607351597145  0.0015160857757433  0.0878775097607082   T   T   T
  0.7499819970105099  0.5016232441083295  0.0881000264213205   T   T   T
  0.0002586902593715  0.2480189126936763  0.1185173105531462   T   T   T
  0.0000357014631931  0.7480411453301994  0.1187430473231183   T   T   T
  0.4997389097119282  0.2480232288588781  0.1185067165599434   T   T   T
  0.4999107528474661  0.7480491272531860  0.1187384098674717   T   T   T
  0.0002206863152232  0.9978258928084558  0.1757614310455923   T   T   T
  0.0001767640291875  0.4980733699223800  0.1760784839614762   T   T   T
  0.4997836220479809  0.9978832298963750  0.1758198821248667   T   T   T
  0.4998811735630818  0.4980890769266895  0.1760890041062563   T   T   T
  0.2500268802901857  0.2466442716445612  0.2072475993519986   T   T   T
  0.2499909032782764  0.7463657004042318  0.2074336571741650   T   T   T
  0.7499764423428750  0.2465949629459480  0.2067603896064087   T   T   T
  0.7499613826266573  0.7465415822547663  0.2072687923948806   T   T   T
  0.2495425953349526  0.9971619344670885  0.2647659603049316   T   T   T
  0.2501300312893151  0.4968951408270555  0.2652542170497890   T   T   T
  0.7503365545182843  0.9968284725819688  0.2645754663632066   T   T   T
  0.7501477888153713  0.4978597206231437  0.2651547999774579   T   T   T
  0.9979373812212506  0.2475999092074028  0.2952448566569807   T   T   T
  0.9997767105255525  0.7467751626837573  0.2957796013606261   T   T   T
  0.5020215898934529  0.2476168605886196  0.2952614140916437   T   T   T
  0.4999319697694792  0.7468396958107597  0.2958248644613941   T   T   T
  0.9978287599962758  0.9973858748256621  0.3533708458474072   T   T   T
  0.0016273142983546  0.4984075727879388  0.3541685781623570   T   T   T
  0.5015625476414473  0.9969566262163314  0.3528494396292019   T   T   T
  0.4994676856427245  0.4983870664371791  0.3541221541104419   T   T   T
  0.2496084724376708  0.2466942480987155  0.3815085834128626   T   T   T
  0.2498397058068417  0.7508441435636981  0.3847460195646250   T   T   T
  0.7498006179424738  0.2546890700229442  0.3857899008999081   T   T   T
  0.7489271596042513  0.7444111231318910  0.3846227877292710   T   T   T
  0.2492451738067457  0.0052514744469773  0.4418737676482288   T   T   T
  0.2521409328118539  0.5138090556629130  0.4439356932644961   T   T   T
  0.7509351794597717  0.0005195413016743  0.4398011842987925   T   T   T
  0.7514001413550567  0.4967626264012298  0.4445898051597025   T   T   T
  0.9691451719742553  0.2413481349789671  0.4811686192847665   T   T   T
  0.9971192784096897  0.7561651380012088  0.4742850514294616   T   T   T
  0.5270046573660472  0.2337400238116182  0.4803281265016610   T   T   T
  0.5002496618068817  0.7568408386150079  0.4714627240833565   T   T   T
  0.5056689310150488  0.8620154938078453  0.5217254885731168   T   T   T
  0.2499847910618097  0.3274647424866816  0.0991530809459045   T   T   T
  0.2499560966717501  0.8273408013228262  0.0993454183613110   T   T   T
  0.7500121348907950  0.3272586988939190  0.0993366568763470   T   T   T
  0.7499838025369810  0.8273548314838858  0.0994226431924588   T   T   T
  0.0001109035552615  0.0585413814916976  0.1138146814932999   T   T   T
  0.0000568634311816  0.5586091980295318  0.1140559525392132   T   T   T
  0.4998628651390201  0.0585365269869499  0.1138458157626554   T   T   T
  0.4999189324276045  0.5586008125242321  0.1140679029349551   T   T   T
  0.0005616881232348  0.3090675031316675  0.1793537439444481   T   T   T
  0.0002398575359138  0.8090115653234803  0.1795650197152184   T   T   T
  0.4994454922494124  0.3090779717181757  0.1793382457769819   T   T   T
  0.4996945056311523  0.8090430844001084  0.1795513843604213   T   T   T
  0.2498396033885590  0.0556234952434664  0.2051462002465241   T   T   T
  0.2499982560729150  0.5553170373097958  0.2055075049455672   T   T   T
  0.7501755031009123  0.0555584449067506  0.2050240087013322   T   T   T
  0.7500531829286765  0.5555968263908448  0.2053435472888271   T   T   T
  0.2499769050013219  0.3062385495605617  0.2667971942600119   T   T   T
  0.2499982055090277  0.8072582403058794  0.2666645587257878   T   T   T
  0.7500083048766853  0.3074792584168758  0.2659962408058660   T   T   T
  0.7497354330359518  0.8070275750741387  0.2665110169471308   T   T   T
  0.9996421689822114  0.0573544095219467  0.2942424059782745   T   T   T
  0.0003728278815089  0.5563674515954222  0.2945322149178662   T   T   T
  0.5002176325931943  0.0574596111810721  0.2937601084474550   T   T   T
  0.4999405397607931  0.5565352132973285  0.2945015117889986   T   T   T
  0.0017425962879087  0.3062045437053543  0.3551657281645382   T   T   T
  0.9983234153310522  0.8078009390593197  0.3547140210976081   T   T   T
  0.4977226504880755  0.3062916054764921  0.3551761951945139   T   T   T
  0.5007278232863619  0.8075465891925770  0.3549772602023099   T   T   T
  0.2521835646514302  0.0616281114752570  0.3813791194851958   T   T   T
  0.2505947376298691  0.5593382792113949  0.3827787923672596   T   T   T
  0.7471235736392446  0.0648982004921106  0.3812628234090946   T   T   T
  0.7506111903044608  0.5543168007788746  0.3822409079156341   T   T   T
  0.2326726318461821  0.8176392810335862  0.4436507076805721   T   T   T
  0.7455574029050724  0.3010212290385427  0.4481988752227183   T   T   T
  0.7655917966657948  0.8160919700061231  0.4425919960961743   T   T   T
  0.9972481637287753  0.0745721036628934  0.4634704288070357   T   T   T
  0.9991201325067199  0.5805600754507272  0.4635911603122015   T   T   T
  0.5054398284140175  0.0557394151240408  0.4750893619901718   T   T   T
  0.5042172959609783  0.5725680611719499  0.4640867188924314   T   T   T
 
  0.00000000E+00  0.00000000E+00  0.00000000E+00
  0.00000000E+00  0.00000000E+00  0.00000000E+00
  0.00000000E+00  0.00000000E+00  0.00000000E+00
  0.00000000E+00  0.00000000E+00  0.00000000E+00
  0.00000000E+00  0.00000000E+00  0.00000000E+00
  0.00000000E+00  0.00000000E+00  0.00000000E+00
  0.00000000E+00  0.00000000E+00  0.00000000E+00
  0.00000000E+00  0.00000000E+00  0.00000000E+00
  0.00000000E+00  0.00000000E+00  0.00000000E+00
  0.00000000E+00  0.00000000E+00  0.00000000E+00
  0.00000000E+00  0.00000000E+00  0.00000000E+00
  0.00000000E+00  0.00000000E+00  0.00000000E+00
  0.00000000E+00  0.00000000E+00  0.00000000E+00
  0.00000000E+00  0.00000000E+00  0.00000000E+00
  0.00000000E+00  0.00000000E+00  0.00000000E+00
  0.00000000E+00  0.00000000E+00  0.00000000E+00
  0.00000000E+00  0.00000000E+00  0.00000000E+00
  0.00000000E+00  0.00000000E+00  0.00000000E+00
  0.00000000E+00  0.00000000E+00  0.00000000E+00
  0.00000000E+00  0.00000000E+00  0.00000000E+00
  0.00000000E+00  0.00000000E+00  0.00000000E+00
  0.00000000E+00  0.00000000E+00  0.00000000E+00
  0.00000000E+00  0.00000000E+00  0.00000000E+00
  0.00000000E+00  0.00000000E+00  0.00000000E+00
  0.00000000E+00  0.00000000E+00  0.00000000E+00
  0.00000000E+00  0.00000000E+00  0.00000000E+00
  0.00000000E+00  0.00000000E+00  0.00000000E+00
  0.00000000E+00  0.00000000E+00  0.00000000E+00
  0.00000000E+00  0.00000000E+00  0.00000000E+00
  0.00000000E+00  0.00000000E+00  0.00000000E+00
  0.00000000E+00  0.00000000E+00  0.00000000E+00
  0.00000000E+00  0.00000000E+00  0.00000000E+00
  0.00000000E+00  0.00000000E+00  0.00000000E+00
  0.00000000E+00  0.00000000E+00  0.00000000E+00
  0.00000000E+00  0.00000000E+00  0.00000000E+00
  0.00000000E+00  0.00000000E+00  0.00000000E+00
  0.00000000E+00  0.00000000E+00  0.00000000E+00
  0.00000000E+00  0.00000000E+00  0.00000000E+00
  0.00000000E+00  0.00000000E+00  0.00000000E+00
  0.00000000E+00  0.00000000E+00  0.00000000E+00
  0.00000000E+00  0.00000000E+00  0.00000000E+00
  0.00000000E+00  0.00000000E+00  0.00000000E+00
  0.00000000E+00  0.00000000E+00  0.00000000E+00
  0.00000000E+00  0.00000000E+00  0.00000000E+00
  0.00000000E+00  0.00000000E+00  0.00000000E+00
  0.00000000E+00  0.00000000E+00  0.00000000E+00
  0.00000000E+00  0.00000000E+00  0.00000000E+00
  0.00000000E+00  0.00000000E+00  0.00000000E+00
  0.00000000E+00  0.00000000E+00  0.00000000E+00
  0.00000000E+00  0.00000000E+00  0.00000000E+00
  0.00000000E+00  0.00000000E+00  0.00000000E+00
  0.00000000E+00  0.00000000E+00  0.00000000E+00
  0.00000000E+00  0.00000000E+00  0.00000000E+00
  0.00000000E+00  0.00000000E+00  0.00000000E+00
  0.00000000E+00  0.00000000E+00  0.00000000E+00
  0.00000000E+00  0.00000000E+00  0.00000000E+00
  0.00000000E+00  0.00000000E+00  0.00000000E+00
  0.00000000E+00  0.00000000E+00  0.00000000E+00
  0.00000000E+00  0.00000000E+00  0.00000000E+00
  0.00000000E+00  0.00000000E+00  0.00000000E+00
  0.00000000E+00  0.00000000E+00  0.00000000E+00
  0.00000000E+00  0.00000000E+00  0.00000000E+00
  0.00000000E+00  0.00000000E+00  0.00000000E+00
  0.00000000E+00  0.00000000E+00  0.00000000E+00
  0.00000000E+00  0.00000000E+00  0.00000000E+00
  0.00000000E+00  0.00000000E+00  0.00000000E+00
  0.00000000E+00  0.00000000E+00  0.00000000E+00
  0.00000000E+00  0.00000000E+00  0.00000000E+00
  0.00000000E+00  0.00000000E+00  0.00000000E+00
  0.00000000E+00  0.00000000E+00  0.00000000E+00
  0.00000000E+00  0.00000000E+00  0.00000000E+00
  0.00000000E+00  0.00000000E+00  0.00000000E+00
  0.00000000E+00  0.00000000E+00  0.00000000E+00
  0.00000000E+00  0.00000000E+00  0.00000000E+00
  0.00000000E+00  0.00000000E+00  0.00000000E+00
  0.00000000E+00  0.00000000E+00  0.00000000E+00
  0.00000000E+00  0.00000000E+00  0.00000000E+00
  0.00000000E+00  0.00000000E+00  0.00000000E+00
  0.00000000E+00  0.00000000E+00  0.00000000E+00
  0.00000000E+00  0.00000000E+00  0.00000000E+00
  0.00000000E+00  0.00000000E+00  0.00000000E+00
