Na O Zn                                 
   1.00000000000000     
     6.5625568183449996    0.0000000000000000    0.0000000000000000
     0.0000000000000000   10.5156600000000005    0.0000000000000000
     0.0000000000000000    0.0000000000000000   32.0500282661819966
   Na   O    Zn
     1    40    39
Selective dynamics
Direct
  0.2500161579867975  0.3067725835258190  0.4508269384230657   T   T   T
  0.2500251959097172  0.0014161490920789  0.0880801990584841   T   T   T
  0.2499779333504976  0.5017743159585314  0.0880361780811862   T   T   T
  0.7500212952423421  0.0014552291451307  0.0882015944600275   T   T   T
  0.7499823947079740  0.5015789293241556  0.0881762960730811   T   T   T
  0.0002822980590932  0.2479881812531368  0.1185437314069752   T   T   T
  0.0000659733170727  0.7479615295331310  0.1188114629444781   T   T   T
  0.4997213040647901  0.2480259048359949  0.1185517083292549   T   T   T
  0.4998799658730071  0.7479740071067933  0.1188181603322958   T   T   T
  0.0002792596072921  0.9979184406026665  0.1759901639014050   T   T   T
  0.0001795095221133  0.4981667963720442  0.1760107666476059   T   T   T
  0.4997196863735927  0.9979363563375275  0.1759695758706927   T   T   T
  0.4998097220970704  0.4981544773513184  0.1760256270285147   T   T   T
  0.2499994630129588  0.2466643369295956  0.2073525182901471   T   T   T
  0.2499958527628328  0.7466333896107803  0.2075525640914907   T   T   T
  0.7500051347804813  0.2466986778737385  0.2069831897398854   T   T   T
  0.7499935796643722  0.7467709112539312  0.2072860390114610   T   T   T
  0.2499900194828303  0.9970869233957750  0.2649510580809924   T   T   T
  0.2499856273427915  0.4966138245071238  0.2650426247701724   T   T   T
  0.7500168022862878  0.9966967349384093  0.2647046881984035   T   T   T
  0.7500180964184511  0.4974637193958753  0.2649287746995540   T   T   T
  0.9984057830333446  0.2471668290101396  0.2956341832906262   T   T   T
  0.9997850111587491  0.7465367730441063  0.2958305279573482   T   T   T
  0.5016011790737517  0.2471711130098061  0.2956304702910732   T   T   T
  0.5002196447485914  0.7465473524897802  0.2958299926384625   T   T   T
  0.9979666980978784  0.9957964466772856  0.3532143859336928   T   T   T
  0.0010127114064501  0.4966414762793045  0.3537252279707245   T   T   T
  0.5020348210505770  0.9957890198633493  0.3532132903151062   T   T   T
  0.4989871952357998  0.4966476667540942  0.3537258237414730   T   T   T
  0.2499657281222819  0.2437758197084771  0.3824883786706526   T   T   T
  0.2499906194387264  0.7503452780077218  0.3846984646434527   T   T   T
  0.7500218961900134  0.2515323493351624  0.3860655121727364   T   T   T
  0.7500193052801883  0.7442907369605928  0.3846662336381783   T   T   T
  0.2499873399019808  0.0011882001087920  0.4425436810732657   T   T   T
  0.2500072592874089  0.5109833498592830  0.4429259373971070   T   T   T
  0.7500056716491695  0.9959013019283486  0.4403490360213666   T   T   T
  0.7499916927992508  0.4979337606583115  0.4435338318208467   T   T   T
  0.9674546235784666  0.2378183237100962  0.4804559863760882   T   T   T
  0.9987560616325500  0.7577771999251111  0.4732834996190692   T   T   T
  0.5325251828705959  0.2378185703680339  0.4804559930788309   T   T   T
  0.5012384585540152  0.7577958477119844  0.4732909513897250   T   T   T
  0.2500005723265650  0.3273302202761433  0.0991672538738640   T   T   T
  0.2499577301845228  0.8271922651696180  0.0995079833184407   T   T   T
  0.7500004935873215  0.3271665250684640  0.0993938413004149   T   T   T
  0.7499761730818136  0.8272050592355026  0.0996103040851887   T   T   T
  0.0001634316702668  0.0585045804280785  0.1142113894172792   T   T   T
  0.0000818254305729  0.5586306165353560  0.1142259101717687   T   T   T
  0.4998594981491753  0.0585218910700974  0.1142135261343264   T   T   T
  0.4999186081764325  0.5586463423924927  0.1142159814513436   T   T   T
  0.0004766967826464  0.3092062147842578  0.1795376894753354   T   T   T
  0.0003805146054479  0.8090873426005497  0.1797856885350567   T   T   T
  0.4995316042428651  0.3092065528413169  0.1795316149411815   T   T   T
  0.4996027979978367  0.8091010689124739  0.1797820139505661   T   T   T
  0.2500208176982468  0.0557459783185367  0.2054216361708786   T   T   T
  0.2499989160383922  0.5556426477755977  0.2055590244615006   T   T   T
  0.7499783381986407  0.0557213782540657  0.2052460748902156   T   T   T
  0.7499951413867193  0.5558619631170431  0.2053712741883847   T   T   T
  0.2500062327333788  0.3061771759415173  0.2670542186828090   T   T   T
  0.2500035138338628  0.8068830396875389  0.2671126706059562   T   T   T
  0.7500049663394728  0.3072744616756337  0.2664747723292510   T   T   T
  0.7500044003615552  0.8065367825448744  0.2668424248289192   T   T   T
  0.9995045677576004  0.0571317509494727  0.2941160821659919   T   T   T
  0.0001718338779645  0.5561939630634302  0.2944986744472276   T   T   T
  0.5004749371603707  0.0571253359256591  0.2941120556683777   T   T   T
  0.4998358951871746  0.5561947552339190  0.2944922708174516   T   T   T
  0.0027410606635350  0.3055180273178312  0.3557861619668843   T   T   T
  0.9986664572436992  0.8052001583497763  0.3556143570700925   T   T   T
  0.4972525768542718  0.3054950370290873  0.3557913805754672   T   T   T
  0.5013519643651735  0.8051646537120124  0.3556155169434138   T   T   T
  0.2500097633119447  0.0588633865542029  0.3806058559297862   T   T   T
  0.2499853331994313  0.5591428758295488  0.3825670637995947   T   T   T
  0.7500102987422033  0.0622559888013156  0.3808758869321618   T   T   T
  0.7500100479562767  0.5548848950425359  0.3818484105752752   T   T   T
  0.2500092983125637  0.8097393888019896  0.4464737274774076   T   T   T
  0.7499827585712466  0.3086221353755456  0.4481287512551462   T   T   T
  0.7499979110213001  0.8083962588403938  0.4457347296925392   T   T   T
  0.9965704056956167  0.0712223542663769  0.4630943689466458   T   T   T
  0.9994531323686418  0.5824762479818453  0.4621712421625201   T   T   T
  0.5034367047612308  0.0712199101333734  0.4630904963866178   T   T   T
  0.5005587748078771  0.5824999109613038  0.4621636236957043   T   T   T
 
  0.00000000E+00  0.00000000E+00  0.00000000E+00
  0.00000000E+00  0.00000000E+00  0.00000000E+00
  0.00000000E+00  0.00000000E+00  0.00000000E+00
  0.00000000E+00  0.00000000E+00  0.00000000E+00
  0.00000000E+00  0.00000000E+00  0.00000000E+00
  0.00000000E+00  0.00000000E+00  0.00000000E+00
  0.00000000E+00  0.00000000E+00  0.00000000E+00
  0.00000000E+00  0.00000000E+00  0.00000000E+00
  0.00000000E+00  0.00000000E+00  0.00000000E+00
  0.00000000E+00  0.00000000E+00  0.00000000E+00
  0.00000000E+00  0.00000000E+00  0.00000000E+00
  0.00000000E+00  0.00000000E+00  0.00000000E+00
  0.00000000E+00  0.00000000E+00  0.00000000E+00
  0.00000000E+00  0.00000000E+00  0.00000000E+00
  0.00000000E+00  0.00000000E+00  0.00000000E+00
  0.00000000E+00  0.00000000E+00  0.00000000E+00
  0.00000000E+00  0.00000000E+00  0.00000000E+00
  0.00000000E+00  0.00000000E+00  0.00000000E+00
  0.00000000E+00  0.00000000E+00  0.00000000E+00
  0.00000000E+00  0.00000000E+00  0.00000000E+00
  0.00000000E+00  0.00000000E+00  0.00000000E+00
  0.00000000E+00  0.00000000E+00  0.00000000E+00
  0.00000000E+00  0.00000000E+00  0.00000000E+00
  0.00000000E+00  0.00000000E+00  0.00000000E+00
  0.00000000E+00  0.00000000E+00  0.00000000E+00
  0.00000000E+00  0.00000000E+00  0.00000000E+00
  0.00000000E+00  0.00000000E+00  0.00000000E+00
  0.00000000E+00  0.00000000E+00  0.00000000E+00
  0.00000000E+00  0.00000000E+00  0.00000000E+00
  0.00000000E+00  0.00000000E+00  0.00000000E+00
  0.00000000E+00  0.00000000E+00  0.00000000E+00
  0.00000000E+00  0.00000000E+00  0.00000000E+00
  0.00000000E+00  0.00000000E+00  0.00000000E+00
  0.00000000E+00  0.00000000E+00  0.00000000E+00
  0.00000000E+00  0.00000000E+00  0.00000000E+00
  0.00000000E+00  0.00000000E+00  0.00000000E+00
  0.00000000E+00  0.00000000E+00  0.00000000E+00
  0.00000000E+00  0.00000000E+00  0.00000000E+00
  0.00000000E+00  0.00000000E+00  0.00000000E+00
  0.00000000E+00  0.00000000E+00  0.00000000E+00
  0.00000000E+00  0.00000000E+00  0.00000000E+00
  0.00000000E+00  0.00000000E+00  0.00000000E+00
  0.00000000E+00  0.00000000E+00  0.00000000E+00
  0.00000000E+00  0.00000000E+00  0.00000000E+00
  0.00000000E+00  0.00000000E+00  0.00000000E+00
  0.00000000E+00  0.00000000E+00  0.00000000E+00
  0.00000000E+00  0.00000000E+00  0.00000000E+00
  0.00000000E+00  0.00000000E+00  0.00000000E+00
  0.00000000E+00  0.00000000E+00  0.00000000E+00
  0.00000000E+00  0.00000000E+00  0.00000000E+00
  0.00000000E+00  0.00000000E+00  0.00000000E+00
  0.00000000E+00  0.00000000E+00  0.00000000E+00
  0.00000000E+00  0.00000000E+00  0.00000000E+00
  0.00000000E+00  0.00000000E+00  0.00000000E+00
  0.00000000E+00  0.00000000E+00  0.00000000E+00
  0.00000000E+00  0.00000000E+00  0.00000000E+00
  0.00000000E+00  0.00000000E+00  0.00000000E+00
  0.00000000E+00  0.00000000E+00  0.00000000E+00
  0.00000000E+00  0.00000000E+00  0.00000000E+00
  0.00000000E+00  0.00000000E+00  0.00000000E+00
  0.00000000E+00  0.00000000E+00  0.00000000E+00
  0.00000000E+00  0.00000000E+00  0.00000000E+00
  0.00000000E+00  0.00000000E+00  0.00000000E+00
  0.00000000E+00  0.00000000E+00  0.00000000E+00
  0.00000000E+00  0.00000000E+00  0.00000000E+00
  0.00000000E+00  0.00000000E+00  0.00000000E+00
  0.00000000E+00  0.00000000E+00  0.00000000E+00
  0.00000000E+00  0.00000000E+00  0.00000000E+00
  0.00000000E+00  0.00000000E+00  0.00000000E+00
  0.00000000E+00  0.00000000E+00  0.00000000E+00
  0.00000000E+00  0.00000000E+00  0.00000000E+00
  0.00000000E+00  0.00000000E+00  0.00000000E+00
  0.00000000E+00  0.00000000E+00  0.00000000E+00
  0.00000000E+00  0.00000000E+00  0.00000000E+00
  0.00000000E+00  0.00000000E+00  0.00000000E+00
  0.00000000E+00  0.00000000E+00  0.00000000E+00
  0.00000000E+00  0.00000000E+00  0.00000000E+00
  0.00000000E+00  0.00000000E+00  0.00000000E+00
  0.00000000E+00  0.00000000E+00  0.00000000E+00
  0.00000000E+00  0.00000000E+00  0.00000000E+00
