Ag Na O Zn                              
   1.00000000000000     
     6.5625568183449996    0.0000000000000000    0.0000000000000000
     0.0000000000000000   10.5156600000000005    0.0000000000000000
     0.0000000000000000    0.0000000000000000   32.0500282661819966
   Ag   Na   O    Zn
     1     1    40    39
Selective dynamics
Direct
  0.5102110553415723  0.8931125398551067  0.5220498834715219   T   T   T
  0.2467634149313922  0.3131501985037256  0.4493616360855891   T   T   T
  0.2500432264678548  0.0015908638778686  0.0879427306143243   T   T   T
  0.2500077507088609  0.5017333866221717  0.0879342981757789   T   T   T
  0.7499647677622048  0.0016075904989774  0.0880394485129171   T   T   T
  0.7500077575208105  0.5015080302121977  0.0880510532867641   T   T   T
  0.0003050249297094  0.2479778474846075  0.1186335838043221   T   T   T
  0.0000614567120191  0.7479471915880945  0.1186245950290313   T   T   T
  0.4997182798658628  0.2479810139958645  0.1186494635417874   T   T   T
  0.4999245556917173  0.7479473534499302  0.1186030228826428   T   T   T
  0.0003256840780748  0.9979192525713381  0.1759806836974118   T   T   T
  0.0003118079855023  0.4977535709834736  0.1759619512730007   T   T   T
  0.4996982423403376  0.9979966774160063  0.1760102485135240   T   T   T
  0.4997257368346719  0.4977234997971266  0.1759564411862275   T   T   T
  0.2499795920719493  0.2466167745958548  0.2076425737687267   T   T   T
  0.2501019431870713  0.7463500221919009  0.2073287614551552   T   T   T
  0.7500317600650959  0.2464866673259468  0.2069390806440579   T   T   T
  0.7498866557942208  0.7464459914213921  0.2070723197436736   T   T   T
  0.2498724097508243  0.9969046653543164  0.2652092235162858   T   T   T
  0.2502482326555405  0.4964911070007986  0.2651763457100533   T   T   T
  0.7500040305926393  0.9965622455524970  0.2648695309436874   T   T   T
  0.7498510604168207  0.4972748157275005  0.2649126142736261   T   T   T
  0.9974822395824861  0.2468851289987417  0.2958673479537768   T   T   T
  0.9994824818547757  0.7457308392929438  0.2953657189924287   T   T   T
  0.5024111282844418  0.2469487302324438  0.2958968316754949   T   T   T
  0.5003041766033320  0.7459904133118462  0.2956699439580155   T   T   T
  0.9961011276244678  0.9949378302855926  0.3535996717683794   T   T   T
  0.0005142642591721  0.4955856319175733  0.3538194892984879   T   T   T
  0.5033398012686418  0.9952652027690474  0.3535558135717038   T   T   T
  0.5000360922307514  0.4958330716764854  0.3539525770970627   T   T   T
  0.2500600947087274  0.2425751511255259  0.3817095490875554   T   T   T
  0.2491896045769342  0.7494321103006235  0.3836675173766291   T   T   T
  0.7499282567393228  0.2518544540362692  0.3876989297867584   T   T   T
  0.7496173969429204  0.7412530586483084  0.3844269938709199   T   T   T
  0.2492785082817634 -0.0040896474216896  0.4419532249376059   T   T   T
  0.2493138879789652  0.5196336672393382  0.4429467395937229   T   T   T
  0.7479997212776910  0.9964521017278806  0.4412502735724087   T   T   T
  0.7527065413657247  0.4965776854824704  0.4451552734137956   T   T   T
  0.9861054302999031  0.2388681031350188  0.4825581372437758   T   T   T
  0.9961380817826402  0.7588612655993979  0.4754000118771153   T   T   T
  0.5136724319913585  0.2423556572563301  0.4817314739638464   T   T   T
  0.5012409345460195  0.7563361274117453  0.4728920480006406   T   T   T
  0.2500307469115060  0.3274373957507747  0.0991975937855735   T   T   T
  0.2499640570820627  0.8272735350919814  0.0992552569239828   T   T   T
  0.7499899245906765  0.3272216572046456  0.0993911005637560   T   T   T
  0.7500150593072143  0.8272586389169910  0.0993249579352397   T   T   T
  0.0001320927768355  0.0585402628551317  0.1139325983311548   T   T   T
  0.0000857383993208  0.5584751884143032  0.1139512401802811   T   T   T
  0.4998840672927072  0.0585409386847706  0.1139724425738744   T   T   T
  0.4999305919778569  0.5584587751104915  0.1139583172821866   T   T   T
  0.0007939106993735  0.3088229027484949  0.1794736732705003   T   T   T
  0.0003153883115651  0.8089785528869626  0.1793954228961734   T   T   T
  0.4992198200448654  0.3087989208894875  0.1794916927550174   T   T   T
  0.4996866688993877  0.8090674533709180  0.1793466011556638   T   T   T
  0.2499152247630230  0.0557244176253510  0.2053307729893445   T   T   T
  0.2500562506831764  0.5551343850110648  0.2053508028463812   T   T   T
  0.7501047756099356  0.0555886488941818  0.2051421701516575   T   T   T
  0.7499877502317009  0.5554461021198049  0.2050585744159403   T   T   T
  0.2500284140335926  0.3056789275602856  0.2673678611641064   T   T   T
  0.2502901445244571  0.8067833507428301  0.2665020372528138   T   T   T
  0.7498329935377251  0.3067707878612557  0.2662509338158828   T   T   T
  0.7494991699567424  0.8066874790506171  0.2662041929231194   T   T   T
  0.9993242166381624  0.0570483542953096  0.2943201325140455   T   T   T
 -0.0002368125162118  0.5550370951638637  0.2942863464235303   T   T   T
  0.5005736094880582  0.0570987179491756  0.2942863391907061   T   T   T
  0.5003411260242207  0.5553515249145401  0.2944200175639003   T   T   T
 -0.0007171287877249  0.3032381375332930  0.3563008397039427   T   T   T
  0.9965829402107196  0.8054981072745975  0.3541930604945913   T   T   T
  0.5006036355842005  0.3035085583252979  0.3563497813159991   T   T   T
  0.5022010523689630  0.8059203841089145  0.3547191497231634   T   T   T
  0.2496452520714028  0.0582598475175034  0.3806863996206342   T   T   T
  0.2498422336092055  0.5583669527821439  0.3815691590572378   T   T   T
  0.7497540445017312  0.0643397974506419  0.3816421958844798   T   T   T
  0.7507563983872978  0.5499994524303998  0.3825643474770548   T   T   T
  0.2389797450157053  0.8069090029672177  0.4432562118094364   T   T   T
  0.7536033074664819  0.3021531085612503  0.4539301009108993   T   T   T
  0.7596473274635110  0.8102418278207220  0.4423679583779737   T   T   T
  0.9994315122778628  0.0749538178546788  0.4638476065723615   T   T   T
  0.9970599652373608  0.5823512354276825  0.4639442116705110   T   T   T
  0.4962580907370836  0.0797821490444662  0.4622967786016124   T   T   T
  0.5045469149514374  0.5753308675013640  0.4629977966480348   T   T   T
 
  0.00000000E+00  0.00000000E+00  0.00000000E+00
  0.00000000E+00  0.00000000E+00  0.00000000E+00
  0.00000000E+00  0.00000000E+00  0.00000000E+00
  0.00000000E+00  0.00000000E+00  0.00000000E+00
  0.00000000E+00  0.00000000E+00  0.00000000E+00
  0.00000000E+00  0.00000000E+00  0.00000000E+00
  0.00000000E+00  0.00000000E+00  0.00000000E+00
  0.00000000E+00  0.00000000E+00  0.00000000E+00
  0.00000000E+00  0.00000000E+00  0.00000000E+00
  0.00000000E+00  0.00000000E+00  0.00000000E+00
  0.00000000E+00  0.00000000E+00  0.00000000E+00
  0.00000000E+00  0.00000000E+00  0.00000000E+00
  0.00000000E+00  0.00000000E+00  0.00000000E+00
  0.00000000E+00  0.00000000E+00  0.00000000E+00
  0.00000000E+00  0.00000000E+00  0.00000000E+00
  0.00000000E+00  0.00000000E+00  0.00000000E+00
  0.00000000E+00  0.00000000E+00  0.00000000E+00
  0.00000000E+00  0.00000000E+00  0.00000000E+00
  0.00000000E+00  0.00000000E+00  0.00000000E+00
  0.00000000E+00  0.00000000E+00  0.00000000E+00
  0.00000000E+00  0.00000000E+00  0.00000000E+00
  0.00000000E+00  0.00000000E+00  0.00000000E+00
  0.00000000E+00  0.00000000E+00  0.00000000E+00
  0.00000000E+00  0.00000000E+00  0.00000000E+00
  0.00000000E+00  0.00000000E+00  0.00000000E+00
  0.00000000E+00  0.00000000E+00  0.00000000E+00
  0.00000000E+00  0.00000000E+00  0.00000000E+00
  0.00000000E+00  0.00000000E+00  0.00000000E+00
  0.00000000E+00  0.00000000E+00  0.00000000E+00
  0.00000000E+00  0.00000000E+00  0.00000000E+00
  0.00000000E+00  0.00000000E+00  0.00000000E+00
  0.00000000E+00  0.00000000E+00  0.00000000E+00
  0.00000000E+00  0.00000000E+00  0.00000000E+00
  0.00000000E+00  0.00000000E+00  0.00000000E+00
  0.00000000E+00  0.00000000E+00  0.00000000E+00
  0.00000000E+00  0.00000000E+00  0.00000000E+00
  0.00000000E+00  0.00000000E+00  0.00000000E+00
  0.00000000E+00  0.00000000E+00  0.00000000E+00
  0.00000000E+00  0.00000000E+00  0.00000000E+00
  0.00000000E+00  0.00000000E+00  0.00000000E+00
  0.00000000E+00  0.00000000E+00  0.00000000E+00
  0.00000000E+00  0.00000000E+00  0.00000000E+00
  0.00000000E+00  0.00000000E+00  0.00000000E+00
  0.00000000E+00  0.00000000E+00  0.00000000E+00
  0.00000000E+00  0.00000000E+00  0.00000000E+00
  0.00000000E+00  0.00000000E+00  0.00000000E+00
  0.00000000E+00  0.00000000E+00  0.00000000E+00
  0.00000000E+00  0.00000000E+00  0.00000000E+00
  0.00000000E+00  0.00000000E+00  0.00000000E+00
  0.00000000E+00  0.00000000E+00  0.00000000E+00
  0.00000000E+00  0.00000000E+00  0.00000000E+00
  0.00000000E+00  0.00000000E+00  0.00000000E+00
  0.00000000E+00  0.00000000E+00  0.00000000E+00
  0.00000000E+00  0.00000000E+00  0.00000000E+00
  0.00000000E+00  0.00000000E+00  0.00000000E+00
  0.00000000E+00  0.00000000E+00  0.00000000E+00
  0.00000000E+00  0.00000000E+00  0.00000000E+00
  0.00000000E+00  0.00000000E+00  0.00000000E+00
  0.00000000E+00  0.00000000E+00  0.00000000E+00
  0.00000000E+00  0.00000000E+00  0.00000000E+00
  0.00000000E+00  0.00000000E+00  0.00000000E+00
  0.00000000E+00  0.00000000E+00  0.00000000E+00
  0.00000000E+00  0.00000000E+00  0.00000000E+00
  0.00000000E+00  0.00000000E+00  0.00000000E+00
  0.00000000E+00  0.00000000E+00  0.00000000E+00
  0.00000000E+00  0.00000000E+00  0.00000000E+00
  0.00000000E+00  0.00000000E+00  0.00000000E+00
  0.00000000E+00  0.00000000E+00  0.00000000E+00
  0.00000000E+00  0.00000000E+00  0.00000000E+00
  0.00000000E+00  0.00000000E+00  0.00000000E+00
  0.00000000E+00  0.00000000E+00  0.00000000E+00
  0.00000000E+00  0.00000000E+00  0.00000000E+00
  0.00000000E+00  0.00000000E+00  0.00000000E+00
  0.00000000E+00  0.00000000E+00  0.00000000E+00
  0.00000000E+00  0.00000000E+00  0.00000000E+00
  0.00000000E+00  0.00000000E+00  0.00000000E+00
  0.00000000E+00  0.00000000E+00  0.00000000E+00
  0.00000000E+00  0.00000000E+00  0.00000000E+00
  0.00000000E+00  0.00000000E+00  0.00000000E+00
  0.00000000E+00  0.00000000E+00  0.00000000E+00
  0.00000000E+00  0.00000000E+00  0.00000000E+00
