Na O Rh Zn                              
   1.00000000000000     
     6.5625568183449996    0.0000000000000000    0.0000000000000000
     0.0000000000000000   10.5156600000000005    0.0000000000000000
     0.0000000000000000    0.0000000000000000   32.0500282661819966
   Na   O    Rh   Zn
     1    40     1    39
Selective dynamics
Direct
  0.2511254886174112  0.3102155907075009  0.4491381651007058   T   T   T
  0.2500162195214827  0.0015814699324115  0.0878216883133351   T   T   T
  0.2499881509621271  0.5017237139464374  0.0878794453348302   T   T   T
  0.7499761371164534  0.0015985711614916  0.0879243642727254   T   T   T
  0.7500125810097894  0.5015075319285748  0.0880172022539927   T   T   T
  0.0003193344758136  0.2480082648091891  0.1185234114844413   T   T   T
  0.0000749241644486  0.7479608039021007  0.1185795532211375   T   T   T
  0.4997093900496946  0.2480100337583276  0.1184998100080777   T   T   T
  0.4998816942626537  0.7479746049075691  0.1185468167990207   T   T   T
  0.0003046446087409  0.9978762204727296  0.1758403065260185   T   T   T
  0.0003453633093720  0.4979739604522315  0.1760205232852557   T   T   T
  0.4996533504586767  0.9979441723266337  0.1758812648795043   T   T   T
  0.4997004602211922  0.4979606661239360  0.1759941787359752   T   T   T
  0.2500411070211447  0.2466693218795383  0.2074195545402895   T   T   T
  0.2500105972732679  0.7463121845121981  0.2072378646440996   T   T   T
  0.7499716228237747  0.2465376153779696  0.2067351134372891   T   T   T
  0.7498935734358259  0.7464279818075078  0.2069813059229428   T   T   T
  0.2496618756754800  0.9969409311755182  0.2650185599747689   T   T   T
  0.2502542251894974  0.4966192898718037  0.2651987853987682   T   T   T
  0.7501808653409492  0.9966282621408398  0.2646935686546414   T   T   T
  0.7500024931733674  0.4974634685829469  0.2649343384278817   T   T   T
  0.9975610919883093  0.2472275533838645  0.2954471766760021   T   T   T
  0.9993631064429386  0.7461080205182604  0.2953530572318018   T   T   T
  0.5023203586332150  0.2472829472464771  0.2954671391015218   T   T   T
  0.5000134662486327  0.7461865201758775  0.2955180288467242   T   T   T
  0.9967201070234656  0.9964978906772878  0.3535897281866587   T   T   T
  0.0012411010580205  0.4968566659028277  0.3538989291006541   T   T   T
  0.5027525432147057  0.9961807713794921  0.3532621234985657   T   T   T
  0.4999729735048951  0.4971305375858793  0.3540136592735348   T   T   T
  0.2496341780333322  0.2448817796386692  0.3813564799587849   T   T   T
  0.2487769459358684  0.7499696105934187  0.3838386617992469   T   T   T
  0.7495190938307476  0.2541431499080026  0.3867894059650873   T   T   T
  0.7485595508347287  0.7421519313551282  0.3841588440685453   T   T   T
  0.2487618378171189  0.9996977669451089  0.4418244904915207   T   T   T
  0.2522873250169707  0.5193303836001970  0.4434376855229404   T   T   T
  0.7516296128819013  0.9983318006032788  0.4404676725521668   T   T   T
  0.7520617839442851  0.4976641769341772  0.4449669066587996   T   T   T
  0.9799304040191832  0.2428173397885515  0.4813650865426701   T   T   T
  0.9949575566682273  0.7577016787599994  0.4752945070466174   T   T   T
  0.5176193710683686  0.2370924586715902  0.4811958349246536   T   T   T
  0.4985189131861863  0.7605862708062275  0.4726825980678372   T   T   T
  0.5099870575060071  0.8666476912015573  0.5239753078072695   T   T   T
  0.2499932966731885  0.3274108770638958  0.0991005950664310   T   T   T
  0.2499326318984979  0.8273040375924902  0.0991681547839385   T   T   T
  0.7500397204531238  0.3272031981495496  0.0993214963073155   T   T   T
  0.7500242996279971  0.8273051112479036  0.0992637497669057   T   T   T
  0.0001326180742067  0.0585776312145150  0.1138051039991853   T   T   T
  0.0001067345437885  0.5584859705757461  0.1139269864722584   T   T   T
  0.4998621207366567  0.0585667457774212  0.1138274226093938   T   T   T
  0.4998948901727328  0.5584982025238692  0.1139129375190491   T   T   T
  0.0008081938773206  0.3089342157637806  0.1793141909312989   T   T   T
  0.0003185784331603  0.8090269268399111  0.1793345085462860   T   T   T
  0.4992177740872186  0.3089123056192235  0.1792790557753455   T   T   T
  0.4996218451368600  0.8090704513895475  0.1792880742114465   T   T   T
  0.2498595303970603  0.0556905199318085  0.2052600388990714   T   T   T
  0.2500748307011413  0.5551513173261067  0.2054496405236711   T   T   T
  0.7501071519493789  0.0555253006658504  0.2050485307508362   T   T   T
  0.7499797872316324  0.5554127521668081  0.2051408745241024   T   T   T
  0.2499202320049205  0.3059270667308209  0.2670609987939622   T   T   T
  0.2500268808284240  0.8069842221811785  0.2663931744027193   T   T   T
  0.7499930647606010  0.3070443518170501  0.2659946271134572   T   T   T
  0.7494499325446936  0.8068304273905424  0.2661327226321417   T   T   T
  0.9993780476137610  0.0572638159859810  0.2943359050446375   T   T   T
 -0.0000294072616583  0.5555385737132635  0.2942989449066981   T   T   T
  0.5004865151420994  0.0572761769943298  0.2940490581198041   T   T   T
  0.5003116188871156  0.5556561844802278  0.2943940187633821   T   T   T
  0.0000662801861523  0.3043322289547494  0.3556774141353500   T   T   T
  0.9969499990620253  0.8072273622983944  0.3539654435936293   T   T   T
  0.4991474133951622  0.3046743493397976  0.3556588185508142   T   T   T
  0.5008231284682519  0.8070393876306825  0.3544259118641751   T   T   T
  0.2514289458777448  0.0601805405165350  0.3812478195118980   T   T   T
  0.2501838221720511  0.5583425719469678  0.3819540091422867   T   T   T
  0.7480376430496508  0.0655216503765381  0.3816977342271348   T   T   T
  0.7510897106796340  0.5509678274626141  0.3824361241273160   T   T   T
  0.2320354496175102  0.8123734719993817  0.4426099782368483   T   T   T
  0.7465791056282388  0.3003773166949030  0.4513622818700276   T   T   T
  0.7654842580887264  0.8137817252525811  0.4413348412734757   T   T   T
  0.0000010248974189  0.0776303782548925  0.4633404968499321   T   T   T
  0.9985837635193110  0.5812882304023351  0.4639436250265032   T   T   T
  0.5018259649829271  0.0641083543119313  0.4705423394759898   T   T   T
  0.5061079930479709  0.5773787969645088  0.4628335445509758   T   T   T
 
  0.00000000E+00  0.00000000E+00  0.00000000E+00
  0.00000000E+00  0.00000000E+00  0.00000000E+00
  0.00000000E+00  0.00000000E+00  0.00000000E+00
  0.00000000E+00  0.00000000E+00  0.00000000E+00
  0.00000000E+00  0.00000000E+00  0.00000000E+00
  0.00000000E+00  0.00000000E+00  0.00000000E+00
  0.00000000E+00  0.00000000E+00  0.00000000E+00
  0.00000000E+00  0.00000000E+00  0.00000000E+00
  0.00000000E+00  0.00000000E+00  0.00000000E+00
  0.00000000E+00  0.00000000E+00  0.00000000E+00
  0.00000000E+00  0.00000000E+00  0.00000000E+00
  0.00000000E+00  0.00000000E+00  0.00000000E+00
  0.00000000E+00  0.00000000E+00  0.00000000E+00
  0.00000000E+00  0.00000000E+00  0.00000000E+00
  0.00000000E+00  0.00000000E+00  0.00000000E+00
  0.00000000E+00  0.00000000E+00  0.00000000E+00
  0.00000000E+00  0.00000000E+00  0.00000000E+00
  0.00000000E+00  0.00000000E+00  0.00000000E+00
  0.00000000E+00  0.00000000E+00  0.00000000E+00
  0.00000000E+00  0.00000000E+00  0.00000000E+00
  0.00000000E+00  0.00000000E+00  0.00000000E+00
  0.00000000E+00  0.00000000E+00  0.00000000E+00
  0.00000000E+00  0.00000000E+00  0.00000000E+00
  0.00000000E+00  0.00000000E+00  0.00000000E+00
  0.00000000E+00  0.00000000E+00  0.00000000E+00
  0.00000000E+00  0.00000000E+00  0.00000000E+00
  0.00000000E+00  0.00000000E+00  0.00000000E+00
  0.00000000E+00  0.00000000E+00  0.00000000E+00
  0.00000000E+00  0.00000000E+00  0.00000000E+00
  0.00000000E+00  0.00000000E+00  0.00000000E+00
  0.00000000E+00  0.00000000E+00  0.00000000E+00
  0.00000000E+00  0.00000000E+00  0.00000000E+00
  0.00000000E+00  0.00000000E+00  0.00000000E+00
  0.00000000E+00  0.00000000E+00  0.00000000E+00
  0.00000000E+00  0.00000000E+00  0.00000000E+00
  0.00000000E+00  0.00000000E+00  0.00000000E+00
  0.00000000E+00  0.00000000E+00  0.00000000E+00
  0.00000000E+00  0.00000000E+00  0.00000000E+00
  0.00000000E+00  0.00000000E+00  0.00000000E+00
  0.00000000E+00  0.00000000E+00  0.00000000E+00
  0.00000000E+00  0.00000000E+00  0.00000000E+00
  0.00000000E+00  0.00000000E+00  0.00000000E+00
  0.00000000E+00  0.00000000E+00  0.00000000E+00
  0.00000000E+00  0.00000000E+00  0.00000000E+00
  0.00000000E+00  0.00000000E+00  0.00000000E+00
  0.00000000E+00  0.00000000E+00  0.00000000E+00
  0.00000000E+00  0.00000000E+00  0.00000000E+00
  0.00000000E+00  0.00000000E+00  0.00000000E+00
  0.00000000E+00  0.00000000E+00  0.00000000E+00
  0.00000000E+00  0.00000000E+00  0.00000000E+00
  0.00000000E+00  0.00000000E+00  0.00000000E+00
  0.00000000E+00  0.00000000E+00  0.00000000E+00
  0.00000000E+00  0.00000000E+00  0.00000000E+00
  0.00000000E+00  0.00000000E+00  0.00000000E+00
  0.00000000E+00  0.00000000E+00  0.00000000E+00
  0.00000000E+00  0.00000000E+00  0.00000000E+00
  0.00000000E+00  0.00000000E+00  0.00000000E+00
  0.00000000E+00  0.00000000E+00  0.00000000E+00
  0.00000000E+00  0.00000000E+00  0.00000000E+00
  0.00000000E+00  0.00000000E+00  0.00000000E+00
  0.00000000E+00  0.00000000E+00  0.00000000E+00
  0.00000000E+00  0.00000000E+00  0.00000000E+00
  0.00000000E+00  0.00000000E+00  0.00000000E+00
  0.00000000E+00  0.00000000E+00  0.00000000E+00
  0.00000000E+00  0.00000000E+00  0.00000000E+00
  0.00000000E+00  0.00000000E+00  0.00000000E+00
  0.00000000E+00  0.00000000E+00  0.00000000E+00
  0.00000000E+00  0.00000000E+00  0.00000000E+00
  0.00000000E+00  0.00000000E+00  0.00000000E+00
  0.00000000E+00  0.00000000E+00  0.00000000E+00
  0.00000000E+00  0.00000000E+00  0.00000000E+00
  0.00000000E+00  0.00000000E+00  0.00000000E+00
  0.00000000E+00  0.00000000E+00  0.00000000E+00
  0.00000000E+00  0.00000000E+00  0.00000000E+00
  0.00000000E+00  0.00000000E+00  0.00000000E+00
  0.00000000E+00  0.00000000E+00  0.00000000E+00
  0.00000000E+00  0.00000000E+00  0.00000000E+00
  0.00000000E+00  0.00000000E+00  0.00000000E+00
  0.00000000E+00  0.00000000E+00  0.00000000E+00
  0.00000000E+00  0.00000000E+00  0.00000000E+00
  0.00000000E+00  0.00000000E+00  0.00000000E+00
