Co Na  O Zn                             
   1.00000000000000     
     6.5625568183449996    0.0000000000000000    0.0000000000000000
     0.0000000000000000   10.5156600000000005    0.0000000000000000
     0.0000000000000000    0.0000000000000000   32.0500282661819966
   Co   Na   O    Zn
     1     1    40    39
Selective dynamics
Direct
  0.7500644785923750  0.7459077021293132  0.4963427018044245   T   T   T
  0.2500052132370768  0.3191391202841040  0.4484108913868359   T   T   T
  0.2499934438396927  0.0013202241495427  0.0879270122035493   T   T   T
  0.2499865062497506  0.5015163385033231  0.0877328364718704   T   T   T
  0.7499945787990148  0.0016927931079392  0.0878212090036987   T   T   T
  0.7499927824792337  0.5012290897938623  0.0876107763742078   T   T   T
  0.0001221098256823  0.2478026747739709  0.1183915791620918   T   T   T
  0.9995969501455044  0.7477317708970858  0.1182945335854311   T   T   T
  0.4998668379313889  0.2478021908921898  0.1183911916642355   T   T   T
  0.5003831095532172  0.7477288395409536  0.1182938790923034   T   T   T
  0.9997581891295014  0.9975902154686310  0.1759924483073547   T   T   T
  0.9995066048415822  0.4975520862988664  0.1757439599495613   T   T   T
  0.5002353994546144  0.9975871396683035  0.1759919639896683   T   T   T
  0.5004739874456875  0.4975480548366750  0.1757418353881921   T   T   T
  0.2499961369017056  0.2462147576896225  0.2069925800136060   T   T   T
  0.2499935946295689  0.7457100768790810  0.2063839029295686   T   T   T
  0.7499928262276880  0.2461563213293413  0.2068718607772596   T   T   T
  0.7499955684230636  0.7461811391841021  0.2072400763810564   T   T   T
  0.2499995303632553  0.9968061255930407  0.2649362397378879   T   T   T
  0.2499904753785590  0.4956749730606960  0.2644246485277302   T   T   T
  0.7499881701344180  0.9959879361909657  0.2651732693538486   T   T   T
  0.7499802501048343  0.4971561978750992  0.2649728461497747   T   T   T
  0.9986230993847196  0.2467549177995577  0.2952204776372740   T   T   T
  0.0029042936734676  0.7454301231828160  0.2950397831096659   T   T   T
  0.5013720692858720  0.2467616962918507  0.2952344843289536   T   T   T
  0.4970845765469399  0.7454257594883199  0.2950360200150747   T   T   T
  0.9983950417451588  0.9946807734704733  0.3537645798006411   T   T   T
  0.0061230588140333  0.4975499617014454  0.3535906473694539   T   T   T
  0.5015880339348777  0.9946844668961493  0.3537742554855595   T   T   T
  0.4938121697754644  0.4975358022413531  0.3535980412277624   T   T   T
  0.2499861164452780  0.2407203018036913  0.3816961321743649   T   T   T
  0.2499984178841157  0.7535790703930871  0.3884918551066155   T   T   T
  0.7500615986308021  0.2562162514235158  0.3849530978054674   T   T   T
  0.7499772990270901  0.7379666895026936  0.3793013339227275   T   T   T
  0.2499433287500677  0.9900506528602280  0.4442695677836760   T   T   T
  0.2499470949031867  0.5296631614245184  0.4448163405559060   T   T   T
  0.7500924595027472  0.0048450588832212  0.4397962842345542   T   T   T
  0.7500131056910367  0.4933396837476168  0.4420999554993327   T   T   T
  0.9881510449817659  0.2453172539469542  0.4802176487416233   T   T   T
  0.0163613351651776  0.7503421223048267  0.4882697272041215   T   T   T
  0.5120961239167818  0.2452988990010383  0.4801483311808147   T   T   T
  0.4836698124666914  0.7503556856873506  0.4882225171568821   T   T   T
  0.2499941163936262  0.3271178683646248  0.0989769079826807   T   T   T
  0.2499901321947407  0.8269127376344645  0.0990422597848370   T   T   T
  0.7499961609352976  0.3269177341931930  0.0990229517763699   T   T   T
  0.7499886199692485  0.8272425267189433  0.0987818304360132   T   T   T
  0.9999837422260899  0.0583121507060730  0.1139116767399034   T   T   T
  0.9997312473760761  0.5581344432149389  0.1136945335932095   T   T   T
  0.5000033862257008  0.0583116198869308  0.1139114904205483   T   T   T
  0.5002471683214558  0.5581316630457008  0.1136920266788661   T   T   T
  0.0000968616429714  0.3085193034429328  0.1791904890339175   T   T   T
  0.9990969493939550  0.8087119773882825  0.1789972798655460   T   T   T
  0.4998904863517668  0.3085170862194587  0.1791898258387076   T   T   T
  0.5008912216065172  0.8087081171525400  0.1789969565903649   T   T   T
  0.2499988985470576  0.0555136268649552  0.2051168276774988   T   T   T
  0.2499943757173877  0.5545277340134852  0.2048477313349970   T   T   T
  0.7499964638414760  0.0552304912262364  0.2054242711135761   T   T   T
  0.7499854323883800  0.5550835263190694  0.2051239525798239   T   T   T
  0.2500117319811955  0.3051323188206261  0.2665659511254708   T   T   T
  0.2499890443213618  0.8071162094168076  0.2651149596656724   T   T   T
  0.7499786471515199  0.3065237058433933  0.2662050411185858   T   T   T
  0.7499984618630919  0.8061046900322935  0.2665490994491821   T   T   T
  0.0003869169084623  0.0570715007569578  0.2943903939680813   T   T   T
  0.0014439834549642  0.5545072959758180  0.2939981645717355   T   T   T
  0.4995994464341981  0.0570782685729995  0.2943954578541711   T   T   T
  0.4985257380620453  0.5544999789127862  0.2940044580563406   T   T   T
  0.0043262941257099  0.3046759662272572  0.3554771564420708   T   T   T
  0.0094544553580689  0.8057054212690982  0.3534782127124488   T   T   T
  0.4957161883316305  0.3046582915621970  0.3555042754060057   T   T   T
  0.4905186820580306  0.8057052302424268  0.3534715921579871   T   T   T
  0.2499653680718162  0.0558735991949535  0.3830405267270972   T   T   T
  0.2499545058034801  0.5613207315851880  0.3833822149256784   T   T   T
  0.7500100668197472  0.0708183198217210  0.3797752321373890   T   T   T
  0.7499715787613687  0.5443958302524531  0.3814452076038133   T   T   T
  0.2499800574805470  0.8035657040713452  0.4510315357789115   T   T   T
  0.7501955276289757  0.3000066421167510  0.4518837849839408   T   T   T
  0.7500237678814373  0.8276155826784414  0.4300954826856710   T   T   T
  0.0055443902922006  0.0790936141678305  0.4649335419774548   T   T   T
  0.9887520224274983  0.5722730537470957  0.4669568402018293   T   T   T
  0.4944057877155945  0.0790165191433961  0.4648704597616987   T   T   T
  0.5111701204005210  0.5721949625088955  0.4669380941722291   T   T   T
 
  0.00000000E+00  0.00000000E+00  0.00000000E+00
  0.00000000E+00  0.00000000E+00  0.00000000E+00
  0.00000000E+00  0.00000000E+00  0.00000000E+00
  0.00000000E+00  0.00000000E+00  0.00000000E+00
  0.00000000E+00  0.00000000E+00  0.00000000E+00
  0.00000000E+00  0.00000000E+00  0.00000000E+00
  0.00000000E+00  0.00000000E+00  0.00000000E+00
  0.00000000E+00  0.00000000E+00  0.00000000E+00
  0.00000000E+00  0.00000000E+00  0.00000000E+00
  0.00000000E+00  0.00000000E+00  0.00000000E+00
  0.00000000E+00  0.00000000E+00  0.00000000E+00
  0.00000000E+00  0.00000000E+00  0.00000000E+00
  0.00000000E+00  0.00000000E+00  0.00000000E+00
  0.00000000E+00  0.00000000E+00  0.00000000E+00
  0.00000000E+00  0.00000000E+00  0.00000000E+00
  0.00000000E+00  0.00000000E+00  0.00000000E+00
  0.00000000E+00  0.00000000E+00  0.00000000E+00
  0.00000000E+00  0.00000000E+00  0.00000000E+00
  0.00000000E+00  0.00000000E+00  0.00000000E+00
  0.00000000E+00  0.00000000E+00  0.00000000E+00
  0.00000000E+00  0.00000000E+00  0.00000000E+00
  0.00000000E+00  0.00000000E+00  0.00000000E+00
  0.00000000E+00  0.00000000E+00  0.00000000E+00
  0.00000000E+00  0.00000000E+00  0.00000000E+00
  0.00000000E+00  0.00000000E+00  0.00000000E+00
  0.00000000E+00  0.00000000E+00  0.00000000E+00
  0.00000000E+00  0.00000000E+00  0.00000000E+00
  0.00000000E+00  0.00000000E+00  0.00000000E+00
  0.00000000E+00  0.00000000E+00  0.00000000E+00
  0.00000000E+00  0.00000000E+00  0.00000000E+00
  0.00000000E+00  0.00000000E+00  0.00000000E+00
  0.00000000E+00  0.00000000E+00  0.00000000E+00
  0.00000000E+00  0.00000000E+00  0.00000000E+00
  0.00000000E+00  0.00000000E+00  0.00000000E+00
  0.00000000E+00  0.00000000E+00  0.00000000E+00
  0.00000000E+00  0.00000000E+00  0.00000000E+00
  0.00000000E+00  0.00000000E+00  0.00000000E+00
  0.00000000E+00  0.00000000E+00  0.00000000E+00
  0.00000000E+00  0.00000000E+00  0.00000000E+00
  0.00000000E+00  0.00000000E+00  0.00000000E+00
  0.00000000E+00  0.00000000E+00  0.00000000E+00
  0.00000000E+00  0.00000000E+00  0.00000000E+00
  0.00000000E+00  0.00000000E+00  0.00000000E+00
  0.00000000E+00  0.00000000E+00  0.00000000E+00
  0.00000000E+00  0.00000000E+00  0.00000000E+00
  0.00000000E+00  0.00000000E+00  0.00000000E+00
  0.00000000E+00  0.00000000E+00  0.00000000E+00
  0.00000000E+00  0.00000000E+00  0.00000000E+00
  0.00000000E+00  0.00000000E+00  0.00000000E+00
  0.00000000E+00  0.00000000E+00  0.00000000E+00
  0.00000000E+00  0.00000000E+00  0.00000000E+00
  0.00000000E+00  0.00000000E+00  0.00000000E+00
  0.00000000E+00  0.00000000E+00  0.00000000E+00
  0.00000000E+00  0.00000000E+00  0.00000000E+00
  0.00000000E+00  0.00000000E+00  0.00000000E+00
  0.00000000E+00  0.00000000E+00  0.00000000E+00
  0.00000000E+00  0.00000000E+00  0.00000000E+00
  0.00000000E+00  0.00000000E+00  0.00000000E+00
  0.00000000E+00  0.00000000E+00  0.00000000E+00
  0.00000000E+00  0.00000000E+00  0.00000000E+00
  0.00000000E+00  0.00000000E+00  0.00000000E+00
  0.00000000E+00  0.00000000E+00  0.00000000E+00
  0.00000000E+00  0.00000000E+00  0.00000000E+00
  0.00000000E+00  0.00000000E+00  0.00000000E+00
  0.00000000E+00  0.00000000E+00  0.00000000E+00
  0.00000000E+00  0.00000000E+00  0.00000000E+00
  0.00000000E+00  0.00000000E+00  0.00000000E+00
  0.00000000E+00  0.00000000E+00  0.00000000E+00
  0.00000000E+00  0.00000000E+00  0.00000000E+00
  0.00000000E+00  0.00000000E+00  0.00000000E+00
  0.00000000E+00  0.00000000E+00  0.00000000E+00
  0.00000000E+00  0.00000000E+00  0.00000000E+00
  0.00000000E+00  0.00000000E+00  0.00000000E+00
  0.00000000E+00  0.00000000E+00  0.00000000E+00
  0.00000000E+00  0.00000000E+00  0.00000000E+00
  0.00000000E+00  0.00000000E+00  0.00000000E+00
  0.00000000E+00  0.00000000E+00  0.00000000E+00
  0.00000000E+00  0.00000000E+00  0.00000000E+00
  0.00000000E+00  0.00000000E+00  0.00000000E+00
  0.00000000E+00  0.00000000E+00  0.00000000E+00
  0.00000000E+00  0.00000000E+00  0.00000000E+00
