Cu Na O Zn                              
   1.00000000000000     
     6.5625568183449996    0.0000000000000000    0.0000000000000000
     0.0000000000000000   10.5156600000000005    0.0000000000000000
     0.0000000000000000    0.0000000000000000   32.0500282661819966
   Cu   Na   O    Zn
     1     1    40    39
Selective dynamics
Direct
  0.7500027678543130  0.7585355216178562  0.5099597862898791   T   T   T
  0.2500000100247777  0.3134051174024965  0.4490360237995708   T   T   T
  0.2500034310615138  0.0014880708614107  0.0879651848478700   T   T   T
  0.2499902406648923  0.5017735255334723  0.0879617847000102   T   T   T
  0.7500034211284278  0.0015150429445826  0.0880765803477093   T   T   T
  0.7499916129894295  0.5015851604494130  0.0880781303163178   T   T   T
  0.0002396349241456  0.2480114565257957  0.1186111533563497   T   T   T
  0.9999699195620145  0.7479951798605312  0.1188013287891540   T   T   T
  0.4997655969181553  0.2480123048959021  0.1186106204815898   T   T   T
  0.4999906543048481  0.7479914857256861  0.1188018549477332   T   T   T
  0.0001130839735492  0.9978690441548865  0.1760635477722046   T   T   T
  0.9999756344587879  0.4979230874706950  0.1760098543087834   T   T   T
  0.4998892955250827  0.9978697966224466  0.1760639964626416   T   T   T
  0.5000165975271882  0.4979193741598952  0.1760103378404851   T   T   T
  0.2499989225481886  0.2465939647295599  0.2073409982559444   T   T   T
  0.2499933856081860  0.7462960003086428  0.2072314024337917   T   T   T
  0.7500003582764565  0.2464971382204941  0.2069380609308220   T   T   T
  0.7499941355552184  0.7465411747644415  0.2075609861758849   T   T   T
  0.2500039692302480  0.9970503719270509  0.2650552853116768   T   T   T
  0.2500043244992686  0.4963833098402926  0.2648098459612893   T   T   T
  0.7500034307565487  0.9964860698408122  0.2649831091983831   T   T   T
  0.7500034035419206  0.4974433100047757  0.2649027372031314   T   T   T
  0.9981527506083039  0.2470769624508512  0.2954311454790756   T   T   T
  0.0013803996242330  0.7461754464183369  0.2958505782896640   T   T   T
  0.5018501754414086  0.2470783733400380  0.2954308740663061   T   T   T
  0.4986200945625822  0.7461758245374369  0.2958508321721789   T   T   T
  0.9978842348743521  0.9951574181559234  0.3536163133656822   T   T   T
  0.0032261569321183  0.4966519939904327  0.3534540312454673   T   T   T
  0.5021180566838345  0.9951595436831355  0.3536158436625943   T   T   T
  0.4967769671498282  0.4966522754490697  0.3534536439539787   T   T   T
  0.2500000404734891  0.2426817226414029  0.3816226811215657   T   T   T
  0.2500018938849624  0.7516789215672314  0.3873784346516955   T   T   T
  0.7499985822163150  0.2533524396182261  0.3860914751917924   T   T   T
  0.7500004916167524  0.7395833963053756  0.3824870033639605   T   T   T
  0.2499978067105952  0.9957437156458735  0.4431618511044342   T   T   T
  0.2500029536846456  0.5202810466473566  0.4429576448666053   T   T   T
  0.7500037080099994  0.9976760349863759  0.4406376444367683   T   T   T
  0.7499977283595479  0.4966818675510459  0.4431256273353617   T   T   T
  0.9856454180693330  0.2437063052316167  0.4810469613639236   T   T   T
  0.9951699235192588  0.7536156525220130  0.4773594111046143   T   T   T
  0.5143458662697786  0.2436932220194404  0.4810477849849513   T   T   T
  0.5048328348800991  0.7536199727497549  0.4773597017480930   T   T   T
  0.2500029141565855  0.3273855959472763  0.0991749550092916   T   T   T
  0.2499802038781865  0.8272669251141089  0.0993752759460890   T   T   T
  0.7500055922179885  0.3272224801040851  0.0993526998618809   T   T   T
  0.7499769737985416  0.8272554066009958  0.0993927385265326   T   T   T
  0.0001348124585485  0.0585313181387838  0.1139921677535998   T   T   T
  0.0000570769270967  0.5585138632941036  0.1139991698087380   T   T   T
  0.4998725004549712  0.0585323463794372  0.1139921590549140   T   T   T
  0.4999231965595607  0.5585097800650666  0.1139999476825432   T   T   T
  0.0004585200552213  0.3089358257885355  0.1794280592371977   T   T   T
  0.9996684172112205  0.8090796264705326  0.1795242304596500   T   T   T
  0.4995409011324819  0.3089333057289564  0.1794279527648105   T   T   T
  0.5003171311706410  0.8090795494251916  0.1795242172799379   T   T   T
  0.2499989798127535  0.0558237292868846  0.2052773628687632   T   T   T
  0.2499972191952313  0.5552113209858566  0.2051938419102134   T   T   T
  0.7500023982122561  0.0556037626637433  0.2052785205299614   T   T   T
  0.7499971258783346  0.5555784636084622  0.2051304789998884   T   T   T
  0.2500010790943395  0.3057581510046382  0.2669544914717931   T   T   T
  0.2500010462286657  0.8073086219935749  0.2662065441156777   T   T   T
  0.7500022705455393  0.3069078625030492  0.2662443513976150   T   T   T
  0.7500005256203015  0.8067384749817893  0.2668406081787778   T   T   T
  0.9998395910032359  0.0573324549813599  0.2942929546246734   T   T   T
  0.0005231376769626  0.5555562660300650  0.2939730813113453   T   T   T
  0.5001680429966362  0.0573348176801099  0.2942927906965553   T   T   T
  0.4994862978595991  0.5555572845777720  0.2939730008231447   T   T   T
  0.0016642009161906  0.3038863261557958  0.3557756840702598   T   T   T
  0.0047135834984752  0.8061119324968702  0.3546666058828502   T   T   T
  0.4983344547801695  0.3038877104387274  0.3557751879425931   T   T   T
  0.4952892341733580  0.8061148694902255  0.3546665456428267   T   T   T
  0.2500013338668094  0.0581532600990794  0.3818762524426961   T   T   T
  0.2500015128469771  0.5600524416608638  0.3819518368940811   T   T   T
  0.7500009995881702  0.0662796620505294  0.3809018514002976   T   T   T
  0.7500006143117246  0.5474187319980083  0.3812571813635710   T   T   T
  0.2499989553027409  0.8101469364577664  0.4485219106934309   T   T   T
  0.7499900319422812  0.3013939902696660  0.4524038545936492   T   T   T
  0.7500032734180404  0.8153538715807692  0.4370681259769507   T   T   T
  0.0008148804188411  0.0789544948856513  0.4637973991691047   T   T   T
  0.9954533627366238  0.5738408262002940  0.4635244559300698   T   T   T
  0.4991914722403658  0.0789521186720754  0.4637994035500493   T   T   T
  0.5045512038446980  0.5738436216661802  0.4635258456730612   T   T   T
 
  0.00000000E+00  0.00000000E+00  0.00000000E+00
  0.00000000E+00  0.00000000E+00  0.00000000E+00
  0.00000000E+00  0.00000000E+00  0.00000000E+00
  0.00000000E+00  0.00000000E+00  0.00000000E+00
  0.00000000E+00  0.00000000E+00  0.00000000E+00
  0.00000000E+00  0.00000000E+00  0.00000000E+00
  0.00000000E+00  0.00000000E+00  0.00000000E+00
  0.00000000E+00  0.00000000E+00  0.00000000E+00
  0.00000000E+00  0.00000000E+00  0.00000000E+00
  0.00000000E+00  0.00000000E+00  0.00000000E+00
  0.00000000E+00  0.00000000E+00  0.00000000E+00
  0.00000000E+00  0.00000000E+00  0.00000000E+00
  0.00000000E+00  0.00000000E+00  0.00000000E+00
  0.00000000E+00  0.00000000E+00  0.00000000E+00
  0.00000000E+00  0.00000000E+00  0.00000000E+00
  0.00000000E+00  0.00000000E+00  0.00000000E+00
  0.00000000E+00  0.00000000E+00  0.00000000E+00
  0.00000000E+00  0.00000000E+00  0.00000000E+00
  0.00000000E+00  0.00000000E+00  0.00000000E+00
  0.00000000E+00  0.00000000E+00  0.00000000E+00
  0.00000000E+00  0.00000000E+00  0.00000000E+00
  0.00000000E+00  0.00000000E+00  0.00000000E+00
  0.00000000E+00  0.00000000E+00  0.00000000E+00
  0.00000000E+00  0.00000000E+00  0.00000000E+00
  0.00000000E+00  0.00000000E+00  0.00000000E+00
  0.00000000E+00  0.00000000E+00  0.00000000E+00
  0.00000000E+00  0.00000000E+00  0.00000000E+00
  0.00000000E+00  0.00000000E+00  0.00000000E+00
  0.00000000E+00  0.00000000E+00  0.00000000E+00
  0.00000000E+00  0.00000000E+00  0.00000000E+00
  0.00000000E+00  0.00000000E+00  0.00000000E+00
  0.00000000E+00  0.00000000E+00  0.00000000E+00
  0.00000000E+00  0.00000000E+00  0.00000000E+00
  0.00000000E+00  0.00000000E+00  0.00000000E+00
  0.00000000E+00  0.00000000E+00  0.00000000E+00
  0.00000000E+00  0.00000000E+00  0.00000000E+00
  0.00000000E+00  0.00000000E+00  0.00000000E+00
  0.00000000E+00  0.00000000E+00  0.00000000E+00
  0.00000000E+00  0.00000000E+00  0.00000000E+00
  0.00000000E+00  0.00000000E+00  0.00000000E+00
  0.00000000E+00  0.00000000E+00  0.00000000E+00
  0.00000000E+00  0.00000000E+00  0.00000000E+00
  0.00000000E+00  0.00000000E+00  0.00000000E+00
  0.00000000E+00  0.00000000E+00  0.00000000E+00
  0.00000000E+00  0.00000000E+00  0.00000000E+00
  0.00000000E+00  0.00000000E+00  0.00000000E+00
  0.00000000E+00  0.00000000E+00  0.00000000E+00
  0.00000000E+00  0.00000000E+00  0.00000000E+00
  0.00000000E+00  0.00000000E+00  0.00000000E+00
  0.00000000E+00  0.00000000E+00  0.00000000E+00
  0.00000000E+00  0.00000000E+00  0.00000000E+00
  0.00000000E+00  0.00000000E+00  0.00000000E+00
  0.00000000E+00  0.00000000E+00  0.00000000E+00
  0.00000000E+00  0.00000000E+00  0.00000000E+00
  0.00000000E+00  0.00000000E+00  0.00000000E+00
  0.00000000E+00  0.00000000E+00  0.00000000E+00
  0.00000000E+00  0.00000000E+00  0.00000000E+00
  0.00000000E+00  0.00000000E+00  0.00000000E+00
  0.00000000E+00  0.00000000E+00  0.00000000E+00
  0.00000000E+00  0.00000000E+00  0.00000000E+00
  0.00000000E+00  0.00000000E+00  0.00000000E+00
  0.00000000E+00  0.00000000E+00  0.00000000E+00
  0.00000000E+00  0.00000000E+00  0.00000000E+00
  0.00000000E+00  0.00000000E+00  0.00000000E+00
  0.00000000E+00  0.00000000E+00  0.00000000E+00
  0.00000000E+00  0.00000000E+00  0.00000000E+00
  0.00000000E+00  0.00000000E+00  0.00000000E+00
  0.00000000E+00  0.00000000E+00  0.00000000E+00
  0.00000000E+00  0.00000000E+00  0.00000000E+00
  0.00000000E+00  0.00000000E+00  0.00000000E+00
  0.00000000E+00  0.00000000E+00  0.00000000E+00
  0.00000000E+00  0.00000000E+00  0.00000000E+00
  0.00000000E+00  0.00000000E+00  0.00000000E+00
  0.00000000E+00  0.00000000E+00  0.00000000E+00
  0.00000000E+00  0.00000000E+00  0.00000000E+00
  0.00000000E+00  0.00000000E+00  0.00000000E+00
  0.00000000E+00  0.00000000E+00  0.00000000E+00
  0.00000000E+00  0.00000000E+00  0.00000000E+00
  0.00000000E+00  0.00000000E+00  0.00000000E+00
  0.00000000E+00  0.00000000E+00  0.00000000E+00
  0.00000000E+00  0.00000000E+00  0.00000000E+00
