Fe Na O Zn                              
   1.00000000000000     
     6.5625568183449996    0.0000000000000000    0.0000000000000000
     0.0000000000000000   10.5156600000000005    0.0000000000000000
     0.0000000000000000    0.0000000000000000   32.0500282661819966
   Fe   Na   O    Zn
     1     1    40    39
Selective dynamics
Direct
  0.7494379576903227  0.7525764555996992  0.4992487455947898   T   T   T
  0.2502909672998191  0.3186241087965704  0.4481724021358729   T   T   T
  0.2500089520815572  0.0014307005440621  0.0879943325529851   T   T   T
  0.2500030152584650  0.5016289262873014  0.0878530331917105   T   T   T
  0.7500077546750176  0.0017538850484404  0.0878501673080140   T   T   T
  0.7500045264529651  0.5013852040292593  0.0876868913133092   T   T   T
  0.0000877216671939  0.2479349292861147  0.1184359295238747   T   T   T
  0.9996090101853824  0.7478535289642013  0.1183701248488572   T   T   T
  0.4999369665158957  0.2479350272787502  0.1184367677950287   T   T   T
  0.5003936260878274  0.7478515252834451  0.1183704125247141   T   T   T
  0.9997074286356541  0.9977627263229680  0.1760003348366836   T   T   T
  0.9993997930634136  0.4978049391833380  0.1758230769115452   T   T   T
  0.5003060217392892  0.9977636162629209  0.1760005595388898   T   T   T
  0.5006195458870110  0.4978068027933360  0.1758252223036952   T   T   T
  0.2500073882557696  0.2464646978492047  0.2070005777953726   T   T   T
  0.2500022915269514  0.7459671261937562  0.2064035478333550   T   T   T
  0.7500117010028119  0.2463590670905863  0.2069302716995950   T   T   T
  0.7500024623641769  0.7464092390305729  0.2073190407265607   T   T   T
  0.2500008617386018  0.9971263848664341  0.2648864579943952   T   T   T
  0.2500266912640544  0.4960616722626099  0.2644993808530589   T   T   T
  0.7500128441157647  0.9962707399299481  0.2651791177221012   T   T   T
  0.7500470043214433  0.4976153466773787  0.2651502493382272   T   T   T
  0.9986299285057816  0.2471533293422816  0.2952512322954987   T   T   T
  0.0029608829620302  0.7457395143187676  0.2950370202546602   T   T   T
  0.5013987588453583  0.2471368650607007  0.2952409876951102   T   T   T
  0.4970668434712833  0.7457484704774801  0.2950399801652678   T   T   T
  0.9984630630511889  0.9951147560293681  0.3536535269871216   T   T   T
  0.0058157359396464  0.4978200302295546  0.3537742612350698   T   T   T
  0.5015237045746801  0.9951154461683939  0.3536559203156636   T   T   T
  0.4943434574776664  0.4978083465487644  0.3537553959340170   T   T   T
  0.2500333110877260  0.2412986372561169  0.3816055612179392   T   T   T
  0.2500173463737165  0.7535770976338972  0.3882923776422327   T   T   T
  0.7499966063193356  0.2563085144471162  0.3851109917774472   T   T   T
  0.7500489436401759  0.7386097912088467  0.3793967904108837   T   T   T
  0.2498672352340886  0.9902204317056518  0.4439027214890550   T   T   T
  0.2502232663166267  0.5279677843315487  0.4446344591148238   T   T   T
  0.7500751092608361  0.0041307214556661  0.4395724961164778   T   T   T
  0.7499096047376189  0.4955740402377816  0.4426499375548100   T   T   T
  0.9878730949630038  0.2452742954286380  0.4800515197527325   T   T   T
  0.0202644292201605  0.7482788980555409  0.4882909222703182   T   T   T
  0.5123145832433830  0.2449209373066371  0.4801019852818071   T   T   T
  0.4784801921126022  0.7483815181967804  0.4885432360026228   T   T   T
  0.2500146918235374  0.3272459325537787  0.0990638493479887   T   T   T
  0.2500019389941782  0.8270411478829744  0.0991454960039250   T   T   T
  0.7500140821051865  0.3270918401124278  0.0990717335547815   T   T   T
  0.7499992033205777  0.8273513756746502  0.0988833631425965   T   T   T
  0.9999366398244848  0.0584600992115301  0.1139304160759060   T   T   T
  0.9997015185883973  0.5582910929623596  0.1137719564028632   T   T   T
  0.5000812324023758  0.0584607669040818  0.1139305848881551   T   T   T
  0.5003066355785953  0.5582876681500107  0.1137725182844026   T   T   T
  0.0000153550215301  0.3087980597154782  0.1792314649348891   T   T   T
  0.9989952282755040  0.8088819854678065  0.1790578675925268   T   T   T
  0.5000037293783909  0.3087980897740397  0.1792323006959176   T   T   T
  0.5010090831452597  0.8088823009722828  0.1790580731814695   T   T   T
  0.2500068858101420  0.0557573341895587  0.2050699125253672   T   T   T
  0.2500034539902222  0.5548313214175977  0.2048859514184574   T   T   T
  0.7500080153099008  0.0553872116921515  0.2054385378684568   T   T   T
  0.7500153140704496  0.5553255277753251  0.2052831716575324   T   T   T
  0.2500056053153998  0.3055289536368659  0.2665598265887299   T   T   T
  0.2500133933998619  0.8074445075103889  0.2651170908591962   T   T   T
  0.7500238329861345  0.3070238944126558  0.2662357463958200   T   T   T
  0.7500144354991880  0.8063924092804520  0.2666142625706053   T   T   T
  0.0004450892221183  0.0574703536969800  0.2943261623450536   T   T   T
  0.0016746250013575  0.5548319968879423  0.2941974345701395   T   T   T
  0.4995691811299868  0.0574522289852769  0.2943246910868731   T   T   T
  0.4984097659309443  0.5548438578114000  0.2941841906173450   T   T   T
  0.0039703550743093  0.3049965404049591  0.3554965357997817   T   T   T
  0.0092940625860309  0.8061707989012158  0.3534540878241442   T   T   T
  0.4960607506712205  0.3049906082708591  0.3554814632407740   T   T   T
  0.4907807450935860  0.8061720956512796  0.3534646372554394   T   T   T
  0.2499853087215720  0.0565307228629392  0.3828237370274633   T   T   T
  0.2501238680521979  0.5613540287222558  0.3834708375887643   T   T   T
  0.7499874594081793  0.0706223140761593  0.3797408943343860   T   T   T
  0.7500456584524133  0.5448696834111189  0.3817330761317523   T   T   T
  0.2498654052227809  0.8036007589088681  0.4507874899872581   T   T   T
  0.7499070222173655  0.3006220048730581  0.4517676235194606   T   T   T
  0.7503058424740062  0.8260502003025684  0.4305838875269988   T   T   T
  0.0055041394430191  0.0791830044444960  0.4645396661858091   T   T   T
  0.9913684024662206  0.5715865766251709  0.4674179857972998   T   T   T
  0.4944188848568060  0.0788650077737922  0.4645647276552390   T   T   T
  0.5088075125051217  0.5719152939218564  0.4674946144392290   T   T   T
 
  0.00000000E+00  0.00000000E+00  0.00000000E+00
  0.00000000E+00  0.00000000E+00  0.00000000E+00
  0.00000000E+00  0.00000000E+00  0.00000000E+00
  0.00000000E+00  0.00000000E+00  0.00000000E+00
  0.00000000E+00  0.00000000E+00  0.00000000E+00
  0.00000000E+00  0.00000000E+00  0.00000000E+00
  0.00000000E+00  0.00000000E+00  0.00000000E+00
  0.00000000E+00  0.00000000E+00  0.00000000E+00
  0.00000000E+00  0.00000000E+00  0.00000000E+00
  0.00000000E+00  0.00000000E+00  0.00000000E+00
  0.00000000E+00  0.00000000E+00  0.00000000E+00
  0.00000000E+00  0.00000000E+00  0.00000000E+00
  0.00000000E+00  0.00000000E+00  0.00000000E+00
  0.00000000E+00  0.00000000E+00  0.00000000E+00
  0.00000000E+00  0.00000000E+00  0.00000000E+00
  0.00000000E+00  0.00000000E+00  0.00000000E+00
  0.00000000E+00  0.00000000E+00  0.00000000E+00
  0.00000000E+00  0.00000000E+00  0.00000000E+00
  0.00000000E+00  0.00000000E+00  0.00000000E+00
  0.00000000E+00  0.00000000E+00  0.00000000E+00
  0.00000000E+00  0.00000000E+00  0.00000000E+00
  0.00000000E+00  0.00000000E+00  0.00000000E+00
  0.00000000E+00  0.00000000E+00  0.00000000E+00
  0.00000000E+00  0.00000000E+00  0.00000000E+00
  0.00000000E+00  0.00000000E+00  0.00000000E+00
  0.00000000E+00  0.00000000E+00  0.00000000E+00
  0.00000000E+00  0.00000000E+00  0.00000000E+00
  0.00000000E+00  0.00000000E+00  0.00000000E+00
  0.00000000E+00  0.00000000E+00  0.00000000E+00
  0.00000000E+00  0.00000000E+00  0.00000000E+00
  0.00000000E+00  0.00000000E+00  0.00000000E+00
  0.00000000E+00  0.00000000E+00  0.00000000E+00
  0.00000000E+00  0.00000000E+00  0.00000000E+00
  0.00000000E+00  0.00000000E+00  0.00000000E+00
  0.00000000E+00  0.00000000E+00  0.00000000E+00
  0.00000000E+00  0.00000000E+00  0.00000000E+00
  0.00000000E+00  0.00000000E+00  0.00000000E+00
  0.00000000E+00  0.00000000E+00  0.00000000E+00
  0.00000000E+00  0.00000000E+00  0.00000000E+00
  0.00000000E+00  0.00000000E+00  0.00000000E+00
  0.00000000E+00  0.00000000E+00  0.00000000E+00
  0.00000000E+00  0.00000000E+00  0.00000000E+00
  0.00000000E+00  0.00000000E+00  0.00000000E+00
  0.00000000E+00  0.00000000E+00  0.00000000E+00
  0.00000000E+00  0.00000000E+00  0.00000000E+00
  0.00000000E+00  0.00000000E+00  0.00000000E+00
  0.00000000E+00  0.00000000E+00  0.00000000E+00
  0.00000000E+00  0.00000000E+00  0.00000000E+00
  0.00000000E+00  0.00000000E+00  0.00000000E+00
  0.00000000E+00  0.00000000E+00  0.00000000E+00
  0.00000000E+00  0.00000000E+00  0.00000000E+00
  0.00000000E+00  0.00000000E+00  0.00000000E+00
  0.00000000E+00  0.00000000E+00  0.00000000E+00
  0.00000000E+00  0.00000000E+00  0.00000000E+00
  0.00000000E+00  0.00000000E+00  0.00000000E+00
  0.00000000E+00  0.00000000E+00  0.00000000E+00
  0.00000000E+00  0.00000000E+00  0.00000000E+00
  0.00000000E+00  0.00000000E+00  0.00000000E+00
  0.00000000E+00  0.00000000E+00  0.00000000E+00
  0.00000000E+00  0.00000000E+00  0.00000000E+00
  0.00000000E+00  0.00000000E+00  0.00000000E+00
  0.00000000E+00  0.00000000E+00  0.00000000E+00
  0.00000000E+00  0.00000000E+00  0.00000000E+00
  0.00000000E+00  0.00000000E+00  0.00000000E+00
  0.00000000E+00  0.00000000E+00  0.00000000E+00
  0.00000000E+00  0.00000000E+00  0.00000000E+00
  0.00000000E+00  0.00000000E+00  0.00000000E+00
  0.00000000E+00  0.00000000E+00  0.00000000E+00
  0.00000000E+00  0.00000000E+00  0.00000000E+00
  0.00000000E+00  0.00000000E+00  0.00000000E+00
  0.00000000E+00  0.00000000E+00  0.00000000E+00
  0.00000000E+00  0.00000000E+00  0.00000000E+00
  0.00000000E+00  0.00000000E+00  0.00000000E+00
  0.00000000E+00  0.00000000E+00  0.00000000E+00
  0.00000000E+00  0.00000000E+00  0.00000000E+00
  0.00000000E+00  0.00000000E+00  0.00000000E+00
  0.00000000E+00  0.00000000E+00  0.00000000E+00
  0.00000000E+00  0.00000000E+00  0.00000000E+00
  0.00000000E+00  0.00000000E+00  0.00000000E+00
  0.00000000E+00  0.00000000E+00  0.00000000E+00
  0.00000000E+00  0.00000000E+00  0.00000000E+00
