Na O Ru Zn                              
   1.00000000000000     
     6.5625568183449996    0.0000000000000000    0.0000000000000000
     0.0000000000000000   10.5156600000000005    0.0000000000000000
     0.0000000000000000    0.0000000000000000   32.0500282661819966
   Na   O    Ru   Zn
     1    40     1    39
Selective dynamics
Direct
  0.2500042283149313  0.3239961456029418  0.4484089015590721   T   T   T
  0.2499996825791701  0.0011276553088090  0.0878421684144938   T   T   T
  0.2499996894628341  0.5015244754750587  0.0878049289373699   T   T   T
  0.7499979167437432  0.0016256263217720  0.0874477661149968   T   T   T
  0.7499987966541602  0.5012233580498173  0.0873970388153979   T   T   T
  0.9999559294653112  0.2477154655670985  0.1181377569789760   T   T   T
  0.9993473254893352  0.7477057048406738  0.1181980674019769   T   T   T
  0.5000381284282943  0.2477151687909576  0.1181385765257376   T   T   T
  0.5006455633857034  0.7477060832443687  0.1181984673959972   T   T   T
  0.9993338304665322  0.9976942035092514  0.1758010388035206   T   T   T
  0.9988105650543566  0.4978494465610894  0.1757494997786667   T   T   T
  0.5006677416593365  0.9976925140746014  0.1758013763038513   T   T   T
  0.5011929175612172  0.4978509593094263  0.1757496747343209   T   T   T
  0.2500004836901145  0.2463918409338495  0.2065748792915714   T   T   T
  0.2499997635435897  0.7460859175223734  0.2061735661383774   T   T   T
  0.7500010911727579  0.2464691579546695  0.2067895970315148   T   T   T
  0.7500011949691924  0.7464101408219317  0.2073339617885649   T   T   T
  0.2500060494578606  0.9975317114527747  0.2646647781718673   T   T   T
  0.2500061665215395  0.4962881151828410  0.2642181761145489   T   T   T
  0.7500062204537955  0.9964187504617829  0.2651936500467788   T   T   T
  0.7500048195259680  0.4981865680923377  0.2655422793649546   T   T   T
  0.9990945344816935  0.2476268496548447  0.2949271040134960   T   T   T
  0.0036647267326103  0.7458530104945220  0.2949705756839683   T   T   T
  0.5009141010382325  0.2476266772215206  0.2949272412183250   T   T   T
  0.4963445369029847  0.7458528904218268  0.2949720087097487   T   T   T
  0.0004302719492150  0.9950073343355768  0.3535351357935829   T   T   T
  0.0092823878796389  0.4978571205452585  0.3540730626618331   T   T   T
  0.4995757387783166  0.9950073810594211  0.3535356274327617   T   T   T
  0.4907426464133759  0.4978564794513338  0.3540739966740131   T   T   T
  0.2500058238699395  0.2428102727119972  0.3819679839747122   T   T   T
  0.2500036494494087  0.7532776525111060  0.3889485622893309   T   T   T
  0.7500072324207785  0.2523490856166073  0.3838346350772908   T   T   T
  0.7500148162438671  0.7387002156057887  0.3783723475944268   T   T   T
  0.2500005787103000  0.9868685885131940  0.4437750056450941   T   T   T
  0.2500284294627419  0.5422798776103767  0.4482496478695734   T   T   T
  0.7500051272002647 -0.0001681712424410  0.4395699818306260   T   T   T
  0.7500502754514990  0.4865805450684466  0.4397902739544852   T   T   T
  0.9882933545785932  0.2432773511748250  0.4788483994923178   T   T   T
  0.0237308701797553  0.7642502976027095  0.4928983412094651   T   T   T
  0.5117174644640534  0.2432744320313784  0.4788416673129559   T   T   T
  0.4760434084592198  0.7643995773576672  0.4929374167555491   T   T   T
  0.7498785560165998  0.7424053362433032  0.5021590406714179   T   T   T
  0.2499975387191924  0.3269992615373908  0.0988182149958902   T   T   T
  0.2499963573739813  0.8267279757464964  0.0990310395379188   T   T   T
  0.7499942390152532  0.3268955355866262  0.0987143043846923   T   T   T
  0.7499955505652504  0.8272496679877310  0.0985800003947166   T   T   T
  0.9997116387147084  0.0581765859092599  0.1136966668265382   T   T   T
  0.9993798235085098  0.5581238735416083  0.1136392622586431   T   T   T
  0.5002864849871982  0.0581766271255673  0.1136977979202483   T   T   T
  0.5006208924638548  0.5581241638791735  0.1136391981005729   T   T   T
  0.9997424195781329  0.3087536676263624  0.1789269475167389   T   T   T
  0.9986298383725991  0.8087731476888902  0.1788857889975054   T   T   T
  0.5002607462245043  0.3087556716989502  0.1789279672317490   T   T   T
  0.5013700624800038  0.8087725189971988  0.1788863930658414   T   T   T
  0.2500003507508493  0.0556019687416703  0.2048024292782499   T   T   T
  0.2500011500232797  0.5548983905436763  0.2046255960343665   T   T   T
  0.7500027661795796  0.0553726214485670  0.2054083622729197   T   T   T
  0.7500016902578520  0.5552464445132149  0.2055242576860938   T   T   T
  0.2500050734579716  0.3058205439969934  0.2660770902078147   T   T   T
  0.2500048982202250  0.8078632713551324  0.2648713995308517   T   T   T
  0.7500031741847797  0.3074788744243802  0.2660848096323772   T   T   T
  0.7500039131755336  0.8064134351297286  0.2666595446603809   T   T   T
  0.0006721305656184  0.0579537841222930  0.2942546328655631   T   T   T
  0.0030925300257114  0.5549311263126168  0.2943944022815608   T   T   T
  0.4993378755947100  0.0579544863487584  0.2942544317543891   T   T   T
  0.4969188651172881  0.5549311088933213  0.2943949878563734   T   T   T
  0.0040792873459107  0.3046706996039086  0.3552217111166772   T   T   T
  0.0103254498942550  0.8065544995614565  0.3533454404744413   T   T   T
  0.4959318066747042  0.3046694454567497  0.3552220657629070   T   T   T
  0.4896927763972895  0.8065531504755046  0.3533477716179682   T   T   T
  0.2500035645511985  0.0579154738173165  0.3831895397835095   T   T   T
  0.2500129783447488  0.5614972734441310  0.3850788796779792   T   T   T
  0.7500052084468406  0.0667014136794853  0.3799225207427294   T   T   T
  0.7500144982563618  0.5452178947226576  0.3806985436775757   T   T   T
  0.2499557898024669  0.7997776001978468  0.4509347134964050   T   T   T
  0.7500171901274254  0.2951538535375990  0.4497731185608940   T   T   T
  0.7499572871465030  0.8205026191203036  0.4307617979855488   T   T   T
  0.0059462362896432  0.0759931419324147  0.4644357335882522   T   T   T
  0.9774558663758720  0.5665635256670584  0.4694602779047312   T   T   T
  0.4940669548123140  0.0759821429228978  0.4644373675793633   T   T   T
  0.5225833313730622  0.5665397285763660  0.4694655885423578   T   T   T
 
  0.00000000E+00  0.00000000E+00  0.00000000E+00
  0.00000000E+00  0.00000000E+00  0.00000000E+00
  0.00000000E+00  0.00000000E+00  0.00000000E+00
  0.00000000E+00  0.00000000E+00  0.00000000E+00
  0.00000000E+00  0.00000000E+00  0.00000000E+00
  0.00000000E+00  0.00000000E+00  0.00000000E+00
  0.00000000E+00  0.00000000E+00  0.00000000E+00
  0.00000000E+00  0.00000000E+00  0.00000000E+00
  0.00000000E+00  0.00000000E+00  0.00000000E+00
  0.00000000E+00  0.00000000E+00  0.00000000E+00
  0.00000000E+00  0.00000000E+00  0.00000000E+00
  0.00000000E+00  0.00000000E+00  0.00000000E+00
  0.00000000E+00  0.00000000E+00  0.00000000E+00
  0.00000000E+00  0.00000000E+00  0.00000000E+00
  0.00000000E+00  0.00000000E+00  0.00000000E+00
  0.00000000E+00  0.00000000E+00  0.00000000E+00
  0.00000000E+00  0.00000000E+00  0.00000000E+00
  0.00000000E+00  0.00000000E+00  0.00000000E+00
  0.00000000E+00  0.00000000E+00  0.00000000E+00
  0.00000000E+00  0.00000000E+00  0.00000000E+00
  0.00000000E+00  0.00000000E+00  0.00000000E+00
  0.00000000E+00  0.00000000E+00  0.00000000E+00
  0.00000000E+00  0.00000000E+00  0.00000000E+00
  0.00000000E+00  0.00000000E+00  0.00000000E+00
  0.00000000E+00  0.00000000E+00  0.00000000E+00
  0.00000000E+00  0.00000000E+00  0.00000000E+00
  0.00000000E+00  0.00000000E+00  0.00000000E+00
  0.00000000E+00  0.00000000E+00  0.00000000E+00
  0.00000000E+00  0.00000000E+00  0.00000000E+00
  0.00000000E+00  0.00000000E+00  0.00000000E+00
  0.00000000E+00  0.00000000E+00  0.00000000E+00
  0.00000000E+00  0.00000000E+00  0.00000000E+00
  0.00000000E+00  0.00000000E+00  0.00000000E+00
  0.00000000E+00  0.00000000E+00  0.00000000E+00
  0.00000000E+00  0.00000000E+00  0.00000000E+00
  0.00000000E+00  0.00000000E+00  0.00000000E+00
  0.00000000E+00  0.00000000E+00  0.00000000E+00
  0.00000000E+00  0.00000000E+00  0.00000000E+00
  0.00000000E+00  0.00000000E+00  0.00000000E+00
  0.00000000E+00  0.00000000E+00  0.00000000E+00
  0.00000000E+00  0.00000000E+00  0.00000000E+00
  0.00000000E+00  0.00000000E+00  0.00000000E+00
  0.00000000E+00  0.00000000E+00  0.00000000E+00
  0.00000000E+00  0.00000000E+00  0.00000000E+00
  0.00000000E+00  0.00000000E+00  0.00000000E+00
  0.00000000E+00  0.00000000E+00  0.00000000E+00
  0.00000000E+00  0.00000000E+00  0.00000000E+00
  0.00000000E+00  0.00000000E+00  0.00000000E+00
  0.00000000E+00  0.00000000E+00  0.00000000E+00
  0.00000000E+00  0.00000000E+00  0.00000000E+00
  0.00000000E+00  0.00000000E+00  0.00000000E+00
  0.00000000E+00  0.00000000E+00  0.00000000E+00
  0.00000000E+00  0.00000000E+00  0.00000000E+00
  0.00000000E+00  0.00000000E+00  0.00000000E+00
  0.00000000E+00  0.00000000E+00  0.00000000E+00
  0.00000000E+00  0.00000000E+00  0.00000000E+00
  0.00000000E+00  0.00000000E+00  0.00000000E+00
  0.00000000E+00  0.00000000E+00  0.00000000E+00
  0.00000000E+00  0.00000000E+00  0.00000000E+00
  0.00000000E+00  0.00000000E+00  0.00000000E+00
  0.00000000E+00  0.00000000E+00  0.00000000E+00
  0.00000000E+00  0.00000000E+00  0.00000000E+00
  0.00000000E+00  0.00000000E+00  0.00000000E+00
  0.00000000E+00  0.00000000E+00  0.00000000E+00
  0.00000000E+00  0.00000000E+00  0.00000000E+00
  0.00000000E+00  0.00000000E+00  0.00000000E+00
  0.00000000E+00  0.00000000E+00  0.00000000E+00
  0.00000000E+00  0.00000000E+00  0.00000000E+00
  0.00000000E+00  0.00000000E+00  0.00000000E+00
  0.00000000E+00  0.00000000E+00  0.00000000E+00
  0.00000000E+00  0.00000000E+00  0.00000000E+00
  0.00000000E+00  0.00000000E+00  0.00000000E+00
  0.00000000E+00  0.00000000E+00  0.00000000E+00
  0.00000000E+00  0.00000000E+00  0.00000000E+00
  0.00000000E+00  0.00000000E+00  0.00000000E+00
  0.00000000E+00  0.00000000E+00  0.00000000E+00
  0.00000000E+00  0.00000000E+00  0.00000000E+00
  0.00000000E+00  0.00000000E+00  0.00000000E+00
  0.00000000E+00  0.00000000E+00  0.00000000E+00
  0.00000000E+00  0.00000000E+00  0.00000000E+00
  0.00000000E+00  0.00000000E+00  0.00000000E+00
