Mn Na O Zn                              
   1.00000000000000     
     6.5625568183449996    0.0000000000000000    0.0000000000000000
     0.0000000000000000   10.5156600000000005    0.0000000000000000
     0.0000000000000000    0.0000000000000000   32.0500282661819966
   Mn   Na   O    Zn
     1     1    40    39
Selective dynamics
Direct
  0.7500076265627317  0.7443183381871618  0.5112514889738500   T   T   T
  0.2500034359543673  0.3191336520914162  0.4484137433476965   T   T   T
  0.2499959909407883  0.0014696598379366  0.0879748237846041   T   T   T
  0.2499887877005761  0.5016815669408923  0.0878347378281145   T   T   T
  0.7499976001365996  0.0016408947730296  0.0879873922046764   T   T   T
  0.7499902800880205  0.5014458559361694  0.0878326979844032   T   T   T
  0.0002023371003247  0.2479753685740465  0.1185149488998458   T   T   T
  0.9998003726224799  0.7479407779183328  0.1185896999260461   T   T   T
  0.4997923984709499  0.2479754220608002  0.1185145782523634   T   T   T
  0.5001631145422462  0.7479441474219638  0.1185882906370396   T   T   T
  0.9999262854477426  0.9978850859362361  0.1760523155671725   T   T   T
  0.9996040726293259  0.4978568478490555  0.1758285782416186   T   T   T
  0.5000765716885035  0.9978831878040317  0.1760523702577406   T   T   T
  0.5003875242807256  0.4978579850982831  0.1758285472928647   T   T   T
  0.2500005173912516  0.2465373006332469  0.2072378555053315   T   T   T
  0.2499920315259510  0.7462136637966102  0.2068432601774536   T   T   T
  0.7500001442156742  0.2464481324986165  0.2069507851777445   T   T   T
  0.7499933721813364  0.7464473889883051  0.2073460282776532   T   T   T
  0.2500013280461432  0.9970292730785472  0.2650669246790985   T   T   T
  0.2500009439556842  0.4960292848500405  0.2644676824129722   T   T   T
  0.7500021617378764  0.9963570372454820  0.2651532159483940   T   T   T
  0.7500013799296088  0.4974199178078901  0.2650439593811434   T   T   T
  0.9983238990955642  0.2469896429792253  0.2954366829107263   T   T   T
  0.0016710294285908  0.7456395472898210  0.2952923569707395   T   T   T
  0.5016779221850367  0.2469908309910629  0.2954364850456486   T   T   T
  0.4983303101051891  0.7456393024700565  0.2952925973254336   T   T   T
  0.9980624872080385  0.9949374533980466  0.3537409511229721   T   T   T
  0.0061156318812967  0.4971868526181407  0.3536972832156909   T   T   T
  0.5019485309595532  0.9949378309349026  0.3537405290821330   T   T   T
  0.4938868638191295  0.4971877246192491  0.3536973285622907   T   T   T
  0.2500021064221128  0.2423447351714557  0.3818151413223294   T   T   T
  0.2500042175180899  0.7520354957373039  0.3866928242352480   T   T   T
  0.7500006623246092  0.2536944066126341  0.3856999909857257   T   T   T
  0.7500051673192611  0.7392373671073337  0.3815720379507591   T   T   T
  0.2500001545133868  0.9930931587860679  0.4436286410001736   T   T   T
  0.2499990343707889  0.5312575953418023  0.4458238767125101   T   T   T
  0.7500050305308502  0.0007211807263404  0.4408169435521989   T   T   T
  0.7499964867952096  0.4941574806089600  0.4414213128721450   T   T   T
  0.9875878904967748  0.2455934480081501  0.4807786224247554   T   T   T
  0.9863604525164418  0.7586882637281320  0.4772286513783629   T   T   T
  0.5124097671366034  0.2455836632108871  0.4807805699226228   T   T   T
  0.5136521684804227  0.7586872196611181  0.4772287402215758   T   T   T
  0.2499975464671495  0.3273434143890774  0.0991048964597182   T   T   T
  0.2499756105260494  0.8271829323688952  0.0992738055401996   T   T   T
  0.7499988336835676  0.3271904140468989  0.0992489545089411   T   T   T
  0.7499845274167910  0.8273025640514745  0.0991483675867315   T   T   T
  0.0000565583376562  0.0585439033528269  0.1139360425739434   T   T   T
  0.9998790996525126  0.5584539449135891  0.1137906338432561   T   T   T
  0.4999355952864851  0.0585441288842165  0.1139354246252042   T   T   T
  0.5000974618149030  0.5584558544083632  0.1137898614242768   T   T   T
  0.0003326220960788  0.3088406580929826  0.1793199320462396   T   T   T
  0.9994053140198149  0.8090581476971471  0.1792932203531864   T   T   T
  0.4996689687519605  0.3088410210261074  0.1793195481323975   T   T   T
  0.5005793824342424  0.8090550841380048  0.1792928816252548   T   T   T
  0.2500031712044463  0.0557905458492707  0.2052374575882600   T   T   T
  0.2499953983425013  0.5551056136042687  0.2048902251482625   T   T   T
  0.7500010210993051  0.0554918284025872  0.2054043858211722   T   T   T
  0.7499985828465616  0.5554032454307846  0.2051662378710636   T   T   T
  0.2500004858134262  0.3055334540322002  0.2668458836204078   T   T   T
  0.2500011351736008  0.8073284156637047  0.2657163522214055   T   T   T
  0.7500020590413132  0.3068813737983494  0.2662581967456102   T   T   T
  0.7500000819281998  0.8065687364129659  0.2665512823826960   T   T   T
  0.0000525877967365  0.0573173602520953  0.2943930855190979   T   T   T
  0.0016533168209158  0.5548239300661003  0.2940604502641130   T   T   T
  0.4999524012744769  0.0573183405434213  0.2943923948204726   T   T   T
  0.4983497091846229  0.5548236516334628  0.2940603574946577   T   T   T
  0.0023332848755552  0.3043253166594662  0.3556969270042781   T   T   T
  0.0045515061663794  0.8059060514800225  0.3537899110476311   T   T   T
  0.4976701680403807  0.3043268930570524  0.3556966595269353   T   T   T
  0.4954568649834467  0.8059063153834630  0.3537903453182143   T   T   T
  0.2500051445991311  0.0576575388423809  0.3822624224922719   T   T   T
  0.2500013348245461  0.5603192909242694  0.3836245478514186   T   T   T
  0.7500057144448342  0.0672847770996566  0.3807740597462856   T   T   T
  0.7500016977964371  0.5463823461491165  0.3809836729047954   T   T   T
  0.2500041324342199  0.8059946047362346  0.4471606276420927   T   T   T
  0.7499916488669061  0.3007985107249842  0.4520038588692623   T   T   T
  0.7500086054288375  0.8201108590999590  0.4347853696664177   T   T   T
  0.0036442096592903  0.0801210297182436  0.4639971527136539   T   T   T
  0.9875075051495467  0.5677173235540192  0.4680091099066411   T   T   T
  0.4963633327463620  0.0801121614072478  0.4639973204743765   T   T   T
  0.5124902712499440  0.5677200996253479  0.4680084798262807   T   T   T
 
  0.00000000E+00  0.00000000E+00  0.00000000E+00
  0.00000000E+00  0.00000000E+00  0.00000000E+00
  0.00000000E+00  0.00000000E+00  0.00000000E+00
  0.00000000E+00  0.00000000E+00  0.00000000E+00
  0.00000000E+00  0.00000000E+00  0.00000000E+00
  0.00000000E+00  0.00000000E+00  0.00000000E+00
  0.00000000E+00  0.00000000E+00  0.00000000E+00
  0.00000000E+00  0.00000000E+00  0.00000000E+00
  0.00000000E+00  0.00000000E+00  0.00000000E+00
  0.00000000E+00  0.00000000E+00  0.00000000E+00
  0.00000000E+00  0.00000000E+00  0.00000000E+00
  0.00000000E+00  0.00000000E+00  0.00000000E+00
  0.00000000E+00  0.00000000E+00  0.00000000E+00
  0.00000000E+00  0.00000000E+00  0.00000000E+00
  0.00000000E+00  0.00000000E+00  0.00000000E+00
  0.00000000E+00  0.00000000E+00  0.00000000E+00
  0.00000000E+00  0.00000000E+00  0.00000000E+00
  0.00000000E+00  0.00000000E+00  0.00000000E+00
  0.00000000E+00  0.00000000E+00  0.00000000E+00
  0.00000000E+00  0.00000000E+00  0.00000000E+00
  0.00000000E+00  0.00000000E+00  0.00000000E+00
  0.00000000E+00  0.00000000E+00  0.00000000E+00
  0.00000000E+00  0.00000000E+00  0.00000000E+00
  0.00000000E+00  0.00000000E+00  0.00000000E+00
  0.00000000E+00  0.00000000E+00  0.00000000E+00
  0.00000000E+00  0.00000000E+00  0.00000000E+00
  0.00000000E+00  0.00000000E+00  0.00000000E+00
  0.00000000E+00  0.00000000E+00  0.00000000E+00
  0.00000000E+00  0.00000000E+00  0.00000000E+00
  0.00000000E+00  0.00000000E+00  0.00000000E+00
  0.00000000E+00  0.00000000E+00  0.00000000E+00
  0.00000000E+00  0.00000000E+00  0.00000000E+00
  0.00000000E+00  0.00000000E+00  0.00000000E+00
  0.00000000E+00  0.00000000E+00  0.00000000E+00
  0.00000000E+00  0.00000000E+00  0.00000000E+00
  0.00000000E+00  0.00000000E+00  0.00000000E+00
  0.00000000E+00  0.00000000E+00  0.00000000E+00
  0.00000000E+00  0.00000000E+00  0.00000000E+00
  0.00000000E+00  0.00000000E+00  0.00000000E+00
  0.00000000E+00  0.00000000E+00  0.00000000E+00
  0.00000000E+00  0.00000000E+00  0.00000000E+00
  0.00000000E+00  0.00000000E+00  0.00000000E+00
  0.00000000E+00  0.00000000E+00  0.00000000E+00
  0.00000000E+00  0.00000000E+00  0.00000000E+00
  0.00000000E+00  0.00000000E+00  0.00000000E+00
  0.00000000E+00  0.00000000E+00  0.00000000E+00
  0.00000000E+00  0.00000000E+00  0.00000000E+00
  0.00000000E+00  0.00000000E+00  0.00000000E+00
  0.00000000E+00  0.00000000E+00  0.00000000E+00
  0.00000000E+00  0.00000000E+00  0.00000000E+00
  0.00000000E+00  0.00000000E+00  0.00000000E+00
  0.00000000E+00  0.00000000E+00  0.00000000E+00
  0.00000000E+00  0.00000000E+00  0.00000000E+00
  0.00000000E+00  0.00000000E+00  0.00000000E+00
  0.00000000E+00  0.00000000E+00  0.00000000E+00
  0.00000000E+00  0.00000000E+00  0.00000000E+00
  0.00000000E+00  0.00000000E+00  0.00000000E+00
  0.00000000E+00  0.00000000E+00  0.00000000E+00
  0.00000000E+00  0.00000000E+00  0.00000000E+00
  0.00000000E+00  0.00000000E+00  0.00000000E+00
  0.00000000E+00  0.00000000E+00  0.00000000E+00
  0.00000000E+00  0.00000000E+00  0.00000000E+00
  0.00000000E+00  0.00000000E+00  0.00000000E+00
  0.00000000E+00  0.00000000E+00  0.00000000E+00
  0.00000000E+00  0.00000000E+00  0.00000000E+00
  0.00000000E+00  0.00000000E+00  0.00000000E+00
  0.00000000E+00  0.00000000E+00  0.00000000E+00
  0.00000000E+00  0.00000000E+00  0.00000000E+00
  0.00000000E+00  0.00000000E+00  0.00000000E+00
  0.00000000E+00  0.00000000E+00  0.00000000E+00
  0.00000000E+00  0.00000000E+00  0.00000000E+00
  0.00000000E+00  0.00000000E+00  0.00000000E+00
  0.00000000E+00  0.00000000E+00  0.00000000E+00
  0.00000000E+00  0.00000000E+00  0.00000000E+00
  0.00000000E+00  0.00000000E+00  0.00000000E+00
  0.00000000E+00  0.00000000E+00  0.00000000E+00
  0.00000000E+00  0.00000000E+00  0.00000000E+00
  0.00000000E+00  0.00000000E+00  0.00000000E+00
  0.00000000E+00  0.00000000E+00  0.00000000E+00
  0.00000000E+00  0.00000000E+00  0.00000000E+00
  0.00000000E+00  0.00000000E+00  0.00000000E+00
