Al Ca Mn O                              
   1.00000000000000     
     9.6048500000000008    0.0000000000000000    0.0000000000000000
     0.0000000000000000    9.6048500000000008    0.0000000000000000
     0.0000000000000000    0.0000000000000000   24.6048000000000009
   Al   Ca   Mn   O 
     1    31     1    32
Selective dynamics
Direct
  0.9625271691032619  0.5073547957311602  0.3712867547057253   T   T   T
  0.2496567562447059  0.0005539999832833  0.0986160136325617   T   T   T
  0.7493133278782907  0.0006613138957946  0.0982008697658265   T   T   T
 -0.0002728359812504  0.2501586962919528  0.0983081817996780   T   T   T
  0.4993395053172051  0.2498791187626631  0.0981906309550921   T   T   T
  0.2494286641179600  0.5002193589379428  0.0977160745049793   T   T   T
  0.7491587696751294  0.5003189554583369  0.0973568224737499   T   T   T
 -0.0003190327075969  0.7508890013545414  0.0979194631260654   T   T   T
  0.4993080358613161  0.7509652238929457  0.0977671798050860   T   T   T
 -0.0003206547040005  0.0009470124115113  0.1955718964150115   T   T   T
  0.4986887829144446  0.0005449705104922  0.1959128514309470   T   T   T
  0.2498955392994113  0.2498420184377338  0.1959255463285841   T   T   T
  0.7488138512221180  0.2488784006134780  0.1952179895872126   T   T   T
 -0.0004960328499493  0.5001875213993441  0.1942437285901132   T   T   T
  0.4973254341059708  0.5000444924998424  0.1941680490411142   T   T   T
  0.2503371075881451  0.7506511880457075  0.1953308764640498   T   T   T
  0.7482446845375708  0.7520621291090629  0.1946113581198239   T   T   T
  0.2487922866624404  0.0001165851977620  0.2954217927460332   T   T   T
  0.7486357163282200  0.0003721708592448  0.2945581302694613   T   T   T
  0.9995658268501332  0.2499542205760898  0.2936738402655134   T   T   T
  0.4992677016077473  0.2482166467484370  0.2945309555366948   T   T   T
  0.2523492292843405  0.4996366377973362  0.2934784060942408   T   T   T
  0.7413239583061342  0.5006139996645685  0.2877999848960568   T   T   T
  0.9992783794905644  0.7507743917945621  0.2907638715465716   T   T   T
  0.4992933999694000  0.7520010135591548  0.2934918110682698   T   T   T
  0.0090733221859402  0.9695621341877361  0.3955804688862423   T   T   T
  0.4903244648084385  0.0024789083527805  0.3933801536824447   T   T   T
  0.2427775555722956  0.2683066571610742  0.3927988149725302   T   T   T
  0.7576883952978153  0.2569996610721055  0.3927083786733067   T   T   T
  0.5068165527827336  0.4970033707524365  0.3890831132538982   T   T   T
  0.2548023369332205  0.7310359731094407  0.3912777721871545   T   T   T
  0.7456374778306724  0.7439322217536176  0.3924286524810377   T   T   T
  0.7704081728402098  0.0008701874977416  0.4729287930486032   T   T   T
 -0.0003793327332440  0.0008152079210854  0.1010287932100449   T   T   T
  0.4994615836526300  0.0005786263308729  0.1005278510362891   T   T   T
  0.2491772602639587  0.2501365103758367  0.1003906763002535   T   T   T
  0.7499664894159621  0.2499017750468138  0.1000349169341067   T   T   T
  0.9996701599184566  0.5002547540091985  0.1000514348827854   T   T   T
  0.4990623470346379  0.5002427100341714  0.0992653099819289   T   T   T
  0.2493369809681256  0.7506610541137829  0.0998781467523022   T   T   T
  0.7497666660389075  0.7511003647994979  0.0995158577079121   T   T   T
  0.2482865351241909  0.0003102545020916  0.1962074598605958   T   T   T
  0.7500802933803268  0.0005520612737040  0.1959727982380316   T   T   T
  0.9994083218744257  0.2509931725912705  0.1964735697506853   T   T   T
  0.4994192123009963  0.2499615069918693  0.1953881729636628   T   T   T
  0.2479737763485504  0.5001231423993918  0.1951918136657239   T   T   T
  0.7496059530147088  0.5003863615268102  0.1935633025595406   T   T   T
  0.9993242434723868  0.7502976455561403  0.1951958173625607   T   T   T
  0.4993386668744735  0.7506343241967541  0.1948657453499886   T   T   T
  0.9987157579672086  0.9985811835147465  0.2993745985005483   T   T   T
  0.4982877863527295  0.0004066806823631  0.2956574304489227   T   T   T
  0.2470684594908955  0.2501684023885156  0.2951705487778868   T   T   T
  0.7515966038588759  0.2495369849967042  0.2945933460170684   T   T   T
  0.9915432954005169  0.5043267128877458  0.2959240348878163   T   T   T
  0.5014436365691494  0.4996252501971928  0.2922345376248853   T   T   T
  0.2484018689018361  0.7491710210115898  0.2941104736296675   T   T   T
  0.7497548497178077  0.7517163747504489  0.2934980828194418   T   T   T
  0.2423701595750194  0.9952845657442185  0.3910001343234218   T   T   T
  0.7530584479283330  0.9984300703964138  0.3912227353628920   T   T   T
  0.0025694220418836  0.3265172661420187  0.3851677486479901   T   T   T
  0.5058343093684963  0.2515689287360682  0.3890096361319696   T   T   T
  0.2772490734068602  0.4997301993829246  0.3858386985121157   T   T   T
  0.7711297918755425  0.5036944621021731  0.3824772569616953   T   T   T
  0.0010054613232099  0.6931395995391713  0.3848624997261083   T   T   T
  0.5033338414950621  0.7473658014515696  0.3883527093534997   T   T   T
 
  0.00000000E+00  0.00000000E+00  0.00000000E+00
  0.00000000E+00  0.00000000E+00  0.00000000E+00
  0.00000000E+00  0.00000000E+00  0.00000000E+00
  0.00000000E+00  0.00000000E+00  0.00000000E+00
  0.00000000E+00  0.00000000E+00  0.00000000E+00
  0.00000000E+00  0.00000000E+00  0.00000000E+00
  0.00000000E+00  0.00000000E+00  0.00000000E+00
  0.00000000E+00  0.00000000E+00  0.00000000E+00
  0.00000000E+00  0.00000000E+00  0.00000000E+00
  0.00000000E+00  0.00000000E+00  0.00000000E+00
  0.00000000E+00  0.00000000E+00  0.00000000E+00
  0.00000000E+00  0.00000000E+00  0.00000000E+00
  0.00000000E+00  0.00000000E+00  0.00000000E+00
  0.00000000E+00  0.00000000E+00  0.00000000E+00
  0.00000000E+00  0.00000000E+00  0.00000000E+00
  0.00000000E+00  0.00000000E+00  0.00000000E+00
  0.00000000E+00  0.00000000E+00  0.00000000E+00
  0.00000000E+00  0.00000000E+00  0.00000000E+00
  0.00000000E+00  0.00000000E+00  0.00000000E+00
  0.00000000E+00  0.00000000E+00  0.00000000E+00
  0.00000000E+00  0.00000000E+00  0.00000000E+00
  0.00000000E+00  0.00000000E+00  0.00000000E+00
  0.00000000E+00  0.00000000E+00  0.00000000E+00
  0.00000000E+00  0.00000000E+00  0.00000000E+00
  0.00000000E+00  0.00000000E+00  0.00000000E+00
  0.00000000E+00  0.00000000E+00  0.00000000E+00
  0.00000000E+00  0.00000000E+00  0.00000000E+00
  0.00000000E+00  0.00000000E+00  0.00000000E+00
  0.00000000E+00  0.00000000E+00  0.00000000E+00
  0.00000000E+00  0.00000000E+00  0.00000000E+00
  0.00000000E+00  0.00000000E+00  0.00000000E+00
  0.00000000E+00  0.00000000E+00  0.00000000E+00
  0.00000000E+00  0.00000000E+00  0.00000000E+00
  0.00000000E+00  0.00000000E+00  0.00000000E+00
  0.00000000E+00  0.00000000E+00  0.00000000E+00
  0.00000000E+00  0.00000000E+00  0.00000000E+00
  0.00000000E+00  0.00000000E+00  0.00000000E+00
  0.00000000E+00  0.00000000E+00  0.00000000E+00
  0.00000000E+00  0.00000000E+00  0.00000000E+00
  0.00000000E+00  0.00000000E+00  0.00000000E+00
  0.00000000E+00  0.00000000E+00  0.00000000E+00
  0.00000000E+00  0.00000000E+00  0.00000000E+00
  0.00000000E+00  0.00000000E+00  0.00000000E+00
  0.00000000E+00  0.00000000E+00  0.00000000E+00
  0.00000000E+00  0.00000000E+00  0.00000000E+00
  0.00000000E+00  0.00000000E+00  0.00000000E+00
  0.00000000E+00  0.00000000E+00  0.00000000E+00
  0.00000000E+00  0.00000000E+00  0.00000000E+00
  0.00000000E+00  0.00000000E+00  0.00000000E+00
  0.00000000E+00  0.00000000E+00  0.00000000E+00
  0.00000000E+00  0.00000000E+00  0.00000000E+00
  0.00000000E+00  0.00000000E+00  0.00000000E+00
  0.00000000E+00  0.00000000E+00  0.00000000E+00
  0.00000000E+00  0.00000000E+00  0.00000000E+00
  0.00000000E+00  0.00000000E+00  0.00000000E+00
  0.00000000E+00  0.00000000E+00  0.00000000E+00
  0.00000000E+00  0.00000000E+00  0.00000000E+00
  0.00000000E+00  0.00000000E+00  0.00000000E+00
  0.00000000E+00  0.00000000E+00  0.00000000E+00
  0.00000000E+00  0.00000000E+00  0.00000000E+00
  0.00000000E+00  0.00000000E+00  0.00000000E+00
  0.00000000E+00  0.00000000E+00  0.00000000E+00
  0.00000000E+00  0.00000000E+00  0.00000000E+00
  0.00000000E+00  0.00000000E+00  0.00000000E+00
  0.00000000E+00  0.00000000E+00  0.00000000E+00
