Al Ca Fe O                              
   1.00000000000000     
     9.6048500000000008    0.0000000000000000    0.0000000000000000
     0.0000000000000000    9.6048500000000008    0.0000000000000000
     0.0000000000000000    0.0000000000000000   24.6048000000000009
   Al   Ca   Fe   O 
     1    31     1    32
Selective dynamics
Direct
  0.9631677161861478  0.5074636339751150  0.3715390535684819   T   T   T
  0.2494795918086699  0.0005823322994305  0.0987774411367110   T   T   T
  0.7491977518974995  0.0006945687627624  0.0985522210310608   T   T   T
  0.9995149334071745  0.2501744925532804  0.0986369806885882   T   T   T
  0.4992001861049629  0.2498978650339784  0.0984203556480803   T   T   T
  0.2492075805392468  0.5002360829690325  0.0979599543608892   T   T   T
  0.7489629125050575  0.5003446006129667  0.0977308183414276   T   T   T
  0.9994941221873942  0.7509517726572918  0.0982380579536245   T   T   T
  0.4991683073275062  0.7509846022906567  0.0980060446729113   T   T   T
  0.9996113071873423  0.0010195616233739  0.1958138722548187   T   T   T
  0.4985247677019362  0.0006220063869236  0.1961004849649269   T   T   T
  0.2497681886038385  0.2498868659483110  0.1960956044450071   T   T   T
  0.7486854075771007  0.2491403506609041  0.1955163094499648   T   T   T
  0.9993067857723701  0.5000822090227314  0.1944875831764227   T   T   T
  0.4972860785031274  0.5000290138292026  0.1944564975553938   T   T   T
  0.2503444177407358  0.7507142843606953  0.1954826500991112   T   T   T
  0.7481333269830898  0.7519146444284344  0.1948974396590529   T   T   T
  0.2492682984601151  0.0001589828447688  0.2954972627397928   T   T   T
  0.7483862357927548  0.0005684757589599  0.2940988953754624   T   T   T
  0.9990504121057232  0.2496151176893721  0.2940448642907090   T   T   T
  0.4994325734980377  0.2480121442722233  0.2947426263722942   T   T   T
  0.2521055319128630  0.4996488084612987  0.2935194220222030   T   T   T
  0.7412098190929338  0.5006661092259449  0.2883232583064556   T   T   T
  0.9988976045345057  0.7508147500859296  0.2908655612194582   T   T   T
  0.4995370166758383  0.7520885706330016  0.2936886640813323   T   T   T
  0.0095926691811649  0.9671549393935853  0.3958587224366465   T   T   T
  0.4916347724010994  0.0025505916000419  0.3943349204931332   T   T   T
  0.2431026329408870  0.2676364104222748  0.3926688026585046   T   T   T
  0.7575119985531592  0.2567944743306431  0.3937320336046786   T   T   T
  0.5063925215481302  0.4968198992644841  0.3892893747313603   T   T   T
  0.2555762276105908  0.7310536354893955  0.3912430248568222   T   T   T
  0.7451458546020073  0.7444687034986888  0.3933153047114801   T   T   T
  0.7753873119941077  0.0006464358796447  0.4664808537770972   T   T   T
  0.9994600464448387  0.0008234413865692  0.1010367175281498   T   T   T
  0.4993189768540832  0.0005955635668804  0.1004382267762221   T   T   T
  0.2489971266015894  0.2502226873197999  0.1002604351994415   T   T   T
  0.7497647185382610  0.2500888865593928  0.1000420095603251   T   T   T
  0.9993152673560557  0.5002680767010936  0.1001166629122713   T   T   T
  0.4989705789244339  0.5002753973288762  0.0992990625220981   T   T   T
  0.2492005201110773  0.7506601880923830  0.0997799663084282   T   T   T
  0.7495520286502343  0.7509494952539083  0.0995793240585585   T   T   T
  0.2482004878205387  0.0003472755064635  0.1960231505112580   T   T   T
  0.7499446815918688  0.0005787129966898  0.1957993315000112   T   T   T
  0.9992627592712390  0.2510414965264462  0.1965363608251833   T   T   T
  0.4992795012144756  0.2500233305886858  0.1952788772511105   T   T   T
  0.2477969382426039  0.5001592732631347  0.1951318544181483   T   T   T
  0.7495490171995347  0.5004622060837749  0.1937709616110248   T   T   T
  0.9992162846010307  0.7502694270028778  0.1952177483475194   T   T   T
  0.4992886081598970  0.7506135184457350  0.1947761278001379   T   T   T
  0.9988564047206870  0.9982378521309004  0.2990915663921498   T   T   T
  0.4981367268140167  0.0004356637970898  0.2953785632050078   T   T   T
  0.2468393504853884  0.2502304199941790  0.2950328927626232   T   T   T
  0.7515066108434515  0.2500130314571953  0.2943967315242896   T   T   T
  0.9917993727505701  0.5043305710085579  0.2961411224980363   T   T   T
  0.5012715886030967  0.4995797414403731  0.2923130997403767   T   T   T
  0.2483843227687361  0.7491940627251794  0.2939856346043040   T   T   T
  0.7497894591855370  0.7514001227818090  0.2935216592553375   T   T   T
  0.2431660655528582  0.9954262233088189  0.3910727592062505   T   T   T
  0.7508560575343203  0.9996753124615448  0.3888286535750778   T   T   T
  0.0029315260030535  0.3264923084889777  0.3855743284762116   T   T   T
  0.5046593885323981  0.2521815465204778  0.3890611423507859   T   T   T
  0.2763653040924700  0.4996787093040543  0.3858399755041325   T   T   T
  0.7719420704261495  0.5042627088267813  0.3830458929262948   T   T   T
  0.0016698193343075  0.6938082688393618  0.3851025826166330   T   T   T
  0.5029492984300665  0.7464834970396332  0.3884069821847329   T   T   T
 
  0.00000000E+00  0.00000000E+00  0.00000000E+00
  0.00000000E+00  0.00000000E+00  0.00000000E+00
  0.00000000E+00  0.00000000E+00  0.00000000E+00
  0.00000000E+00  0.00000000E+00  0.00000000E+00
  0.00000000E+00  0.00000000E+00  0.00000000E+00
  0.00000000E+00  0.00000000E+00  0.00000000E+00
  0.00000000E+00  0.00000000E+00  0.00000000E+00
  0.00000000E+00  0.00000000E+00  0.00000000E+00
  0.00000000E+00  0.00000000E+00  0.00000000E+00
  0.00000000E+00  0.00000000E+00  0.00000000E+00
  0.00000000E+00  0.00000000E+00  0.00000000E+00
  0.00000000E+00  0.00000000E+00  0.00000000E+00
  0.00000000E+00  0.00000000E+00  0.00000000E+00
  0.00000000E+00  0.00000000E+00  0.00000000E+00
  0.00000000E+00  0.00000000E+00  0.00000000E+00
  0.00000000E+00  0.00000000E+00  0.00000000E+00
  0.00000000E+00  0.00000000E+00  0.00000000E+00
  0.00000000E+00  0.00000000E+00  0.00000000E+00
  0.00000000E+00  0.00000000E+00  0.00000000E+00
  0.00000000E+00  0.00000000E+00  0.00000000E+00
  0.00000000E+00  0.00000000E+00  0.00000000E+00
  0.00000000E+00  0.00000000E+00  0.00000000E+00
  0.00000000E+00  0.00000000E+00  0.00000000E+00
  0.00000000E+00  0.00000000E+00  0.00000000E+00
  0.00000000E+00  0.00000000E+00  0.00000000E+00
  0.00000000E+00  0.00000000E+00  0.00000000E+00
  0.00000000E+00  0.00000000E+00  0.00000000E+00
  0.00000000E+00  0.00000000E+00  0.00000000E+00
  0.00000000E+00  0.00000000E+00  0.00000000E+00
  0.00000000E+00  0.00000000E+00  0.00000000E+00
  0.00000000E+00  0.00000000E+00  0.00000000E+00
  0.00000000E+00  0.00000000E+00  0.00000000E+00
  0.00000000E+00  0.00000000E+00  0.00000000E+00
  0.00000000E+00  0.00000000E+00  0.00000000E+00
  0.00000000E+00  0.00000000E+00  0.00000000E+00
  0.00000000E+00  0.00000000E+00  0.00000000E+00
  0.00000000E+00  0.00000000E+00  0.00000000E+00
  0.00000000E+00  0.00000000E+00  0.00000000E+00
  0.00000000E+00  0.00000000E+00  0.00000000E+00
  0.00000000E+00  0.00000000E+00  0.00000000E+00
  0.00000000E+00  0.00000000E+00  0.00000000E+00
  0.00000000E+00  0.00000000E+00  0.00000000E+00
  0.00000000E+00  0.00000000E+00  0.00000000E+00
  0.00000000E+00  0.00000000E+00  0.00000000E+00
  0.00000000E+00  0.00000000E+00  0.00000000E+00
  0.00000000E+00  0.00000000E+00  0.00000000E+00
  0.00000000E+00  0.00000000E+00  0.00000000E+00
  0.00000000E+00  0.00000000E+00  0.00000000E+00
  0.00000000E+00  0.00000000E+00  0.00000000E+00
  0.00000000E+00  0.00000000E+00  0.00000000E+00
  0.00000000E+00  0.00000000E+00  0.00000000E+00
  0.00000000E+00  0.00000000E+00  0.00000000E+00
  0.00000000E+00  0.00000000E+00  0.00000000E+00
  0.00000000E+00  0.00000000E+00  0.00000000E+00
  0.00000000E+00  0.00000000E+00  0.00000000E+00
  0.00000000E+00  0.00000000E+00  0.00000000E+00
  0.00000000E+00  0.00000000E+00  0.00000000E+00
  0.00000000E+00  0.00000000E+00  0.00000000E+00
  0.00000000E+00  0.00000000E+00  0.00000000E+00
  0.00000000E+00  0.00000000E+00  0.00000000E+00
  0.00000000E+00  0.00000000E+00  0.00000000E+00
  0.00000000E+00  0.00000000E+00  0.00000000E+00
  0.00000000E+00  0.00000000E+00  0.00000000E+00
  0.00000000E+00  0.00000000E+00  0.00000000E+00
  0.00000000E+00  0.00000000E+00  0.00000000E+00
