Al Ca O Pd                              
   1.00000000000000     
     9.6048500000000008    0.0000000000000000    0.0000000000000000
     0.0000000000000000    9.6048500000000008    0.0000000000000000
     0.0000000000000000    0.0000000000000000   24.6048000000000009
   Al   Ca   O    Pd
     1    31    32     1
Selective dynamics
Direct
 -0.0000791960959827  0.5026160598075877  0.3736076594188816   T   T   T
  0.2500364887443146  0.0002693244673926  0.0988828049395419   T   T   T
  0.7494404305362247  0.0002726700260180  0.0984728234476513   T   T   T
 -0.0001121298223643  0.2499451371538239  0.0987293292652453   T   T   T
  0.4997002565144540  0.2498950654203090  0.0990481334430838   T   T   T
  0.2501601173087626  0.5001071732226842  0.0989420964310018   T   T   T
  0.7495011215260917  0.5001048131845730  0.0984584012128835   T   T   T
 -0.0000965718076077  0.7504690845297916  0.0985393919102415   T   T   T
  0.4997018539290957  0.7504142596441158  0.0988703378892529   T   T   T
 -0.0000373388608561  0.0003721902651775  0.1954695609547276   T   T   T
  0.4992706351003079  0.0003022804242368  0.1962033500190799   T   T   T
  0.2504478326747223  0.2491960202816326  0.1960356236815841   T   T   T
  0.7489440253877367  0.2497832226289573  0.1956024358888283   T   T   T
  0.9996079783754298  0.5001425295005113  0.1948242927564345   T   T   T
  0.4999876993987600  0.5001050893689969  0.1957218569284911   T   T   T
  0.2506785251625178  0.7512873940521808  0.1957758429637553   T   T   T
  0.7487859669174005  0.7507359004428440  0.1953207109460280   T   T   T
  0.2499642228040391  0.0003366409546951  0.2952660191373528   T   T   T
  0.7487953185634618  0.0003890501865747  0.2930103168331838   T   T   T
  0.9982046498017666  0.2484341436311779  0.2928113029100424   T   T   T
  0.5009473683464102  0.2479620517195212  0.2950835859731453   T   T   T
  0.2513627015688060  0.5002028995947810  0.2918147860114821   T   T   T
  0.7482731280095246  0.5002840580164806  0.2922567257377536   T   T   T
  0.9981837261750106  0.7516342215865323  0.2916260635072818   T   T   T
  0.5011200626895629  0.7525732993781430  0.2947131861038603   T   T   T
 -0.0012115256171550  0.9858817770800853  0.3945029515456394   T   T   T
  0.5012038109673654  0.0020865423594195  0.3951490957800945   T   T   T
  0.2409366045684141  0.2578977428527265  0.3912946352459436   T   T   T
  0.7602809600554497  0.2582268991650251  0.3948536728926366   T   T   T
  0.4994792462624474  0.4990276191457177  0.3898880629485761   T   T   T
  0.2462296212615106  0.7420595612355008  0.3907645853743257   T   T   T
  0.7540405480670243  0.7418370273211061  0.3944529342689448   T   T   T
 -0.0000386023866756  0.0003392599395373  0.0997229753536924   T   T   T
  0.4994946592532376  0.0002533267648500  0.0998884771618354   T   T   T
  0.2497598637459384  0.2502013410121748  0.0996637425241296   T   T   T
  0.7498479367820097  0.2502731284037863  0.0991314303303350   T   T   T
 -0.0000281005516785  0.5000813712881100  0.0998544913657424   T   T   T
  0.4997114795662005  0.5000714453693719  0.1000969152421460   T   T   T
  0.2498473149657538  0.7501611701230556  0.0994369828397251   T   T   T
  0.7497915430007883  0.7500664258122809  0.0989234548428621   T   T   T
  0.2492215189629705  0.0003110632150905  0.1951505286153312   T   T   T
  0.7499916388757712  0.0002870559548376  0.1941755003933479   T   T   T
 -0.0001976643424737  0.2509630292004880  0.1951473053014078   T   T   T
  0.4995914167443513  0.2504423202942085  0.1952909826728825   T   T   T
  0.2491423968148788  0.5001863395213051  0.1950020404063844   T   T   T
  0.7504465468686120  0.5001801100514578  0.1945596807276184   T   T   T
 -0.0001534683681818  0.7496213974125662  0.1946954815406915   T   T   T
  0.4996373478310904  0.7499275631324890  0.1950581413819298   T   T   T
  0.0000366293101450  0.9994731503597399  0.2960935996284367   T   T   T
  0.4985242303758449  0.0004546567738423  0.2952684957906373   T   T   T
  0.2485911686377471  0.2501974157974231  0.2940232571575832   T   T   T
  0.7503226212587921  0.2511238483745454  0.2930964216880914   T   T   T
 -0.0000441472348912  0.5019052431282652  0.2963926466526431   T   T   T
  0.4997040890725440  0.4999168064560156  0.2955728985927381   T   T   T
  0.2495253259734071  0.7503266170551476  0.2935776967473410   T   T   T
  0.7497534384566102  0.7495041959796322  0.2925991408519505   T   T   T
  0.2404195290203118 -0.0010022223905232  0.3903430849862500   T   T   T
  0.7530390982963180 -0.0006849170652104  0.3831594387041586   T   T   T
  0.0007080065645866  0.3064043941851347  0.3845058286921499   T   T   T
  0.4960689360441583  0.2584388656511871  0.3897070004701301   T   T   T
  0.2178022195795128  0.5018024593291800  0.3847648414792732   T   T   T
  0.7827915579085148  0.5018113965805585  0.3849676512885348   T   T   T
  0.0007590351756749  0.7033515244308612  0.3844288093378022   T   T   T
  0.4973477503048714  0.7406138190837895  0.3893989753978906   T   T   T
  0.7743623155765924  0.0003906031395030  0.4726032444043805   T   T   T
 
  0.00000000E+00  0.00000000E+00  0.00000000E+00
  0.00000000E+00  0.00000000E+00  0.00000000E+00
  0.00000000E+00  0.00000000E+00  0.00000000E+00
  0.00000000E+00  0.00000000E+00  0.00000000E+00
  0.00000000E+00  0.00000000E+00  0.00000000E+00
  0.00000000E+00  0.00000000E+00  0.00000000E+00
  0.00000000E+00  0.00000000E+00  0.00000000E+00
  0.00000000E+00  0.00000000E+00  0.00000000E+00
  0.00000000E+00  0.00000000E+00  0.00000000E+00
  0.00000000E+00  0.00000000E+00  0.00000000E+00
  0.00000000E+00  0.00000000E+00  0.00000000E+00
  0.00000000E+00  0.00000000E+00  0.00000000E+00
  0.00000000E+00  0.00000000E+00  0.00000000E+00
  0.00000000E+00  0.00000000E+00  0.00000000E+00
  0.00000000E+00  0.00000000E+00  0.00000000E+00
  0.00000000E+00  0.00000000E+00  0.00000000E+00
  0.00000000E+00  0.00000000E+00  0.00000000E+00
  0.00000000E+00  0.00000000E+00  0.00000000E+00
  0.00000000E+00  0.00000000E+00  0.00000000E+00
  0.00000000E+00  0.00000000E+00  0.00000000E+00
  0.00000000E+00  0.00000000E+00  0.00000000E+00
  0.00000000E+00  0.00000000E+00  0.00000000E+00
  0.00000000E+00  0.00000000E+00  0.00000000E+00
  0.00000000E+00  0.00000000E+00  0.00000000E+00
  0.00000000E+00  0.00000000E+00  0.00000000E+00
  0.00000000E+00  0.00000000E+00  0.00000000E+00
  0.00000000E+00  0.00000000E+00  0.00000000E+00
  0.00000000E+00  0.00000000E+00  0.00000000E+00
  0.00000000E+00  0.00000000E+00  0.00000000E+00
  0.00000000E+00  0.00000000E+00  0.00000000E+00
  0.00000000E+00  0.00000000E+00  0.00000000E+00
  0.00000000E+00  0.00000000E+00  0.00000000E+00
  0.00000000E+00  0.00000000E+00  0.00000000E+00
  0.00000000E+00  0.00000000E+00  0.00000000E+00
  0.00000000E+00  0.00000000E+00  0.00000000E+00
  0.00000000E+00  0.00000000E+00  0.00000000E+00
  0.00000000E+00  0.00000000E+00  0.00000000E+00
  0.00000000E+00  0.00000000E+00  0.00000000E+00
  0.00000000E+00  0.00000000E+00  0.00000000E+00
  0.00000000E+00  0.00000000E+00  0.00000000E+00
  0.00000000E+00  0.00000000E+00  0.00000000E+00
  0.00000000E+00  0.00000000E+00  0.00000000E+00
  0.00000000E+00  0.00000000E+00  0.00000000E+00
  0.00000000E+00  0.00000000E+00  0.00000000E+00
  0.00000000E+00  0.00000000E+00  0.00000000E+00
  0.00000000E+00  0.00000000E+00  0.00000000E+00
  0.00000000E+00  0.00000000E+00  0.00000000E+00
  0.00000000E+00  0.00000000E+00  0.00000000E+00
  0.00000000E+00  0.00000000E+00  0.00000000E+00
  0.00000000E+00  0.00000000E+00  0.00000000E+00
  0.00000000E+00  0.00000000E+00  0.00000000E+00
  0.00000000E+00  0.00000000E+00  0.00000000E+00
  0.00000000E+00  0.00000000E+00  0.00000000E+00
  0.00000000E+00  0.00000000E+00  0.00000000E+00
  0.00000000E+00  0.00000000E+00  0.00000000E+00
  0.00000000E+00  0.00000000E+00  0.00000000E+00
  0.00000000E+00  0.00000000E+00  0.00000000E+00
  0.00000000E+00  0.00000000E+00  0.00000000E+00
  0.00000000E+00  0.00000000E+00  0.00000000E+00
  0.00000000E+00  0.00000000E+00  0.00000000E+00
  0.00000000E+00  0.00000000E+00  0.00000000E+00
  0.00000000E+00  0.00000000E+00  0.00000000E+00
  0.00000000E+00  0.00000000E+00  0.00000000E+00
  0.00000000E+00  0.00000000E+00  0.00000000E+00
  0.00000000E+00  0.00000000E+00  0.00000000E+00
