Al Ca Ir O                              
   1.00000000000000     
     9.6048500000000008    0.0000000000000000    0.0000000000000000
     0.0000000000000000    9.6048500000000008    0.0000000000000000
     0.0000000000000000    0.0000000000000000   24.6048000000000009
   Al   Ca   Ir   O 
     1    31     1    32
Selective dynamics
Direct
 -0.0381552792560285  0.5044968464558011  0.3724506556232978   T   T   T
  0.2497836183557764  0.0005167076853650  0.0992083709678349   T   T   T
  0.7497263370616521  0.0005881392871170  0.0990229733753798   T   T   T
 -0.0002617329103152  0.2500842632813488  0.0993314261409051   T   T   T
  0.4995317495393095  0.2498854457552084  0.0987786824220495   T   T   T
  0.2494340053186236  0.5003246868764264  0.0985884387326256   T   T   T
  0.7493846210992776  0.5003602864519129  0.0981467704202467   T   T   T
 -0.0002103027796511  0.7509138935382415  0.0990986438619750   T   T   T
  0.4994936835916864  0.7509334551518545  0.0985708808314081   T   T   T
  0.0008335515010086  0.0007244775303052  0.1963323757043829   T   T   T
  0.4983794664874774  0.0004929103360092  0.1961261389119685   T   T   T
  0.2501844010874705  0.2495120643029597  0.1964081738461921   T   T   T
  0.7487280771920878  0.2495367344817095  0.1955412045559193   T   T   T
 -0.0006026040104636  0.5001957072736530  0.1951190539200659   T   T   T
  0.4978144239912581  0.5001365219256951  0.1948568349491276   T   T   T
  0.2504785626220512  0.7510664068786744  0.1961309409542595   T   T   T
  0.7483497519738609  0.7512844174158856  0.1951830217620248   T   T   T
  0.2498567531563938  0.0001975206273181  0.2966236346907739   T   T   T
  0.7482294797783032  0.0002582633941189  0.2925932923338390   T   T   T
  0.9983226174548018  0.2494220374454690  0.2941439187872310   T   T   T
  0.5004483236552695  0.2474721240061622  0.2948882961103571   T   T   T
  0.2522907788928608  0.4998920927371557  0.2937728310318974   T   T   T
  0.7415089703153476  0.5003820738099571  0.2890872560720220   T   T   T
  0.9982129039708985  0.7509381592773334  0.2921817436736551   T   T   T
  0.5002944833344942  0.7528859327724503  0.2942838869282676   T   T   T
  0.0040634862840100  0.9801578943824278  0.3964708427610612   T   T   T
  0.4960429304833281  0.0018815804443057  0.3962729163396853   T   T   T
  0.2466095726111230  0.2677911204508728  0.3921600139699459   T   T   T
  0.7544899192039163  0.2523940385132091  0.3952937641026250   T   T   T
  0.5067928141464618  0.4982062744475561  0.3890495670500574   T   T   T
  0.2533700310331587  0.7322198223213282  0.3913823118360746   T   T   T
  0.7465273471499588  0.7475728794299893  0.3950708099813253   T   T   T
  0.7664063608745132 -0.0005958193070080  0.4630013683134541   T   T   T
 -0.0001237749924537  0.0006146627845690  0.1007437509885827   T   T   T
  0.4995222668976469  0.0005504838192140  0.0996717558404768   T   T   T
  0.2492002823794272  0.2502344351327370  0.0996347429231791   T   T   T
  0.7501923884434749  0.2501406964641980  0.0993334321613893   T   T   T
 -0.0003627562968836  0.5003765286402877  0.1000704122500653   T   T   T
  0.4992845745743256  0.5003061733209708  0.0989485537745914   T   T   T
  0.2492642786756994  0.7506205825367289  0.0994364576434130   T   T   T
  0.7501712822410133  0.7507802271292527  0.0990816018818389   T   T   T
  0.2489431578755063  0.0003589534722681  0.1955776743691011   T   T   T
  0.7504490871258418  0.0005190308665672  0.1949249522947389   T   T   T
 -0.0003774067964963  0.2511928476244469  0.1961291709524064   T   T   T
  0.4994511280937213  0.2500665623281723  0.1947502719150755   T   T   T
  0.2479066235877195  0.5002090169125718  0.1950611563868220   T   T   T
  0.7499676296242540  0.5003118571570819  0.1937036566211519   T   T   T
 -0.0003465450436581  0.7498149895588384  0.1955007220247026   T   T   T
  0.4994285485090494  0.7505390731332655  0.1944757295120086   T   T   T
  0.0003268725074704 -0.0008989876300214  0.2978494658648719   T   T   T
  0.4982112172518726  0.0004174257730631  0.2944375986788675   T   T   T
  0.2472309564155520  0.2505612230783851  0.2946478735617326   T   T   T
  0.7509146695679065  0.2503476184859685  0.2933652989369892   T   T   T
 -0.0085700411531425  0.5025578882482555  0.2968234153090546   T   T   T
  0.5012820872410231  0.4997891102835190  0.2920784284645430   T   T   T
  0.2480741000080957  0.7493487194595365  0.2940523344620459   T   T   T
  0.7496926246677965  0.7504173402019683  0.2926846860556234   T   T   T
  0.2420348899937352 -0.0023709028726431  0.3919731912396042   T   T   T
  0.7547346447386238 -0.0006529007551568  0.3827190793975929   T   T   T
  0.0021788798421934  0.3225939588150144  0.3862295831092371   T   T   T
  0.5034177393446883  0.2528136259853376  0.3888894610939266   T   T   T
  0.2768798861029566  0.4999793199343264  0.3860454544322316   T   T   T
  0.7707201774612787  0.5024378257433065  0.3840515744381146   T   T   T
  0.0013213597807522  0.6898260339455465  0.3858423436393466   T   T   T
  0.5021458387170666  0.7463135740546304  0.3883904934507685   T   T   T
 
  0.00000000E+00  0.00000000E+00  0.00000000E+00
  0.00000000E+00  0.00000000E+00  0.00000000E+00
  0.00000000E+00  0.00000000E+00  0.00000000E+00
  0.00000000E+00  0.00000000E+00  0.00000000E+00
  0.00000000E+00  0.00000000E+00  0.00000000E+00
  0.00000000E+00  0.00000000E+00  0.00000000E+00
  0.00000000E+00  0.00000000E+00  0.00000000E+00
  0.00000000E+00  0.00000000E+00  0.00000000E+00
  0.00000000E+00  0.00000000E+00  0.00000000E+00
  0.00000000E+00  0.00000000E+00  0.00000000E+00
  0.00000000E+00  0.00000000E+00  0.00000000E+00
  0.00000000E+00  0.00000000E+00  0.00000000E+00
  0.00000000E+00  0.00000000E+00  0.00000000E+00
  0.00000000E+00  0.00000000E+00  0.00000000E+00
  0.00000000E+00  0.00000000E+00  0.00000000E+00
  0.00000000E+00  0.00000000E+00  0.00000000E+00
  0.00000000E+00  0.00000000E+00  0.00000000E+00
  0.00000000E+00  0.00000000E+00  0.00000000E+00
  0.00000000E+00  0.00000000E+00  0.00000000E+00
  0.00000000E+00  0.00000000E+00  0.00000000E+00
  0.00000000E+00  0.00000000E+00  0.00000000E+00
  0.00000000E+00  0.00000000E+00  0.00000000E+00
  0.00000000E+00  0.00000000E+00  0.00000000E+00
  0.00000000E+00  0.00000000E+00  0.00000000E+00
  0.00000000E+00  0.00000000E+00  0.00000000E+00
  0.00000000E+00  0.00000000E+00  0.00000000E+00
  0.00000000E+00  0.00000000E+00  0.00000000E+00
  0.00000000E+00  0.00000000E+00  0.00000000E+00
  0.00000000E+00  0.00000000E+00  0.00000000E+00
  0.00000000E+00  0.00000000E+00  0.00000000E+00
  0.00000000E+00  0.00000000E+00  0.00000000E+00
  0.00000000E+00  0.00000000E+00  0.00000000E+00
  0.00000000E+00  0.00000000E+00  0.00000000E+00
  0.00000000E+00  0.00000000E+00  0.00000000E+00
  0.00000000E+00  0.00000000E+00  0.00000000E+00
  0.00000000E+00  0.00000000E+00  0.00000000E+00
  0.00000000E+00  0.00000000E+00  0.00000000E+00
  0.00000000E+00  0.00000000E+00  0.00000000E+00
  0.00000000E+00  0.00000000E+00  0.00000000E+00
  0.00000000E+00  0.00000000E+00  0.00000000E+00
  0.00000000E+00  0.00000000E+00  0.00000000E+00
  0.00000000E+00  0.00000000E+00  0.00000000E+00
  0.00000000E+00  0.00000000E+00  0.00000000E+00
  0.00000000E+00  0.00000000E+00  0.00000000E+00
  0.00000000E+00  0.00000000E+00  0.00000000E+00
  0.00000000E+00  0.00000000E+00  0.00000000E+00
  0.00000000E+00  0.00000000E+00  0.00000000E+00
  0.00000000E+00  0.00000000E+00  0.00000000E+00
  0.00000000E+00  0.00000000E+00  0.00000000E+00
  0.00000000E+00  0.00000000E+00  0.00000000E+00
  0.00000000E+00  0.00000000E+00  0.00000000E+00
  0.00000000E+00  0.00000000E+00  0.00000000E+00
  0.00000000E+00  0.00000000E+00  0.00000000E+00
  0.00000000E+00  0.00000000E+00  0.00000000E+00
  0.00000000E+00  0.00000000E+00  0.00000000E+00
  0.00000000E+00  0.00000000E+00  0.00000000E+00
  0.00000000E+00  0.00000000E+00  0.00000000E+00
  0.00000000E+00  0.00000000E+00  0.00000000E+00
  0.00000000E+00  0.00000000E+00  0.00000000E+00
  0.00000000E+00  0.00000000E+00  0.00000000E+00
  0.00000000E+00  0.00000000E+00  0.00000000E+00
  0.00000000E+00  0.00000000E+00  0.00000000E+00
  0.00000000E+00  0.00000000E+00  0.00000000E+00
  0.00000000E+00  0.00000000E+00  0.00000000E+00
  0.00000000E+00  0.00000000E+00  0.00000000E+00
