                                        
   1.00000000000000     
     9.6048500000000008    0.0000000000000000    0.0000000000000000
     0.0000000000000010    9.6048500000000008    0.0000000000000000
     0.0000000000000020    0.0000000000000020   24.6048000000000009
   Ca   Al   Ca   O 
    28     1     3    32
Direct
  0.2504358511862038 -0.0003966992867270  0.0979404770113759
  0.7492334417921983 -0.0004019188533963  0.0979307408990326
  0.9998445027437867  0.2494598347093662  0.0972246028963704
  0.4998399513672955  0.2498056798237909  0.0980727423092407
  0.2503002057282678  0.5001528226531977  0.0979602838733249
  0.7493741599707191  0.5001476299145001  0.0979549928898275
  0.9998435512799806  0.7498403586856515  0.0975582503904870
  0.4998341161046136  0.7501489649252772  0.0984698428424575
  0.9998623642653315 -0.0022238050980616  0.1942302487021445
  0.4998584604813368 -0.0007719521956107  0.1959144063167326
  0.2513445769017517  0.2489734928746361  0.1948242836574664
  0.7483916329587897  0.2489631741679191  0.1948151087943459
  0.9998711787990217  0.4998809878372266  0.1940647140901814
  0.4998515466343488  0.5003225260067082  0.1954943747766900
  0.2501403717334904  0.7503588259605123  0.1956584348108539
  0.7495803347859064  0.7503595546382388  0.1956478479506162
  0.2514054079149055 -0.0009903551129221  0.2938822130102281
  0.7484164755807352 -0.0010090047376144  0.2938663164650054
  0.9999084813612016  0.2417484326866125  0.2879336684154064
  0.4999149331796434  0.2496934832906995  0.2941325999325339
  0.2494195706624035  0.5003045938075145  0.2923952350876105
  0.7504093576113929  0.5003047731775664  0.2923457564106329
  0.9999127791902603  0.7528357992338114  0.2938674645252629
  0.4999064270300110  0.7500659630456957  0.2953390807998814
 -0.0000043162307693  0.0088836765942345  0.3896247995157824
  0.4998939591912515 -0.0048104258829088  0.3927883953133913
  0.2495338257414413  0.2509031434503187  0.3909485419175248
  0.7503587257748833  0.2506929984626507  0.3909308494834551
 -0.0001998045985918  0.4606702593030465  0.3726346670111269
  0.5004258312560812  0.5047942483657601  0.3935089026885357
  0.2318608814272598  0.7490620323398884  0.3926975968214566
  0.7680084156428866  0.7492704917985872  0.3926836182576258
  0.9998485629883720 -0.0006592515567444  0.0994239757076561
  0.4998423043343546 -0.0001085373708136  0.1007077649752057
  0.2504231950256156  0.2502333106492233  0.0998339007333626
  0.7492602802992546  0.2502218500273528  0.0998255694082997
  0.9998365413485460  0.5000621974652583  0.1001671033340714
  0.4998271181437188  0.5001590444776327  0.1010767779236569
  0.2500484058114689  0.7496412015378822  0.1002874348241529
  0.7496036094987950  0.7496346669461705  0.1002841984213211
  0.2500841076984989 -0.0003800660454291  0.1953418112164823
  0.7496180714569073 -0.0003796546830224  0.1953279655373370
  0.9998686406636530  0.2501554744700649  0.1936457267021754
  0.4998628047358634  0.2506897488574816  0.1957177168203644
  0.2492114550858439  0.4997801787168435  0.1960265197150000
  0.7505000557450203  0.4997742437308025  0.1960082595491897
  0.9998504094050148  0.7482236525252425  0.1953788309561394
  0.4998475902105135  0.7489811290786135  0.1961624686290866
  0.9999177168554612  0.0020251727585355  0.2924228302465220
  0.4999045435792343 -0.0007740708561479  0.2958535799520865
  0.2507112735632585  0.2506455523893401  0.2938647593464940
  0.7491055284948478  0.2506047167740838  0.2938458565501179
  0.9998730193507150  0.4921469618062057  0.2972300849953469
  0.4999498503442659  0.5006550815693919  0.2987205720879110
  0.2488988307154558  0.7480922199507628  0.2949542338519998
  0.7509202425147685  0.7481049063669885  0.2949409958465763
  0.2498578386686137  0.0069063499888352  0.3893341105963741
  0.7500444191566364  0.0068273074624365  0.3893245201694050
  0.9998757538232536  0.2694131431430657  0.3828236692344931
  0.4999782006577025  0.2635480183273368  0.3896761571691784
  0.1849090878400327  0.4993604747322689  0.3864921541329747
  0.8146305526049793  0.4993214025537563  0.3864840029557489
  0.9999408290588833  0.7784988406040968  0.3863094607137956
  0.4999980181523920  0.7431050375363305  0.3905329298308433
 
  0.00000000E+00  0.00000000E+00  0.00000000E+00
  0.00000000E+00  0.00000000E+00  0.00000000E+00
  0.00000000E+00  0.00000000E+00  0.00000000E+00
  0.00000000E+00  0.00000000E+00  0.00000000E+00
  0.00000000E+00  0.00000000E+00  0.00000000E+00
  0.00000000E+00  0.00000000E+00  0.00000000E+00
  0.00000000E+00  0.00000000E+00  0.00000000E+00
  0.00000000E+00  0.00000000E+00  0.00000000E+00
  0.00000000E+00  0.00000000E+00  0.00000000E+00
  0.00000000E+00  0.00000000E+00  0.00000000E+00
  0.00000000E+00  0.00000000E+00  0.00000000E+00
  0.00000000E+00  0.00000000E+00  0.00000000E+00
  0.00000000E+00  0.00000000E+00  0.00000000E+00
  0.00000000E+00  0.00000000E+00  0.00000000E+00
  0.00000000E+00  0.00000000E+00  0.00000000E+00
  0.00000000E+00  0.00000000E+00  0.00000000E+00
  0.00000000E+00  0.00000000E+00  0.00000000E+00
  0.00000000E+00  0.00000000E+00  0.00000000E+00
  0.00000000E+00  0.00000000E+00  0.00000000E+00
  0.00000000E+00  0.00000000E+00  0.00000000E+00
  0.00000000E+00  0.00000000E+00  0.00000000E+00
  0.00000000E+00  0.00000000E+00  0.00000000E+00
  0.00000000E+00  0.00000000E+00  0.00000000E+00
  0.00000000E+00  0.00000000E+00  0.00000000E+00
  0.00000000E+00  0.00000000E+00  0.00000000E+00
  0.00000000E+00  0.00000000E+00  0.00000000E+00
  0.00000000E+00  0.00000000E+00  0.00000000E+00
  0.00000000E+00  0.00000000E+00  0.00000000E+00
  0.00000000E+00  0.00000000E+00  0.00000000E+00
  0.00000000E+00  0.00000000E+00  0.00000000E+00
  0.00000000E+00  0.00000000E+00  0.00000000E+00
  0.00000000E+00  0.00000000E+00  0.00000000E+00
  0.00000000E+00  0.00000000E+00  0.00000000E+00
  0.00000000E+00  0.00000000E+00  0.00000000E+00
  0.00000000E+00  0.00000000E+00  0.00000000E+00
  0.00000000E+00  0.00000000E+00  0.00000000E+00
  0.00000000E+00  0.00000000E+00  0.00000000E+00
  0.00000000E+00  0.00000000E+00  0.00000000E+00
  0.00000000E+00  0.00000000E+00  0.00000000E+00
  0.00000000E+00  0.00000000E+00  0.00000000E+00
  0.00000000E+00  0.00000000E+00  0.00000000E+00
  0.00000000E+00  0.00000000E+00  0.00000000E+00
  0.00000000E+00  0.00000000E+00  0.00000000E+00
  0.00000000E+00  0.00000000E+00  0.00000000E+00
  0.00000000E+00  0.00000000E+00  0.00000000E+00
  0.00000000E+00  0.00000000E+00  0.00000000E+00
  0.00000000E+00  0.00000000E+00  0.00000000E+00
  0.00000000E+00  0.00000000E+00  0.00000000E+00
  0.00000000E+00  0.00000000E+00  0.00000000E+00
  0.00000000E+00  0.00000000E+00  0.00000000E+00
  0.00000000E+00  0.00000000E+00  0.00000000E+00
  0.00000000E+00  0.00000000E+00  0.00000000E+00
  0.00000000E+00  0.00000000E+00  0.00000000E+00
  0.00000000E+00  0.00000000E+00  0.00000000E+00
  0.00000000E+00  0.00000000E+00  0.00000000E+00
  0.00000000E+00  0.00000000E+00  0.00000000E+00
  0.00000000E+00  0.00000000E+00  0.00000000E+00
  0.00000000E+00  0.00000000E+00  0.00000000E+00
  0.00000000E+00  0.00000000E+00  0.00000000E+00
  0.00000000E+00  0.00000000E+00  0.00000000E+00
  0.00000000E+00  0.00000000E+00  0.00000000E+00
  0.00000000E+00  0.00000000E+00  0.00000000E+00
  0.00000000E+00  0.00000000E+00  0.00000000E+00
  0.00000000E+00  0.00000000E+00  0.00000000E+00
