Al Ca O Rh                              
   1.00000000000000     
     9.6048500000000008    0.0000000000000000    0.0000000000000000
     0.0000000000000000    9.6048500000000008    0.0000000000000000
     0.0000000000000000    0.0000000000000000   24.6048000000000009
   Al   Ca   O    Rh
     1    31    32     1
Selective dynamics
Direct
 -0.0388441887693274  0.5041153223380380  0.3722626195238202   T   T   T
  0.2495248658528516  0.0005243332148827  0.0993020581084989   T   T   T
  0.7494590048410494  0.0005767830093615  0.0990296996689664   T   T   T
 -0.0005195957746791  0.2499844253863351  0.0993087996020564   T   T   T
  0.4992116316269226  0.2498051498391032  0.0987663321072188   T   T   T
  0.2491162027497778  0.5003867398555170  0.0985965869613570   T   T   T
  0.7490440275568641  0.5004087984959656  0.0981434154436520   T   T   T
 -0.0004780896411427  0.7510360109959274  0.0990716958980079   T   T   T
  0.4991711231140217  0.7511008505313126  0.0985519952892220   T   T   T
  0.0002621076320440  0.0007318700005219  0.1963723727120802   T   T   T
  0.4983616624817099  0.0005301575282334  0.1962578536785878   T   T   T
  0.2499422001048986  0.2496391533831855  0.1964363929412063   T   T   T
  0.7484793121238241  0.2492955173998229  0.1955246738661592   T   T   T
  0.9991760108899216  0.5001972595900068  0.1950315744749038   T   T   T
  0.4975939740816216  0.5001862108770647  0.1947649098284325   T   T   T
  0.2502224857839713  0.7509789816129286  0.1961347804171956   T   T   T
  0.7481201447758468  0.7515082456365001  0.1951836367845953   T   T   T
  0.2496247509557422  0.0001745392930533  0.2965817627868636   T   T   T
  0.7483946251717807  0.0002206566187344  0.2932823396645528   T   T   T
  0.9983953725549840  0.2494101690921247  0.2940304307170625   T   T   T
  0.5003676441433222  0.2474352889091227  0.2947954749883657   T   T   T
  0.2521497066095393  0.4999106390427236  0.2938605058588589   T   T   T
  0.7411321119871337  0.5003053821116464  0.2887978973703822   T   T   T
  0.9983219766152682  0.7509160281375827  0.2922048282913245   T   T   T
  0.5002398037848038  0.7528089866597842  0.2942219944140447   T   T   T
  0.0039994410240909  0.9813285199428704  0.3962926381457479   T   T   T
  0.4965957046960682  0.0015756048788796  0.3957360412509701   T   T   T
  0.2467680597045731  0.2676863103484721  0.3921413790889939   T   T   T
  0.7543196345543912  0.2514348369433899  0.3948444137932624   T   T   T
  0.5076082957186260  0.4982668691560073  0.3889998516864905   T   T   T
  0.2531488458453137  0.7321880987696304  0.3914475797296168   T   T   T
  0.7471253212331442  0.7483091621887422  0.3945830777043230   T   T   T
 -0.0003457167286140  0.0006389993383861  0.1007467564068102   T   T   T
  0.4992623148261497  0.0005675274362289  0.0997636889139063   T   T   T
  0.2489052705768266  0.2503604867734719  0.0997247483192761   T   T   T
  0.7498873043496482  0.2501545754904932  0.0993067039052889   T   T   T
 -0.0005597099634714  0.5003916325846838  0.0999587211035965   T   T   T
  0.4988124314621881  0.5003799068474547  0.0988746878803305   T   T   T
  0.2489851341415591  0.7505882716181754  0.0995169461182694   T   T   T
  0.7498180607286645  0.7508142984329943  0.0990769729569009   T   T   T
  0.2486888088328350  0.0003686377540089  0.1956756873133072   T   T   T
  0.7501817170858919  0.0005081392310418  0.1949746664749815   T   T   T
 -0.0006005536007876  0.2511760116200715  0.1960886740438665   T   T   T
  0.4991367135294217  0.2501343277340197  0.1947672440386637   T   T   T
  0.2476999740276746  0.5002733311281415  0.1950348503624417   T   T   T
  0.7496156865291635  0.5003469347867303  0.1936148870146977   T   T   T
 -0.0005894374718049  0.7498144764035093  0.1954690776082730   T   T   T
  0.4990923708803159  0.7505556431938434  0.1945072750501849   T   T   T
  0.0003034970875349 -0.0008293613877639  0.2977404298933454   T   T   T
  0.4979695269000223  0.0003405425970880  0.2946571859837164   T   T   T
  0.2472687422726239  0.2506608161952719  0.2947168905248337   T   T   T
  0.7508198546787282  0.2501974654816285  0.2932619595432955   T   T   T
 -0.0088413406299563  0.5023799558455271  0.2965520205841674   T   T   T
  0.5013682642518349  0.4998128733267288  0.2919145009491884   T   T   T
  0.2480978726397429  0.7492340625761846  0.2941516575873281   T   T   T
  0.7496496255214486  0.7504200202550032  0.2926705765756397   T   T   T
  0.2427259415768201 -0.0020945277159962  0.3918946082381260   T   T   T
  0.7552104933420931 -0.0008398835274556  0.3836402677024262   T   T   T
  0.0021768009726332  0.3224305020818016  0.3861147120958918   T   T   T
  0.5039769250142985  0.2524466322481465  0.3888832281801634   T   T   T
  0.2779500498399884  0.4998701914140922  0.3861262378729071   T   T   T
  0.7705346629445490  0.5023703070236123  0.3836866152436418   T   T   T
  0.0012301941059830  0.6893545224323723  0.3858119342297712   T   T   T
  0.5025882262806132  0.7467550088664805  0.3884550533876153   T   T   T
  0.7724718905624041 -0.0003132768604272  0.4643562857363558   T   T   T
 
  0.00000000E+00  0.00000000E+00  0.00000000E+00
  0.00000000E+00  0.00000000E+00  0.00000000E+00
  0.00000000E+00  0.00000000E+00  0.00000000E+00
  0.00000000E+00  0.00000000E+00  0.00000000E+00
  0.00000000E+00  0.00000000E+00  0.00000000E+00
  0.00000000E+00  0.00000000E+00  0.00000000E+00
  0.00000000E+00  0.00000000E+00  0.00000000E+00
  0.00000000E+00  0.00000000E+00  0.00000000E+00
  0.00000000E+00  0.00000000E+00  0.00000000E+00
  0.00000000E+00  0.00000000E+00  0.00000000E+00
  0.00000000E+00  0.00000000E+00  0.00000000E+00
  0.00000000E+00  0.00000000E+00  0.00000000E+00
  0.00000000E+00  0.00000000E+00  0.00000000E+00
  0.00000000E+00  0.00000000E+00  0.00000000E+00
  0.00000000E+00  0.00000000E+00  0.00000000E+00
  0.00000000E+00  0.00000000E+00  0.00000000E+00
  0.00000000E+00  0.00000000E+00  0.00000000E+00
  0.00000000E+00  0.00000000E+00  0.00000000E+00
  0.00000000E+00  0.00000000E+00  0.00000000E+00
  0.00000000E+00  0.00000000E+00  0.00000000E+00
  0.00000000E+00  0.00000000E+00  0.00000000E+00
  0.00000000E+00  0.00000000E+00  0.00000000E+00
  0.00000000E+00  0.00000000E+00  0.00000000E+00
  0.00000000E+00  0.00000000E+00  0.00000000E+00
  0.00000000E+00  0.00000000E+00  0.00000000E+00
  0.00000000E+00  0.00000000E+00  0.00000000E+00
  0.00000000E+00  0.00000000E+00  0.00000000E+00
  0.00000000E+00  0.00000000E+00  0.00000000E+00
  0.00000000E+00  0.00000000E+00  0.00000000E+00
  0.00000000E+00  0.00000000E+00  0.00000000E+00
  0.00000000E+00  0.00000000E+00  0.00000000E+00
  0.00000000E+00  0.00000000E+00  0.00000000E+00
  0.00000000E+00  0.00000000E+00  0.00000000E+00
  0.00000000E+00  0.00000000E+00  0.00000000E+00
  0.00000000E+00  0.00000000E+00  0.00000000E+00
  0.00000000E+00  0.00000000E+00  0.00000000E+00
  0.00000000E+00  0.00000000E+00  0.00000000E+00
  0.00000000E+00  0.00000000E+00  0.00000000E+00
  0.00000000E+00  0.00000000E+00  0.00000000E+00
  0.00000000E+00  0.00000000E+00  0.00000000E+00
  0.00000000E+00  0.00000000E+00  0.00000000E+00
  0.00000000E+00  0.00000000E+00  0.00000000E+00
  0.00000000E+00  0.00000000E+00  0.00000000E+00
  0.00000000E+00  0.00000000E+00  0.00000000E+00
  0.00000000E+00  0.00000000E+00  0.00000000E+00
  0.00000000E+00  0.00000000E+00  0.00000000E+00
  0.00000000E+00  0.00000000E+00  0.00000000E+00
  0.00000000E+00  0.00000000E+00  0.00000000E+00
  0.00000000E+00  0.00000000E+00  0.00000000E+00
  0.00000000E+00  0.00000000E+00  0.00000000E+00
  0.00000000E+00  0.00000000E+00  0.00000000E+00
  0.00000000E+00  0.00000000E+00  0.00000000E+00
  0.00000000E+00  0.00000000E+00  0.00000000E+00
  0.00000000E+00  0.00000000E+00  0.00000000E+00
  0.00000000E+00  0.00000000E+00  0.00000000E+00
  0.00000000E+00  0.00000000E+00  0.00000000E+00
  0.00000000E+00  0.00000000E+00  0.00000000E+00
  0.00000000E+00  0.00000000E+00  0.00000000E+00
  0.00000000E+00  0.00000000E+00  0.00000000E+00
  0.00000000E+00  0.00000000E+00  0.00000000E+00
  0.00000000E+00  0.00000000E+00  0.00000000E+00
  0.00000000E+00  0.00000000E+00  0.00000000E+00
  0.00000000E+00  0.00000000E+00  0.00000000E+00
  0.00000000E+00  0.00000000E+00  0.00000000E+00
  0.00000000E+00  0.00000000E+00  0.00000000E+00
