Ag Al Ca O                              
   1.00000000000000     
     9.6048500000000008    0.0000000000000000    0.0000000000000000
     0.0000000000000000    9.6048500000000008    0.0000000000000000
     0.0000000000000000    0.0000000000000000   24.6048000000000009
   Ag   Al   Ca   O 
     1     1    31    32
Selective dynamics
Direct
  0.8419236856470629 -0.0034251282902107  0.5022189298449604   T   T   T
  0.0387728206974273  0.5020121490283940  0.3715416609512991   T   T   T
  0.2488595940907005  0.0005479948604461  0.0985203570037346   T   T   T
  0.7485365620509448  0.0005691239488490  0.0982613285603536   T   T   T
 -0.0011825328814214  0.2502496720211625  0.0986521814477634   T   T   T
  0.4989421706865084  0.2500132508093246  0.0983703551430059   T   T   T
  0.2493563420184781  0.5004087666232354  0.0981159426656213   T   T   T
  0.7491462463639887  0.5003971248749454  0.0978656032652499   T   T   T
 -0.0011308752404634  0.7507235237236086  0.0985042784356983   T   T   T
  0.4989934538023246  0.7508891245908547  0.0982565394898445   T   T   T
 -0.0013476014289431  0.0005383293788854  0.1953330317275606   T   T   T
  0.4990304340211139  0.0004272967904426  0.1955739609192339   T   T   T
  0.2498177213812046  0.2487085988266037  0.1952380341323297   T   T   T
  0.7483325778538632  0.2505322157414949  0.1954119451615270   T   T   T
 -0.0012741588442371  0.5002549091458461  0.1945480718504266   T   T   T
  0.5015122082060384  0.5002843368115266  0.1945159959806715   T   T   T
  0.2500156288276441  0.7520405654826092  0.1950853135448104   T   T   T
  0.7481910565880142  0.7501505869693508  0.1952378878818875   T   T   T
  0.2484996490302034  0.0002170627660325  0.2942913458743734   T   T   T
  0.7490751646545138  0.0001694610802355  0.2929331657487179   T   T   T
 -0.0025623563717464  0.2498190175927291  0.2927367897097842   T   T   T
  0.5009746846212519  0.2479189204070810  0.2942115837753917   T   T   T
  0.2581328221116729  0.5001971743214687  0.2880248772331208   T   T   T
  0.7462642465804790  0.5001097366345036  0.2946622443045704   T   T   T
 -0.0025585170854824  0.7506005443864918  0.2918466246820890   T   T   T
  0.5011815298674105  0.7523989734668447  0.2939487048720127   T   T   T
 -0.0107805241812540  0.9918559264743693  0.3948703951044507   T   T   T
  0.5086709054593573  0.0006355743600192  0.3927593639238837   T   T   T
  0.2455871213715231  0.2486047658733883  0.3907030822508547   T   T   T
  0.7528352381531002  0.2652841978702364  0.3950699314494818   T   T   T
  0.4905360305381973  0.4991839343090052  0.3895110955986081   T   T   T
  0.2486761197753671  0.7512474320728023  0.3903799823964189   T   T   T
  0.7493269318003610  0.7341181300340219  0.3950067898392120   T   T   T
 -0.0009801882238261  0.0005765191810174  0.0996558471507936   T   T   T
  0.4983586604553482  0.0005351760832238  0.0992269902540599   T   T   T
  0.2485632605811974  0.2503550227600363  0.0991915556416417   T   T   T
  0.7491277738478681  0.2507093334225377  0.0988593831899583   T   T   T
 -0.0007541520362827  0.5004003385649943  0.0994816579297862   T   T   T
  0.4991476394165117  0.5004488091296452  0.0987327581380019   T   T   T
  0.2486683687237422  0.7506574028441184  0.0990543482800909   T   T   T
  0.7491198681989781  0.7502735847279944  0.0987308130342483   T   T   T
  0.2481360181879234  0.0004105180887711  0.1946559487299487   T   T   T
  0.7492198762635125  0.0003975258147891  0.1936880401576125   T   T   T
 -0.0010291046029435  0.2512703672388092  0.1952780823090743   T   T   T
  0.4990372775488971  0.2502330402963989  0.1945015585161298   T   T   T
  0.2490231552185913  0.5003748960306207  0.1934401510858383   T   T   T
  0.7505085182042237  0.5003232252681881  0.1943869093581674   T   T   T
 -0.0009585746452263  0.7495844488303073  0.1949202416452175   T   T   T
  0.4991177924724778  0.7504480338991687  0.1943830629197929   T   T   T
 -0.0012715106651286 -0.0003069697712627  0.2960176531863216   T   T   T
  0.4981579231827729  0.0002469492917634  0.2939638433808899   T   T   T
  0.2480630550314600  0.2495855163571006  0.2935375428938642   T   T   T
  0.7508337062162344  0.2524123062944955  0.2933277805152582   T   T   T
  0.0078156220018270  0.5010580908137715  0.2960584515544102   T   T   T
  0.4973732256308361  0.5000524127974303  0.2921937370666521   T   T   T
  0.2487351342567315  0.7509160037765351  0.2932681458289165   T   T   T
  0.7505389949620052  0.7477432307207432  0.2931029593942061   T   T   T
  0.2328138654700077 -0.0004898908976673  0.3890893751565371   T   T   T
  0.7504872287883728 -0.0002094351536343  0.3831322816808505   T   T   T
 -0.0008788501893942  0.3185423282751306  0.3853565613673736   T   T   T
  0.4904578432256357  0.2499082021297146  0.3892342285382340   T   T   T
  0.2294564940914288  0.5011864993832316  0.3826820467352467   T   T   T
  0.7205119633637862  0.4999871450312073  0.3867131393873085   T   T   T
 -0.0002174595987048  0.6869742523029150  0.3850913737475604   T   T   T
  0.4919879650519134  0.7499577764943267  0.3891315010930886   T   T   T
 
  0.00000000E+00  0.00000000E+00  0.00000000E+00
  0.00000000E+00  0.00000000E+00  0.00000000E+00
  0.00000000E+00  0.00000000E+00  0.00000000E+00
  0.00000000E+00  0.00000000E+00  0.00000000E+00
  0.00000000E+00  0.00000000E+00  0.00000000E+00
  0.00000000E+00  0.00000000E+00  0.00000000E+00
  0.00000000E+00  0.00000000E+00  0.00000000E+00
  0.00000000E+00  0.00000000E+00  0.00000000E+00
  0.00000000E+00  0.00000000E+00  0.00000000E+00
  0.00000000E+00  0.00000000E+00  0.00000000E+00
  0.00000000E+00  0.00000000E+00  0.00000000E+00
  0.00000000E+00  0.00000000E+00  0.00000000E+00
  0.00000000E+00  0.00000000E+00  0.00000000E+00
  0.00000000E+00  0.00000000E+00  0.00000000E+00
  0.00000000E+00  0.00000000E+00  0.00000000E+00
  0.00000000E+00  0.00000000E+00  0.00000000E+00
  0.00000000E+00  0.00000000E+00  0.00000000E+00
  0.00000000E+00  0.00000000E+00  0.00000000E+00
  0.00000000E+00  0.00000000E+00  0.00000000E+00
  0.00000000E+00  0.00000000E+00  0.00000000E+00
  0.00000000E+00  0.00000000E+00  0.00000000E+00
  0.00000000E+00  0.00000000E+00  0.00000000E+00
  0.00000000E+00  0.00000000E+00  0.00000000E+00
  0.00000000E+00  0.00000000E+00  0.00000000E+00
  0.00000000E+00  0.00000000E+00  0.00000000E+00
  0.00000000E+00  0.00000000E+00  0.00000000E+00
  0.00000000E+00  0.00000000E+00  0.00000000E+00
  0.00000000E+00  0.00000000E+00  0.00000000E+00
  0.00000000E+00  0.00000000E+00  0.00000000E+00
  0.00000000E+00  0.00000000E+00  0.00000000E+00
  0.00000000E+00  0.00000000E+00  0.00000000E+00
  0.00000000E+00  0.00000000E+00  0.00000000E+00
  0.00000000E+00  0.00000000E+00  0.00000000E+00
  0.00000000E+00  0.00000000E+00  0.00000000E+00
  0.00000000E+00  0.00000000E+00  0.00000000E+00
  0.00000000E+00  0.00000000E+00  0.00000000E+00
  0.00000000E+00  0.00000000E+00  0.00000000E+00
  0.00000000E+00  0.00000000E+00  0.00000000E+00
  0.00000000E+00  0.00000000E+00  0.00000000E+00
  0.00000000E+00  0.00000000E+00  0.00000000E+00
  0.00000000E+00  0.00000000E+00  0.00000000E+00
  0.00000000E+00  0.00000000E+00  0.00000000E+00
  0.00000000E+00  0.00000000E+00  0.00000000E+00
  0.00000000E+00  0.00000000E+00  0.00000000E+00
  0.00000000E+00  0.00000000E+00  0.00000000E+00
  0.00000000E+00  0.00000000E+00  0.00000000E+00
  0.00000000E+00  0.00000000E+00  0.00000000E+00
  0.00000000E+00  0.00000000E+00  0.00000000E+00
  0.00000000E+00  0.00000000E+00  0.00000000E+00
  0.00000000E+00  0.00000000E+00  0.00000000E+00
  0.00000000E+00  0.00000000E+00  0.00000000E+00
  0.00000000E+00  0.00000000E+00  0.00000000E+00
  0.00000000E+00  0.00000000E+00  0.00000000E+00
  0.00000000E+00  0.00000000E+00  0.00000000E+00
  0.00000000E+00  0.00000000E+00  0.00000000E+00
  0.00000000E+00  0.00000000E+00  0.00000000E+00
  0.00000000E+00  0.00000000E+00  0.00000000E+00
  0.00000000E+00  0.00000000E+00  0.00000000E+00
  0.00000000E+00  0.00000000E+00  0.00000000E+00
  0.00000000E+00  0.00000000E+00  0.00000000E+00
  0.00000000E+00  0.00000000E+00  0.00000000E+00
  0.00000000E+00  0.00000000E+00  0.00000000E+00
  0.00000000E+00  0.00000000E+00  0.00000000E+00
  0.00000000E+00  0.00000000E+00  0.00000000E+00
  0.00000000E+00  0.00000000E+00  0.00000000E+00
