Al Ca Cu O                              
   1.00000000000000     
     9.6048500000000008    0.0000000000000000    0.0000000000000000
     0.0000000000000000    9.6048500000000008    0.0000000000000000
     0.0000000000000000    0.0000000000000000   24.6048000000000009
   Al   Ca   Cu   O 
     1    31     1    32
Selective dynamics
Direct
  0.0370889845376845  0.5003684096326372  0.3711631416540068   T   T   T
  0.2477243039078225  0.0002874366415628  0.0981833130123944   T   T   T
  0.7473615502801124  0.0002784192111498  0.0983848814710831   T   T   T
  0.9974935318251574  0.2500717699363457  0.0983488434893783   T   T   T
  0.4978157111676536  0.2498937500846795  0.0982290444899173   T   T   T
  0.2480787208335964  0.5002566990466332  0.0978849079723657   T   T   T
  0.7478021357012011  0.5002560565035244  0.0980814504286370   T   T   T
  0.9974922569378764  0.7505071389305149  0.0983101219167482   T   T   T
  0.4978373811838330  0.7506550337388622  0.0982136308726376   T   T   T
  0.9971297244583640  0.0002175486416447  0.1951747686610728   T   T   T
  0.4979613127408382  0.0001921689438540  0.1956225890830565   T   T   T
  0.2485611937844235  0.2485323656559913  0.1948707740786932   T   T   T
  0.7468553321036021  0.2500356195595001  0.1955234107196811   T   T   T
  0.9974439163349901  0.5002007207543107  0.1944467127017368   T   T   T
  0.5000934537448087  0.5001180156268645  0.1944984099695108   T   T   T
  0.2485614865763629  0.7517738286975463  0.1948356728089947   T   T   T
  0.7468551383858686  0.7502336575353810  0.1955044853524817   T   T   T
  0.2463875163680584  0.0000894351207357  0.2938306885669406   T   T   T
  0.7480282603394833  0.0000241862458787  0.2941779551762007   T   T   T
  0.9965730063323577  0.2489545773199277  0.2921159855057757   T   T   T
  0.4988922114586483  0.2481639660574093  0.2941956407472108   T   T   T
  0.2561852997359074  0.4998373732181943  0.2879119023732490   T   T   T
  0.7450314974405713  0.4997007137699904  0.2946186874640989   T   T   T
  0.9965960851901201  0.7511282321741625  0.2919507137816802   T   T   T
  0.4988025554599976  0.7516632438535237  0.2940427060071567   T   T   T
  0.9894856275687098  0.9977860337031207  0.3967080363457800   T   T   T
  0.5028038793231788 -0.0000204092938958  0.3916301669517164   T   T   T
  0.2441445357980229  0.2481135071258645  0.3910224550905813   T   T   T
  0.7510787963963333  0.2658593866307453  0.3943083414836951   T   T   T
  0.4883179614415587  0.4994339720739385  0.3895104105368247   T   T   T
  0.2452732590145096  0.7513838771546476  0.3906972477834140   T   T   T
  0.7493829724543793  0.7337735857538848  0.3936872910916169   T   T   T
  0.9357142005477954  0.0101892220342121  0.5064742531702606   T   T   T
  0.9975868413047448  0.0003114337939031  0.0993765901829728   T   T   T
  0.4974890757017301  0.0002969200805581  0.0990963289204433   T   T   T
  0.2474369488505208  0.2500971362978500  0.0987910199815098   T   T   T
  0.7478289191091915  0.2505104888569096  0.0989308723115753   T   T   T
  0.9976878235567292  0.5003289370053002  0.0993210792837665   T   T   T
  0.4981292140613792  0.5002711640176895  0.0986937168990701   T   T   T
  0.2474492875846334  0.7504667979041151  0.0987573172216767   T   T   T
  0.7478527821201023  0.7500840942329594  0.0989171909885568   T   T   T
  0.2469935874696294  0.0001843856348198  0.1942208805654009   T   T   T
  0.7479367120975725  0.0001289542192963  0.1941018524110208   T   T   T
  0.9975875317251426  0.2510569055373464  0.1948648939462960   T   T   T
  0.4976956757258494  0.2500633320545598  0.1944577274675691   T   T   T
  0.2476406497650492  0.5001759774965437  0.1932387125277845   T   T   T
  0.7490836423703118  0.5001291325020907  0.1945920142956630   T   T   T
  0.9975923366665924  0.7493966491565300  0.1948473941463485   T   T   T
  0.4976916866861549  0.7502770968779272  0.1944316267397924   T   T   T
  0.9967732736861322  0.0000004680783779  0.2954013736450353   T   T   T
  0.4972116887492333 -0.0000528430355241  0.2940051198386818   T   T   T
  0.2467052987588447  0.2494820170646710  0.2931049306529152   T   T   T
  0.7491069311264049  0.2515584112144051  0.2937323114100604   T   T   T
  0.0059377816207568  0.5004692082605032  0.2956284439929953   T   T   T
  0.4957604465180641  0.4998713293453775  0.2920738953974624   T   T   T
  0.2467962147158212  0.7504536014543398  0.2930559750977541   T   T   T
  0.7489710783473932  0.7480458553972327  0.2937038648363544   T   T   T
  0.2355265535348600  0.9995663648137296  0.3877840850896828   T   T   T
  0.7488908175536200  0.9986378381747858  0.3860462954001250   T   T   T
  0.9973882577086669  0.3170635678307240  0.3844715544437346   T   T   T
  0.4888956034466883  0.2500844141099212  0.3893227372748503   T   T   T
  0.2277807047700115  0.5001519684435515  0.3824832853880349   T   T   T
  0.7184757925483467  0.4996516823058691  0.3867260175309624   T   T   T
  0.9975162352851757  0.6842746009176912  0.3847381459879043   T   T   T
  0.4892525780567847  0.7492485208856173  0.3892194700014368   T   T   T
 
  0.00000000E+00  0.00000000E+00  0.00000000E+00
  0.00000000E+00  0.00000000E+00  0.00000000E+00
  0.00000000E+00  0.00000000E+00  0.00000000E+00
  0.00000000E+00  0.00000000E+00  0.00000000E+00
  0.00000000E+00  0.00000000E+00  0.00000000E+00
  0.00000000E+00  0.00000000E+00  0.00000000E+00
  0.00000000E+00  0.00000000E+00  0.00000000E+00
  0.00000000E+00  0.00000000E+00  0.00000000E+00
  0.00000000E+00  0.00000000E+00  0.00000000E+00
  0.00000000E+00  0.00000000E+00  0.00000000E+00
  0.00000000E+00  0.00000000E+00  0.00000000E+00
  0.00000000E+00  0.00000000E+00  0.00000000E+00
  0.00000000E+00  0.00000000E+00  0.00000000E+00
  0.00000000E+00  0.00000000E+00  0.00000000E+00
  0.00000000E+00  0.00000000E+00  0.00000000E+00
  0.00000000E+00  0.00000000E+00  0.00000000E+00
  0.00000000E+00  0.00000000E+00  0.00000000E+00
  0.00000000E+00  0.00000000E+00  0.00000000E+00
  0.00000000E+00  0.00000000E+00  0.00000000E+00
  0.00000000E+00  0.00000000E+00  0.00000000E+00
  0.00000000E+00  0.00000000E+00  0.00000000E+00
  0.00000000E+00  0.00000000E+00  0.00000000E+00
  0.00000000E+00  0.00000000E+00  0.00000000E+00
  0.00000000E+00  0.00000000E+00  0.00000000E+00
  0.00000000E+00  0.00000000E+00  0.00000000E+00
  0.00000000E+00  0.00000000E+00  0.00000000E+00
  0.00000000E+00  0.00000000E+00  0.00000000E+00
  0.00000000E+00  0.00000000E+00  0.00000000E+00
  0.00000000E+00  0.00000000E+00  0.00000000E+00
  0.00000000E+00  0.00000000E+00  0.00000000E+00
  0.00000000E+00  0.00000000E+00  0.00000000E+00
  0.00000000E+00  0.00000000E+00  0.00000000E+00
  0.00000000E+00  0.00000000E+00  0.00000000E+00
  0.00000000E+00  0.00000000E+00  0.00000000E+00
  0.00000000E+00  0.00000000E+00  0.00000000E+00
  0.00000000E+00  0.00000000E+00  0.00000000E+00
  0.00000000E+00  0.00000000E+00  0.00000000E+00
  0.00000000E+00  0.00000000E+00  0.00000000E+00
  0.00000000E+00  0.00000000E+00  0.00000000E+00
  0.00000000E+00  0.00000000E+00  0.00000000E+00
  0.00000000E+00  0.00000000E+00  0.00000000E+00
  0.00000000E+00  0.00000000E+00  0.00000000E+00
  0.00000000E+00  0.00000000E+00  0.00000000E+00
  0.00000000E+00  0.00000000E+00  0.00000000E+00
  0.00000000E+00  0.00000000E+00  0.00000000E+00
  0.00000000E+00  0.00000000E+00  0.00000000E+00
  0.00000000E+00  0.00000000E+00  0.00000000E+00
  0.00000000E+00  0.00000000E+00  0.00000000E+00
  0.00000000E+00  0.00000000E+00  0.00000000E+00
  0.00000000E+00  0.00000000E+00  0.00000000E+00
  0.00000000E+00  0.00000000E+00  0.00000000E+00
  0.00000000E+00  0.00000000E+00  0.00000000E+00
  0.00000000E+00  0.00000000E+00  0.00000000E+00
  0.00000000E+00  0.00000000E+00  0.00000000E+00
  0.00000000E+00  0.00000000E+00  0.00000000E+00
  0.00000000E+00  0.00000000E+00  0.00000000E+00
  0.00000000E+00  0.00000000E+00  0.00000000E+00
  0.00000000E+00  0.00000000E+00  0.00000000E+00
  0.00000000E+00  0.00000000E+00  0.00000000E+00
  0.00000000E+00  0.00000000E+00  0.00000000E+00
  0.00000000E+00  0.00000000E+00  0.00000000E+00
  0.00000000E+00  0.00000000E+00  0.00000000E+00
  0.00000000E+00  0.00000000E+00  0.00000000E+00
  0.00000000E+00  0.00000000E+00  0.00000000E+00
  0.00000000E+00  0.00000000E+00  0.00000000E+00
