Al Ca O Ru                              
   1.00000000000000     
     9.6048500000000008    0.0000000000000000    0.0000000000000000
     0.0000000000000000    9.6048500000000008    0.0000000000000000
     0.0000000000000000    0.0000000000000000   24.6048000000000009
   Al   Ca   O    Ru
     1    31    32     1
Selective dynamics
Direct
  0.9625668954653125  0.5050808636825559  0.3715477423539369   T   T   T
  0.2496982509846450  0.0004741846101828  0.0992771170329062   T   T   T
  0.7492801548582667  0.0005666706722250  0.0989070159600848   T   T   T
  0.9997420000716962  0.2501368247043255  0.0991530859539764   T   T   T
  0.4992247414550046  0.2499787727641333  0.0989360308073280   T   T   T
  0.2494755075914496  0.5002632951118978  0.0988100227385426   T   T   T
  0.7490933078817587  0.5003363455892610  0.0982736956602565   T   T   T
  0.9997471454734990  0.7507797107262278  0.0988757764179038   T   T   T
  0.4991933082088317  0.7508319952090701  0.0986677593866131   T   T   T
  0.0002278918746529  0.0007558041314555  0.1961149575042644   T   T   T
  0.4981282482605551  0.0004910587956442  0.1963837936668000   T   T   T
  0.2500905727291789  0.2495475049358646  0.1964515974096265   T   T   T
  0.7486112799230744  0.2491158562081403  0.1955231146632155   T   T   T
  0.9994996547586941  0.5001514724302465  0.1949426743953519   T   T   T
  0.4974271268110245  0.5001539374476872  0.1950204469585089   T   T   T
  0.2504768802641658  0.7509623301402575  0.1960697578162997   T   T   T
  0.7482099170213994  0.7516596157591379  0.1951093176521740   T   T   T
  0.2495036457339362  0.0001783159780297  0.2966686132578136   T   T   T
  0.7482134653675092  0.0001958289904846  0.2932642969346264   T   T   T
  0.9987318342067730  0.2487290933813575  0.2938848801114393   T   T   T
  0.4999286151099988  0.2473120658440476  0.2950939771571988   T   T   T
  0.2524230221811961  0.4999048939158682  0.2940247590179517   T   T   T
  0.7409938922677869  0.5003861390991748  0.2885597013144776   T   T   T
  0.9986929169073891  0.7516276822667802  0.2917494656825431   T   T   T
  0.4999541138166044  0.7530265312222444  0.2945132935703665   T   T   T
  0.0049128203707936  0.9758191076690116  0.3974250710198715   T   T   T
  0.4943406901086711  0.0028774441000962  0.3968963568658761   T   T   T
  0.2451362091215087  0.2672766677784266  0.3923949845683805   T   T   T
  0.7546330118055982  0.2571015919272243  0.3942277364464766   T   T   T
  0.5064154024947035  0.4981873247496662  0.3894430829646813   T   T   T
  0.2535254388935880  0.7325060555535070  0.3915951596935655   T   T   T
  0.7473263404012784  0.7435044164193394  0.3938357087978616   T   T   T
 -0.0003765093696037  0.0006640256934895  0.1003148944784417   T   T   T
  0.4993887640085410  0.0005098071362781  0.0997948884184113   T   T   T
  0.2491727945874058  0.2503421939764264  0.0998335064842164   T   T   T
  0.7498520082291679  0.2501670084876426  0.0993848351006064   T   T   T
  0.9995818123741298  0.5003153576372257  0.0998843614178605   T   T   T
  0.4991288199049864  0.5003043930233164  0.0991832145004480   T   T   T
  0.2493038689642982  0.7504144371412509  0.0995486497617233   T   T   T
  0.7497213047905593  0.7507282988865073  0.0990945059153298   T   T   T
  0.2486356638724293  0.0002902471951192  0.1955476153116801   T   T   T
  0.7498721257493070  0.0004760294820172  0.1950447348843126   T   T   T
  0.9994179513424229  0.2511272037267383  0.1959284037078594   T   T   T
  0.4993459292208891  0.2501792294301209  0.1949195758846002   T   T   T
  0.2480286701746252  0.5001999573103488  0.1952521535289840   T   T   T
  0.7496964408107727  0.5003266494310433  0.1936937046682226   T   T   T
  0.9994089819096194  0.7498335920561687  0.1951291943991502   T   T   T
  0.4992966968971024  0.7504671410261911  0.1946254246389774   T   T   T
 -0.0004349711158912  0.9991617890202631  0.2971771388970750   T   T   T
  0.4980704892861316  0.0003505004428968  0.2946324797579651   T   T   T
  0.2470972588605492  0.2507111067819032  0.2947407551121443   T   T   T
  0.7512191497811530  0.2497008795933005  0.2937140442293966   T   T   T
  0.9913254925058401  0.5029667763317870  0.2960527846924030   T   T   T
  0.5013564165353437  0.4998742347947001  0.2921856988118766   T   T   T
  0.2481536619353672  0.7491758686734880  0.2941538298141669   T   T   T
  0.7498481190501716  0.7509661016042731  0.2929995635416063   T   T   T
  0.2432281277870726  0.9974675309871580  0.3918554880504878   T   T   T
  0.7528560866995240  0.9981658540641390  0.3850354887409005   T   T   T
  0.0026324106130392  0.3240149766465014  0.3854377951949278   T   T   T
  0.5034275242811015  0.2533838401889656  0.3887779218758368   T   T   T
  0.2770014346151806  0.5000844060124380  0.3863082008947178   T   T   T
  0.7710721813317406  0.5025333235869257  0.3833396381701769   T   T   T
  0.0014419758369370  0.6898504129266977  0.3851379166810184   T   T   T
  0.5026088308559048  0.7461329445135854  0.3885476733847049   T   T   T
  0.7737219558496109  0.0014404333905507  0.4633782899049020   T   T   T
 
  0.00000000E+00  0.00000000E+00  0.00000000E+00
  0.00000000E+00  0.00000000E+00  0.00000000E+00
  0.00000000E+00  0.00000000E+00  0.00000000E+00
  0.00000000E+00  0.00000000E+00  0.00000000E+00
  0.00000000E+00  0.00000000E+00  0.00000000E+00
  0.00000000E+00  0.00000000E+00  0.00000000E+00
  0.00000000E+00  0.00000000E+00  0.00000000E+00
  0.00000000E+00  0.00000000E+00  0.00000000E+00
  0.00000000E+00  0.00000000E+00  0.00000000E+00
  0.00000000E+00  0.00000000E+00  0.00000000E+00
  0.00000000E+00  0.00000000E+00  0.00000000E+00
  0.00000000E+00  0.00000000E+00  0.00000000E+00
  0.00000000E+00  0.00000000E+00  0.00000000E+00
  0.00000000E+00  0.00000000E+00  0.00000000E+00
  0.00000000E+00  0.00000000E+00  0.00000000E+00
  0.00000000E+00  0.00000000E+00  0.00000000E+00
  0.00000000E+00  0.00000000E+00  0.00000000E+00
  0.00000000E+00  0.00000000E+00  0.00000000E+00
  0.00000000E+00  0.00000000E+00  0.00000000E+00
  0.00000000E+00  0.00000000E+00  0.00000000E+00
  0.00000000E+00  0.00000000E+00  0.00000000E+00
  0.00000000E+00  0.00000000E+00  0.00000000E+00
  0.00000000E+00  0.00000000E+00  0.00000000E+00
  0.00000000E+00  0.00000000E+00  0.00000000E+00
  0.00000000E+00  0.00000000E+00  0.00000000E+00
  0.00000000E+00  0.00000000E+00  0.00000000E+00
  0.00000000E+00  0.00000000E+00  0.00000000E+00
  0.00000000E+00  0.00000000E+00  0.00000000E+00
  0.00000000E+00  0.00000000E+00  0.00000000E+00
  0.00000000E+00  0.00000000E+00  0.00000000E+00
  0.00000000E+00  0.00000000E+00  0.00000000E+00
  0.00000000E+00  0.00000000E+00  0.00000000E+00
  0.00000000E+00  0.00000000E+00  0.00000000E+00
  0.00000000E+00  0.00000000E+00  0.00000000E+00
  0.00000000E+00  0.00000000E+00  0.00000000E+00
  0.00000000E+00  0.00000000E+00  0.00000000E+00
  0.00000000E+00  0.00000000E+00  0.00000000E+00
  0.00000000E+00  0.00000000E+00  0.00000000E+00
  0.00000000E+00  0.00000000E+00  0.00000000E+00
  0.00000000E+00  0.00000000E+00  0.00000000E+00
  0.00000000E+00  0.00000000E+00  0.00000000E+00
  0.00000000E+00  0.00000000E+00  0.00000000E+00
  0.00000000E+00  0.00000000E+00  0.00000000E+00
  0.00000000E+00  0.00000000E+00  0.00000000E+00
  0.00000000E+00  0.00000000E+00  0.00000000E+00
  0.00000000E+00  0.00000000E+00  0.00000000E+00
  0.00000000E+00  0.00000000E+00  0.00000000E+00
  0.00000000E+00  0.00000000E+00  0.00000000E+00
  0.00000000E+00  0.00000000E+00  0.00000000E+00
  0.00000000E+00  0.00000000E+00  0.00000000E+00
  0.00000000E+00  0.00000000E+00  0.00000000E+00
  0.00000000E+00  0.00000000E+00  0.00000000E+00
  0.00000000E+00  0.00000000E+00  0.00000000E+00
  0.00000000E+00  0.00000000E+00  0.00000000E+00
  0.00000000E+00  0.00000000E+00  0.00000000E+00
  0.00000000E+00  0.00000000E+00  0.00000000E+00
  0.00000000E+00  0.00000000E+00  0.00000000E+00
  0.00000000E+00  0.00000000E+00  0.00000000E+00
  0.00000000E+00  0.00000000E+00  0.00000000E+00
  0.00000000E+00  0.00000000E+00  0.00000000E+00
  0.00000000E+00  0.00000000E+00  0.00000000E+00
  0.00000000E+00  0.00000000E+00  0.00000000E+00
  0.00000000E+00  0.00000000E+00  0.00000000E+00
  0.00000000E+00  0.00000000E+00  0.00000000E+00
  0.00000000E+00  0.00000000E+00  0.00000000E+00
