Al Ca Co O                              
   1.00000000000000     
     9.6048500000000008    0.0000000000000000    0.0000000000000000
     0.0000000000000000    9.6048500000000008    0.0000000000000000
     0.0000000000000000    0.0000000000000000   24.6048000000000009
   Al   Ca   Co   O 
     1    31     1    32
Selective dynamics
Direct
  0.9629182604133637  0.5050297906954249  0.3718840418071291   T   T   T
  0.2495868724789629  0.0005048055151513  0.0993040382413049   T   T   T
  0.7492963707809401  0.0005546545153195  0.0990557942406545   T   T   T
  0.9995307144060657  0.2500453773420157  0.0992097828882215   T   T   T
  0.4992628724960315  0.2498376588380850  0.0989116366585141   T   T   T
  0.2493049014627900  0.5002632574725854  0.0986135815341546   T   T   T
  0.7490381281246625  0.5003303699628492  0.0983032979128111   T   T   T
  0.9995201464969822  0.7509385859708904  0.0989380063422608   T   T   T
  0.4992410476330166  0.7509794345851153  0.0986407110659199   T   T   T
  0.0001158013415847  0.0007619376423717  0.1963242353174250   T   T   T
  0.4981918567619836  0.0004774711631789  0.1965054486818407   T   T   T
  0.2499001142802521  0.2496123345101437  0.1964572365398112   T   T   T
  0.7486388825040958  0.2492827365099451  0.1957397015771014   T   T   T
  0.9992442969641921  0.5002152788498629  0.1950136748202276   T   T   T
  0.4975053420664451  0.5001127622322229  0.1949783928121925   T   T   T
  0.2502369766955966  0.7509513552299311  0.1960649503024760   T   T   T
  0.7482500561278438  0.7514691804141757  0.1953552605412338   T   T   T
  0.2492381304402614  0.0002124410997778  0.2964325576703948   T   T   T
  0.7484463890491911  0.0002271916189352  0.2935696118686826   T   T   T
  0.9985752888675835  0.2490546811433134  0.2940566447023110   T   T   T
  0.5000154612546625  0.2475900146141742  0.2951165802620293   T   T   T
  0.2519509894785261  0.4998825326856529  0.2937544646827756   T   T   T
  0.7412461593677364  0.5003533843567516  0.2889418606618411   T   T   T
  0.9984894870643990  0.7513802302939425  0.2920195019524243   T   T   T
  0.4999991375209082  0.7526054455855995  0.2944732297297977   T   T   T
  0.0056789889380445  0.9774806905382427  0.3971521658003433   T   T   T
  0.4941873090216721  0.0021833879787299  0.3956457202857415   T   T   T
  0.2451237522692377  0.2673028915061718  0.3923439638702283   T   T   T
  0.7556367870982302  0.2548293765399104  0.3947489728228941   T   T   T
  0.5059840706807278  0.4979390446257306  0.3892719519706081   T   T   T
  0.2530007845999207  0.7322984535338003  0.3914624650039039   T   T   T
  0.7469801483694783  0.7455176640033465  0.3943614738265881   T   T   T
  0.7765408051150922  0.0010401891418295  0.4587919345202290   T   T   T
  0.9995694065206477  0.0006537691978116  0.1006492837331527   T   T   T
  0.4993609602477771  0.0004983297209400  0.1000296076370070   T   T   T
  0.2490587921989860  0.2502153849945538  0.0997992270567618   T   T   T
  0.7498267354505261  0.2501336802039920  0.0995395674166020   T   T   T
  0.9993591830061672  0.5003558362573217  0.0999172741208981   T   T   T
  0.4991004145711389  0.5003200067385535  0.0991485597511863   T   T   T
  0.2491708582138276  0.7505513866669395  0.0995063445540345   T   T   T
  0.7496780721657264  0.7507586504553528  0.0992564885252201   T   T   T
  0.2485654065571321  0.0003179293842433  0.1956286401031758   T   T   T
  0.7499115593006750  0.0004533868043948  0.1952126361697387   T   T   T
  0.9993281461499455  0.2510452486999685  0.1960591458731708   T   T   T
  0.4992654070637137  0.2500249452410249  0.1950029731592607   T   T   T
  0.2478984637557521  0.5002174212216575  0.1950125895385554   T   T   T
  0.7496090425720787  0.5003323278930185  0.1937481459015108   T   T   T
  0.9992864151500143  0.7499958585925379  0.1952943996634347   T   T   T
  0.4992303702284723  0.7505695873279141  0.1946965422502444   T   T   T
  0.9999040982883911  0.9991596572479976  0.2976650124843120   T   T   T
  0.4977726877508769  0.0003477684471622  0.2949073141548748   T   T   T
  0.2471424328566835  0.2505992067239639  0.2946289668216288   T   T   T
  0.7510052040093498  0.2501957084189250  0.2936152828189574   T   T   T
  0.9917317865648925  0.5029823220138209  0.2962870651553831   T   T   T
  0.5011238597810571  0.4997905310716273  0.2922085373213757   T   T   T
  0.2482129042841823  0.7493080019500959  0.2940196530510272   T   T   T
  0.7496803652512082  0.7504915143237426  0.2930062747626209   T   T   T
  0.2432833563790801  0.9974660958199915  0.3917181912482363   T   T   T
  0.7524155557911846  0.9985631942567360  0.3854455301721070   T   T   T
  0.0026097298009609  0.3233063108852434  0.3857158945780838   T   T   T
  0.5036708611559946  0.2527326766598023  0.3892158357466998   T   T   T
  0.2761915915398357  0.5000285714896063  0.3859265339650513   T   T   T
  0.7715729709609676  0.5026635116247107  0.3836032561671506   T   T   T
  0.0014209294543000  0.6905326546369907  0.3855090704800075   T   T   T
  0.5026918734039244  0.7463698673272311  0.3888786293404796   T   T   T
 
  0.00000000E+00  0.00000000E+00  0.00000000E+00
  0.00000000E+00  0.00000000E+00  0.00000000E+00
  0.00000000E+00  0.00000000E+00  0.00000000E+00
  0.00000000E+00  0.00000000E+00  0.00000000E+00
  0.00000000E+00  0.00000000E+00  0.00000000E+00
  0.00000000E+00  0.00000000E+00  0.00000000E+00
  0.00000000E+00  0.00000000E+00  0.00000000E+00
  0.00000000E+00  0.00000000E+00  0.00000000E+00
  0.00000000E+00  0.00000000E+00  0.00000000E+00
  0.00000000E+00  0.00000000E+00  0.00000000E+00
  0.00000000E+00  0.00000000E+00  0.00000000E+00
  0.00000000E+00  0.00000000E+00  0.00000000E+00
  0.00000000E+00  0.00000000E+00  0.00000000E+00
  0.00000000E+00  0.00000000E+00  0.00000000E+00
  0.00000000E+00  0.00000000E+00  0.00000000E+00
  0.00000000E+00  0.00000000E+00  0.00000000E+00
  0.00000000E+00  0.00000000E+00  0.00000000E+00
  0.00000000E+00  0.00000000E+00  0.00000000E+00
  0.00000000E+00  0.00000000E+00  0.00000000E+00
  0.00000000E+00  0.00000000E+00  0.00000000E+00
  0.00000000E+00  0.00000000E+00  0.00000000E+00
  0.00000000E+00  0.00000000E+00  0.00000000E+00
  0.00000000E+00  0.00000000E+00  0.00000000E+00
  0.00000000E+00  0.00000000E+00  0.00000000E+00
  0.00000000E+00  0.00000000E+00  0.00000000E+00
  0.00000000E+00  0.00000000E+00  0.00000000E+00
  0.00000000E+00  0.00000000E+00  0.00000000E+00
  0.00000000E+00  0.00000000E+00  0.00000000E+00
  0.00000000E+00  0.00000000E+00  0.00000000E+00
  0.00000000E+00  0.00000000E+00  0.00000000E+00
  0.00000000E+00  0.00000000E+00  0.00000000E+00
  0.00000000E+00  0.00000000E+00  0.00000000E+00
  0.00000000E+00  0.00000000E+00  0.00000000E+00
  0.00000000E+00  0.00000000E+00  0.00000000E+00
  0.00000000E+00  0.00000000E+00  0.00000000E+00
  0.00000000E+00  0.00000000E+00  0.00000000E+00
  0.00000000E+00  0.00000000E+00  0.00000000E+00
  0.00000000E+00  0.00000000E+00  0.00000000E+00
  0.00000000E+00  0.00000000E+00  0.00000000E+00
  0.00000000E+00  0.00000000E+00  0.00000000E+00
  0.00000000E+00  0.00000000E+00  0.00000000E+00
  0.00000000E+00  0.00000000E+00  0.00000000E+00
  0.00000000E+00  0.00000000E+00  0.00000000E+00
  0.00000000E+00  0.00000000E+00  0.00000000E+00
  0.00000000E+00  0.00000000E+00  0.00000000E+00
  0.00000000E+00  0.00000000E+00  0.00000000E+00
  0.00000000E+00  0.00000000E+00  0.00000000E+00
  0.00000000E+00  0.00000000E+00  0.00000000E+00
  0.00000000E+00  0.00000000E+00  0.00000000E+00
  0.00000000E+00  0.00000000E+00  0.00000000E+00
  0.00000000E+00  0.00000000E+00  0.00000000E+00
  0.00000000E+00  0.00000000E+00  0.00000000E+00
  0.00000000E+00  0.00000000E+00  0.00000000E+00
  0.00000000E+00  0.00000000E+00  0.00000000E+00
  0.00000000E+00  0.00000000E+00  0.00000000E+00
  0.00000000E+00  0.00000000E+00  0.00000000E+00
  0.00000000E+00  0.00000000E+00  0.00000000E+00
  0.00000000E+00  0.00000000E+00  0.00000000E+00
  0.00000000E+00  0.00000000E+00  0.00000000E+00
  0.00000000E+00  0.00000000E+00  0.00000000E+00
  0.00000000E+00  0.00000000E+00  0.00000000E+00
  0.00000000E+00  0.00000000E+00  0.00000000E+00
  0.00000000E+00  0.00000000E+00  0.00000000E+00
  0.00000000E+00  0.00000000E+00  0.00000000E+00
  0.00000000E+00  0.00000000E+00  0.00000000E+00
