Al Ca Ni O                              
   1.00000000000000     
     9.6048500000000008    0.0000000000000000    0.0000000000000000
     0.0000000000000000    9.6048500000000008    0.0000000000000000
     0.0000000000000000    0.0000000000000000   24.6048000000000009
   Al   Ca   Ni   O 
     1    31     1    32
Selective dynamics
Direct
 -0.0000058080970321  0.5027068808990658  0.3735857750779168   T   T   T
  0.2500228420585331  0.0002386030288789  0.0990136033794958   T   T   T
  0.7494417665525233  0.0002644388222152  0.0987093570326527   T   T   T
 -0.0001006632126956  0.2498542554181377  0.0989386533940866   T   T   T
  0.4997487652433102  0.2498328465426724  0.0992668581299706   T   T   T
  0.2502106420808147  0.5000942676937283  0.0990926828746728   T   T   T
  0.7495361139641703  0.5000986277553204  0.0986569033832261   T   T   T
 -0.0000723702325789  0.7505283244182922  0.0987621115437307   T   T   T
  0.4997568640549288  0.7504493794213296  0.0991002405569524   T   T   T
 -0.0000705487200246  0.0004069784909749  0.1956699358291054   T   T   T
  0.4993409309167358  0.0003192759810583  0.1964049320856924   T   T   T
  0.2505049749920722  0.2492134107474276  0.1961075828837893   T   T   T
  0.7489544792010290  0.2498342138863434  0.1958072818238938   T   T   T
  0.9995867557696404  0.5001265582794505  0.1949489434842684   T   T   T
  0.5001105396427822  0.5000822148329096  0.1958814784388298   T   T   T
  0.2507455878550253  0.7512337059055836  0.1958697284155903   T   T   T
  0.7487676957266277  0.7506758284631396  0.1955285869827162   T   T   T
  0.2500968637294531  0.0003005520069980  0.2952175869758418   T   T   T
  0.7487208666795304  0.0003508404951423  0.2933997331934192   T   T   T
  0.9984650113237654  0.2485567628441905  0.2927826002438478   T   T   T
  0.5008880483170594  0.2480714614045753  0.2952422940706471   T   T   T
  0.2513162921244252  0.5002579008874766  0.2917382109993165   T   T   T
  0.7483165140996182  0.5004119216603722  0.2924120857838535   T   T   T
  0.9983890125273024  0.7515691074269319  0.2917073849722555   T   T   T
  0.5010994620566760  0.7524494795219737  0.2948554208033338   T   T   T
  0.0000616685736533  0.9858771567298127  0.3944784027529528   T   T   T
  0.4996154388027952  0.0022688261128036  0.3953033755467862   T   T   T
  0.2409816176825073  0.2579930566655126  0.3913498941393801   T   T   T
  0.7609211091637151  0.2597107283718881  0.3950046761175159   T   T   T
  0.4969679666306994  0.4989609167702495  0.3900264051336429   T   T   T
  0.2462945209097153  0.7420819768186657  0.3907801403538469   T   T   T
  0.7543621423492434  0.7406965784394827  0.3946429256085984   T   T   T
  0.7696712815865787  0.0000703956410441  0.4628336654507890   T   T   T
  0.0000050521458224  0.0003077528265092  0.1000004227149110   T   T   T
  0.4994760159093176  0.0002254673987791  0.1001635537981690   T   T   T
  0.2498028271494518  0.2502240268694744  0.0997708708605309   T   T   T
  0.7498519856208853  0.2503306077464484  0.0993372534227883   T   T   T
  0.0000162772790004  0.5000586487417372  0.0999632930314940   T   T   T
  0.4997576894573865  0.5000692868108862  0.1002882187844588   T   T   T
  0.2498985394996815  0.7500995952151662  0.0995560820059319   T   T   T
  0.7498033967628567  0.7499935436601040  0.0991450860179707   T   T   T
  0.2492239335134576  0.0002664716051215  0.1953145137959235   T   T   T
  0.7499766678376235  0.0002989607214567  0.1945039082066392   T   T   T
 -0.0001195133477218  0.2509525802028200  0.1953148746340767   T   T   T
  0.4996216638574861  0.2505045689479591  0.1954962622072494   T   T   T
  0.2492675569325484  0.5001850728813727  0.1950991317254196   T   T   T
  0.7504686161599298  0.5001952221194458  0.1947942023871948   T   T   T
 -0.0000895588829388  0.7496242873434661  0.1948421677666242   T   T   T
  0.4996475385033344  0.7498445894499666  0.1952776881501200   T   T   T
  0.0000523740937136  0.9995600574465929  0.2961726797276042   T   T   T
  0.4986196742232854  0.0004730724896959  0.2954194376117382   T   T   T
  0.2485914603313198  0.2502271110364455  0.2940599473281081   T   T   T
  0.7505457120499271  0.2511318702845718  0.2933370853395879   T   T   T
  0.0002856651092479  0.5017835078495775  0.2963337477061920   T   T   T
  0.4997019895220770  0.4999382853772756  0.2957480925319225   T   T   T
  0.2496287988970141  0.7503145509023381  0.2936225008127363   T   T   T
  0.7498312068911299  0.7496000720536435  0.2928279386615034   T   T   T
  0.2410367539565140 -0.0010802722331849  0.3903876772577662   T   T   T
  0.7527956172343004 -0.0006261487942265  0.3844005666637951   T   T   T
  0.0013965723817159  0.3067361772889105  0.3844559317693166   T   T   T
  0.4953777400488615  0.2588688766522179  0.3897535207601832   T   T   T
  0.2188670990940636  0.5016272892419793  0.3848104720443986   T   T   T
  0.7850182612386569  0.5017227422849909  0.3850683926738031   T   T   T
  0.0014542217475702  0.7030269183962121  0.3844183673766542   T   T   T
  0.4970675510258626  0.7401736878116222  0.3894920193985995   T   T   T
 
  0.00000000E+00  0.00000000E+00  0.00000000E+00
  0.00000000E+00  0.00000000E+00  0.00000000E+00
  0.00000000E+00  0.00000000E+00  0.00000000E+00
  0.00000000E+00  0.00000000E+00  0.00000000E+00
  0.00000000E+00  0.00000000E+00  0.00000000E+00
  0.00000000E+00  0.00000000E+00  0.00000000E+00
  0.00000000E+00  0.00000000E+00  0.00000000E+00
  0.00000000E+00  0.00000000E+00  0.00000000E+00
  0.00000000E+00  0.00000000E+00  0.00000000E+00
  0.00000000E+00  0.00000000E+00  0.00000000E+00
  0.00000000E+00  0.00000000E+00  0.00000000E+00
  0.00000000E+00  0.00000000E+00  0.00000000E+00
  0.00000000E+00  0.00000000E+00  0.00000000E+00
  0.00000000E+00  0.00000000E+00  0.00000000E+00
  0.00000000E+00  0.00000000E+00  0.00000000E+00
  0.00000000E+00  0.00000000E+00  0.00000000E+00
  0.00000000E+00  0.00000000E+00  0.00000000E+00
  0.00000000E+00  0.00000000E+00  0.00000000E+00
  0.00000000E+00  0.00000000E+00  0.00000000E+00
  0.00000000E+00  0.00000000E+00  0.00000000E+00
  0.00000000E+00  0.00000000E+00  0.00000000E+00
  0.00000000E+00  0.00000000E+00  0.00000000E+00
  0.00000000E+00  0.00000000E+00  0.00000000E+00
  0.00000000E+00  0.00000000E+00  0.00000000E+00
  0.00000000E+00  0.00000000E+00  0.00000000E+00
  0.00000000E+00  0.00000000E+00  0.00000000E+00
  0.00000000E+00  0.00000000E+00  0.00000000E+00
  0.00000000E+00  0.00000000E+00  0.00000000E+00
  0.00000000E+00  0.00000000E+00  0.00000000E+00
  0.00000000E+00  0.00000000E+00  0.00000000E+00
  0.00000000E+00  0.00000000E+00  0.00000000E+00
  0.00000000E+00  0.00000000E+00  0.00000000E+00
  0.00000000E+00  0.00000000E+00  0.00000000E+00
  0.00000000E+00  0.00000000E+00  0.00000000E+00
  0.00000000E+00  0.00000000E+00  0.00000000E+00
  0.00000000E+00  0.00000000E+00  0.00000000E+00
  0.00000000E+00  0.00000000E+00  0.00000000E+00
  0.00000000E+00  0.00000000E+00  0.00000000E+00
  0.00000000E+00  0.00000000E+00  0.00000000E+00
  0.00000000E+00  0.00000000E+00  0.00000000E+00
  0.00000000E+00  0.00000000E+00  0.00000000E+00
  0.00000000E+00  0.00000000E+00  0.00000000E+00
  0.00000000E+00  0.00000000E+00  0.00000000E+00
  0.00000000E+00  0.00000000E+00  0.00000000E+00
  0.00000000E+00  0.00000000E+00  0.00000000E+00
  0.00000000E+00  0.00000000E+00  0.00000000E+00
  0.00000000E+00  0.00000000E+00  0.00000000E+00
  0.00000000E+00  0.00000000E+00  0.00000000E+00
  0.00000000E+00  0.00000000E+00  0.00000000E+00
  0.00000000E+00  0.00000000E+00  0.00000000E+00
  0.00000000E+00  0.00000000E+00  0.00000000E+00
  0.00000000E+00  0.00000000E+00  0.00000000E+00
  0.00000000E+00  0.00000000E+00  0.00000000E+00
  0.00000000E+00  0.00000000E+00  0.00000000E+00
  0.00000000E+00  0.00000000E+00  0.00000000E+00
  0.00000000E+00  0.00000000E+00  0.00000000E+00
  0.00000000E+00  0.00000000E+00  0.00000000E+00
  0.00000000E+00  0.00000000E+00  0.00000000E+00
  0.00000000E+00  0.00000000E+00  0.00000000E+00
  0.00000000E+00  0.00000000E+00  0.00000000E+00
  0.00000000E+00  0.00000000E+00  0.00000000E+00
  0.00000000E+00  0.00000000E+00  0.00000000E+00
  0.00000000E+00  0.00000000E+00  0.00000000E+00
  0.00000000E+00  0.00000000E+00  0.00000000E+00
  0.00000000E+00  0.00000000E+00  0.00000000E+00
