Al Ca O V                               
   1.00000000000000     
     9.6048500000000008    0.0000000000000000    0.0000000000000000
     0.0000000000000000    9.6048500000000008    0.0000000000000000
     0.0000000000000000    0.0000000000000000   24.6048000000000009
   Al   Ca   O    V 
     1    31    32     1
Selective dynamics
Direct
  0.9623571323635195  0.5061150893594357  0.3713584171825454   T   T   T
  0.2496633052232495  0.0004775079901447  0.0990368960086865   T   T   T
  0.7493163429895556  0.0005360080640356  0.0986660472371153   T   T   T
  0.9995679976440127  0.2500229879463899  0.0987609832536143   T   T   T
  0.4992461274231919  0.2497725177353204  0.0985221919567241   T   T   T
  0.2492544819017359  0.5001925927810801  0.0981295204847708   T   T   T
  0.7489700144433420  0.5002550069532997  0.0977869204525681   T   T   T
  0.9995303987959817  0.7508200235140218  0.0983917453675938   T   T   T
  0.4992195692770987  0.7509082951131685  0.0981772730258707   T   T   T
  0.9996419867391416  0.0008461427257637  0.1959374466686218   T   T   T
  0.4991705978873629  0.0005321688930651  0.1961602904242894   T   T   T
  0.2498825421313772  0.2497737400728982  0.1960520097190082   T   T   T
  0.7487671701399076  0.2485755171118562  0.1954516196174500   T   T   T
  0.9993903179748646  0.5000872595084030  0.1944455791612382   T   T   T
  0.4973044181405672  0.5000303602620089  0.1943697286928409   T   T   T
  0.2502734831023102  0.7507488787744295  0.1955376949405055   T   T   T
  0.7482797095772146  0.7522352102486874  0.1949444297246025   T   T   T
  0.2497477716817587  0.0002129953888541  0.2956007718696957   T   T   T
  0.7489873754916554  0.0004438248084339  0.2951909709209017   T   T   T
  0.9991683653028591  0.2496803005703629  0.2937428024768195   T   T   T
  0.4996662198755361  0.2478746939231286  0.2943866747425033   T   T   T
  0.2525964262492633  0.4998037749999420  0.2936985532045680   T   T   T
  0.7410329908279543  0.5004896748981998  0.2879315919525725   T   T   T
  0.9990948959714947  0.7508067830143131  0.2910838887808815   T   T   T
  0.4995409891642978  0.7523716036013082  0.2935362558522367   T   T   T
  0.0087629596665668  0.9734775871850782  0.3955138373482617   T   T   T
  0.4909681517054485  0.0021726537657325  0.3946221424284268   T   T   T
  0.2446939611557832  0.2680908702049722  0.3925461266395692   T   T   T
  0.7556485298173696  0.2564414253559688  0.3934755809750335   T   T   T
  0.5071899436755694  0.4975693738664834  0.3891899175940196   T   T   T
  0.2544498856548458  0.7312020433669060  0.3914954134999605   T   T   T
  0.7455884348045395  0.7445591115061717  0.3929879186121021   T   T   T
  0.9995583386422379  0.0006404988309698  0.1007162924009721   T   T   T
  0.4994227117558359  0.0004842963750145  0.1001062766617189   T   T   T
  0.2489814314804755  0.2501922409006223  0.1000006107845555   T   T   T
  0.7498670017608697  0.2498385063107708  0.0996441488540205   T   T   T
  0.9994979883983488  0.5001897221773144  0.0998362066189175   T   T   T
  0.4988825941284622  0.5002077872303479  0.0990467136914464   T   T   T
  0.2491363843336849  0.7504959062446398  0.0995950984821195   T   T   T
  0.7496900978531262  0.7509205062710813  0.0992540674114713   T   T   T
  0.2486135559794510  0.0003326366327224  0.1958347249354063   T   T   T
  0.7502592101324326  0.0004694864138767  0.1956498263311291   T   T   T
  0.9994853656827440  0.2510688310661816  0.1961170754478919   T   T   T
  0.4992611420801825  0.2500331747641105  0.1949054754649819   T   T   T
  0.2477922093867949  0.5001817312443891  0.1950772197646202   T   T   T
  0.7496344356604350  0.5003751536701305  0.1934433836306471   T   T   T
  0.9994363951788737  0.7499472201073338  0.1950804917013689   T   T   T
  0.4992047172440661  0.7505085408152548  0.1944883587719926   T   T   T
  0.9995440378869396  0.9986636146734937  0.2984827349855642   T   T   T
  0.4990565259006762  0.0003912925278051  0.2951351857574068   T   T   T
  0.2471240185209577  0.2506251946411082  0.2947458173426621   T   T   T
  0.7513748649301768  0.2495128929362445  0.2938719059336999   T   T   T
  0.9915197863131664  0.5034545543134807  0.2959211063944102   T   T   T
  0.5013697997036859  0.4997606287329622  0.2919459094731098   T   T   T
  0.2482558164339048  0.7491423202234121  0.2939254849755014   T   T   T
  0.7498327443395203  0.7516379413885309  0.2931458261655914   T   T   T
  0.2429524336909446  0.9968695330395587  0.3909298914084098   T   T   T
  0.7582928330853870  0.9992269322682702  0.3907761121719154   T   T   T
  0.0026652886093444  0.3251220837028831  0.3853679119108478   T   T   T
  0.5047094832793017  0.2521151472709121  0.3883568370347020   T   T   T
  0.2778411556870926  0.4998953780112537  0.3860913261609674   T   T   T
  0.7710025423008663  0.5033796015874705  0.3824633596296016   T   T   T
  0.0012761282515721  0.6918035105624120  0.3849226075427197   T   T   T
  0.5027353307098377  0.7470664122105707  0.3877977586728383   T   T   T
  0.7642769044551802  0.0005666523580154  0.4728867516082515   T   T   T
 
  0.00000000E+00  0.00000000E+00  0.00000000E+00
  0.00000000E+00  0.00000000E+00  0.00000000E+00
  0.00000000E+00  0.00000000E+00  0.00000000E+00
  0.00000000E+00  0.00000000E+00  0.00000000E+00
  0.00000000E+00  0.00000000E+00  0.00000000E+00
  0.00000000E+00  0.00000000E+00  0.00000000E+00
  0.00000000E+00  0.00000000E+00  0.00000000E+00
  0.00000000E+00  0.00000000E+00  0.00000000E+00
  0.00000000E+00  0.00000000E+00  0.00000000E+00
  0.00000000E+00  0.00000000E+00  0.00000000E+00
  0.00000000E+00  0.00000000E+00  0.00000000E+00
  0.00000000E+00  0.00000000E+00  0.00000000E+00
  0.00000000E+00  0.00000000E+00  0.00000000E+00
  0.00000000E+00  0.00000000E+00  0.00000000E+00
  0.00000000E+00  0.00000000E+00  0.00000000E+00
  0.00000000E+00  0.00000000E+00  0.00000000E+00
  0.00000000E+00  0.00000000E+00  0.00000000E+00
  0.00000000E+00  0.00000000E+00  0.00000000E+00
  0.00000000E+00  0.00000000E+00  0.00000000E+00
  0.00000000E+00  0.00000000E+00  0.00000000E+00
  0.00000000E+00  0.00000000E+00  0.00000000E+00
  0.00000000E+00  0.00000000E+00  0.00000000E+00
  0.00000000E+00  0.00000000E+00  0.00000000E+00
  0.00000000E+00  0.00000000E+00  0.00000000E+00
  0.00000000E+00  0.00000000E+00  0.00000000E+00
  0.00000000E+00  0.00000000E+00  0.00000000E+00
  0.00000000E+00  0.00000000E+00  0.00000000E+00
  0.00000000E+00  0.00000000E+00  0.00000000E+00
  0.00000000E+00  0.00000000E+00  0.00000000E+00
  0.00000000E+00  0.00000000E+00  0.00000000E+00
  0.00000000E+00  0.00000000E+00  0.00000000E+00
  0.00000000E+00  0.00000000E+00  0.00000000E+00
  0.00000000E+00  0.00000000E+00  0.00000000E+00
  0.00000000E+00  0.00000000E+00  0.00000000E+00
  0.00000000E+00  0.00000000E+00  0.00000000E+00
  0.00000000E+00  0.00000000E+00  0.00000000E+00
  0.00000000E+00  0.00000000E+00  0.00000000E+00
  0.00000000E+00  0.00000000E+00  0.00000000E+00
  0.00000000E+00  0.00000000E+00  0.00000000E+00
  0.00000000E+00  0.00000000E+00  0.00000000E+00
  0.00000000E+00  0.00000000E+00  0.00000000E+00
  0.00000000E+00  0.00000000E+00  0.00000000E+00
  0.00000000E+00  0.00000000E+00  0.00000000E+00
  0.00000000E+00  0.00000000E+00  0.00000000E+00
  0.00000000E+00  0.00000000E+00  0.00000000E+00
  0.00000000E+00  0.00000000E+00  0.00000000E+00
  0.00000000E+00  0.00000000E+00  0.00000000E+00
  0.00000000E+00  0.00000000E+00  0.00000000E+00
  0.00000000E+00  0.00000000E+00  0.00000000E+00
  0.00000000E+00  0.00000000E+00  0.00000000E+00
  0.00000000E+00  0.00000000E+00  0.00000000E+00
  0.00000000E+00  0.00000000E+00  0.00000000E+00
  0.00000000E+00  0.00000000E+00  0.00000000E+00
  0.00000000E+00  0.00000000E+00  0.00000000E+00
  0.00000000E+00  0.00000000E+00  0.00000000E+00
  0.00000000E+00  0.00000000E+00  0.00000000E+00
  0.00000000E+00  0.00000000E+00  0.00000000E+00
  0.00000000E+00  0.00000000E+00  0.00000000E+00
  0.00000000E+00  0.00000000E+00  0.00000000E+00
  0.00000000E+00  0.00000000E+00  0.00000000E+00
  0.00000000E+00  0.00000000E+00  0.00000000E+00
  0.00000000E+00  0.00000000E+00  0.00000000E+00
  0.00000000E+00  0.00000000E+00  0.00000000E+00
  0.00000000E+00  0.00000000E+00  0.00000000E+00
  0.00000000E+00  0.00000000E+00  0.00000000E+00
