Al Ca Co O                              
   1.00000000000000     
     9.6048500000000008    0.0000000000000000    0.0000000000000000
     0.0000000000000000    9.6048500000000008    0.0000000000000000
     0.0000000000000000    0.0000000000000000   24.6048000000000009
   Al   Ca   Co   O 
     1    31     1    32
Selective dynamics
Direct
  0.9625950709577031  0.5052375478704494  0.3717795389366959   T   T   T
  0.2493574568672347  0.0004775388124327  0.0992803499991389   T   T   T
  0.7491477914667303  0.0005148148522695  0.0987507661300175   T   T   T
  0.9995583205594355  0.2500657841647467  0.0991365054328268   T   T   T
  0.4989045657195159  0.2498594603858184  0.0988141553891328   T   T   T
  0.2490792403244392  0.5002647114537165  0.0986385598757622   T   T   T
  0.7488641149905098  0.5002945754273282  0.0979750915980721   T   T   T
  0.9995500520257096  0.7508042764711635  0.0988677895532256   T   T   T
  0.4988684704535069  0.7508764327402161  0.0985508178821180   T   T   T
 -0.0001095335863084  0.0007845024687105  0.1961476927092768   T   T   T
  0.4982668837531017  0.0004834287923599  0.1962410876040988   T   T   T
  0.2497136383211281  0.2497107941939898  0.1964956608260406   T   T   T
  0.7485454326730542  0.2490348714809898  0.1954016337538769   T   T   T
  0.9992795939142172  0.5001109313567300  0.1949165437185404   T   T   T
  0.4971461453508322  0.5001404290127566  0.1947882135537369   T   T   T
  0.2501167293052129  0.7508732445463994  0.1960998677689649   T   T   T
  0.7480879777630891  0.7517363085041703  0.1949912337297369   T   T   T
  0.2493102918723084  0.0002143546239030  0.2963761390355353   T   T   T
  0.7485439573422218  0.0002871835975695  0.2934768363762326   T   T   T
  0.9990734269170846  0.2492659257343750  0.2939729307655948   T   T   T
  0.4994370264766496  0.2478001608364375  0.2947341750616534   T   T   T
  0.2522059244109636  0.4998987406414727  0.2940868347767519   T   T   T
  0.7411299531454922  0.5004126889572094  0.2883347329047581   T   T   T
  0.9990219016255620  0.7510608909107562  0.2916859366878224   T   T   T
  0.4994267560404971  0.7525808571902369  0.2940974939247348   T   T   T
  0.0054322580289849  0.9761488685822270  0.3966919110228720   T   T   T
  0.4951359641067190  0.0022569611176286  0.3952440068985468   T   T   T
  0.2451020244170048  0.2672512475739226  0.3928828225332723   T   T   T
  0.7548262774161117  0.2557151144320294  0.3935623005602514   T   T   T
  0.5064804522830979  0.4981381213546061  0.3894659238461540   T   T   T
  0.2536572940176084  0.7323661118010848  0.3920188929261407   T   T   T
  0.7473256076194457  0.7449119065130938  0.3931094881650816   T   T   T
  0.7775302247263725  0.0014204728208508  0.4634735558167724   T   T   T
  0.9995994140129238  0.0005946647475461  0.1006557325884416   T   T   T
  0.4989361504194529  0.0004835812030107  0.0999748815064581   T   T   T
  0.2488329002099958  0.2502977963774239  0.1001540723014239   T   T   T
  0.7496941829988838  0.2501350917972418  0.0994652034458551   T   T   T
  0.9993979279184884  0.5002826484288212  0.1000618269214844   T   T   T
  0.4986776306085814  0.5002745964178595  0.0991887972837162   T   T   T
  0.2489508849655147  0.7504834880884671  0.0998551276614125   T   T   T
  0.7495568828745576  0.7506385706934773  0.0991632965776910   T   T   T
  0.2483461668351116  0.0003506494794351  0.1957635512426321   T   T   T
  0.7498834617448460  0.0004566276802751  0.1949389735598773   T   T   T
  0.9993126666269705  0.2511863228505235  0.1962029436944584   T   T   T
  0.4990674366556539  0.2502110569987299  0.1950291729100462   T   T   T
  0.2476945402787212  0.5002371397091986  0.1952745496338194   T   T   T
  0.7494550397228146  0.5003136341871675  0.1935140018433534   T   T   T
  0.9993092447416039  0.7497996289396031  0.1953810953490857   T   T   T
  0.4989884923944504  0.7504165685973286  0.1947265965160684   T   T   T
 -0.0004689103785489  0.9990296640048550  0.2977541762932165   T   T   T
  0.4981759233850417  0.0003825910368302  0.2947523525023420   T   T   T
  0.2471655775637407  0.2507043377802612  0.2950108083672939   T   T   T
  0.7510432309481603  0.2500101637035667  0.2938216117369051   T   T   T
  0.9916670217356339  0.5029337614855398  0.2963104555862593   T   T   T
  0.5011563659401874  0.4999117757698864  0.2922539073531865   T   T   T
  0.2482099575714556  0.7492201931972456  0.2943673306401223   T   T   T
  0.7497054763977081  0.7507337976692784  0.2930694792083139   T   T   T
  0.2430933280281785  0.9972942005508089  0.3913767290825653   T   T   T
  0.7533831899293484  0.9981799638558438  0.3862929632359842   T   T   T
  0.0022762407323481  0.3235784002944480  0.3857603592559036   T   T   T
  0.5050599442783217  0.2527060080220436  0.3888955249966798   T   T   T
  0.2768892838210487  0.5000221642315624  0.3862656484304867   T   T   T
  0.7710883994879413  0.5027719668158130  0.3829371602535500   T   T   T
  0.0011354063499719  0.6905799036956611  0.3853554525767700   T   T   T
  0.5036310204916078  0.7470257354816600  0.3886320923171738   T   T   T
 
  0.00000000E+00  0.00000000E+00  0.00000000E+00
  0.00000000E+00  0.00000000E+00  0.00000000E+00
  0.00000000E+00  0.00000000E+00  0.00000000E+00
  0.00000000E+00  0.00000000E+00  0.00000000E+00
  0.00000000E+00  0.00000000E+00  0.00000000E+00
  0.00000000E+00  0.00000000E+00  0.00000000E+00
  0.00000000E+00  0.00000000E+00  0.00000000E+00
  0.00000000E+00  0.00000000E+00  0.00000000E+00
  0.00000000E+00  0.00000000E+00  0.00000000E+00
  0.00000000E+00  0.00000000E+00  0.00000000E+00
  0.00000000E+00  0.00000000E+00  0.00000000E+00
  0.00000000E+00  0.00000000E+00  0.00000000E+00
  0.00000000E+00  0.00000000E+00  0.00000000E+00
  0.00000000E+00  0.00000000E+00  0.00000000E+00
  0.00000000E+00  0.00000000E+00  0.00000000E+00
  0.00000000E+00  0.00000000E+00  0.00000000E+00
  0.00000000E+00  0.00000000E+00  0.00000000E+00
  0.00000000E+00  0.00000000E+00  0.00000000E+00
  0.00000000E+00  0.00000000E+00  0.00000000E+00
  0.00000000E+00  0.00000000E+00  0.00000000E+00
  0.00000000E+00  0.00000000E+00  0.00000000E+00
  0.00000000E+00  0.00000000E+00  0.00000000E+00
  0.00000000E+00  0.00000000E+00  0.00000000E+00
  0.00000000E+00  0.00000000E+00  0.00000000E+00
  0.00000000E+00  0.00000000E+00  0.00000000E+00
  0.00000000E+00  0.00000000E+00  0.00000000E+00
  0.00000000E+00  0.00000000E+00  0.00000000E+00
  0.00000000E+00  0.00000000E+00  0.00000000E+00
  0.00000000E+00  0.00000000E+00  0.00000000E+00
  0.00000000E+00  0.00000000E+00  0.00000000E+00
  0.00000000E+00  0.00000000E+00  0.00000000E+00
  0.00000000E+00  0.00000000E+00  0.00000000E+00
  0.00000000E+00  0.00000000E+00  0.00000000E+00
  0.00000000E+00  0.00000000E+00  0.00000000E+00
  0.00000000E+00  0.00000000E+00  0.00000000E+00
  0.00000000E+00  0.00000000E+00  0.00000000E+00
  0.00000000E+00  0.00000000E+00  0.00000000E+00
  0.00000000E+00  0.00000000E+00  0.00000000E+00
  0.00000000E+00  0.00000000E+00  0.00000000E+00
  0.00000000E+00  0.00000000E+00  0.00000000E+00
  0.00000000E+00  0.00000000E+00  0.00000000E+00
  0.00000000E+00  0.00000000E+00  0.00000000E+00
  0.00000000E+00  0.00000000E+00  0.00000000E+00
  0.00000000E+00  0.00000000E+00  0.00000000E+00
  0.00000000E+00  0.00000000E+00  0.00000000E+00
  0.00000000E+00  0.00000000E+00  0.00000000E+00
  0.00000000E+00  0.00000000E+00  0.00000000E+00
  0.00000000E+00  0.00000000E+00  0.00000000E+00
  0.00000000E+00  0.00000000E+00  0.00000000E+00
  0.00000000E+00  0.00000000E+00  0.00000000E+00
  0.00000000E+00  0.00000000E+00  0.00000000E+00
  0.00000000E+00  0.00000000E+00  0.00000000E+00
  0.00000000E+00  0.00000000E+00  0.00000000E+00
  0.00000000E+00  0.00000000E+00  0.00000000E+00
  0.00000000E+00  0.00000000E+00  0.00000000E+00
  0.00000000E+00  0.00000000E+00  0.00000000E+00
  0.00000000E+00  0.00000000E+00  0.00000000E+00
  0.00000000E+00  0.00000000E+00  0.00000000E+00
  0.00000000E+00  0.00000000E+00  0.00000000E+00
  0.00000000E+00  0.00000000E+00  0.00000000E+00
  0.00000000E+00  0.00000000E+00  0.00000000E+00
  0.00000000E+00  0.00000000E+00  0.00000000E+00
  0.00000000E+00  0.00000000E+00  0.00000000E+00
  0.00000000E+00  0.00000000E+00  0.00000000E+00
  0.00000000E+00  0.00000000E+00  0.00000000E+00
