Al Ca O Pt                              
   1.00000000000000     
     9.6048500000000008    0.0000000000000000    0.0000000000000000
     0.0000000000000000    9.6048500000000008    0.0000000000000000
     0.0000000000000000    0.0000000000000000   24.6048000000000009
   Al   Ca   O    Pt
     1    31    32     1
Selective dynamics
Direct
  0.0000185212219535  0.5025009467357293  0.3739256199279978   T   T   T
  0.2500489402255319  0.0002344221849150  0.0988090613115616   T   T   T
  0.7494617007941232  0.0002479031653199  0.0982623930592906   T   T   T
  0.0000453430142135  0.2500347178200594  0.0987768989569737   T   T   T
  0.4995912529319570  0.2500358615008041  0.0991042474351823   T   T   T
  0.2501904286371607  0.5000871099796679  0.0992124774677866   T   T   T
  0.7494972253573410  0.5000860743080309  0.0984943562111611   T   T   T
  0.0000689401128100  0.7503258141266236  0.0986070525134602   T   T   T
  0.4995928808101970  0.7502422829587727  0.0989494015961635   T   T   T
  0.0002760229970374  0.0003983307416325  0.1953822481754268   T   T   T
  0.4990085717435984  0.0002886357217885  0.1960716063646151   T   T   T
  0.2505286226115614  0.2491470736626586  0.1961615604155285   T   T   T
  0.7489738843552821  0.2500850765615816  0.1954704572939977   T   T   T
  0.9995264682514874  0.5000854632759725  0.1949387711230611   T   T   T
  0.5001186002766476  0.5000659056307325  0.1959386030001017   T   T   T
  0.2507716821564256  0.7512799592800739  0.1959316335499604   T   T   T
  0.7487720612389882  0.7503681077214716  0.1952113401975920   T   T   T
  0.2503548092356847  0.0002845592129052  0.2953791653222523   T   T   T
  0.7486872599330000  0.0003037034519575  0.2918289257740576   T   T   T
  0.9980752089758527  0.2484718958690003  0.2927976597486140   T   T   T
  0.5012265649952434  0.2478098315358498  0.2952931818519128   T   T   T
  0.2510790347727990  0.5002691921807790  0.2920989908504821   T   T   T
  0.7487374507893764  0.5003836867847260  0.2925718148721386   T   T   T
  0.9980421028742879  0.7516673450705916  0.2917302191706672   T   T   T
  0.5014226048187439  0.7526609554346064  0.2949207490477756   T   T   T
 -0.0017838797497662  0.9871819359908172  0.3941883345140570   T   T   T
  0.5027085854657732  0.0020745071937052  0.3958931806394110   T   T   T
  0.2408913180453955  0.2577453750826202  0.3912419922425411   T   T   T
  0.7607841051497023  0.2568845724535439  0.3953537413691838   T   T   T
  0.5010009965587825  0.4990768874303428  0.3900112511304571   T   T   T
  0.2459309736373907  0.7424286042877891  0.3907358924638478   T   T   T
  0.7547775247230200  0.7433021044098188  0.3950695240508996   T   T   T
  0.0001795166046143  0.0002876833975076  0.0996000310183923   T   T   T
  0.4993723281303197  0.0002143652436907  0.0997584861449077   T   T   T
  0.2497960476812029  0.2502998070952794  0.0997235015416932   T   T   T
  0.7498421845859963  0.2504202986314494  0.0989907486333931   T   T   T
  0.0000380555848477  0.5000499848706990  0.0999761151568740   T   T   T
  0.4996437164822669  0.5000933446951449  0.1002852461112492   T   T   T
  0.2498857060792312  0.7500306341077423  0.0995288194537950   T   T   T
  0.7497802314622423  0.7498659150970225  0.0988163739106095   T   T   T
  0.2492346119222440  0.0002634313608512  0.1951387009324645   T   T   T
  0.7500452730918569  0.0002582094981835  0.1938478208851301   T   T   T
 -0.0001088349579475  0.2509475742120756  0.1951913229421250   T   T   T
  0.4995989099681131  0.2504985423907291  0.1953291739595866   T   T   T
  0.2491525554961846  0.5001634751956291  0.1953188729118675   T   T   T
  0.7504695642196901  0.5001673660197439  0.1946505961847922   T   T   T
 -0.0000561614197410  0.7495761045577596  0.1947294083379024   T   T   T
  0.4996126485612587  0.7498415761615164  0.1951407942919908   T   T   T
  0.0003242990324230  0.9995405096352606  0.2957785936218117   T   T   T
  0.4985341938948017  0.0004335336879493  0.2950792805607980   T   T   T
  0.2487550287375470  0.2503660995837990  0.2941869971683431   T   T   T
  0.7504275869822867  0.2513197315813588  0.2928768226535297   T   T   T
 -0.0001750832541387  0.5017309473815473  0.2964736681813824   T   T   T
  0.4997457076901729  0.4999703266787640  0.2960240006963293   T   T   T
  0.2496999364269733  0.7501970749321988  0.2938009402948046   T   T   T
  0.7497963638323600  0.7493299294430781  0.2924334796195662   T   T   T
  0.2404361439473015 -0.0008704137254782  0.3906466558104825   T   T   T
  0.7530461790617483 -0.0005015000557845  0.3810456690537579   T   T   T
  0.0005530850078745  0.3044767927140942  0.3846151944016165   T   T   T
  0.4961952072930533  0.2591754578730464  0.3898951647052287   T   T   T
  0.2144060824591663  0.5017571396332237  0.3850211307636076   T   T   T
  0.7853111018183300  0.5017541140656285  0.3855362732512786   T   T   T
  0.0005520354855258  0.7044962534601393  0.3845722125973073   T   T   T
  0.4974498182308729  0.7401135705057706  0.3896654773390037   T   T   T
  0.7695559234957009 -0.0000807686814854  0.4702538141532494   T   T   T
 
  0.00000000E+00  0.00000000E+00  0.00000000E+00
  0.00000000E+00  0.00000000E+00  0.00000000E+00
  0.00000000E+00  0.00000000E+00  0.00000000E+00
  0.00000000E+00  0.00000000E+00  0.00000000E+00
  0.00000000E+00  0.00000000E+00  0.00000000E+00
  0.00000000E+00  0.00000000E+00  0.00000000E+00
  0.00000000E+00  0.00000000E+00  0.00000000E+00
  0.00000000E+00  0.00000000E+00  0.00000000E+00
  0.00000000E+00  0.00000000E+00  0.00000000E+00
  0.00000000E+00  0.00000000E+00  0.00000000E+00
  0.00000000E+00  0.00000000E+00  0.00000000E+00
  0.00000000E+00  0.00000000E+00  0.00000000E+00
  0.00000000E+00  0.00000000E+00  0.00000000E+00
  0.00000000E+00  0.00000000E+00  0.00000000E+00
  0.00000000E+00  0.00000000E+00  0.00000000E+00
  0.00000000E+00  0.00000000E+00  0.00000000E+00
  0.00000000E+00  0.00000000E+00  0.00000000E+00
  0.00000000E+00  0.00000000E+00  0.00000000E+00
  0.00000000E+00  0.00000000E+00  0.00000000E+00
  0.00000000E+00  0.00000000E+00  0.00000000E+00
  0.00000000E+00  0.00000000E+00  0.00000000E+00
  0.00000000E+00  0.00000000E+00  0.00000000E+00
  0.00000000E+00  0.00000000E+00  0.00000000E+00
  0.00000000E+00  0.00000000E+00  0.00000000E+00
  0.00000000E+00  0.00000000E+00  0.00000000E+00
  0.00000000E+00  0.00000000E+00  0.00000000E+00
  0.00000000E+00  0.00000000E+00  0.00000000E+00
  0.00000000E+00  0.00000000E+00  0.00000000E+00
  0.00000000E+00  0.00000000E+00  0.00000000E+00
  0.00000000E+00  0.00000000E+00  0.00000000E+00
  0.00000000E+00  0.00000000E+00  0.00000000E+00
  0.00000000E+00  0.00000000E+00  0.00000000E+00
  0.00000000E+00  0.00000000E+00  0.00000000E+00
  0.00000000E+00  0.00000000E+00  0.00000000E+00
  0.00000000E+00  0.00000000E+00  0.00000000E+00
  0.00000000E+00  0.00000000E+00  0.00000000E+00
  0.00000000E+00  0.00000000E+00  0.00000000E+00
  0.00000000E+00  0.00000000E+00  0.00000000E+00
  0.00000000E+00  0.00000000E+00  0.00000000E+00
  0.00000000E+00  0.00000000E+00  0.00000000E+00
  0.00000000E+00  0.00000000E+00  0.00000000E+00
  0.00000000E+00  0.00000000E+00  0.00000000E+00
  0.00000000E+00  0.00000000E+00  0.00000000E+00
  0.00000000E+00  0.00000000E+00  0.00000000E+00
  0.00000000E+00  0.00000000E+00  0.00000000E+00
  0.00000000E+00  0.00000000E+00  0.00000000E+00
  0.00000000E+00  0.00000000E+00  0.00000000E+00
  0.00000000E+00  0.00000000E+00  0.00000000E+00
  0.00000000E+00  0.00000000E+00  0.00000000E+00
  0.00000000E+00  0.00000000E+00  0.00000000E+00
  0.00000000E+00  0.00000000E+00  0.00000000E+00
  0.00000000E+00  0.00000000E+00  0.00000000E+00
  0.00000000E+00  0.00000000E+00  0.00000000E+00
  0.00000000E+00  0.00000000E+00  0.00000000E+00
  0.00000000E+00  0.00000000E+00  0.00000000E+00
  0.00000000E+00  0.00000000E+00  0.00000000E+00
  0.00000000E+00  0.00000000E+00  0.00000000E+00
  0.00000000E+00  0.00000000E+00  0.00000000E+00
  0.00000000E+00  0.00000000E+00  0.00000000E+00
  0.00000000E+00  0.00000000E+00  0.00000000E+00
  0.00000000E+00  0.00000000E+00  0.00000000E+00
  0.00000000E+00  0.00000000E+00  0.00000000E+00
  0.00000000E+00  0.00000000E+00  0.00000000E+00
  0.00000000E+00  0.00000000E+00  0.00000000E+00
  0.00000000E+00  0.00000000E+00  0.00000000E+00
