Al Au Ca O                              
   1.00000000000000     
     9.6048500000000008    0.0000000000000000    0.0000000000000000
     0.0000000000000000    9.6048500000000008    0.0000000000000000
     0.0000000000000000    0.0000000000000000   24.6048000000000009
   Al   Au   Ca   O 
     1     1    31    32
Selective dynamics
Direct
  0.0386789154078899  0.5026197599216814  0.3715222488147595   T   T   T
  0.8879450178553100  0.0037491780921683  0.5012750393586132   T   T   T
  0.2482828415708713  0.0003864560699133  0.0980787875326606   T   T   T
  0.7479672869820265  0.0003786670969293  0.0982785385229814   T   T   T
 -0.0019612619809619  0.2501927176642872  0.0986330208927944   T   T   T
  0.4985140218343935  0.2498675598810309  0.0984202116251903   T   T   T
  0.2487691197847533  0.5003184719689364  0.0980515410892978   T   T   T
  0.7485960708883368  0.5003517855286780  0.0983221657300241   T   T   T
 -0.0019330376990380  0.7505668265676558  0.0984391094046654   T   T   T
  0.4986249821937863  0.7507381630587776  0.0982413789925090   T   T   T
 -0.0022015179154830  0.0004827318321827  0.1952439576987003   T   T   T
  0.4984695856968477  0.0003360184208355  0.1954523881426586   T   T   T
  0.2492326142282103  0.2484235752655510  0.1950909373448885   T   T   T
  0.7478205639050859  0.2503094858181856  0.1957776142136311   T   T   T
  0.9981565627271123  0.5001638730239137  0.1947451097733800   T   T   T
  0.5013012463527354  0.5001363643533807  0.1945400519037302   T   T   T
  0.2495254133787911  0.7521237613815839  0.1948930612063924   T   T   T
  0.7476517953183253  0.7501546922271368  0.1955878776484785   T   T   T
  0.2474442067022558  0.0002870075892195  0.2937258298980488   T   T   T
  0.7482142951918921  0.0002180613500267  0.2933398119309746   T   T   T
  0.9968299213805600  0.2495991864459063  0.2927158116369600   T   T   T
  0.5002736121816548  0.2480549093166709  0.2944506861188269   T   T   T
  0.2574344909162468  0.5001212441701545  0.2879831577598093   T   T   T
  0.7459394016348776  0.4999209977732405  0.2952827922477723   T   T   T
  0.9968985272713996  0.7507190381592225  0.2916885044073659   T   T   T
  0.5005107363948690  0.7522567147683535  0.2940640353276325   T   T   T
 -0.0111947510251735  0.9892466207289252  0.3949357203449099   T   T   T
  0.5054217590523374  0.0007235217974632  0.3918076136391888   T   T   T
  0.2441212982825526  0.2476636491017534  0.3906342303519982   T   T   T
  0.7535996445813004  0.2649679295556540  0.3958020075794984   T   T   T
  0.4891859290029462  0.4986223954791016  0.3895093989555422   T   T   T
  0.2481518136639636  0.7515765755621843  0.3901186677033655   T   T   T
  0.7481899357456949  0.7348282341872133  0.3951554554554952   T   T   T
 -0.0017100733961516  0.0005278545991563  0.0993152015594302   T   T   T
  0.4979938462858371  0.0003922890103205  0.0988868169017910   T   T   T
  0.2479375621484089  0.2500102100672287  0.0989810950912134   T   T   T
  0.7485248818388500  0.2506951110074151  0.0991416068104528   T   T   T
 -0.0018082552871401  0.5003908033111658  0.0996268105789689   T   T   T
  0.4989174252019073  0.5002212682787949  0.0987888757676082   T   T   T
  0.2480414277544872  0.7506938704147608  0.0988190909975669   T   T   T
  0.7486035174896537  0.7500112572976396  0.0989972098406075   T   T   T
  0.2474534866773024  0.0003300448100612  0.1942387514639432   T   T   T
  0.7485223440399777  0.0002591230387090  0.1938016648820121   T   T   T
 -0.0015664350180734  0.2512528282726154  0.1952841564295226   T   T   T
  0.4984015656946686  0.2499706348489940  0.1946063999283091   T   T   T
  0.2485546820964636  0.5001794433153935  0.1932273739415170   T   T   T
  0.7501043280037274  0.5002003950355405  0.1948060033397768   T   T   T
 -0.0015179162229596  0.7494720572256436  0.1949689676332350   T   T   T
  0.4985378229436819  0.7504919805176368  0.1944344343024418   T   T   T
 -0.0025391133464868 -0.0003278669583754  0.2952911151386831   T   T   T
  0.4970969775891814  0.0003162284084999  0.2936798241652023   T   T   T
  0.2473925397194447  0.2495329087106460  0.2934249867095469   T   T   T
  0.7502769870893227  0.2520290063133838  0.2939196691623517   T   T   T
  0.0071175619490416  0.5013639735529639  0.2960843635787140   T   T   T
  0.4968338426401706  0.4998586313819497  0.2921784853047145   T   T   T
  0.2483017546960971  0.7509994905159145  0.2930851672390602   T   T   T
  0.7498268110195131  0.7478747255010062  0.2935531042931178   T   T   T
  0.2334955827467383 -0.0005903574031145  0.3882441662948294   T   T   T
  0.7466765425220488 -0.0019723655515224  0.3838561491285910   T   T   T
 -0.0015399569499824  0.3195349258669143  0.3851471773229427   T   T   T
  0.4887048993503129  0.2501148130340242  0.3896766751823854   T   T   T
  0.2293089064386845  0.5015822078161503  0.3824917463019283   T   T   T
  0.7192232900379202  0.4998361929382862  0.3875344723821236   T   T   T
 -0.0007887906405366  0.6873649634823433  0.3849665930755422   T   T   T
  0.4906866839775008  0.7495231301949596  0.3894304466351545   T   T   T
 
  0.00000000E+00  0.00000000E+00  0.00000000E+00
  0.00000000E+00  0.00000000E+00  0.00000000E+00
  0.00000000E+00  0.00000000E+00  0.00000000E+00
  0.00000000E+00  0.00000000E+00  0.00000000E+00
  0.00000000E+00  0.00000000E+00  0.00000000E+00
  0.00000000E+00  0.00000000E+00  0.00000000E+00
  0.00000000E+00  0.00000000E+00  0.00000000E+00
  0.00000000E+00  0.00000000E+00  0.00000000E+00
  0.00000000E+00  0.00000000E+00  0.00000000E+00
  0.00000000E+00  0.00000000E+00  0.00000000E+00
  0.00000000E+00  0.00000000E+00  0.00000000E+00
  0.00000000E+00  0.00000000E+00  0.00000000E+00
  0.00000000E+00  0.00000000E+00  0.00000000E+00
  0.00000000E+00  0.00000000E+00  0.00000000E+00
  0.00000000E+00  0.00000000E+00  0.00000000E+00
  0.00000000E+00  0.00000000E+00  0.00000000E+00
  0.00000000E+00  0.00000000E+00  0.00000000E+00
  0.00000000E+00  0.00000000E+00  0.00000000E+00
  0.00000000E+00  0.00000000E+00  0.00000000E+00
  0.00000000E+00  0.00000000E+00  0.00000000E+00
  0.00000000E+00  0.00000000E+00  0.00000000E+00
  0.00000000E+00  0.00000000E+00  0.00000000E+00
  0.00000000E+00  0.00000000E+00  0.00000000E+00
  0.00000000E+00  0.00000000E+00  0.00000000E+00
  0.00000000E+00  0.00000000E+00  0.00000000E+00
  0.00000000E+00  0.00000000E+00  0.00000000E+00
  0.00000000E+00  0.00000000E+00  0.00000000E+00
  0.00000000E+00  0.00000000E+00  0.00000000E+00
  0.00000000E+00  0.00000000E+00  0.00000000E+00
  0.00000000E+00  0.00000000E+00  0.00000000E+00
  0.00000000E+00  0.00000000E+00  0.00000000E+00
  0.00000000E+00  0.00000000E+00  0.00000000E+00
  0.00000000E+00  0.00000000E+00  0.00000000E+00
  0.00000000E+00  0.00000000E+00  0.00000000E+00
  0.00000000E+00  0.00000000E+00  0.00000000E+00
  0.00000000E+00  0.00000000E+00  0.00000000E+00
  0.00000000E+00  0.00000000E+00  0.00000000E+00
  0.00000000E+00  0.00000000E+00  0.00000000E+00
  0.00000000E+00  0.00000000E+00  0.00000000E+00
  0.00000000E+00  0.00000000E+00  0.00000000E+00
  0.00000000E+00  0.00000000E+00  0.00000000E+00
  0.00000000E+00  0.00000000E+00  0.00000000E+00
  0.00000000E+00  0.00000000E+00  0.00000000E+00
  0.00000000E+00  0.00000000E+00  0.00000000E+00
  0.00000000E+00  0.00000000E+00  0.00000000E+00
  0.00000000E+00  0.00000000E+00  0.00000000E+00
  0.00000000E+00  0.00000000E+00  0.00000000E+00
  0.00000000E+00  0.00000000E+00  0.00000000E+00
  0.00000000E+00  0.00000000E+00  0.00000000E+00
  0.00000000E+00  0.00000000E+00  0.00000000E+00
  0.00000000E+00  0.00000000E+00  0.00000000E+00
  0.00000000E+00  0.00000000E+00  0.00000000E+00
  0.00000000E+00  0.00000000E+00  0.00000000E+00
  0.00000000E+00  0.00000000E+00  0.00000000E+00
  0.00000000E+00  0.00000000E+00  0.00000000E+00
  0.00000000E+00  0.00000000E+00  0.00000000E+00
  0.00000000E+00  0.00000000E+00  0.00000000E+00
  0.00000000E+00  0.00000000E+00  0.00000000E+00
  0.00000000E+00  0.00000000E+00  0.00000000E+00
  0.00000000E+00  0.00000000E+00  0.00000000E+00
  0.00000000E+00  0.00000000E+00  0.00000000E+00
  0.00000000E+00  0.00000000E+00  0.00000000E+00
  0.00000000E+00  0.00000000E+00  0.00000000E+00
  0.00000000E+00  0.00000000E+00  0.00000000E+00
  0.00000000E+00  0.00000000E+00  0.00000000E+00
